<?xml version="1.0"?>
<VTKFile type="UnstructuredGrid" version="0.1" byte_order="LittleEndian">
<UnstructuredGrid>
<Piece NumberOfPoints="30881" NumberOfCells="10862">
<Points>
<DataArray type="Float64" NumberOfComponents="3" format="ascii">
-0.49999999999999828 -0.48677703703187492 0 -0.5 -0.5 0 -0.48129281494584059 -0.49338851851593718 0 -0.5 -0.5 0 -0.48129281494584059 -0.49338851851593718 0 -0.46258562989168328 -0.5 0 -0.49999999999999828 -0.48677703703187492 0 -0.48129281494584059 -0.49338851851593718 0 -0.49999999999999828 -0.48677703703187492 0 -0.4824545428279598 -0.47451624516148783 0 -0.48129281494584059 -0.49338851851593718 0 -0.49999999999999828 -0.48677703703187492 0 -0.4824545428279598 -0.47451624516148783 0 -0.5 -0.46599539173150673 0 -0.4824545428279598 -0.47451624516148783 0 -0.46853075243710779 -0.48354990242643758 0 -0.46411508256092049 -0.46598235294430129 0 -0.4824545428279598 -0.47451624516148783 0 -0.48129281494584059 -0.49338851851593718 0 -0.46853075243710779 -0.48354990242643758 0 -0.48129281494584059 -0.49338851851593718 0 -0.46258562989168328 -0.5 0 -0.48129281494584059 -0.49338851851593718 0 -0.46258562989168328 -0.5 0 -0.46853075243710779 -0.48354990242643758 0 -0.46258562989168328 -0.5 0 -0.46853075243710779 -0.48354990242643758 0 -0.45147378687733691 -0.48362213557840178 0 -0.46853075243710779 -0.48354990242643758 0 -0.45147378687733691 -0.48362213557840178 0 -0.46411508256092049 -0.46598235294430129 0 -0.4457251648104853 -0.47020164095208389 0 -0.45147378687733691 -0.48362213557840178 0 -0.46411508256092049 -0.46598235294430129 0 -0.4457251648104853 -0.47020164095208389 0 -0.45147378687733691 -0.48362213557840178 0 -0.43513446131126993 -0.48199891714758791 0 -0.45147378687733691 -0.48362213557840178 0 -0.43275163025255442 -0.5 0 -0.43513446131126993 -0.48199891714758791 0 -0.46258562989168328 -0.5 0 -0.45147378687733691 -0.48362213557840178 0 -0.43275163025255442 -0.5 0 -0.4467190029717853 -0.45478934699519452 0 -0.4422915115958943 -0.43555510214664611 0 -0.43246707723660932 -0.44794326854796312 0 -0.4457251648104853 -0.47020164095208389 0 -0.4467190029717853 -0.45478934699519452 0 -0.46411508256092049 -0.46598235294430129 0 -0.4457251648104853 -0.47020164095208389 0 -0.4467190029717853 -0.45478934699519452 0 -0.43016578207734568 -0.46313500011938619 0 -0.4467190029717853 -0.45478934699519452 0 -0.46411508256092049 -0.46598235294430129 0 -0.47114575579794699 -0.4403844242888923 0 -0.4467190029717853 -0.45478934699519452 0 -0.47114575579794699 -0.4403844242888923 0 -0.4422915115958943 -0.43555510214664611 0 -0.47114575579794699 -0.4403844242888923 0 -0.4422915115958943 -0.43555510214664611 0 -0.46411508256092049 -0.46598235294430129 0 -0.47114575579794699 -0.4403844242888923 0 -0.48354307623736548 -0.45841843211146538 0 -0.4824545428279598 -0.47451624516148783 0 -0.46411508256092049 -0.46598235294430129 0 -0.48354307623736548 -0.45841843211146538 0 -0.4824545428279598 -0.47451624516148783 0 -0.48354307623736548 -0.45841843211146538 0 -0.5 -0.46599539173150673 0 -0.48354307623736548 -0.45841843211146538 0 -0.5 -0.46599539173150673 0 -0.49999999999999972 -0.44521374643113848 0 -0.47114575579794699 -0.4403844242888923 0 -0.49999999999999972 -0.44521374643113848 0 -0.47114575579794699 -0.4403844242888923 0 -0.49999999999999972 -0.44521374643113848 0 -0.48704432221743971 -0.42935617662229603 0 -0.47114575579794699 -0.4403844242888923 0 -0.48354307623736548 -0.45841843211146538 0 -0.49999999999999972 -0.44521374643113848 0 -0.49999999999999972 -0.44521374643113848 0 -0.48704432221743971 -0.42935617662229603 0 -0.5 -0.41591957503128979 0 -0.48704432221743971 -0.42935617662229603 0 -0.5 -0.41591957503128979 0 -0.47703153307181151 -0.41590696073786332 0 -0.5 -0.41591957503128979 0 -0.47703153307181151 -0.41590696073786332 0 -0.48817838912021821 -0.4022119694541284 0 -0.47114575579794699 -0.4403844242888923 0 -0.48704432221743971 -0.42935617662229603 0 -0.47703153307181151 -0.41590696073786332 0 -0.5 -0.38662540363144121 0 -0.47568202340906118 -0.39039593841591919 0 -0.4947615751445838 -0.37332156409002909 0 -0.47568202340906118 -0.39039593841591919 0 -0.4947615751445838 -0.37332156409002909 0 -0.5 -0.38662540363144121 0 -0.48817838912021821 -0.4022119694541284 0 -0.47568202340906118 -0.39039593841591919 0 -0.5 -0.41591957503128979 0 -0.5 -0.38662540363144121 0 -0.48817838912021821 -0.4022119694541284 0 -0.47703153307181151 -0.41590696073786332 0 -0.48817838912021821 -0.4022119694541284 0 -0.47568202340906118 -0.39039593841591919 0 -0.47703153307181151 -0.41590696073786332 0 -0.47568202340906118 -0.39039593841591919 0 -0.45660247167353862 -0.40747031274180939 0 -0.47568202340906118 -0.39039593841591919 0 -0.48030931097003587 -0.37191064435083931 0 -0.46669490250066459 -0.37481721741951951 0 -0.47568202340906118 -0.39039593841591919 0 -0.4947615751445838 -0.37332156409002909 0 -0.48030931097003587 -0.37191064435083931 0 -0.45332061783919553 -0.38729481725706361 0 -0.46669490250066459 -0.37481721741951951 0 -0.45095991715087752 -0.36968037302039969 0 -0.47568202340906118 -0.39039593841591919 0 -0.45332061783919553 -0.38729481725706361 0 -0.46669490250066459 -0.37481721741951951 0 -0.47568202340906118 -0.39039593841591919 0 -0.45660247167353862 -0.40747031274180939 0 -0.47568202340906118 -0.39039593841591919 0 -0.45332061783919553 -0.38729481725706361 0 -0.45660247167353862 -0.40747031274180939 0 -0.44332653075004852 -0.401690115615219 0 -0.44646247228389868 -0.41654464256061052 0 -0.42870657106664078 -0.39987574649354879 0 -0.45332061783919553 -0.38729481725706361 0 -0.44332653075004852 -0.401690115615219 0 -0.43479631603355468 -0.39077639303142497 0 -0.45332061783919553 -0.38729481725706361 0 -0.44332653075004852 -0.401690115615219 0 -0.45660247167353862 -0.40747031274180939 0 -0.45332061783919553 -0.38729481725706361 0 -0.43421362475025049 -0.37527491429266319 0 -0.43479631603355468 -0.39077639303142497 0 -0.45332061783919553 -0.38729481725706361 0 -0.43421362475025049 -0.37527491429266319 0 -0.45095991715087752 -0.36968037302039969 0 -0.47114575579794699 -0.4403844242888923 0 -0.45663439814062529 -0.42533932462455271 0 -0.4422915115958943 -0.43555510214664611 0 -0.47114575579794699 -0.4403844242888923 0 -0.47703153307181151 -0.41590696073786332 0 -0.45663439814062529 -0.42533932462455271 0 -0.45663439814062529 -0.42533932462455271 0 -0.45660247167353862 -0.40747031274180939 0 -0.44646247228389868 -0.41654464256061052 0 -0.47703153307181151 -0.41590696073786332 0 -0.45663439814062529 -0.42533932462455271 0 -0.45660247167353862 -0.40747031274180939 0 -0.44332653075004852 -0.401690115615219 0 -0.45660247167353862 -0.40747031274180939 0 -0.44646247228389868 -0.41654464256061052 0 -0.45660247167353862 -0.40747031274180939 0 -0.44646247228389868 -0.41654464256061052 0 -0.44646247228389868 -0.41654464256061052 0 -0.4375229199380159 -0.42454468706769971 0 -0.45663439814062529 -0.42533932462455271 0 -0.4375229199380159 -0.42454468706769971 0 -0.4422915115958943 -0.43555510214664611 0 -0.45663439814062529 -0.42533932462455271 0 -0.44646247228389868 -0.41654464256061052 0 -0.4375229199380159 -0.42454468706769971 0 -0.4375229199380159 -0.42454468706769971 0 -0.4422915115958943 -0.43555510214664611 0 -0.43077617074680319 -0.43406335077952207 0 -0.43077617074680319 -0.43406335077952207 0 -0.42550232634077589 -0.42345940056268039 0 -0.41950844772475421 -0.43888456563633732 0 -0.4375229199380159 -0.42454468706769971 0 -0.43077617074680319 -0.43406335077952207 0 -0.42550232634077589 -0.42345940056268039 0 -0.44646247228389868 -0.41654464256061052 0 -0.41657232816672918 -0.41306671883907142 0 -0.42870657106664078 -0.39987574649354879 0 -0.44646247228389868 -0.41654464256061052 0 -0.4375229199380159 -0.42454468706769971 0 -0.42550232634077589 -0.42345940056268039 0 -0.44646247228389868 -0.41654464256061052 0 -0.42550232634077589 -0.42345940056268039 0 -0.41657232816672918 -0.41306671883907142 0 -0.44646247228389868 -0.41654464256061052 0 -0.41657232816672918 -0.41306671883907142 0 -0.42550232634077589 -0.42345940056268039 0 -0.41657232816672918 -0.41306671883907142 0 -0.41333489101611293 -0.42699700567040988 0 -0.41657232816672918 -0.41306671883907142 0 -0.41333489101611293 -0.42699700567040988 0 -0.39893236021425188 -0.42931692235905211 0 -0.41333489101611293 -0.42699700567040988 0 -0.39893236021425188 -0.42931692235905211 0 -0.41950844772475421 -0.43888456563633732 0 -0.42550232634077589 -0.42345940056268039 0 -0.41333489101611293 -0.42699700567040988 0 -0.41950844772475421 -0.43888456563633732 0 -0.43421362475025049 -0.37527491429266319 0 -0.42478231784314502 -0.38643128255249681 0 -0.41656514696884139 -0.37636588688318029 0 -0.43421362475025049 -0.37527491429266319 0 -0.42478231784314502 -0.38643128255249681 0 -0.43479631603355468 -0.39077639303142497 0 -0.42478231784314502 -0.38643128255249681 0 -0.43479631603355468 -0.39077639303142497 0 -0.42870657106664078 -0.39987574649354879 0 -0.44332653075004852 -0.401690115615219 0 -0.43479631603355468 -0.39077639303142497 0 -0.42870657106664078 -0.39987574649354879 0 -0.41657232816672918 -0.41306671883907142 0 -0.40962993039643741 -0.3898634720616666 0 -0.3946356370269814 -0.39577424904278191 0 -0.42478231784314502 -0.38643128255249681 0 -0.42870657106664078 -0.39987574649354879 0 -0.40962993039643741 -0.3898634720616666 0 -0.41657232816672918 -0.41306671883907142 0 -0.42870657106664078 -0.39987574649354879 0 -0.40962993039643741 -0.3898634720616666 0 -0.42478231784314502 -0.38643128255249681 0 -0.40962993039643741 -0.3898634720616666 0 -0.41656514696884139 -0.37636588688318029 0 -0.40962993039643741 -0.3898634720616666 0 -0.41656514696884139 -0.37636588688318029 0 -0.40465459864295228 -0.37650109000307358 0 -0.39431275766669582 -0.38061373190328529 0 -0.40465459864295228 -0.37650109000307358 0 -0.3968495855878465 -0.36923685638487008 0 -0.40962993039643741 -0.3898634720616666 0 -0.39431275766669582 -0.38061373190328529 0 -0.40465459864295228 -0.37650109000307358 0 -0.40962993039643741 -0.3898634720616666 0 -0.39431275766669582 -0.38061373190328529 0 -0.3946356370269814 -0.39577424904278191 0 -0.3946356370269814 -0.39577424904278191 0 -0.38704143117499401 -0.40999023144455299 0 -0.37464038230528551 -0.396492613407532 0 -0.3946356370269814 -0.39577424904278191 0 -0.37522403377147279 -0.38060127254172499 0 -0.37464038230528551 -0.396492613407532 0 -0.39431275766669582 -0.38061373190328529 0 -0.3946356370269814 -0.39577424904278191 0 -0.37522403377147279 -0.38060127254172499 0 -0.39431275766669582 -0.38061373190328529 0 -0.37522403377147279 -0.38060127254172499 0 -0.38569326772338258 -0.37053454129240582 0 -0.41657232816672918 -0.41306671883907142 0 -0.39893236021425188 -0.42931692235905211 0 -0.38704143117499401 -0.40999023144455299 0 -0.41657232816672918 -0.41306671883907142 0 -0.3946356370269814 -0.39577424904278191 0 -0.38704143117499401 -0.40999023144455299 0 -0.41657232816672918 -0.41306671883907142 0 -0.38704143117499401 -0.40999023144455299 0 -0.38704143117499401 -0.40999023144455299 0 -0.38131756488089769 -0.42670085612339947 0 -0.36377437909963828 -0.41972983174959272 0 -0.38131756488089769 -0.42670085612339947 0 -0.38339996822118783 -0.44368928783448319 0 -0.36866352395763108 -0.4313760290561211 0 -0.39893236021425188 -0.42931692235905211 0 -0.38131756488089769 -0.42670085612339947 0 -0.38339996822118783 -0.44368928783448319 0 -0.39893236021425188 -0.42931692235905211 0 -0.38704143117499401 -0.40999023144455299 0 -0.38131756488089769 -0.42670085612339947 0 -0.38339996822118783 -0.44368928783448319 0 -0.40446438048225181 -0.45117017211807442 0 -0.3895931593355052 -0.46351353191466821 0 -0.39893236021425188 -0.42931692235905211 0 -0.38339996822118783 -0.44368928783448319 0 -0.40446438048225181 -0.45117017211807442 0 -0.40446438048225181 -0.45117017211807442 0 -0.3895931593355052 -0.46351353191466821 0 -0.40280611050484572 -0.47090640128894168 0 -0.38339996822118783 -0.44368928783448319 0 -0.3895931593355052 -0.46351353191466821 0 -0.37415472949075129 -0.45946062715310632 0 -0.3895931593355052 -0.46351353191466821 0 -0.38039451612360919 -0.47713749807852829 0 -0.37415472949075129 -0.45946062715310632 0 -0.38039451612360919 -0.47713749807852829 0 -0.39198476482648659 -0.49312537606366408 0 -0.39366244928105898 -0.47747566409097131 0 -0.3895931593355052 -0.46351353191466821 0 -0.38039451612360919 -0.47713749807852829 0 -0.39366244928105898 -0.47747566409097131 0 -0.39198476482648659 -0.49312537606366408 0 -0.37055643484088358 -0.49425936316784103 0 -0.39198476482648659 -0.49312537606366408 0 -0.40291763061342539 -0.5 0 -0.37308363097429631 -0.50000000000000244 0 -0.39198476482648659 -0.49312537606366408 0 -0.37055643484088358 -0.49425936316784103 0 -0.37308363097429631 -0.50000000000000244 0 -0.38039451612360919 -0.47713749807852829 0 -0.39198476482648659 -0.49312537606366408 0 -0.37055643484088358 -0.49425936316784103 0 -0.39198476482648659 -0.49312537606366408 0 -0.41341309481208982 -0.49199138895948757 0 -0.39198476482648659 -0.49312537606366408 0 -0.39366244928105898 -0.47747566409097131 0 -0.40353369561484831 -0.48269551310905429 0 -0.39198476482648659 -0.49312537606366408 0 -0.40291763061342539 -0.5 0 -0.41341309481208982 -0.49199138895948757 0 -0.39198476482648659 -0.49312537606366408 0 -0.40353369561484831 -0.48269551310905429 0 -0.41341309481208982 -0.49199138895948757 0 -0.3895931593355052 -0.46351353191466821 0 -0.39366244928105898 -0.47747566409097131 0 -0.40280611050484572 -0.47090640128894168 0 -0.39366244928105898 -0.47747566409097131 0 -0.40353369561484831 -0.48269551310905429 0 -0.40280611050484572 -0.47090640128894168 0 -0.40280611050484572 -0.47090640128894168 0 -0.41792735015940108 -0.47619959015896091 0 -0.41524515795200517 -0.46243146669528151 0 -0.40353369561484831 -0.48269551310905429 0 -0.41792735015940108 -0.47619959015896091 0 -0.41341309481208982 -0.49199138895948757 0 -0.40353369561484831 -0.48269551310905429 0 -0.40280611050484572 -0.47090640128894168 0 -0.41792735015940108 -0.47619959015896091 0 -0.41792735015940108 -0.47619959015896091 0 -0.41341309481208982 -0.49199138895948757 0 -0.42480663413382869 -0.48754747406650911 0 -0.40291763061342539 -0.5 0 -0.41341309481208982 -0.49199138895948757 0 -0.43275163025255442 -0.5 0 -0.41341309481208982 -0.49199138895948757 0 -0.42480663413382869 -0.48754747406650911 0 -0.43275163025255442 -0.5 0 -0.42480663413382869 -0.48754747406650911 0 -0.43275163025255442 -0.5 0 -0.43513446131126993 -0.48199891714758791 0 -0.4457251648104853 -0.47020164095208389 0 -0.43513446131126993 -0.48199891714758791 0 -0.43016578207734568 -0.46313500011938619 0 -0.41792735015940108 -0.47619959015896091 0 -0.43513446131126993 -0.48199891714758791 0 -0.43016578207734568 -0.46313500011938619 0 -0.41792735015940108 -0.47619959015896091 0 -0.42480663413382869 -0.48754747406650911 0 -0.43513446131126993 -0.48199891714758791 0 -0.4467190029717853 -0.45478934699519452 0 -0.43016578207734568 -0.46313500011938619 0 -0.43246707723660932 -0.44794326854796312 0 -0.43016578207734568 -0.46313500011938619 0 -0.42051073979218989 -0.45215097324273301 0 -0.41524515795200517 -0.46243146669528151 0 -0.43016578207734568 -0.46313500011938619 0 -0.43246707723660932 -0.44794326854796312 0 -0.42051073979218989 -0.45215097324273301 0 -0.4422915115958943 -0.43555510214664611 0 -0.43077617074680319 -0.43406335077952207 0 -0.43246707723660932 -0.44794326854796312 0 -0.43077617074680319 -0.43406335077952207 0 -0.43246707723660932 -0.44794326854796312 0 -0.41950844772475421 -0.43888456563633732 0 -0.43246707723660932 -0.44794326854796312 0 -0.42051073979218989 -0.45215097324273301 0 -0.41950844772475421 -0.43888456563633732 0 -0.39893236021425188 -0.42931692235905211 0 -0.40446438048225181 -0.45117017211807442 0 -0.41950844772475421 -0.43888456563633732 0 -0.40446438048225181 -0.45117017211807442 0 -0.42051073979218989 -0.45215097324273301 0 -0.41950844772475421 -0.43888456563633732 0 -0.40446438048225181 -0.45117017211807442 0 -0.42051073979218989 -0.45215097324273301 0 -0.41524515795200517 -0.46243146669528151 0 -0.40446438048225181 -0.45117017211807442 0 -0.40280611050484572 -0.47090640128894168 0 -0.41524515795200517 -0.46243146669528151 0 -0.41792735015940108 -0.47619959015896091 0 -0.43016578207734568 -0.46313500011938619 0 -0.41524515795200517 -0.46243146669528151 0 -0.45018232007011222 -0.256765034028549 0 -0.429874989515865 -0.26165756953837482 0 -0.43598079583492633 -0.24721882136819351 0 -0.45018232007011222 -0.256765034028549 0 -0.43765198640052377 -0.27443700488157741 0 -0.429874989515865 -0.26165756953837482 0 -0.45018232007011222 -0.256765034028549 0 -0.43598079583492633 -0.24721882136819351 0 -0.45139902778349827 -0.24711062934306771 0 -0.45018232007011222 -0.256765034028549 0 -0.43765198640052377 -0.27443700488157741 0 -0.46196722525855399 -0.27174391220054139 0 -0.43765198640052377 -0.27443700488157741 0 -0.46196722525855399 -0.27174391220054139 0 -0.4476129789611048 -0.29283803371489903 0 -0.46196722525855399 -0.27174391220054139 0 -0.48050148842732221 -0.25523221810557922 0 -0.46267023581878858 -0.24817136713935201 0 -0.45018232007011222 -0.256765034028549 0 -0.46196722525855399 -0.27174391220054139 0 -0.46267023581878858 -0.24817136713935201 0 -0.45018232007011222 -0.256765034028549 0 -0.46267023581878858 -0.24817136713935201 0 -0.45139902778349827 -0.24711062934306771 0 -0.48050148842732221 -0.25523221810557922 0 -0.5 -0.26944871803204617 0 -0.5 -0.2401545466321974 0 -0.48050148842732221 -0.25523221810557922 0 -0.5 -0.26944871803204617 0 -0.48245797385404121 -0.28063059353633901 0 -0.46196722525855399 -0.27174391220054139 0 -0.48050148842732221 -0.25523221810557922 0 -0.48245797385404121 -0.28063059353633901 0 -0.46196722525855399 -0.27174391220054139 0 -0.48245797385404121 -0.28063059353633901 0 -0.46937090116945868 -0.29821258941183898 0 -0.48245797385404121 -0.28063059353633901 0 -0.5 -0.29874288943189498 0 -0.46937090116945868 -0.29821258941183898 0 -0.5 -0.26944871803204617 0 -0.48245797385404121 -0.28063059353633901 0 -0.5 -0.29874288943189498 0 -0.5 -0.29874288943189498 0 -0.46937090116945868 -0.29821258941183898 0 -0.47623524987602139 -0.32201367690444971 0 -0.46937090116945868 -0.29821258941183898 0 -0.4476129789611048 -0.29283803371489903 0 -0.45018982867155483 -0.32180400573951162 0 -0.46196722525855399 -0.27174391220054139 0 -0.46937090116945868 -0.29821258941183898 0 -0.4476129789611048 -0.29283803371489903 0 -0.43765198640052377 -0.27443700488157741 0 -0.4476129789611048 -0.29283803371489903 0 -0.43236213870239748 -0.29002705800971151 0 -0.4476129789611048 -0.29283803371489903 0 -0.45018982867155483 -0.32180400573951162 0 -0.4314578060398388 -0.3048790663939604 0 -0.45018982867155483 -0.32180400573951162 0 -0.4314578060398388 -0.3048790663939604 0 -0.45018982867155483 -0.32180400573951162 0 -0.46157657978994598 -0.34139555482026068 0 -0.43521386225128428 -0.33802231259611382 0 -0.46157657978994598 -0.34139555482026068 0 -0.43521386225128428 -0.33802231259611382 0 -0.45018982867155483 -0.32180400573951162 0 -0.46157657978994598 -0.34139555482026068 0 -0.47623524987602139 -0.32201367690444971 0 -0.46937090116945868 -0.29821258941183898 0 -0.45018982867155483 -0.32180400573951162 0 -0.47623524987602139 -0.32201367690444971 0 -0.5 -0.29874288943189498 0 -0.47623524987602139 -0.32201367690444971 0 -0.5 -0.32803706083174372 0 -0.47623524987602139 -0.32201367690444971 0 -0.5 -0.32803706083174372 0 -0.48561656391384522 -0.34384835974822991 0 -0.5 -0.32803706083174372 0 -0.5 -0.35733123223159241 0 -0.48561656391384522 -0.34384835974822991 0 -0.46157657978994598 -0.34139555482026068 0 -0.47623524987602139 -0.32201367690444971 0 -0.48561656391384522 -0.34384835974822991 0 -0.46157657978994598 -0.34139555482026068 0 -0.47568148196104371 -0.35852722048879659 0 -0.48561656391384522 -0.34384835974822991 0 -0.47568148196104371 -0.35852722048879659 0 -0.48561656391384522 -0.34384835974822991 0 -0.48768886795130861 -0.36141736908419309 0 -0.5 -0.35733123223159241 0 -0.48561656391384522 -0.34384835974822991 0 -0.48768886795130861 -0.36141736908419309 0 -0.5 -0.35733123223159241 0 -0.4947615751445838 -0.37332156409002909 0 -0.48768886795130861 -0.36141736908419309 0 -0.5 -0.38662540363144121 0 -0.5 -0.35733123223159241 0 -0.4947615751445838 -0.37332156409002909 0 -0.4947615751445838 -0.37332156409002909 0 -0.48768886795130861 -0.36141736908419309 0 -0.48030931097003587 -0.37191064435083931 0 -0.47568148196104371 -0.35852722048879659 0 -0.48030931097003587 -0.37191064435083931 0 -0.46669490250066459 -0.37481721741951951 0 -0.47568148196104371 -0.35852722048879659 0 -0.48768886795130861 -0.36141736908419309 0 -0.48030931097003587 -0.37191064435083931 0 -0.46669490250066459 -0.37481721741951951 0 -0.45985290530711531 -0.35919053618658509 0 -0.45095991715087752 -0.36968037302039969 0 -0.47568148196104371 -0.35852722048879659 0 -0.46669490250066459 -0.37481721741951951 0 -0.45985290530711531 -0.35919053618658509 0 -0.46157657978994598 -0.34139555482026068 0 -0.47568148196104371 -0.35852722048879659 0 -0.45985290530711531 -0.35919053618658509 0 -0.46157657978994598 -0.34139555482026068 0 -0.45985290530711531 -0.35919053618658509 0 -0.44091292170358748 -0.35617636658334351 0 -0.46157657978994598 -0.34139555482026068 0 -0.44091292170358748 -0.35617636658334351 0 -0.43521386225128428 -0.33802231259611382 0 -0.43421362475025049 -0.37527491429266319 0 -0.44091292170358748 -0.35617636658334351 0 -0.45095991715087752 -0.36968037302039969 0 -0.45985290530711531 -0.35919053618658509 0 -0.44091292170358748 -0.35617636658334351 0 -0.45095991715087752 -0.36968037302039969 0 -0.43421362475025049 -0.37527491429266319 0 -0.41656514696884139 -0.37636588688318029 0 -0.42218579342164808 -0.36334977441807748 0 -0.43421362475025049 -0.37527491429266319 0 -0.44091292170358748 -0.35617636658334351 0 -0.42218579342164808 -0.36334977441807748 0 -0.44091292170358748 -0.35617636658334351 0 -0.42218579342164808 -0.36334977441807748 0 -0.42066840753926321 -0.34864312644900147 0 -0.44091292170358748 -0.35617636658334351 0 -0.42066840753926321 -0.34864312644900147 0 -0.43521386225128428 -0.33802231259611382 0 -0.42218579342164808 -0.36334977441807748 0 -0.42066840753926321 -0.34864312644900147 0 -0.40690054455725883 -0.35815659477868023 0 -0.40690054455725883 -0.35815659477868023 0 -0.40885114471262263 -0.334649070371968 0 -0.42066840753926321 -0.34864312644900147 0 -0.40690054455725883 -0.35815659477868023 0 -0.40885114471262263 -0.334649070371968 0 -0.42218579342164808 -0.36334977441807748 0 -0.40690054455725883 -0.35815659477868023 0 -0.40625971269279348 -0.36587953617857771 0 -0.40690054455725883 -0.35815659477868023 0 -0.40625971269279348 -0.36587953617857771 0 -0.41656514696884139 -0.37636588688318029 0 -0.42218579342164808 -0.36334977441807748 0 -0.40625971269279348 -0.36587953617857771 0 -0.42218579342164808 -0.36334977441807748 0 -0.40690054455725883 -0.35815659477868023 0 -0.41656514696884139 -0.37636588688318029 0 -0.40465459864295228 -0.37650109000307358 0 -0.40625971269279348 -0.36587953617857771 0 -0.40465459864295228 -0.37650109000307358 0 -0.40625971269279348 -0.36587953617857771 0 -0.3968495855878465 -0.36923685638487008 0 -0.40690054455725883 -0.35815659477868023 0 -0.40029228617445223 -0.36350286704594809 0 -0.3911593018599101 -0.36073848084166482 0 -0.40625971269279348 -0.36587953617857771 0 -0.40029228617445223 -0.36350286704594809 0 -0.3968495855878465 -0.36923685638487008 0 -0.40690054455725883 -0.35815659477868023 0 -0.40625971269279348 -0.36587953617857771 0 -0.40029228617445223 -0.36350286704594809 0 -0.3911593018599101 -0.36073848084166482 0 -0.3968495855878465 -0.36923685638487008 0 -0.38569326772338258 -0.37053454129240582 0 -0.40029228617445223 -0.36350286704594809 0 -0.3911593018599101 -0.36073848084166482 0 -0.3968495855878465 -0.36923685638487008 0 -0.39431275766669582 -0.38061373190328529 0 -0.3968495855878465 -0.36923685638487008 0 -0.38569326772338258 -0.37053454129240582 0 -0.3911593018599101 -0.36073848084166482 0 -0.38569326772338258 -0.37053454129240582 0 -0.37568472164775779 -0.36524225821647011 0 -0.37522403377147279 -0.38060127254172499 0 -0.38569326772338258 -0.37053454129240582 0 -0.37568472164775779 -0.36524225821647011 0 -0.3911593018599101 -0.36073848084166482 0 -0.37568472164775779 -0.36524225821647011 0 -0.38024887903539811 -0.3491016629308506 0 -0.40690054455725883 -0.35815659477868023 0 -0.3911593018599101 -0.36073848084166482 0 -0.38024887903539811 -0.3491016629308506 0 -0.40690054455725883 -0.35815659477868023 0 -0.38024887903539811 -0.3491016629308506 0 -0.39533213247953691 -0.34338662223350158 0 -0.40690054455725883 -0.35815659477868023 0 -0.39533213247953691 -0.34338662223350158 0 -0.40885114471262263 -0.334649070371968 0 -0.40690054455725883 -0.35815659477868023 0 -0.38024887903539811 -0.3491016629308506 0 -0.39533213247953691 -0.34338662223350158 0 -0.38532796161286798 -0.33163916085250739 0 -0.40885114471262263 -0.334649070371968 0 -0.38532796161286798 -0.33163916085250739 0 -0.40885114471262263 -0.334649070371968 0 -0.38024887903539811 -0.3491016629308506 0 -0.39533213247953691 -0.34338662223350158 0 -0.38532796161286798 -0.33163916085250739 0 -0.38024887903539811 -0.3491016629308506 0 -0.38532796161286798 -0.33163916085250739 0 -0.37024470816872912 -0.33735420154985679 0 -0.38532796161286798 -0.33163916085250739 0 -0.37601492727600683 -0.3197696392392384 0 -0.39293033406270472 -0.31505081143976649 0 -0.37601492727600683 -0.3197696392392384 0 -0.39293033406270472 -0.31505081143976649 0 -0.37651642550459341 -0.307078797330949 0 -0.38532796161286798 -0.33163916085250739 0 -0.39293033406270472 -0.31505081143976649 0 -0.40885114471262263 -0.334649070371968 0 -0.39293033406270472 -0.31505081143976649 0 -0.40885114471262263 -0.334649070371968 0 -0.41078846406037228 -0.3113015987101887 0 -0.40885114471262263 -0.334649070371968 0 -0.42554877913925399 -0.3223331804902434 0 -0.41078846406037228 -0.3113015987101887 0 -0.40885114471262263 -0.334649070371968 0 -0.41078846406037228 -0.3113015987101887 0 -0.42066840753926321 -0.34864312644900147 0 -0.40885114471262263 -0.334649070371968 0 -0.43521386225128428 -0.33802231259611382 0 -0.40885114471262263 -0.334649070371968 0 -0.43521386225128428 -0.33802231259611382 0 -0.40885114471262263 -0.334649070371968 0 -0.43521386225128428 -0.33802231259611382 0 -0.42554877913925399 -0.3223331804902434 0 -0.42554877913925399 -0.3223331804902434 0 -0.4314578060398388 -0.3048790663939604 0 -0.41078846406037228 -0.3113015987101887 0 -0.45018982867155483 -0.32180400573951162 0 -0.43521386225128428 -0.33802231259611382 0 -0.42554877913925399 -0.3223331804902434 0 -0.45018982867155483 -0.32180400573951162 0 -0.42554877913925399 -0.3223331804902434 0 -0.4314578060398388 -0.3048790663939604 0 -0.4476129789611048 -0.29283803371489903 0 -0.4314578060398388 -0.3048790663939604 0 -0.43236213870239748 -0.29002705800971151 0 -0.4314578060398388 -0.3048790663939604 0 -0.43236213870239748 -0.29002705800971151 0 -0.41272578340812272 -0.2879541270484095 0 -0.4314578060398388 -0.3048790663939604 0 -0.41272578340812272 -0.2879541270484095 0 -0.43765198640052377 -0.27443700488157741 0 -0.43236213870239748 -0.29002705800971151 0 -0.41272578340812272 -0.2879541270484095 0 -0.4314578060398388 -0.3048790663939604 0 -0.41272578340812272 -0.2879541270484095 0 -0.41078846406037228 -0.3113015987101887 0 -0.41272578340812272 -0.2879541270484095 0 -0.41078846406037228 -0.3113015987101887 0 -0.41272578340812272 -0.2879541270484095 0 -0.41078846406037228 -0.3113015987101887 0 -0.39233272698174793 -0.29435547039456872 0 -0.39293033406270472 -0.31505081143976649 0 -0.41078846406037228 -0.3113015987101887 0 -0.39233272698174793 -0.29435547039456872 0 -0.39293033406270472 -0.31505081143976649 0 -0.37651642550459341 -0.307078797330949 0 -0.39233272698174793 -0.29435547039456872 0 -0.39233272698174793 -0.29435547039456872 0 -0.39278725088820249 -0.26993907014966689 0 -0.37040839911066209 -0.28171057629616708 0 -0.37651642550459341 -0.307078797330949 0 -0.39233272698174793 -0.29435547039456872 0 -0.37040839911066209 -0.28171057629616708 0 -0.41272578340812272 -0.2879541270484095 0 -0.39233272698174793 -0.29435547039456872 0 -0.39278725088820249 -0.26993907014966689 0 -0.41272578340812272 -0.2879541270484095 0 -0.39278725088820249 -0.26993907014966689 0 -0.39278725088820249 -0.26993907014966689 0 -0.37040839911066209 -0.28171057629616708 0 -0.39278725088820249 -0.26993907014966689 0 -0.37533687834285862 -0.25417213976024849 0 -0.37040839911066209 -0.28171057629616708 0 -0.39278725088820249 -0.26993907014966689 0 -0.37533687834285862 -0.25417213976024849 0 -0.39826986996263802 -0.25360934065352753 0 -0.39278725088820249 -0.26993907014966689 0 -0.37533687834285862 -0.25417213976024849 0 -0.39278725088820249 -0.26993907014966689 0 -0.39826986996263802 -0.25360934065352753 0 -0.41519883225968468 -0.25815034790020708 0 -0.39278725088820249 -0.26993907014966689 0 -0.41519883225968468 -0.25815034790020708 0 -0.39826986996263802 -0.25360934065352753 0 -0.41519883225968468 -0.25815034790020708 0 -0.41615383063077721 -0.2466412503256647 0 -0.41519883225968468 -0.25815034790020708 0 -0.41615383063077721 -0.2466412503256647 0 -0.41272578340812272 -0.2879541270484095 0 -0.41519883225968468 -0.25815034790020708 0 -0.41272578340812272 -0.2879541270484095 0 -0.41519883225968468 -0.25815034790020708 0 -0.429874989515865 -0.26165756953837482 0 -0.41272578340812272 -0.2879541270484095 0 -0.39278725088820249 -0.26993907014966689 0 -0.41519883225968468 -0.25815034790020708 0 -0.43765198640052377 -0.27443700488157741 0 -0.41272578340812272 -0.2879541270484095 0 -0.429874989515865 -0.26165756953837482 0 -0.41519883225968468 -0.25815034790020708 0 -0.43598079583492633 -0.24721882136819351 0 -0.41519883225968468 -0.25815034790020708 0 -0.429874989515865 -0.26165756953837482 0 -0.43598079583492633 -0.24721882136819351 0 -0.41519883225968468 -0.25815034790020708 0 -0.43598079583492633 -0.24721882136819351 0 -0.41615383063077721 -0.2466412503256647 0 -0.31968345090478489 -0.25798973640781447 0 -0.33623326073948312 -0.25365348176558788 0 -0.32213598881581812 -0.2442700999577708 0 -0.31968345090478489 -0.25798973640781447 0 -0.31319680135340772 -0.27337899374224139 0 -0.30564385326437488 -0.26015983685037081 0 -0.31968345090478489 -0.25798973640781447 0 -0.31319680135340772 -0.27337899374224139 0 -0.33256675641106698 -0.27199424518209242 0 -0.31319680135340772 -0.27337899374224139 0 -0.33256675641106698 -0.27199424518209242 0 -0.3219330120753135 -0.28752383142540722 0 -0.33256675641106698 -0.27199424518209242 0 -0.33623326073948312 -0.25365348176558788 0 -0.35329637777243872 -0.26495799818728782 0 -0.31968345090478489 -0.25798973640781447 0 -0.33256675641106698 -0.27199424518209242 0 -0.33623326073948312 -0.25365348176558788 0 -0.33623326073948312 -0.25365348176558788 0 -0.35329637777243872 -0.26495799818728782 0 -0.35305879752332059 -0.24486073726717009 0 -0.37533687834285862 -0.25417213976024849 0 -0.35329637777243872 -0.26495799818728782 0 -0.35305879752332059 -0.24486073726717009 0 -0.37533687834285862 -0.25417213976024849 0 -0.35329637777243872 -0.26495799818728782 0 -0.37040839911066209 -0.28171057629616708 0 -0.35329637777243872 -0.26495799818728782 0 -0.34802954733312141 -0.29348208244266671 0 -0.37040839911066209 -0.28171057629616708 0 -0.33256675641106698 -0.27199424518209242 0 -0.35329637777243872 -0.26495799818728782 0 -0.34802954733312141 -0.29348208244266671 0 -0.34802954733312141 -0.29348208244266671 0 -0.37040839911066209 -0.28171057629616708 0 -0.37651642550459341 -0.307078797330949 0 -0.37040839911066209 -0.28171057629616708 0 -0.36249180620921062 -0.30132401124355712 0 -0.34802954733312141 -0.29348208244266671 0 -0.37040839911066209 -0.28171057629616708 0 -0.36249180620921062 -0.30132401124355712 0 -0.37651642550459341 -0.307078797330949 0 -0.36249180620921062 -0.30132401124355712 0 -0.36514172279026702 -0.314674684486903 0 -0.36249180620921062 -0.30132401124355712 0 -0.35217384865543538 -0.31302074178168637 0 -0.36514172279026702 -0.314674684486903 0 -0.34802954733312141 -0.29348208244266671 0 -0.33894022777705518 -0.31261958861733652 0 -0.35217384865543538 -0.31302074178168637 0 -0.34802954733312141 -0.29348208244266671 0 -0.36249180620921062 -0.30132401124355712 0 -0.35217384865543538 -0.31302074178168637 0 -0.34802954733312141 -0.29348208244266671 0 -0.32565069555558063 -0.30525358858916618 0 -0.33894022777705518 -0.31261958861733652 0 -0.34802954733312141 -0.29348208244266671 0 -0.32565069555558063 -0.30525358858916618 0 -0.32565069555558063 -0.30525358858916618 0 -0.32940773276489932 -0.31652548782855527 0 -0.33894022777705518 -0.31261958861733652 0 -0.33256675641106698 -0.27199424518209242 0 -0.34802954733312141 -0.29348208244266671 0 -0.3219330120753135 -0.28752383142540722 0 -0.34802954733312141 -0.29348208244266671 0 -0.3219330120753135 -0.28752383142540722 0 -0.32565069555558063 -0.30525358858916618 0 -0.3219330120753135 -0.28752383142540722 0 -0.31228269981280887 -0.29918463989613459 0 -0.30483638085835207 -0.28788342401786787 0 -0.31319680135340772 -0.27337899374224139 0 -0.3219330120753135 -0.28752383142540722 0 -0.30483638085835207 -0.28788342401786787 0 -0.32565069555558063 -0.30525358858916618 0 -0.30327184377803978 -0.31702509473566581 0 -0.31228269981280887 -0.29918463989613459 0 -0.3219330120753135 -0.28752383142540722 0 -0.32565069555558063 -0.30525358858916618 0 -0.31228269981280887 -0.29918463989613459 0 -0.32565069555558063 -0.30525358858916618 0 -0.30327184377803978 -0.31702509473566581 0 -0.31475841231360341 -0.32260943229412947 0 -0.32694554799167658 -0.33099179923519167 0 -0.33828159541335823 -0.32561934181358893 0 -0.32565069555558063 -0.30525358858916618 0 -0.31475841231360341 -0.32260943229412947 0 -0.30327184377803978 -0.31702509473566581 0 -0.31475841231360341 -0.32260943229412947 0 -0.33828159541335823 -0.32561934181358893 0 -0.32940773276489932 -0.31652548782855527 0 -0.32565069555558063 -0.30525358858916618 0 -0.31475841231360341 -0.32260943229412947 0 -0.32940773276489932 -0.31652548782855527 0 -0.31475841231360341 -0.32260943229412947 0 -0.33828159541335823 -0.32561934181358893 0 -0.31475841231360341 -0.32260943229412947 0 -0.31372637242327511 -0.33497634201883658 0 -0.32694554799167658 -0.33099179923519167 0 -0.32694554799167658 -0.33099179923519167 0 -0.32737612656656928 -0.35021722948502532 0 -0.3170311031704231 -0.34491623006635341 0 -0.31372637242327511 -0.33497634201883658 0 -0.32694554799167658 -0.33099179923519167 0 -0.3170311031704231 -0.34491623006635341 0 -0.31372637242327511 -0.33497634201883658 0 -0.3170311031704231 -0.34491623006635341 0 -0.30849554643820359 -0.34481279163420842 0 -0.32694554799167658 -0.33099179923519167 0 -0.33828159541335823 -0.32561934181358893 0 -0.35359721351353718 -0.34004673108302108 0 -0.32694554799167658 -0.33099179923519167 0 -0.35359721351353718 -0.34004673108302108 0 -0.33765025977867152 -0.34480892108230998 0 -0.32694554799167658 -0.33099179923519167 0 -0.35359721351353718 -0.34004673108302108 0 -0.32694554799167658 -0.33099179923519167 0 -0.33765025977867152 -0.34480892108230998 0 -0.32737612656656928 -0.35021722948502532 0 -0.33828159541335823 -0.32561934181358893 0 -0.32940773276489932 -0.31652548782855527 0 -0.33894022777705518 -0.31261958861733652 0 -0.33828159541335823 -0.32561934181358893 0 -0.33894022777705518 -0.31261958861733652 0 -0.35217384865543538 -0.31302074178168637 0 -0.33828159541335823 -0.32561934181358893 0 -0.3618047785131131 -0.32862925133304821 0 -0.33828159541335823 -0.32561934181358893 0 -0.35217384865543538 -0.31302074178168637 0 -0.3618047785131131 -0.32862925133304821 0 -0.38532796161286798 -0.33163916085250739 0 -0.37601492727600683 -0.3197696392392384 0 -0.3618047785131131 -0.32862925133304821 0 -0.35217384865543538 -0.31302074178168637 0 -0.36514172279026702 -0.314674684486903 0 -0.3618047785131131 -0.32862925133304821 0 -0.37601492727600683 -0.3197696392392384 0 -0.36514172279026702 -0.314674684486903 0 -0.3618047785131131 -0.32862925133304821 0 -0.37601492727600683 -0.3197696392392384 0 -0.37651642550459341 -0.307078797330949 0 -0.36514172279026702 -0.314674684486903 0 -0.38532796161286798 -0.33163916085250739 0 -0.37024470816872912 -0.33735420154985679 0 -0.3618047785131131 -0.32862925133304821 0 -0.37024470816872912 -0.33735420154985679 0 -0.3618047785131131 -0.32862925133304821 0 -0.35359721351353718 -0.34004673108302108 0 -0.38532796161286798 -0.33163916085250739 0 -0.3618047785131131 -0.32862925133304821 0 -0.38024887903539811 -0.3491016629308506 0 -0.37024470816872912 -0.33735420154985679 0 -0.35359721351353718 -0.34004673108302108 0 -0.33828159541335823 -0.32561934181358893 0 -0.3618047785131131 -0.32862925133304821 0 -0.35359721351353718 -0.34004673108302108 0 -0.35359721351353718 -0.34004673108302108 0 -0.36247207576052709 -0.35740109745143939 0 -0.34268215104290278 -0.35797992452600158 0 -0.35359721351353718 -0.34004673108302108 0 -0.34268215104290278 -0.35797992452600158 0 -0.33765025977867152 -0.34480892108230998 0 -0.37568472164775779 -0.36524225821647011 0 -0.38024887903539811 -0.3491016629308506 0 -0.36247207576052709 -0.35740109745143939 0 -0.38024887903539811 -0.3491016629308506 0 -0.35359721351353718 -0.34004673108302108 0 -0.36247207576052709 -0.35740109745143939 0 -0.38024887903539811 -0.3491016629308506 0 -0.35359721351353718 -0.34004673108302108 0 -0.37522403377147279 -0.38060127254172499 0 -0.37568472164775779 -0.36524225821647011 0 -0.35964608014779109 -0.37334112637938882 0 -0.37568472164775779 -0.36524225821647011 0 -0.36247207576052709 -0.35740109745143939 0 -0.35964608014779109 -0.37334112637938882 0 -0.36247207576052709 -0.35740109745143939 0 -0.35964608014779109 -0.37334112637938882 0 -0.34268215104290278 -0.35797992452600158 0 -0.35964608014779109 -0.37334112637938882 0 -0.34268215104290278 -0.35797992452600158 0 -0.34254000635277743 -0.38197763020755832 0 -0.34268215104290278 -0.35797992452600158 0 -0.32737612656656928 -0.35021722948502532 0 -0.32270418411731933 -0.37181077970513959 0 -0.34268215104290278 -0.35797992452600158 0 -0.32270418411731933 -0.37181077970513959 0 -0.34254000635277743 -0.38197763020755832 0 -0.34268215104290278 -0.35797992452600158 0 -0.34254000635277743 -0.38197763020755832 0 -0.34268215104290278 -0.35797992452600158 0 -0.33765025977867152 -0.34480892108230998 0 -0.32737612656656928 -0.35021722948502532 0 -0.32737612656656928 -0.35021722948502532 0 -0.31662274924076123 -0.35606216629487569 0 -0.32270418411731933 -0.37181077970513959 0 -0.32737612656656928 -0.35021722948502532 0 -0.3170311031704231 -0.34491623006635341 0 -0.31662274924076123 -0.35606216629487569 0 -0.3170311031704231 -0.34491623006635341 0 -0.31662274924076123 -0.35606216629487569 0 -0.30902027636205309 -0.35243705172998302 0 -0.31662274924076123 -0.35606216629487569 0 -0.32270418411731933 -0.37181077970513959 0 -0.30796050174877349 -0.36016317053514468 0 -0.32270418411731933 -0.37181077970513959 0 -0.29719619905707523 -0.36594012765828582 0 -0.30796050174877349 -0.36016317053514468 0 -0.32270418411731933 -0.37181077970513959 0 -0.29719619905707523 -0.36594012765828582 0 -0.3103864423796594 -0.37828470113645102 0 -0.32270418411731933 -0.37181077970513959 0 -0.29719619905707523 -0.36594012765828582 0 -0.29719619905707523 -0.36594012765828582 0 -0.29943295026653399 -0.35953932364306618 0 -0.30796050174877349 -0.36016317053514468 0 -0.29719619905707523 -0.36594012765828582 0 -0.29584447723995128 -0.37444813956539807 0 -0.3103864423796594 -0.37828470113645102 0 -0.31662274924076123 -0.35606216629487569 0 -0.30796050174877349 -0.36016317053514468 0 -0.30902027636205309 -0.35243705172998302 0 -0.30796050174877349 -0.36016317053514468 0 -0.30902027636205309 -0.35243705172998302 0 -0.30278665144889838 -0.35518957417951802 0 -0.3170311031704231 -0.34491623006635341 0 -0.30902027636205309 -0.35243705172998302 0 -0.30849554643820359 -0.34481279163420842 0 -0.30902027636205309 -0.35243705172998302 0 -0.30849554643820359 -0.34481279163420842 0 -0.30076474035813339 -0.34759465108555682 0 -0.30849554643820359 -0.34481279163420842 0 -0.30076474035813339 -0.34759465108555682 0 -0.30398917998114899 -0.33934800480643368 0 -0.30902027636205309 -0.35243705172998302 0 -0.30076474035813339 -0.34759465108555682 0 -0.30278665144889838 -0.35518957417951802 0 -0.29943295026653399 -0.35953932364306618 0 -0.30796050174877349 -0.36016317053514468 0 -0.30278665144889838 -0.35518957417951802 0 -0.30076474035813339 -0.34759465108555682 0 -0.30278665144889838 -0.35518957417951802 0 -0.29719830368448108 -0.35301728683459582 0 -0.29943295026653399 -0.35953932364306618 0 -0.30278665144889838 -0.35518957417951802 0 -0.29719830368448108 -0.35301728683459582 0 -0.29943295026653399 -0.35953932364306618 0 -0.29719830368448108 -0.35301728683459582 0 -0.29016743694869812 -0.35649807524262711 0 -0.29016743694869812 -0.35649807524262711 0 -0.28284547851944208 -0.35047845284871731 0 -0.27168821399683141 -0.36006947561143121 0 -0.29719830368448108 -0.35301728683459582 0 -0.29016743694869812 -0.35649807524262711 0 -0.2925915294609488 -0.34919256188026188 0 -0.2925915294609488 -0.34919256188026188 0 -0.28611540962297188 -0.3426453659285974 0 -0.29619358151489988 -0.34015641309103278 0 -0.30076474035813339 -0.34759465108555682 0 -0.29719830368448108 -0.35301728683459582 0 -0.2925915294609488 -0.34919256188026188 0 -0.30076474035813339 -0.34759465108555682 0 -0.2925915294609488 -0.34919256188026188 0 -0.29619358151489988 -0.34015641309103278 0 -0.2925915294609488 -0.34919256188026188 0 -0.28284547851944208 -0.35047845284871731 0 -0.28611540962297188 -0.3426453659285974 0 -0.28284547851944208 -0.35047845284871731 0 -0.27676447355633299 -0.3457480812413124 0 -0.28611540962297188 -0.3426453659285974 0 -0.29016743694869812 -0.35649807524262711 0 -0.2925915294609488 -0.34919256188026188 0 -0.28284547851944208 -0.35047845284871731 0 -0.29202770366946113 -0.36668513997228358 0 -0.27168821399683141 -0.36006947561143121 0 -0.28307956849111848 -0.3828068929804474 0 -0.29719619905707523 -0.36594012765828582 0 -0.27168821399683141 -0.36006947561143121 0 -0.29202770366946113 -0.36668513997228358 0 -0.28307956849111848 -0.3828068929804474 0 -0.29202770366946113 -0.36668513997228358 0 -0.29584447723995128 -0.37444813956539807 0 -0.28307956849111848 -0.3828068929804474 0 -0.29719619905707523 -0.36594012765828582 0 -0.29016743694869812 -0.35649807524262711 0 -0.27168821399683141 -0.36006947561143121 0 -0.29719619905707523 -0.36594012765828582 0 -0.29202770366946113 -0.36668513997228358 0 -0.27168821399683141 -0.36006947561143121 0 -0.29719619905707523 -0.36594012765828582 0 -0.29943295026653399 -0.35953932364306618 0 -0.29016743694869812 -0.35649807524262711 0 -0.29719619905707523 -0.36594012765828582 0 -0.29202770366946113 -0.36668513997228358 0 -0.29584447723995128 -0.37444813956539807 0 -0.27168821399683141 -0.36006947561143121 0 -0.28307956849111848 -0.3828068929804474 0 -0.27168821399683141 -0.36006947561143121 0 -0.28307956849111848 -0.3828068929804474 0 -0.26050234447883253 -0.38027693877573482 0 -0.27168821399683141 -0.36006947561143121 0 -0.25721723303835431 -0.36623646057876708 0 -0.26050234447883253 -0.38027693877573482 0 -0.27168821399683141 -0.36006947561143121 0 -0.25721723303835431 -0.36623646057876708 0 -0.24850069890613241 -0.35473287875334369 0 -0.25721723303835431 -0.36623646057876708 0 -0.24817767477162081 -0.36986654917455902 0 -0.24850069890613241 -0.35473287875334369 0 -0.25721723303835431 -0.36623646057876708 0 -0.26050234447883253 -0.38027693877573482 0 -0.24817767477162081 -0.36986654917455902 0 -0.27168821399683141 -0.36006947561143121 0 -0.25445926970156468 -0.34270101061729968 0 -0.24850069890613241 -0.35473287875334369 0 -0.27168821399683141 -0.36006947561143121 0 -0.26120815563270988 -0.3391510272218049 0 -0.25445926970156468 -0.34270101061729968 0 -0.27168821399683141 -0.36006947561143121 0 -0.24850069890613241 -0.35473287875334369 0 -0.27168821399683141 -0.36006947561143121 0 -0.27676447355633299 -0.3457480812413124 0 -0.26120815563270988 -0.3391510272218049 0 -0.27168821399683141 -0.36006947561143121 0 -0.26120815563270988 -0.3391510272218049 0 -0.28284547851944208 -0.35047845284871731 0 -0.27168821399683141 -0.36006947561143121 0 -0.27676447355633299 -0.3457480812413124 0 -0.27676447355633299 -0.3457480812413124 0 -0.27858368134566353 -0.33798527866036399 0 -0.28611540962297188 -0.3426453659285974 0 -0.27676447355633299 -0.3457480812413124 0 -0.27858368134566353 -0.33798527866036399 0 -0.26120815563270988 -0.3391510272218049 0 -0.28089299200049878 -0.32879660088216478 0 -0.26120815563270988 -0.3391510272218049 0 -0.28089299200049878 -0.32879660088216478 0 -0.26120815563270988 -0.3391510272218049 0 -0.26730676106940449 -0.32685643845792262 0 -0.27858368134566353 -0.33798527866036399 0 -0.28089299200049878 -0.32879660088216478 0 -0.26120815563270988 -0.3391510272218049 0 -0.26120815563270988 -0.3391510272218049 0 -0.26057751607960811 -0.32279583566460812 0 -0.26730676106940449 -0.32685643845792262 0 -0.26120815563270988 -0.3391510272218049 0 -0.25273748935779161 -0.32224337373924072 0 -0.26120815563270988 -0.3391510272218049 0 -0.25207330520806498 -0.33378255792528982 0 -0.25273748935779161 -0.32224337373924072 0 -0.26120815563270988 -0.3391510272218049 0 -0.25445926970156468 -0.34270101061729968 0 -0.25207330520806498 -0.33378255792528982 0 -0.25445926970156468 -0.34270101061729968 0 -0.2460450098649074 -0.33743905859998191 0 -0.26120815563270988 -0.3391510272218049 0 -0.25207330520806498 -0.33378255792528982 0 -0.25445926970156468 -0.34270101061729968 0 -0.25273748935779161 -0.32224337373924072 0 -0.26050456352867191 -0.3149367065078193 0 -0.24426682308287331 -0.30533572025667649 0 -0.26120815563270988 -0.3391510272218049 0 -0.25273748935779161 -0.32224337373924072 0 -0.26057751607960811 -0.32279583566460812 0 -0.26057751607960811 -0.32279583566460812 0 -0.26050456352867191 -0.3149367065078193 0 -0.26730676106940449 -0.32685643845792262 0 -0.25273748935779161 -0.32224337373924072 0 -0.26057751607960811 -0.32279583566460812 0 -0.26050456352867191 -0.3149367065078193 0 -0.28089299200049878 -0.32879660088216478 0 -0.26050456352867191 -0.3149367065078193 0 -0.27445713665833338 -0.31633796571173628 0 -0.28089299200049878 -0.32879660088216478 0 -0.26050456352867191 -0.3149367065078193 0 -0.26050456352867191 -0.3149367065078193 0 -0.27445713665833338 -0.31633796571173628 0 -0.26793999894844561 -0.31004618489902153 0 -0.28089299200049878 -0.32879660088216478 0 -0.26050456352867191 -0.3149367065078193 0 -0.26730676106940449 -0.32685643845792262 0 -0.28089299200049878 -0.32879660088216478 0 -0.27445713665833338 -0.31633796571173628 0 -0.28125105682705043 -0.31976055402590231 0 -0.27445713665833338 -0.31633796571173628 0 -0.28252008875028978 -0.31254235777143202 0 -0.28125105682705043 -0.31976055402590231 0 -0.28252008875028978 -0.31254235777143202 0 -0.28823329624350208 -0.31711313423980658 0 -0.29327146190654751 -0.30876504511160502 0 -0.28089299200049878 -0.32879660088216478 0 -0.28823329624350208 -0.31711313423980658 0 -0.30327184377803978 -0.31702509473566581 0 -0.28089299200049878 -0.32879660088216478 0 -0.29457520052377689 -0.33013191680287202 0 -0.30327184377803978 -0.31702509473566581 0 -0.28089299200049878 -0.32879660088216478 0 -0.30327184377803978 -0.31702509473566581 0 -0.28252008875028978 -0.31254235777143202 0 -0.28125105682705043 -0.31976055402590231 0 -0.28823329624350208 -0.31711313423980658 0 -0.28823329624350208 -0.31711313423980658 0 -0.30327184377803978 -0.31702509473566581 0 -0.29327146190654751 -0.30876504511160502 0 -0.28089299200049878 -0.32879660088216478 0 -0.28125105682705043 -0.31976055402590231 0 -0.28823329624350208 -0.31711313423980658 0 -0.28089299200049878 -0.32879660088216478 0 -0.28793737591580382 -0.33358531802794061 0 -0.27858368134566353 -0.33798527866036399 0 -0.28089299200049878 -0.32879660088216478 0 -0.28793737591580382 -0.33358531802794061 0 -0.28089299200049878 -0.32879660088216478 0 -0.28793737591580382 -0.33358531802794061 0 -0.29457520052377689 -0.33013191680287202 0 -0.27858368134566353 -0.33798527866036399 0 -0.28793737591580382 -0.33358531802794061 0 -0.28611540962297188 -0.3426453659285974 0 -0.28793737591580382 -0.33358531802794061 0 -0.28611540962297188 -0.3426453659285974 0 -0.29619358151489988 -0.34015641309103278 0 -0.28793737591580382 -0.33358531802794061 0 -0.29619358151489988 -0.34015641309103278 0 -0.29457520052377689 -0.33013191680287202 0 -0.29619358151489988 -0.34015641309103278 0 -0.29457520052377689 -0.33013191680287202 0 -0.30458020940964259 -0.3310961572775562 0 -0.30076474035813339 -0.34759465108555682 0 -0.29619358151489988 -0.34015641309103278 0 -0.30398917998114899 -0.33934800480643368 0 -0.29619358151489988 -0.34015641309103278 0 -0.30458020940964259 -0.3310961572775562 0 -0.30398917998114899 -0.33934800480643368 0 -0.31372637242327511 -0.33497634201883658 0 -0.30849554643820359 -0.34481279163420842 0 -0.30398917998114899 -0.33934800480643368 0 -0.31475841231360341 -0.32260943229412947 0 -0.31372637242327511 -0.33497634201883658 0 -0.30458020940964259 -0.3310961572775562 0 -0.31372637242327511 -0.33497634201883658 0 -0.30458020940964259 -0.3310961572775562 0 -0.30398917998114899 -0.33934800480643368 0 -0.31475841231360341 -0.32260943229412947 0 -0.30458020940964259 -0.3310961572775562 0 -0.30327184377803978 -0.31702509473566581 0 -0.29457520052377689 -0.33013191680287202 0 -0.30458020940964259 -0.3310961572775562 0 -0.30327184377803978 -0.31702509473566581 0 -0.30327184377803978 -0.31702509473566581 0 -0.30068554560480582 -0.30112982209441241 0 -0.31228269981280887 -0.29918463989613459 0 -0.30327184377803978 -0.31702509473566581 0 -0.30068554560480582 -0.30112982209441241 0 -0.29327146190654751 -0.30876504511160502 0 -0.30068554560480582 -0.30112982209441241 0 -0.30483638085835207 -0.28788342401786787 0 -0.28888361246081401 -0.29493054457851903 0 -0.30068554560480582 -0.30112982209441241 0 -0.31228269981280887 -0.29918463989613459 0 -0.30483638085835207 -0.28788342401786787 0 -0.28888361246081401 -0.29493054457851903 0 -0.28078806465599399 -0.28300047521785149 0 -0.29451735460655398 -0.27472288856989607 0 -0.30483638085835207 -0.28788342401786787 0 -0.28888361246081401 -0.29493054457851903 0 -0.29451735460655398 -0.27472288856989607 0 -0.28888361246081401 -0.29493054457851903 0 -0.28295382644196537 -0.3038897035906043 0 -0.27388309143310768 -0.29511411685975181 0 -0.28888361246081401 -0.29493054457851903 0 -0.28295382644196537 -0.3038897035906043 0 -0.29327146190654751 -0.30876504511160502 0 -0.30068554560480582 -0.30112982209441241 0 -0.28888361246081401 -0.29493054457851903 0 -0.29327146190654751 -0.30876504511160502 0 -0.28252008875028978 -0.31254235777143202 0 -0.28295382644196537 -0.3038897035906043 0 -0.29327146190654751 -0.30876504511160502 0 -0.27445713665833338 -0.31633796571173628 0 -0.28252008875028978 -0.31254235777143202 0 -0.27524002690986649 -0.30828041126704497 0 -0.28252008875028978 -0.31254235777143202 0 -0.28295382644196537 -0.3038897035906043 0 -0.27524002690986649 -0.30828041126704497 0 -0.28295382644196537 -0.3038897035906043 0 -0.27524002690986649 -0.30828041126704497 0 -0.27388309143310768 -0.29511411685975181 0 -0.26808679199009749 -0.30362992927208171 0 -0.26252268864995981 -0.29761987486456531 0 -0.27388309143310768 -0.29511411685975181 0 -0.27524002690986649 -0.30828041126704497 0 -0.26808679199009749 -0.30362992927208171 0 -0.27388309143310768 -0.29511411685975181 0 -0.27445713665833338 -0.31633796571173628 0 -0.27524002690986649 -0.30828041126704497 0 -0.26793999894844561 -0.31004618489902153 0 -0.27524002690986649 -0.30828041126704497 0 -0.26808679199009749 -0.30362992927208171 0 -0.26793999894844561 -0.31004618489902153 0 -0.26808679199009749 -0.30362992927208171 0 -0.26793999894844561 -0.31004618489902153 0 -0.26278193746552841 -0.30551063084933561 0 -0.26050456352867191 -0.3149367065078193 0 -0.25485564421046719 -0.30132045870319019 0 -0.24011613505684479 -0.30107681213347393 0 -0.26050456352867191 -0.3149367065078193 0 -0.24011613505684479 -0.30107681213347393 0 -0.26050456352867191 -0.3149367065078193 0 -0.26278193746552841 -0.30551063084933561 0 -0.25485564421046719 -0.30132045870319019 0 -0.26050456352867191 -0.3149367065078193 0 -0.26793999894844561 -0.31004618489902153 0 -0.26278193746552841 -0.30551063084933561 0 -0.26278193746552841 -0.30551063084933561 0 -0.26252268864995981 -0.29761987486456531 0 -0.25485564421046719 -0.30132045870319019 0 -0.26252268864995981 -0.29761987486456531 0 -0.25485564421046719 -0.30132045870319019 0 -0.2567143935458242 -0.29223768812186002 0 -0.26808679199009749 -0.30362992927208171 0 -0.26278193746552841 -0.30551063084933561 0 -0.26252268864995981 -0.29761987486456531 0 -0.25608276685525683 -0.28295324223861612 0 -0.2567143935458242 -0.29223768812186002 0 -0.24732420154209239 -0.29033586459568173 0 -0.25485564421046719 -0.30132045870319019 0 -0.2567143935458242 -0.29223768812186002 0 -0.24732420154209239 -0.29033586459568173 0 -0.26252268864995981 -0.29761987486456531 0 -0.2567143935458242 -0.29223768812186002 0 -0.26350989061834318 -0.28909490770035701 0 -0.25608276685525683 -0.28295324223861612 0 -0.26350989061834318 -0.28909490770035701 0 -0.26907982973782107 -0.2804670883869903 0 -0.25608276685525683 -0.28295324223861612 0 -0.2567143935458242 -0.29223768812186002 0 -0.26350989061834318 -0.28909490770035701 0 -0.26350989061834318 -0.28909490770035701 0 -0.27388309143310768 -0.29511411685975181 0 -0.26907982973782107 -0.2804670883869903 0 -0.26252268864995981 -0.29761987486456531 0 -0.26350989061834318 -0.28909490770035701 0 -0.27388309143310768 -0.29511411685975181 0 -0.28888361246081401 -0.29493054457851903 0 -0.27388309143310768 -0.29511411685975181 0 -0.28078806465599399 -0.28300047521785149 0 -0.27388309143310768 -0.29511411685975181 0 -0.28078806465599399 -0.28300047521785149 0 -0.26907982973782107 -0.2804670883869903 0 -0.27772768471542669 -0.26767482265106679 0 -0.26907982973782107 -0.2804670883869903 0 -0.25958550566062261 -0.27102626557679149 0 -0.28078806465599399 -0.28300047521785149 0 -0.27772768471542669 -0.26767482265106679 0 -0.26907982973782107 -0.2804670883869903 0 -0.25608276685525683 -0.28295324223861612 0 -0.26907982973782107 -0.2804670883869903 0 -0.25958550566062261 -0.27102626557679149 0 -0.25608276685525683 -0.28295324223861612 0 -0.25958550566062261 -0.27102626557679149 0 -0.2444485511135471 -0.27534046621033159 0 -0.26398002587916253 -0.25656090854441049 0 -0.24465976002352091 -0.25387891845332877 0 -0.25992972331208369 -0.2410680052130979 0 -0.25958550566062261 -0.27102626557679149 0 -0.26398002587916253 -0.25656090854441049 0 -0.24465976002352091 -0.25387891845332877 0 -0.27772768471542669 -0.26767482265106679 0 -0.26398002587916253 -0.25656090854441049 0 -0.27722523139620658 -0.24922189107985179 0 -0.27772768471542669 -0.26767482265106679 0 -0.25958550566062261 -0.27102626557679149 0 -0.26398002587916253 -0.25656090854441049 0 -0.27772768471542669 -0.26767482265106679 0 -0.29131753467172561 -0.25675805269722002 0 -0.27722523139620658 -0.24922189107985179 0 -0.28078806465599399 -0.28300047521785149 0 -0.27772768471542669 -0.26767482265106679 0 -0.29451735460655398 -0.27472288856989607 0 -0.27772768471542669 -0.26767482265106679 0 -0.29131753467172561 -0.25675805269722002 0 -0.29451735460655398 -0.27472288856989607 0 -0.31319680135340772 -0.27337899374224139 0 -0.29451735460655398 -0.27472288856989607 0 -0.30564385326437488 -0.26015983685037081 0 -0.31319680135340772 -0.27337899374224139 0 -0.30483638085835207 -0.28788342401786787 0 -0.29451735460655398 -0.27472288856989607 0 -0.29131753467172561 -0.25675805269722002 0 -0.29451735460655398 -0.27472288856989607 0 -0.30564385326437488 -0.26015983685037081 0 -0.29131753467172561 -0.25675805269722002 0 -0.30564385326437488 -0.26015983685037081 0 -0.30769212114973271 -0.24578220261295139 0 -0.31968345090478489 -0.25798973640781447 0 -0.30564385326437488 -0.26015983685037081 0 -0.30769212114973271 -0.24578220261295139 0 -0.34207866423036198 -0.45986413066326443 0 -0.33141508850449702 -0.45187214799378478 0 -0.32594289259428999 -0.46085836632795257 0 -0.34207866423036198 -0.45986413066326443 0 -0.32594289259428999 -0.46085836632795257 0 -0.33264581849560632 -0.47431014716802089 0 -0.34207866423036198 -0.45986413066326443 0 -0.34225571697252682 -0.42997304157067162 0 -0.34207866423036198 -0.45986413066326443 0 -0.33358626016413989 -0.44229992863572659 0 -0.33141508850449702 -0.45187214799378478 0 -0.34207866423036198 -0.45986413066326443 0 -0.33358626016413989 -0.44229992863572659 0 -0.34225571697252682 -0.42997304157067162 0 -0.33358626016413989 -0.44229992863572659 0 -0.33141508850449702 -0.45187214799378478 0 -0.32300139100864811 -0.44723989508536771 0 -0.33358626016413989 -0.44229992863572659 0 -0.32300139100864811 -0.44723989508536771 0 -0.32413493920603592 -0.43586432580396972 0 -0.32300139100864811 -0.44723989508536771 0 -0.31385630152515048 -0.44199725430357722 0 -0.32413493920603592 -0.43586432580396972 0 -0.32300139100864811 -0.44723989508536771 0 -0.31385630152515048 -0.44199725430357722 0 -0.31044958537109257 -0.45255960714027171 0 -0.32594289259428999 -0.46085836632795257 0 -0.31333683559556219 -0.46686726284272168 0 -0.31044958537109257 -0.45255960714027171 0 -0.32594289259428999 -0.46085836632795257 0 -0.31333683559556219 -0.46686726284272168 0 -0.32224857144892449 -0.47649828689453749 0 -0.32300139100864811 -0.44723989508536771 0 -0.32594289259428999 -0.46085836632795257 0 -0.31044958537109257 -0.45255960714027171 0 -0.33141508850449702 -0.45187214799378478 0 -0.32300139100864811 -0.44723989508536771 0 -0.32594289259428999 -0.46085836632795257 0 -0.31333683559556219 -0.46686726284272168 0 -0.32224857144892449 -0.47649828689453749 0 -0.30503152439861497 -0.48190266549989857 0 -0.32224857144892449 -0.47649828689453749 0 -0.32279626626388608 -0.48781718170045291 0 -0.30503152439861497 -0.48190266549989857 0 -0.32594289259428999 -0.46085836632795257 0 -0.32224857144892449 -0.47649828689453749 0 -0.33264581849560632 -0.47431014716802089 0 -0.32224857144892449 -0.47649828689453749 0 -0.32279626626388608 -0.48781718170045291 0 -0.33105735271625752 -0.4845747321984929 0 -0.32006214434654462 -0.5 0 -0.32279626626388608 -0.48781718170045291 0 -0.30503152439861497 -0.48190266549989857 0 -0.32006214434654462 -0.5 0 -0.32279626626388608 -0.48781718170045291 0 -0.33558173840908911 -0.49611022390933512 0 -0.32006214434654462 -0.5 0 -0.33558173840908911 -0.49611022390933512 0 -0.34657288766042038 -0.5 0 -0.33558173840908911 -0.49611022390933512 0 -0.34190161148819742 -0.48975521975585701 0 -0.35306908662498632 -0.4951847935385878 0 -0.32279626626388608 -0.48781718170045291 0 -0.33558173840908911 -0.49611022390933512 0 -0.33105735271625752 -0.4845747321984929 0 -0.33558173840908911 -0.49611022390933512 0 -0.33105735271625752 -0.4845747321984929 0 -0.34190161148819742 -0.48975521975585701 0 -0.34207866423036198 -0.45986413066326443 0 -0.34190161148819742 -0.48975521975585701 0 -0.34207866423036198 -0.45986413066326443 0 -0.34190161148819742 -0.48975521975585701 0 -0.33264581849560632 -0.47431014716802089 0 -0.33105735271625752 -0.4845747321984929 0 -0.34190161148819742 -0.48975521975585701 0 -0.33264581849560632 -0.47431014716802089 0 -0.32224857144892449 -0.47649828689453749 0 -0.33105735271625752 -0.4845747321984929 0 -0.33264581849560632 -0.47431014716802089 0 -0.34190161148819742 -0.48975521975585701 0 -0.35001641252228072 -0.47142734906239081 0 -0.35328963507943428 -0.48328499015431992 0 -0.34207866423036198 -0.45986413066326443 0 -0.34190161148819742 -0.48975521975585701 0 -0.35001641252228072 -0.47142734906239081 0 -0.35328963507943428 -0.48328499015431992 0 -0.35950950469085041 -0.48638993404071668 0 -0.36112286221809747 -0.47283058930211808 0 -0.35001641252228072 -0.47142734906239081 0 -0.35328963507943428 -0.48328499015431992 0 -0.36112286221809747 -0.47283058930211808 0 -0.33558173840908911 -0.49611022390933512 0 -0.35306908662498632 -0.4951847935385878 0 -0.33558173840908911 -0.49611022390933512 0 -0.34657288766042038 -0.5 0 -0.35306908662498632 -0.4951847935385878 0 -0.34657288766042038 -0.5 0 -0.35306908662498632 -0.4951847935385878 0 -0.37308363097429631 -0.50000000000000244 0 -0.34190161148819742 -0.48975521975585701 0 -0.35328963507943428 -0.48328499015431992 0 -0.35306908662498632 -0.4951847935385878 0 -0.35328963507943428 -0.48328499015431992 0 -0.35306908662498632 -0.4951847935385878 0 -0.35950950469085041 -0.48638993404071668 0 -0.35306908662498632 -0.4951847935385878 0 -0.35950950469085041 -0.48638993404071668 0 -0.37055643484088358 -0.49425936316784103 0 -0.35306908662498632 -0.4951847935385878 0 -0.37055643484088358 -0.49425936316784103 0 -0.35950950469085041 -0.48638993404071668 0 -0.37055643484088358 -0.49425936316784103 0 -0.36112286221809747 -0.47283058930211808 0 -0.35306908662498632 -0.4951847935385878 0 -0.37055643484088358 -0.49425936316784103 0 -0.37308363097429631 -0.50000000000000244 0 -0.37055643484088358 -0.49425936316784103 0 -0.37308363097429631 -0.50000000000000244 0 -0.38039451612360919 -0.47713749807852829 0 -0.37055643484088358 -0.49425936316784103 0 -0.36112286221809747 -0.47283058930211808 0 -0.37055643484088358 -0.49425936316784103 0 -0.36112286221809747 -0.47283058930211808 0 -0.38039451612360919 -0.47713749807852829 0 -0.36112286221809747 -0.47283058930211808 0 -0.37415472949075129 -0.45946062715310632 0 -0.37415472949075129 -0.45946062715310632 0 -0.3629811744391212 -0.45722253899736259 0 -0.36406731613876331 -0.44506275929787698 0 -0.36112286221809747 -0.47283058930211808 0 -0.37415472949075129 -0.45946062715310632 0 -0.3629811744391212 -0.45722253899736259 0 -0.36112286221809747 -0.47283058930211808 0 -0.3629811744391212 -0.45722253899736259 0 -0.35168928959531232 -0.4514018154363949 0 -0.36112286221809747 -0.47283058930211808 0 -0.35168928959531232 -0.4514018154363949 0 -0.35001641252228072 -0.47142734906239081 0 -0.36112286221809747 -0.47283058930211808 0 -0.35168928959531232 -0.4514018154363949 0 -0.34207866423036198 -0.45986413066326443 0 -0.35001641252228072 -0.47142734906239081 0 -0.35168928959531232 -0.4514018154363949 0 -0.35168928959531232 -0.4514018154363949 0 -0.34225571697252682 -0.42997304157067162 0 -0.35168928959531232 -0.4514018154363949 0 -0.36406731613876331 -0.44506275929787698 0 -0.34225571697252682 -0.42997304157067162 0 -0.34207866423036198 -0.45986413066326443 0 -0.35168928959531232 -0.4514018154363949 0 -0.34225571697252682 -0.42997304157067162 0 -0.38339996822118783 -0.44368928783448319 0 -0.36406731613876331 -0.44506275929787698 0 -0.36866352395763108 -0.4313760290561211 0 -0.38339996822118783 -0.44368928783448319 0 -0.37415472949075129 -0.45946062715310632 0 -0.36406731613876331 -0.44506275929787698 0 -0.3629811744391212 -0.45722253899736259 0 -0.35168928959531232 -0.4514018154363949 0 -0.36406731613876331 -0.44506275929787698 0 -0.38131756488089769 -0.42670085612339947 0 -0.36866352395763108 -0.4313760290561211 0 -0.36377437909963828 -0.41972983174959272 0 -0.38704143117499401 -0.40999023144455299 0 -0.3575105341832589 -0.40691374405003478 0 -0.38704143117499401 -0.40999023144455299 0 -0.36377437909963828 -0.41972983174959272 0 -0.3575105341832589 -0.40691374405003478 0 -0.35062038894632092 -0.41624612172537079 0 -0.34239786166265201 -0.40597533588911489 0 -0.34225571697252682 -0.42997304157067162 0 -0.36377437909963828 -0.41972983174959272 0 -0.3575105341832589 -0.40691374405003478 0 -0.35062038894632092 -0.41624612172537079 0 -0.3575105341832589 -0.40691374405003478 0 -0.35062038894632092 -0.41624612172537079 0 -0.34239786166265201 -0.40597533588911489 0 -0.36406731613876331 -0.44506275929787698 0 -0.36866352395763108 -0.4313760290561211 0 -0.34225571697252682 -0.42997304157067162 0 -0.36866352395763108 -0.4313760290561211 0 -0.36377437909963828 -0.41972983174959272 0 -0.34225571697252682 -0.42997304157067162 0 -0.36377437909963828 -0.41972983174959272 0 -0.35062038894632092 -0.41624612172537079 0 -0.34225571697252682 -0.42997304157067162 0 -0.37522403377147279 -0.38060127254172499 0 -0.37464038230528551 -0.396492613407532 0 -0.35879027536972019 -0.3891835699585654 0 -0.37522403377147279 -0.38060127254172499 0 -0.35964608014779109 -0.37334112637938882 0 -0.35879027536972019 -0.3891835699585654 0 -0.38704143117499401 -0.40999023144455299 0 -0.3575105341832589 -0.40691374405003478 0 -0.37464038230528551 -0.396492613407532 0 -0.3575105341832589 -0.40691374405003478 0 -0.37464038230528551 -0.396492613407532 0 -0.35879027536972019 -0.3891835699585654 0 -0.3575105341832589 -0.40691374405003478 0 -0.35030966939210212 -0.39601257002631829 0 -0.35879027536972019 -0.3891835699585654 0 -0.35030966939210212 -0.39601257002631829 0 -0.34254000635277743 -0.38197763020755832 0 -0.34239786166265201 -0.40597533588911489 0 -0.3575105341832589 -0.40691374405003478 0 -0.35030966939210212 -0.39601257002631829 0 -0.34239786166265201 -0.40597533588911489 0 -0.35964608014779109 -0.37334112637938882 0 -0.35879027536972019 -0.3891835699585654 0 -0.34254000635277743 -0.38197763020755832 0 -0.35030966939210212 -0.39601257002631829 0 -0.35879027536972019 -0.3891835699585654 0 -0.34254000635277743 -0.38197763020755832 0 -0.32270418411731933 -0.37181077970513959 0 -0.34254000635277743 -0.38197763020755832 0 -0.32435131947256218 -0.38428518727128619 0 -0.34254000635277743 -0.38197763020755832 0 -0.33211028503505757 -0.39455092735479258 0 -0.32435131947256218 -0.38428518727128619 0 -0.34254000635277743 -0.38197763020755832 0 -0.33211028503505757 -0.39455092735479258 0 -0.34239786166265201 -0.40597533588911489 0 -0.34254000635277743 -0.38197763020755832 0 -0.34239786166265201 -0.40597533588911489 0 -0.33211028503505757 -0.39455092735479258 0 -0.32627218782356721 -0.40254155632103228 0 -0.33325599186729038 -0.40952977136485508 0 -0.33211028503505757 -0.39455092735479258 0 -0.34239786166265201 -0.40597533588911489 0 -0.33325599186729038 -0.40952977136485508 0 -0.32627218782356721 -0.40254155632103228 0 -0.31778611784491262 -0.39429551077659458 0 -0.31836523457261151 -0.40628576827473822 0 -0.31778611784491262 -0.39429551077659458 0 -0.31836523457261151 -0.40628576827473822 0 -0.30856762168503782 -0.40330407176644772 0 -0.33211028503505757 -0.39455092735479258 0 -0.32627218782356721 -0.40254155632103228 0 -0.31778611784491262 -0.39429551077659458 0 -0.33211028503505757 -0.39455092735479258 0 -0.31778611784491262 -0.39429551077659458 0 -0.32435131947256218 -0.38428518727128619 0 -0.31778611784491262 -0.39429551077659458 0 -0.32435131947256218 -0.38428518727128619 0 -0.3103864423796594 -0.37828470113645102 0 -0.32270418411731933 -0.37181077970513959 0 -0.32435131947256218 -0.38428518727128619 0 -0.3103864423796594 -0.37828470113645102 0 -0.34225571697252682 -0.42997304157067162 0 -0.32127707919304882 -0.42450406978857058 0 -0.32413493920603592 -0.43586432580396972 0 -0.33358626016413989 -0.44229992863572659 0 -0.34225571697252682 -0.42997304157067162 0 -0.32413493920603592 -0.43586432580396972 0 -0.34225571697252682 -0.42997304157067162 0 -0.32547848823970138 -0.41505510354763547 0 -0.32127707919304882 -0.42450406978857058 0 -0.34225571697252682 -0.42997304157067162 0 -0.33325599186729038 -0.40952977136485508 0 -0.34239786166265201 -0.40597533588911489 0 -0.34225571697252682 -0.42997304157067162 0 -0.34225571697252682 -0.42997304157067162 0 -0.33325599186729038 -0.40952977136485508 0 -0.32547848823970138 -0.41505510354763547 0 -0.34239786166265201 -0.40597533588911489 0 -0.34225571697252682 -0.42997304157067162 0 -0.33325599186729038 -0.40952977136485508 0 -0.32627218782356721 -0.40254155632103228 0 -0.33325599186729038 -0.40952977136485508 0 -0.32547848823970138 -0.41505510354763547 0 -0.32547848823970138 -0.41505510354763547 0 -0.3149711123139971 -0.41411215899080989 0 -0.32127707919304882 -0.42450406978857058 0 -0.32627218782356721 -0.40254155632103228 0 -0.32547848823970138 -0.41505510354763547 0 -0.31836523457261151 -0.40628576827473822 0 -0.32547848823970138 -0.41505510354763547 0 -0.31836523457261151 -0.40628576827473822 0 -0.3149711123139971 -0.41411215899080989 0 -0.31836523457261151 -0.40628576827473822 0 -0.3149711123139971 -0.41411215899080989 0 -0.30856762168503782 -0.40330407176644772 0 -0.3149711123139971 -0.41411215899080989 0 -0.32127707919304882 -0.42450406978857058 0 -0.31068047406536009 -0.42124040027518911 0 -0.32127707919304882 -0.42450406978857058 0 -0.31073004788055869 -0.43167813375356229 0 -0.31068047406536009 -0.42124040027518911 0 -0.32127707919304882 -0.42450406978857058 0 -0.32413493920603592 -0.43586432580396972 0 -0.31073004788055869 -0.43167813375356229 0 -0.31385630152515048 -0.44199725430357722 0 -0.32413493920603592 -0.43586432580396972 0 -0.31073004788055869 -0.43167813375356229 0 -0.31073004788055869 -0.43167813375356229 0 -0.29829421210859891 -0.43220714453990322 0 -0.30286215921622678 -0.44210958888768459 0 -0.31073004788055869 -0.43167813375356229 0 -0.29829421210859891 -0.43220714453990322 0 -0.30293836312512551 -0.42244552438862548 0 -0.29829421210859891 -0.43220714453990322 0 -0.30293836312512551 -0.42244552438862548 0 -0.29038846928103268 -0.42353273433611682 0 -0.31073004788055869 -0.43167813375356229 0 -0.30293836312512551 -0.42244552438862548 0 -0.31068047406536009 -0.42124040027518911 0 -0.3149711123139971 -0.41411215899080989 0 -0.31068047406536009 -0.42124040027518911 0 -0.30545777612822328 -0.41428354029227837 0 -0.30293836312512551 -0.42244552438862548 0 -0.31068047406536009 -0.42124040027518911 0 -0.30545777612822328 -0.41428354029227837 0 -0.3149711123139971 -0.41411215899080989 0 -0.30545777612822328 -0.41428354029227837 0 -0.30856762168503782 -0.40330407176644772 0 -0.30545777612822328 -0.41428354029227837 0 -0.30856762168503782 -0.40330407176644772 0 -0.30079847364115991 -0.40578130343003371 0 -0.30545777612822328 -0.41428354029227837 0 -0.2987732092282892 -0.41413177709842958 0 -0.30079847364115991 -0.40578130343003371 0 -0.30293836312512551 -0.42244552438862548 0 -0.2987732092282892 -0.41413177709842958 0 -0.29038846928103268 -0.42353273433611682 0 -0.30293836312512551 -0.42244552438862548 0 -0.2987732092282892 -0.41413177709842958 0 -0.30293836312512551 -0.42244552438862548 0 -0.30545777612822328 -0.41428354029227837 0 -0.2987732092282892 -0.41413177709842958 0 -0.30545777612822328 -0.41428354029227837 0 -0.2987732092282892 -0.41413177709842958 0 -0.2987732092282892 -0.41413177709842958 0 -0.29092638885970451 -0.39846933503943821 0 -0.2987732092282892 -0.41413177709842958 0 -0.28243901841779939 -0.41376093348156762 0 -0.29092638885970451 -0.39846933503943821 0 -0.2987732092282892 -0.41413177709842958 0 -0.28243901841779939 -0.41376093348156762 0 -0.29038846928103268 -0.42353273433611682 0 -0.2987732092282892 -0.41413177709842958 0 -0.28243901841779939 -0.41376093348156762 0 -0.28243901841779939 -0.41376093348156762 0 -0.29038846928103268 -0.42353273433611682 0 -0.27500508569675858 -0.42792788340523652 0 -0.29038846928103268 -0.42353273433611682 0 -0.27500508569675858 -0.42792788340523652 0 -0.28620792983366777 -0.44117103379144762 0 -0.29829421210859891 -0.43220714453990322 0 -0.29038846928103268 -0.42353273433611682 0 -0.28620792983366777 -0.44117103379144762 0 -0.31778611784491262 -0.39429551077659458 0 -0.3103864423796594 -0.37828470113645102 0 -0.30424293331838692 -0.39073887816822978 0 -0.29584447723995128 -0.37444813956539807 0 -0.29713407365637251 -0.38186722723828942 0 -0.3103864423796594 -0.37828470113645102 0 -0.29713407365637251 -0.38186722723828942 0 -0.30424293331838692 -0.39073887816822978 0 -0.29406976999373469 -0.38920344929064732 0 -0.29713407365637251 -0.38186722723828942 0 -0.3103864423796594 -0.37828470113645102 0 -0.30424293331838692 -0.39073887816822978 0 -0.29998863005712628 -0.39809616774203599 0 -0.30424293331838692 -0.39073887816822978 0 -0.30856762168503782 -0.40330407176644772 0 -0.29998863005712628 -0.39809616774203599 0 -0.30424293331838692 -0.39073887816822978 0 -0.29406976999373469 -0.38920344929064732 0 -0.31778611784491262 -0.39429551077659458 0 -0.30424293331838692 -0.39073887816822978 0 -0.30856762168503782 -0.40330407176644772 0 -0.29998863005712628 -0.39809616774203599 0 -0.30079847364115991 -0.40578130343003371 0 -0.29092638885970451 -0.39846933503943821 0 -0.29998863005712628 -0.39809616774203599 0 -0.30856762168503782 -0.40330407176644772 0 -0.30079847364115991 -0.40578130343003371 0 -0.2987732092282892 -0.41413177709842958 0 -0.30079847364115991 -0.40578130343003371 0 -0.29092638885970451 -0.39846933503943821 0 -0.29092638885970451 -0.39846933503943821 0 -0.28307956849111848 -0.3828068929804474 0 -0.29092638885970451 -0.39846933503943821 0 -0.28307956849111848 -0.3828068929804474 0 -0.27459219804921331 -0.39809849142257658 0 -0.28243901841779939 -0.41376093348156762 0 -0.29092638885970451 -0.39846933503943821 0 -0.27459219804921331 -0.39809849142257658 0 -0.29998863005712628 -0.39809616774203599 0 -0.29092638885970451 -0.39846933503943821 0 -0.29406976999373469 -0.38920344929064732 0 -0.29092638885970451 -0.39846933503943821 0 -0.29406976999373469 -0.38920344929064732 0 -0.28307956849111848 -0.3828068929804474 0 -0.29713407365637251 -0.38186722723828942 0 -0.29406976999373469 -0.38920344929064732 0 -0.28307956849111848 -0.3828068929804474 0 -0.29584447723995128 -0.37444813956539807 0 -0.29713407365637251 -0.38186722723828942 0 -0.28307956849111848 -0.3828068929804474 0 -0.28307956849111848 -0.3828068929804474 0 -0.27459219804921331 -0.39809849142257658 0 -0.26050234447883253 -0.38027693877573482 0 -0.28307956849111848 -0.3828068929804474 0 -0.27459219804921331 -0.39809849142257658 0 -0.27459219804921331 -0.39809849142257658 0 -0.26610482760730952 -0.4133900898647066 0 -0.27459219804921331 -0.39809849142257658 0 -0.26088670843651829 -0.40068536336094251 0 -0.26610482760730952 -0.4133900898647066 0 -0.26088670843651829 -0.40068536336094251 0 -0.26050234447883253 -0.38027693877573482 0 -0.2487824818667288 -0.3954643368039899 0 -0.27459219804921331 -0.39809849142257658 0 -0.26088670843651829 -0.40068536336094251 0 -0.26050234447883253 -0.38027693877573482 0 -0.26088670843651829 -0.40068536336094251 0 -0.24694430377570939 -0.41295507854145541 0 -0.2487824818667288 -0.3954643368039899 0 -0.27500508569675858 -0.42792788340523652 0 -0.25298523514652932 -0.43702750984159111 0 -0.27028712802556781 -0.44002206955302048 0 -0.27500508569675858 -0.42792788340523652 0 -0.27028712802556781 -0.44002206955302048 0 -0.28620792983366777 -0.44117103379144762 0 -0.28243901841779939 -0.41376093348156762 0 -0.27500508569675858 -0.42792788340523652 0 -0.26610482760730952 -0.4133900898647066 0 -0.28243901841779939 -0.41376093348156762 0 -0.27459219804921331 -0.39809849142257658 0 -0.26610482760730952 -0.4133900898647066 0 -0.28243901841779939 -0.41376093348156762 0 -0.26610482760730952 -0.4133900898647066 0 -0.26610482760730952 -0.4133900898647066 0 -0.24694430377570939 -0.41295507854145541 0 -0.26610482760730952 -0.4133900898647066 0 -0.25298523514652932 -0.43702750984159111 0 -0.24694430377570939 -0.41295507854145541 0 -0.26088670843651829 -0.40068536336094251 0 -0.26610482760730952 -0.4133900898647066 0 -0.24694430377570939 -0.41295507854145541 0 -0.27500508569675858 -0.42792788340523652 0 -0.26610482760730952 -0.4133900898647066 0 -0.25298523514652932 -0.43702750984159111 0 -0.26610482760730952 -0.4133900898647066 0 -0.25298523514652932 -0.43702750984159111 0 -0.25298523514652932 -0.43702750984159111 0 -0.25823473398406083 -0.46259190486934387 0 -0.27139768853026319 -0.45350369328431828 0 -0.25298523514652932 -0.43702750984159111 0 -0.27139768853026319 -0.45350369328431828 0 -0.27028712802556781 -0.44002206955302048 0 -0.25298523514652932 -0.43702750984159111 0 -0.25823473398406083 -0.46259190486934387 0 -0.2398656426857485 -0.46066492981847512 0 -0.27139768853026319 -0.45350369328431828 0 -0.28665438526504589 -0.45880473289459528 0 -0.27499686831673542 -0.4693274569635677 0 -0.25823473398406083 -0.46259190486934387 0 -0.27139768853026319 -0.45350369328431828 0 -0.27499686831673542 -0.4693274569635677 0 -0.27139768853026319 -0.45350369328431828 0 -0.27028712802556781 -0.44002206955302048 0 -0.28620792983366777 -0.44117103379144762 0 -0.28620792983366777 -0.44117103379144762 0 -0.29665932401628559 -0.4519210782245337 0 -0.28665438526504589 -0.45880473289459528 0 -0.28620792983366777 -0.44117103379144762 0 -0.29665932401628559 -0.4519210782245337 0 -0.30286215921622678 -0.44210958888768459 0 -0.27139768853026319 -0.45350369328431828 0 -0.28620792983366777 -0.44117103379144762 0 -0.28665438526504589 -0.45880473289459528 0 -0.29829421210859891 -0.43220714453990322 0 -0.28620792983366777 -0.44117103379144762 0 -0.30286215921622678 -0.44210958888768459 0 -0.28665438526504589 -0.45880473289459528 0 -0.28928475434474438 -0.47221518125428918 0 -0.27499686831673542 -0.4693274569635677 0 -0.28665438526504589 -0.45880473289459528 0 -0.30029558254474148 -0.46389675841394568 0 -0.28928475434474438 -0.47221518125428918 0 -0.29665932401628559 -0.4519210782245337 0 -0.28665438526504589 -0.45880473289459528 0 -0.30029558254474148 -0.46389675841394568 0 -0.29665932401628559 -0.4519210782245337 0 -0.30029558254474148 -0.46389675841394568 0 -0.31044958537109257 -0.45255960714027171 0 -0.31333683559556219 -0.46686726284272168 0 -0.30029558254474148 -0.46389675841394568 0 -0.31044958537109257 -0.45255960714027171 0 -0.31385630152515048 -0.44199725430357722 0 -0.31044958537109257 -0.45255960714027171 0 -0.30286215921622678 -0.44210958888768459 0 -0.31385630152515048 -0.44199725430357722 0 -0.31073004788055869 -0.43167813375356229 0 -0.30286215921622678 -0.44210958888768459 0 -0.29665932401628559 -0.4519210782245337 0 -0.31044958537109257 -0.45255960714027171 0 -0.30286215921622678 -0.44210958888768459 0 -0.32006214434654462 -0.5 0 -0.30503152439861497 -0.48190266549989857 0 -0.29355140103266869 -0.5 0 -0.30029558254474148 -0.46389675841394568 0 -0.30503152439861497 -0.48190266549989857 0 -0.28928475434474438 -0.47221518125428918 0 -0.31333683559556219 -0.46686726284272168 0 -0.30029558254474148 -0.46389675841394568 0 -0.30503152439861497 -0.48190266549989857 0 -0.30503152439861497 -0.48190266549989857 0 -0.28928475434474438 -0.47221518125428918 0 -0.27944541119858413 -0.48714429249943858 0 -0.30503152439861497 -0.48190266549989857 0 -0.29355140103266869 -0.5 0 -0.27944541119858413 -0.48714429249943858 0 -0.26704065771879287 -0.5 0 -0.27944541119858413 -0.48714429249943858 0 -0.26377894750559139 -0.4817410620592058 0 -0.29355140103266869 -0.5 0 -0.26704065771879287 -0.5 0 -0.27944541119858413 -0.48714429249943858 0 -0.27944541119858413 -0.48714429249943858 0 -0.27499686831673542 -0.4693274569635677 0 -0.26377894750559139 -0.4817410620592058 0 -0.28928475434474438 -0.47221518125428918 0 -0.27944541119858413 -0.48714429249943858 0 -0.27499686831673542 -0.4693274569635677 0 -0.25823473398406083 -0.46259190486934387 0 -0.27499686831673542 -0.4693274569635677 0 -0.26377894750559139 -0.4817410620592058 0 -0.25823473398406083 -0.46259190486934387 0 -0.26377894750559139 -0.4817410620592058 0 -0.24769273461092009 -0.47775775457152359 0 -0.26704065771879287 -0.5 0 -0.26377894750559139 -0.4817410620592058 0 -0.24052991440491719 -0.5 0 -0.26377894750559139 -0.4817410620592058 0 -0.24052991440491719 -0.5 0 -0.24769273461092009 -0.47775775457152359 0 -0.24052991440491719 -0.5 0 -0.24769273461092009 -0.47775775457152359 0 -0.2238647917587385 -0.47868470982513422 0 -0.24769273461092009 -0.47775775457152359 0 -0.2238647917587385 -0.47868470982513422 0 -0.2253613830811457 -0.45761053917550981 0 -0.24052991440491719 -0.5 0 -0.2238647917587385 -0.47868470982513422 0 -0.2140191710910414 -0.49999999999999972 0 -0.25298523514652932 -0.43702750984159111 0 -0.23591515519085041 -0.44398209369878189 0 -0.2398656426857485 -0.46066492981847512 0 -0.25298523514652932 -0.43702750984159111 0 -0.2398656426857485 -0.46066492981847512 0 -0.25823473398406083 -0.46259190486934387 0 -0.24769273461092009 -0.47775775457152359 0 -0.2398656426857485 -0.46066492981847512 0 -0.24769273461092009 -0.47775775457152359 0 -0.2398656426857485 -0.46066492981847512 0 -0.2253613830811457 -0.45761053917550981 0 -0.24769273461092009 -0.47775775457152359 0 -0.2253613830811457 -0.45761053917550981 0 -0.2238647917587385 -0.47868470982513422 0 -0.2253613830811457 -0.45761053917550981 0 -0.20999779143719291 -0.46083672605530768 0 -0.23591515519085041 -0.44398209369878189 0 -0.2398656426857485 -0.46066492981847512 0 -0.2253613830811457 -0.45761053917550981 0 -0.23591515519085041 -0.44398209369878189 0 -0.2253613830811457 -0.45761053917550981 0 -0.22549954629610269 -0.43500765649169948 0 -0.2253613830811457 -0.45761053917550981 0 -0.20999779143719291 -0.46083672605530768 0 -0.2030300315513712 -0.43746332377949593 0 -0.2253613830811457 -0.45761053917550981 0 -0.2030300315513712 -0.43746332377949593 0 -0.20999779143719291 -0.46083672605530768 0 -0.19715634076338631 -0.4518064782969281 0 -0.2030300315513712 -0.43746332377949593 0 -0.2253613830811457 -0.45761053917550981 0 -0.2030300315513712 -0.43746332377949593 0 -0.22549954629610269 -0.43500765649169948 0 -0.20999779143719291 -0.46083672605530768 0 -0.19715634076338631 -0.4518064782969281 0 -0.2055877559272139 -0.47590323914846377 0 -0.19715634076338631 -0.4518064782969281 0 -0.2055877559272139 -0.47590323914846377 0 -0.19179305986328829 -0.46711759196808689 0 -0.19715634076338631 -0.4518064782969281 0 -0.2055877559272139 -0.47590323914846377 0 -0.19179305986328829 -0.46711759196808689 0 -0.19715634076338631 -0.4518064782969281 0 -0.184822707974968 -0.45592422963236362 0 -0.19715634076338631 -0.4518064782969281 0 -0.2030300315513712 -0.43746332377949593 0 -0.18872492559955881 -0.42770971744539221 0 -0.19715634076338631 -0.4518064782969281 0 -0.18872492559955881 -0.42770971744539221 0 -0.19715634076338631 -0.4518064782969281 0 -0.1870173619903012 -0.44414077979923022 0 -0.18872492559955881 -0.42770971744539221 0 -0.19715634076338631 -0.4518064782969281 0 -0.184822707974968 -0.45592422963236362 0 -0.1870173619903012 -0.44414077979923022 0 -0.2140191710910414 -0.49999999999999972 0 -0.2055877559272139 -0.47590323914846377 0 -0.2140191710910414 -0.49999999999999972 0 -0.2055877559272139 -0.47590323914846377 0 -0.1915741566131953 -0.48274482478870012 0 -0.2238647917587385 -0.47868470982513422 0 -0.2140191710910414 -0.49999999999999972 0 -0.2055877559272139 -0.47590323914846377 0 -0.2238647917587385 -0.47868470982513422 0 -0.20999779143719291 -0.46083672605530768 0 -0.2055877559272139 -0.47590323914846377 0 -0.19179305986328829 -0.46711759196808689 0 -0.2055877559272139 -0.47590323914846377 0 -0.1915741566131953 -0.48274482478870012 0 -0.19179305986328829 -0.46711759196808689 0 -0.1915741566131953 -0.48274482478870012 0 -0.17982433803767831 -0.46920918797397909 0 -0.2140191710910414 -0.49999999999999972 0 -0.1915741566131953 -0.48274482478870012 0 -0.1841956238768391 -0.5 0 -0.1915741566131953 -0.48274482478870012 0 -0.1841956238768391 -0.5 0 -0.17247084166804699 -0.48396500267038112 0 -0.1841956238768391 -0.5 0 -0.17247084166804699 -0.48396500267038112 0 -0.15437207666263669 -0.50000000000000022 0 -0.15669106487963419 -0.47716915445828201 0 -0.17247084166804699 -0.48396500267038112 0 -0.15437207666263669 -0.50000000000000022 0 -0.15669106487963419 -0.47716915445828201 0 -0.17247084166804699 -0.48396500267038112 0 -0.1680230602922401 -0.4683158249620154 0 -0.17247084166804699 -0.48396500267038112 0 -0.17982433803767831 -0.46920918797397909 0 -0.1680230602922401 -0.4683158249620154 0 -0.1915741566131953 -0.48274482478870012 0 -0.17247084166804699 -0.48396500267038112 0 -0.17982433803767831 -0.46920918797397909 0 -0.19179305986328829 -0.46711759196808689 0 -0.17982433803767831 -0.46920918797397909 0 -0.184822707974968 -0.45592422963236362 0 -0.17982433803767831 -0.46920918797397909 0 -0.184822707974968 -0.45592422963236362 0 -0.17211900377920919 -0.45689747079087062 0 -0.17982433803767831 -0.46920918797397909 0 -0.17211900377920919 -0.45689747079087062 0 -0.1680230602922401 -0.4683158249620154 0 -0.1870173619903012 -0.44414077979923022 0 -0.17843006300647921 -0.44542980211747812 0 -0.1823118302108766 -0.43680876328769058 0 -0.184822707974968 -0.45592422963236362 0 -0.1870173619903012 -0.44414077979923022 0 -0.17843006300647921 -0.44542980211747812 0 -0.17211900377920919 -0.45689747079087062 0 -0.17843006300647921 -0.44542980211747812 0 -0.16919262628862339 -0.44362555979768409 0 -0.184822707974968 -0.45592422963236362 0 -0.17211900377920919 -0.45689747079087062 0 -0.17843006300647921 -0.44542980211747812 0 -0.17843006300647921 -0.44542980211747812 0 -0.16919262628862339 -0.44362555979768409 0 -0.17507497024716731 -0.42995475378866199 0 -0.1590100530966318 -0.45433830891656402 0 -0.148881704538534 -0.44296791951084241 0 -0.1613290413136293 -0.43150746337484569 0 -0.1590100530966318 -0.45433830891656402 0 -0.1613290413136293 -0.43150746337484569 0 -0.16919262628862339 -0.44362555979768409 0 -0.1590100530966318 -0.45433830891656402 0 -0.1613290413136293 -0.43150746337484569 0 -0.17211900377920919 -0.45689747079087062 0 -0.16919262628862339 -0.44362555979768409 0 -0.1590100530966318 -0.45433830891656402 0 -0.15669106487963419 -0.47716915445828201 0 -0.1680230602922401 -0.4683158249620154 0 -0.1590100530966318 -0.45433830891656402 0 -0.15669106487963419 -0.47716915445828201 0 -0.1590100530966318 -0.45433830891656402 0 -0.17211900377920919 -0.45689747079087062 0 -0.1680230602922401 -0.4683158249620154 0 -0.1590100530966318 -0.45433830891656402 0 -0.15669106487963419 -0.47716915445828201 0 -0.1590100530966318 -0.45433830891656402 0 -0.1472923250818238 -0.46077477567243558 0 -0.1590100530966318 -0.45433830891656402 0 -0.1472923250818238 -0.46077477567243558 0 -0.148881704538534 -0.44296791951084241 0 -0.1472923250818238 -0.46077477567243558 0 -0.148881704538534 -0.44296791951084241 0 -0.13194602454298601 -0.43962244526902572 0 -0.13194602454298601 -0.43962244526902572 0 -0.13077987840644981 -0.46069854066347632 0 -0.11615585050415531 -0.45102464773050138 0 -0.1472923250818238 -0.46077477567243558 0 -0.13194602454298601 -0.43962244526902572 0 -0.1472923250818238 -0.46077477567243558 0 -0.13077987840644981 -0.46069854066347632 0 -0.13742439756140509 -0.48004162281001828 0 -0.1472923250818238 -0.46077477567243558 0 -0.13194602454298601 -0.43962244526902572 0 -0.13077987840644981 -0.46069854066347632 0 -0.13742439756140509 -0.48004162281001828 0 -0.12108079434187891 -0.47202921183540031 0 -0.1206292342060253 -0.48641385964910883 0 -0.13077987840644981 -0.46069854066347632 0 -0.13742439756140509 -0.48004162281001828 0 -0.12108079434187891 -0.47202921183540031 0 -0.13742439756140509 -0.48004162281001828 0 -0.131118449396015 -0.5 0 -0.1206292342060253 -0.48641385964910883 0 -0.15669106487963419 -0.47716915445828201 0 -0.13742439756140509 -0.48004162281001828 0 -0.15437207666263669 -0.50000000000000022 0 -0.15669106487963419 -0.47716915445828201 0 -0.15437207666263669 -0.50000000000000022 0 -0.13742439756140509 -0.48004162281001828 0 -0.131118449396015 -0.5 0 -0.15437207666263669 -0.50000000000000022 0 -0.15669106487963419 -0.47716915445828201 0 -0.1472923250818238 -0.46077477567243558 0 -0.13742439756140509 -0.48004162281001828 0 -0.13678826443221431 -0.39755243580027871 0 -0.14931675495270949 -0.41057852288770358 0 -0.15761740849691311 -0.38818340141201402 0 -0.1369224961495438 -0.38192389563367207 0 -0.13678826443221431 -0.39755243580027871 0 -0.15761740849691311 -0.38818340141201402 0 -0.1369224961495438 -0.38192389563367207 0 -0.15761740849691311 -0.38818340141201402 0 -0.148308101659717 -0.36695316985008092 0 -0.1369224961495438 -0.38192389563367207 0 -0.12526638733901391 -0.39147447277512609 0 -0.13678826443221431 -0.39755243580027871 0 -0.1369224961495438 -0.38192389563367207 0 -0.1303219987982592 -0.3665496015062627 0 -0.12201267174342199 -0.37938718301114999 0 -0.1369224961495438 -0.38192389563367207 0 -0.12526638733901391 -0.39147447277512609 0 -0.12201267174342199 -0.37938718301114999 0 -0.12526638733901391 -0.39147447277512609 0 -0.13678826443221431 -0.39755243580027871 0 -0.12592730430259419 -0.40432488328170318 0 -0.13678826443221431 -0.39755243580027871 0 -0.12592730430259419 -0.40432488328170318 0 -0.1345256340888337 -0.41538851269275129 0 -0.13678826443221431 -0.39755243580027871 0 -0.1345256340888337 -0.41538851269275129 0 -0.14931675495270949 -0.41057852288770358 0 -0.12592730430259419 -0.40432488328170318 0 -0.1345256340888337 -0.41538851269275129 0 -0.1165997240041481 -0.41847011486561592 0 -0.13194602454298601 -0.43962244526902572 0 -0.1345256340888337 -0.41538851269275129 0 -0.14483107865759889 -0.42859660432134139 0 -0.13194602454298601 -0.43962244526902572 0 -0.1345256340888337 -0.41538851269275129 0 -0.1165997240041481 -0.41847011486561592 0 -0.148881704538534 -0.44296791951084241 0 -0.14483107865759889 -0.42859660432134139 0 -0.1613290413136293 -0.43150746337484569 0 -0.148881704538534 -0.44296791951084241 0 -0.13194602454298601 -0.43962244526902572 0 -0.14483107865759889 -0.42859660432134139 0 -0.14483107865759889 -0.42859660432134139 0 -0.14931675495270949 -0.41057852288770358 0 -0.1613290413136293 -0.43150746337484569 0 -0.1345256340888337 -0.41538851269275129 0 -0.14483107865759889 -0.42859660432134139 0 -0.14931675495270949 -0.41057852288770358 0 -0.16364802953062679 -0.40867661783312748 0 -0.1613290413136293 -0.43150746337484569 0 -0.14931675495270949 -0.41057852288770358 0 -0.16364802953062679 -0.40867661783312748 0 -0.1613290413136293 -0.43150746337484569 0 -0.16364802953062679 -0.40867661783312748 0 -0.1613290413136293 -0.43150746337484569 0 -0.17507497024716731 -0.42995475378866199 0 -0.16919262628862339 -0.44362555979768409 0 -0.1613290413136293 -0.43150746337484569 0 -0.17507497024716731 -0.42995475378866199 0 -0.1870173619903012 -0.44414077979923022 0 -0.1823118302108766 -0.43680876328769058 0 -0.18872492559955881 -0.42770971744539221 0 -0.17843006300647921 -0.44542980211747812 0 -0.17507497024716731 -0.42995475378866199 0 -0.1823118302108766 -0.43680876328769058 0 -0.17507497024716731 -0.42995475378866199 0 -0.1806986800215967 -0.4173161083834821 0 -0.18872492559955881 -0.42770971744539221 0 -0.17507497024716731 -0.42995475378866199 0 -0.1823118302108766 -0.43680876328769058 0 -0.18872492559955881 -0.42770971744539221 0 -0.1806986800215967 -0.4173161083834821 0 -0.18228064084688081 -0.39610998094782668 0 -0.19209360216251761 -0.40824625574224149 0 -0.16364802953062679 -0.40867661783312748 0 -0.17507497024716731 -0.42995475378866199 0 -0.1806986800215967 -0.4173161083834821 0 -0.16364802953062679 -0.40867661783312748 0 -0.1806986800215967 -0.4173161083834821 0 -0.18228064084688081 -0.39610998094782668 0 -0.16364802953062679 -0.40867661783312748 0 -0.18228064084688081 -0.39610998094782668 0 -0.15761740849691311 -0.38818340141201402 0 -0.14931675495270949 -0.41057852288770358 0 -0.16364802953062679 -0.40867661783312748 0 -0.15761740849691311 -0.38818340141201402 0 -0.15761740849691311 -0.38818340141201402 0 -0.183603859264966 -0.3766054584014627 0 -0.1661931572416451 -0.36889933283976362 0 -0.18228064084688081 -0.39610998094782668 0 -0.15761740849691311 -0.38818340141201402 0 -0.183603859264966 -0.3766054584014627 0 -0.18228064084688081 -0.39610998094782668 0 -0.183603859264966 -0.3766054584014627 0 -0.20216487974800659 -0.3829991661375407 0 -0.18228064084688081 -0.39610998094782668 0 -0.20343785588976751 -0.39944649130885712 0 -0.19209360216251761 -0.40824625574224149 0 -0.18228064084688081 -0.39610998094782668 0 -0.20216487974800659 -0.3829991661375407 0 -0.20343785588976751 -0.39944649130885712 0 -0.20343785588976751 -0.39944649130885712 0 -0.21350444502423929 -0.40864471589815532 0 -0.22035180610084079 -0.39356726900625483 0 -0.20216487974800659 -0.3829991661375407 0 -0.20343785588976751 -0.39944649130885712 0 -0.22035180610084079 -0.39356726900625483 0 -0.20216487974800659 -0.3829991661375407 0 -0.22035180610084079 -0.39356726900625483 0 -0.219169022554425 -0.37113875127287832 0 -0.1806986800215967 -0.4173161083834821 0 -0.2030300315513712 -0.43746332377949593 0 -0.18872492559955881 -0.42770971744539221 0 -0.1806986800215967 -0.4173161083834821 0 -0.2030300315513712 -0.43746332377949593 0 -0.2030300315513712 -0.43746332377949593 0 -0.19369636752838881 -0.41903658901391427 0 -0.2031687955665597 -0.42354741618771741 0 -0.1806986800215967 -0.4173161083834821 0 -0.2030300315513712 -0.43746332377949593 0 -0.19369636752838881 -0.41903658901391427 0 -0.19369636752838881 -0.41903658901391427 0 -0.20299923128825029 -0.41376529568937459 0 -0.2031687955665597 -0.42354741618771741 0 -0.1806986800215967 -0.4173161083834821 0 -0.19369636752838881 -0.41903658901391427 0 -0.19209360216251761 -0.40824625574224149 0 -0.19369636752838881 -0.41903658901391427 0 -0.19209360216251761 -0.40824625574224149 0 -0.20299923128825029 -0.41376529568937459 0 -0.20343785588976751 -0.39944649130885712 0 -0.19209360216251761 -0.40824625574224149 0 -0.20299923128825029 -0.41376529568937459 0 -0.20343785588976751 -0.39944649130885712 0 -0.20299923128825029 -0.41376529568937459 0 -0.21350444502423929 -0.40864471589815532 0 -0.21350444502423929 -0.40864471589815532 0 -0.21294955189822859 -0.42392445626808489 0 -0.2277837799441092 -0.41252006721820539 0 -0.20299923128825029 -0.41376529568937459 0 -0.2031687955665597 -0.42354741618771741 0 -0.21294955189822859 -0.42392445626808489 0 -0.20299923128825029 -0.41376529568937459 0 -0.21350444502423929 -0.40864471589815532 0 -0.21294955189822859 -0.42392445626808489 0 -0.2030300315513712 -0.43746332377949593 0 -0.21294955189822859 -0.42392445626808489 0 -0.22549954629610269 -0.43500765649169948 0 -0.2030300315513712 -0.43746332377949593 0 -0.2031687955665597 -0.42354741618771741 0 -0.21294955189822859 -0.42392445626808489 0 -0.23591515519085041 -0.44398209369878189 0 -0.22549954629610269 -0.43500765649169948 0 -0.23735783041644329 -0.42609093398936743 0 -0.22549954629610269 -0.43500765649169948 0 -0.2277837799441092 -0.41252006721820539 0 -0.23735783041644329 -0.42609093398936743 0 -0.21294955189822859 -0.42392445626808489 0 -0.22549954629610269 -0.43500765649169948 0 -0.2277837799441092 -0.41252006721820539 0 -0.2277837799441092 -0.41252006721820539 0 -0.24694430377570939 -0.41295507854145541 0 -0.2277837799441092 -0.41252006721820539 0 -0.24694430377570939 -0.41295507854145541 0 -0.23735783041644329 -0.42609093398936743 0 -0.2277837799441092 -0.41252006721820539 0 -0.24694430377570939 -0.41295507854145541 0 -0.2359891007147569 -0.39914414181493052 0 -0.25298523514652932 -0.43702750984159111 0 -0.24694430377570939 -0.41295507854145541 0 -0.23735783041644329 -0.42609093398936743 0 -0.25298523514652932 -0.43702750984159111 0 -0.23591515519085041 -0.44398209369878189 0 -0.23735783041644329 -0.42609093398936743 0 -0.22035180610084079 -0.39356726900625483 0 -0.23802591309349369 -0.38358476956933441 0 -0.219169022554425 -0.37113875127287832 0 -0.22035180610084079 -0.39356726900625483 0 -0.2359891007147569 -0.39914414181493052 0 -0.23802591309349369 -0.38358476956933441 0 -0.21350444502423929 -0.40864471589815532 0 -0.2277837799441092 -0.41252006721820539 0 -0.22035180610084079 -0.39356726900625483 0 -0.2277837799441092 -0.41252006721820539 0 -0.22035180610084079 -0.39356726900625483 0 -0.2359891007147569 -0.39914414181493052 0 -0.2359891007147569 -0.39914414181493052 0 -0.2487824818667288 -0.3954643368039899 0 -0.23802591309349369 -0.38358476956933441 0 -0.24694430377570939 -0.41295507854145541 0 -0.2359891007147569 -0.39914414181493052 0 -0.2487824818667288 -0.3954643368039899 0 -0.26050234447883253 -0.38027693877573482 0 -0.2487824818667288 -0.3954643368039899 0 -0.23802591309349369 -0.38358476956933441 0 -0.26050234447883253 -0.38027693877573482 0 -0.23802591309349369 -0.38358476956933441 0 -0.24817767477162081 -0.36986654917455902 0 -0.23802591309349369 -0.38358476956933441 0 -0.24817767477162081 -0.36986654917455902 0 -0.23583729862822109 -0.36574384613307409 0 -0.24817767477162081 -0.36986654917455902 0 -0.23583729862822109 -0.36574384613307409 0 -0.24850069890613241 -0.35473287875334369 0 -0.23583729862822109 -0.36574384613307409 0 -0.219169022554425 -0.37113875127287832 0 -0.22531318381543361 -0.34939628189525529 0 -0.23802591309349369 -0.38358476956933441 0 -0.23583729862822109 -0.36574384613307409 0 -0.219169022554425 -0.37113875127287832 0 -0.22531318381543361 -0.34939628189525529 0 -0.24850069890613241 -0.35473287875334369 0 -0.24219101746094579 -0.34438554910399921 0 -0.23583729862822109 -0.36574384613307409 0 -0.22531318381543361 -0.34939628189525529 0 -0.24850069890613241 -0.35473287875334369 0 -0.22531318381543361 -0.34939628189525529 0 -0.24850069890613241 -0.35473287875334369 0 -0.25445926970156468 -0.34270101061729968 0 -0.24850069890613241 -0.35473287875334369 0 -0.24219101746094579 -0.34438554910399921 0 -0.25445926970156468 -0.34270101061729968 0 -0.24219101746094579 -0.34438554910399921 0 -0.2460450098649074 -0.33743905859998191 0 -0.25207330520806498 -0.33378255792528982 0 -0.2460450098649074 -0.33743905859998191 0 -0.24306356592407591 -0.32787829483024122 0 -0.2348359590034956 -0.33686915078515089 0 -0.24306356592407591 -0.32787829483024122 0 -0.23163603200856511 -0.32708080208212859 0 -0.2460450098649074 -0.33743905859998191 0 -0.2348359590034956 -0.33686915078515089 0 -0.24306356592407591 -0.32787829483024122 0 -0.24219101746094579 -0.34438554910399921 0 -0.2460450098649074 -0.33743905859998191 0 -0.2348359590034956 -0.33686915078515089 0 -0.25273748935779161 -0.32224337373924072 0 -0.24326482791746179 -0.31394285089519419 0 -0.24426682308287331 -0.30533572025667649 0 -0.25273748935779161 -0.32224337373924072 0 -0.24426682308287331 -0.30533572025667649 0 -0.25273748935779161 -0.32224337373924072 0 -0.24326482791746179 -0.31394285089519419 0 -0.2440208243134171 -0.32058552998791068 0 -0.25273748935779161 -0.32224337373924072 0 -0.24306356592407591 -0.32787829483024122 0 -0.2440208243134171 -0.32058552998791068 0 -0.25207330520806498 -0.33378255792528982 0 -0.25273748935779161 -0.32224337373924072 0 -0.24306356592407591 -0.32787829483024122 0 -0.24306356592407591 -0.32787829483024122 0 -0.2440208243134171 -0.32058552998791068 0 -0.23701741405433899 -0.31827760048696663 0 -0.24306356592407591 -0.32787829483024122 0 -0.23701741405433899 -0.31827760048696663 0 -0.23163603200856511 -0.32708080208212859 0 -0.24326482791746179 -0.31394285089519419 0 -0.23701741405433899 -0.31827760048696663 0 -0.2384772558931193 -0.30928307653082621 0 -0.24326482791746179 -0.31394285089519419 0 -0.2440208243134171 -0.32058552998791068 0 -0.23701741405433899 -0.31827760048696663 0 -0.22244826701882919 -0.32070202864358233 0 -0.22802593536356699 -0.30882837184141948 0 -0.21110805984082151 -0.30983785689108939 0 -0.23701741405433899 -0.31827760048696663 0 -0.22244826701882919 -0.32070202864358233 0 -0.22802593536356699 -0.30882837184141948 0 -0.23701741405433899 -0.31827760048696663 0 -0.23163603200856511 -0.32708080208212859 0 -0.22244826701882919 -0.32070202864358233 0 -0.23163603200856511 -0.32708080208212859 0 -0.22244826701882919 -0.32070202864358233 0 -0.22079431421521131 -0.33353493235345111 0 -0.22531318381543361 -0.34939628189525529 0 -0.2348359590034956 -0.33686915078515089 0 -0.22079431421521131 -0.33353493235345111 0 -0.22531318381543361 -0.34939628189525529 0 -0.24219101746094579 -0.34438554910399921 0 -0.2348359590034956 -0.33686915078515089 0 -0.2348359590034956 -0.33686915078515089 0 -0.23163603200856511 -0.32708080208212859 0 -0.22079431421521131 -0.33353493235345111 0 -0.22079431421521131 -0.33353493235345111 0 -0.20839645480677241 -0.32403064402179738 0 -0.20212566872473489 -0.34405968503716688 0 -0.22531318381543361 -0.34939628189525529 0 -0.22079431421521131 -0.33353493235345111 0 -0.20212566872473489 -0.34405968503716688 0 -0.22244826701882919 -0.32070202864358233 0 -0.20839645480677241 -0.32403064402179738 0 -0.21110805984082151 -0.30983785689108939 0 -0.22244826701882919 -0.32070202864358233 0 -0.22079431421521131 -0.33353493235345111 0 -0.20839645480677241 -0.32403064402179738 0 -0.20839645480677241 -0.32403064402179738 0 -0.19575919956014079 -0.31702437624003538 0 -0.21110805984082151 -0.30983785689108939 0 -0.20839645480677241 -0.32403064402179738 0 -0.19575919956014079 -0.31702437624003538 0 -0.19562896033857519 -0.33020038185646122 0 -0.19575919956014079 -0.31702437624003538 0 -0.19562896033857519 -0.33020038185646122 0 -0.18477851095256179 -0.32477614194451959 0 -0.20212566872473489 -0.34405968503716688 0 -0.1789381536340362 -0.33872308817907848 0 -0.19562896033857519 -0.33020038185646122 0 -0.20212566872473489 -0.34405968503716688 0 -0.1789381536340362 -0.33872308817907848 0 -0.20839645480677241 -0.32403064402179738 0 -0.19562896033857519 -0.33020038185646122 0 -0.20212566872473489 -0.34405968503716688 0 -0.20212566872473489 -0.34405968503716688 0 -0.2037839996862793 -0.36234410805543599 0 -0.1863350517553729 -0.35962674217565882 0 -0.20212566872473489 -0.34405968503716688 0 -0.1863350517553729 -0.35962674217565882 0 -0.1789381536340362 -0.33872308817907848 0 -0.183603859264966 -0.3766054584014627 0 -0.20216487974800659 -0.3829991661375407 0 -0.2037839996862793 -0.36234410805543599 0 -0.183603859264966 -0.3766054584014627 0 -0.2037839996862793 -0.36234410805543599 0 -0.1863350517553729 -0.35962674217565882 0 -0.219169022554425 -0.37113875127287832 0 -0.22531318381543361 -0.34939628189525529 0 -0.2037839996862793 -0.36234410805543599 0 -0.20216487974800659 -0.3829991661375407 0 -0.219169022554425 -0.37113875127287832 0 -0.2037839996862793 -0.36234410805543599 0 -0.22531318381543361 -0.34939628189525529 0 -0.20212566872473489 -0.34405968503716688 0 -0.2037839996862793 -0.36234410805543599 0 -0.22531318381543361 -0.34939628189525529 0 -0.20212566872473489 -0.34405968503716688 0 -0.24465976002352091 -0.25387891845332877 0 -0.23199225124923151 -0.26692477658714647 0 -0.21854221021918649 -0.25236034283526498 0 -0.23199225124923151 -0.26692477658714647 0 -0.21864709985809599 -0.27150291036173302 0 -0.21854221021918649 -0.25236034283526498 0 -0.24465976002352091 -0.25387891845332877 0 -0.2444485511135471 -0.27534046621033159 0 -0.23199225124923151 -0.26692477658714647 0 -0.25958550566062261 -0.27102626557679149 0 -0.24465976002352091 -0.25387891845332877 0 -0.2444485511135471 -0.27534046621033159 0 -0.2444485511135471 -0.27534046621033159 0 -0.23199225124923151 -0.26692477658714647 0 -0.23366363503180709 -0.28154124507507411 0 -0.2197277065850177 -0.2872169177591285 0 -0.23366363503180709 -0.28154124507507411 0 -0.21864709985809599 -0.27150291036173302 0 -0.23199225124923151 -0.26692477658714647 0 -0.23366363503180709 -0.28154124507507411 0 -0.21864709985809599 -0.27150291036173302 0 -0.2197277065850177 -0.2872169177591285 0 -0.23366363503180709 -0.28154124507507411 0 -0.24011613505684479 -0.30107681213347393 0 -0.2197277065850177 -0.2872169177591285 0 -0.24011613505684479 -0.30107681213347393 0 -0.2197277065850177 -0.2872169177591285 0 -0.24011613505684479 -0.30107681213347393 0 -0.2201073871300871 -0.30044142834658671 0 -0.2444485511135471 -0.27534046621033159 0 -0.23366363503180709 -0.28154124507507411 0 -0.24732420154209239 -0.29033586459568173 0 -0.23366363503180709 -0.28154124507507411 0 -0.24732420154209239 -0.29033586459568173 0 -0.24011613505684479 -0.30107681213347393 0 -0.25608276685525683 -0.28295324223861612 0 -0.2444485511135471 -0.27534046621033159 0 -0.24732420154209239 -0.29033586459568173 0 -0.26050456352867191 -0.3149367065078193 0 -0.24011613505684479 -0.30107681213347393 0 -0.24426682308287331 -0.30533572025667649 0 -0.25485564421046719 -0.30132045870319019 0 -0.24732420154209239 -0.29033586459568173 0 -0.24011613505684479 -0.30107681213347393 0 -0.24011613505684479 -0.30107681213347393 0 -0.2384772558931193 -0.30928307653082621 0 -0.22802593536356699 -0.30882837184141948 0 -0.24326482791746179 -0.31394285089519419 0 -0.24426682308287331 -0.30533572025667649 0 -0.2384772558931193 -0.30928307653082621 0 -0.24011613505684479 -0.30107681213347393 0 -0.24426682308287331 -0.30533572025667649 0 -0.2384772558931193 -0.30928307653082621 0 -0.23701741405433899 -0.31827760048696663 0 -0.2384772558931193 -0.30928307653082621 0 -0.22802593536356699 -0.30882837184141948 0 -0.22802593536356699 -0.30882837184141948 0 -0.2201073871300871 -0.30044142834658671 0 -0.21110805984082151 -0.30983785689108939 0 -0.24011613505684479 -0.30107681213347393 0 -0.22802593536356699 -0.30882837184141948 0 -0.2201073871300871 -0.30044142834658671 0 -0.2201073871300871 -0.30044142834658671 0 -0.21110805984082151 -0.30983785689108939 0 -0.20155909880418441 -0.29524718310782239 0 -0.21110805984082151 -0.30983785689108939 0 -0.2000775247532616 -0.30687463122530689 0 -0.20155909880418441 -0.29524718310782239 0 -0.19575919956014079 -0.31702437624003538 0 -0.21110805984082151 -0.30983785689108939 0 -0.2000775247532616 -0.30687463122530689 0 -0.18961770926909149 -0.30481471110084102 0 -0.20155909880418441 -0.29524718310782239 0 -0.1798976030385912 -0.29461474791537873 0 -0.19575919956014079 -0.31702437624003538 0 -0.2000775247532616 -0.30687463122530689 0 -0.18961770926909149 -0.30481471110084102 0 -0.19575919956014079 -0.31702437624003538 0 -0.18961770926909149 -0.30481471110084102 0 -0.1803928959391416 -0.31521744924658562 0 -0.2000775247532616 -0.30687463122530689 0 -0.18961770926909149 -0.30481471110084102 0 -0.20155909880418441 -0.29524718310782239 0 -0.19933927811319041 -0.27335702338478318 0 -0.1798976030385912 -0.29461474791537873 0 -0.20155909880418441 -0.29524718310782239 0 -0.19933927811319041 -0.27335702338478318 0 -0.1798976030385912 -0.29461474791537873 0 -0.2197277065850177 -0.2872169177591285 0 -0.20155909880418441 -0.29524718310782239 0 -0.19933927811319041 -0.27335702338478318 0 -0.2197277065850177 -0.2872169177591285 0 -0.2201073871300871 -0.30044142834658671 0 -0.20155909880418441 -0.29524718310782239 0 -0.21864709985809599 -0.27150291036173302 0 -0.19933927811319041 -0.27335702338478318 0 -0.21854221021918649 -0.25236034283526498 0 -0.2197277065850177 -0.2872169177591285 0 -0.21864709985809599 -0.27150291036173302 0 -0.19933927811319041 -0.27335702338478318 0 -0.2197277065850177 -0.2872169177591285 0 -0.19933927811319041 -0.27335702338478318 0 -0.19672455084482071 -0.27157955221738023 0 -0.19563648814007639 -0.2627950405098789 0 -0.1773613401945949 -0.28300380337564962 0 -0.19672455084482071 -0.27157955221738023 0 -0.19933927811319041 -0.27335702338478318 0 -0.1773613401945949 -0.28300380337564962 0 -0.19672455084482071 -0.27157955221738023 0 -0.19933927811319041 -0.27335702338478318 0 -0.19563648814007639 -0.2627950405098789 0 -0.19672455084482071 -0.27157955221738023 0 -0.19933927811319041 -0.27335702338478318 0 -0.19933927811319041 -0.27335702338478318 0 -0.19563648814007639 -0.2627950405098789 0 -0.2024770003035091 -0.25628481747185139 0 -0.19563648814007639 -0.2627950405098789 0 -0.19160736129165659 -0.25262396586623759 0 -0.18182513936558051 -0.25739227955256888 0 -0.19563648814007639 -0.2627950405098789 0 -0.19160736129165659 -0.25262396586623759 0 -0.2024770003035091 -0.25628481747185139 0 -0.19160736129165659 -0.25262396586623759 0 -0.2024770003035091 -0.25628481747185139 0 -0.19988453840298659 -0.24176205441804 0 -0.19933927811319041 -0.27335702338478318 0 -0.2024770003035091 -0.25628481747185139 0 -0.21854221021918649 -0.25236034283526498 0 -0.2024770003035091 -0.25628481747185139 0 -0.21854221021918649 -0.25236034283526498 0 -0.19988453840298659 -0.24176205441804 0 -0.19933927811319041 -0.27335702338478318 0 -0.21854221021918649 -0.25236034283526498 0 -0.16270034237907721 -0.26451024010365409 0 -0.1689202540561075 -0.25519621835756329 0 -0.15263230708737521 -0.24356194903458239 0 -0.16270034237907721 -0.26451024010365409 0 -0.15585924966824549 -0.27338725763800159 0 -0.15263230708737521 -0.24356194903458239 0 -0.16270034237907721 -0.26451024010365409 0 -0.1689202540561075 -0.25519621835756329 0 -0.17291740387759841 -0.2648938158906885 0 -0.1689202540561075 -0.25519621835756329 0 -0.18182513936558051 -0.25739227955256888 0 -0.1745260775709061 -0.24562280720632229 0 -0.19160736129165659 -0.25262396586623759 0 -0.18182513936558051 -0.25739227955256888 0 -0.1745260775709061 -0.24562280720632229 0 -0.19563648814007639 -0.2627950405098789 0 -0.18182513936558051 -0.25739227955256888 0 -0.18269465011250469 -0.26841637399603913 0 -0.1689202540561075 -0.25519621835756329 0 -0.18182513936558051 -0.25739227955256888 0 -0.17291740387759841 -0.2648938158906885 0 -0.18182513936558051 -0.25739227955256888 0 -0.17291740387759841 -0.2648938158906885 0 -0.18269465011250469 -0.26841637399603913 0 -0.19563648814007639 -0.2627950405098789 0 -0.18269465011250469 -0.26841637399603913 0 -0.1773613401945949 -0.28300380337564962 0 -0.17291740387759841 -0.2648938158906885 0 -0.17526212336935321 -0.27297056277525461 0 -0.1680750992927145 -0.27556825783864097 0 -0.19563648814007639 -0.2627950405098789 0 -0.1773613401945949 -0.28300380337564962 0 -0.17291740387759841 -0.2648938158906885 0 -0.17526212336935321 -0.27297056277525461 0 -0.18269465011250469 -0.26841637399603913 0 -0.17526212336935321 -0.27297056277525461 0 -0.18269465011250469 -0.26841637399603913 0 -0.1773613401945949 -0.28300380337564962 0 -0.17526212336935321 -0.27297056277525461 0 -0.1680750992927145 -0.27556825783864097 0 -0.1773613401945949 -0.28300380337564962 0 -0.1680750992927145 -0.27556825783864097 0 -0.1682011228878135 -0.28257539269247411 0 -0.1773613401945949 -0.28300380337564962 0 -0.1680750992927145 -0.27556825783864097 0 -0.1622412594804854 -0.28273310688964581 0 -0.1682011228878135 -0.28257539269247411 0 -0.16270034237907721 -0.26451024010365409 0 -0.17291740387759841 -0.2648938158906885 0 -0.1680750992927145 -0.27556825783864097 0 -0.16270034237907721 -0.26451024010365409 0 -0.1680750992927145 -0.27556825783864097 0 -0.16179622859894191 -0.27503335760685149 0 -0.16270034237907721 -0.26451024010365409 0 -0.16179622859894191 -0.27503335760685149 0 -0.15585924966824549 -0.27338725763800159 0 -0.16179622859894191 -0.27503335760685149 0 -0.1622412594804854 -0.28273310688964581 0 -0.15585924966824549 -0.27338725763800159 0 -0.1680750992927145 -0.27556825783864097 0 -0.16179622859894191 -0.27503335760685149 0 -0.1622412594804854 -0.28273310688964581 0 -0.1622412594804854 -0.28273310688964581 0 -0.16512679258345911 -0.28899640266596011 0 -0.15908619224911419 -0.30321256624142101 0 -0.1622412594804854 -0.28273310688964581 0 -0.15908619224911419 -0.30321256624142101 0 -0.15585924966824549 -0.27338725763800159 0 -0.15908619224911419 -0.30321256624142101 0 -0.15585924966824549 -0.27338725763800159 0 -0.16512679258345911 -0.28899640266596011 0 -0.1773613401945949 -0.28300380337564962 0 -0.15908619224911419 -0.30321256624142101 0 -0.1773613401945949 -0.28300380337564962 0 -0.15908619224911419 -0.30321256624142101 0 -0.16512679258345911 -0.28899640266596011 0 -0.1682011228878135 -0.28257539269247411 0 -0.1773613401945949 -0.28300380337564962 0 -0.1622412594804854 -0.28273310688964581 0 -0.16512679258345911 -0.28899640266596011 0 -0.1682011228878135 -0.28257539269247411 0 -0.1773613401945949 -0.28300380337564962 0 -0.1798976030385912 -0.29461474791537873 0 -0.15908619224911419 -0.30321256624142101 0 -0.19933927811319041 -0.27335702338478318 0 -0.1773613401945949 -0.28300380337564962 0 -0.1798976030385912 -0.29461474791537873 0 -0.1798976030385912 -0.29461474791537873 0 -0.17759103405270391 -0.30762984517719472 0 -0.16045592796399111 -0.3158724724459735 0 -0.18961770926909149 -0.30481471110084102 0 -0.1798976030385912 -0.29461474791537873 0 -0.17759103405270391 -0.30762984517719472 0 -0.18961770926909149 -0.30481471110084102 0 -0.17759103405270391 -0.30762984517719472 0 -0.1803928959391416 -0.31521744924658562 0 -0.1798976030385912 -0.29461474791537873 0 -0.16045592796399111 -0.3158724724459735 0 -0.1798976030385912 -0.29461474791537873 0 -0.15908619224911419 -0.30321256624142101 0 -0.16045592796399111 -0.3158724724459735 0 -0.15908619224911419 -0.30321256624142101 0 -0.16045592796399111 -0.3158724724459735 0 -0.1471380549162328 -0.30532142906175452 0 -0.14032160831301491 -0.30752887986621158 0 -0.14130665940473261 -0.32287327510069419 0 -0.15908619224911419 -0.30321256624142101 0 -0.1471380549162328 -0.30532142906175452 0 -0.14130665940473261 -0.32287327510069419 0 -0.15908619224911419 -0.30321256624142101 0 -0.1471380549162328 -0.30532142906175452 0 -0.1510678287434867 -0.29559461902651829 0 -0.14390798587081549 -0.29739780507392732 0 -0.1471380549162328 -0.30532142906175452 0 -0.1510678287434867 -0.29559461902651829 0 -0.14390798587081549 -0.29739780507392732 0 -0.1471380549162328 -0.30532142906175452 0 -0.14032160831301491 -0.30752887986621158 0 -0.14032160831301491 -0.30752887986621158 0 -0.13439128381467691 -0.29991683468539793 0 -0.13033731665847181 -0.31286393971371201 0 -0.13439128381467691 -0.29991683468539793 0 -0.13033731665847181 -0.31286393971371201 0 -0.12304085188452731 -0.29931348820209958 0 -0.14390798587081549 -0.29739780507392732 0 -0.14032160831301491 -0.30752887986621158 0 -0.13439128381467691 -0.29991683468539793 0 -0.14390798587081549 -0.29739780507392732 0 -0.13439128381467691 -0.29991683468539793 0 -0.14011095662501261 -0.28947786809128212 0 -0.13439128381467691 -0.29991683468539793 0 -0.14011095662501261 -0.28947786809128212 0 -0.12994370463312691 -0.28995419054763111 0 -0.13439128381467691 -0.29991683468539793 0 -0.12994370463312691 -0.28995419054763111 0 -0.12304085188452731 -0.29931348820209958 0 -0.12994370463312691 -0.28995419054763111 0 -0.13687965345326569 -0.27993872332247433 0 -0.1257911728949061 -0.280427018304516 0 -0.12994370463312691 -0.28995419054763111 0 -0.1257911728949061 -0.280427018304516 0 -0.1194571486541455 -0.28746452468861589 0 -0.14011095662501261 -0.28947786809128212 0 -0.12994370463312691 -0.28995419054763111 0 -0.13687965345326569 -0.27993872332247433 0 -0.15908619224911419 -0.30321256624142101 0 -0.15162645984294551 -0.28670064183700439 0 -0.15585924966824549 -0.27338725763800159 0 -0.14011095662501261 -0.28947786809128212 0 -0.1458827091329962 -0.28225219708249882 0 -0.13687965345326569 -0.27993872332247433 0 -0.15908619224911419 -0.30321256624142101 0 -0.1510678287434867 -0.29559461902651829 0 -0.15162645984294551 -0.28670064183700439 0 -0.1458827091329962 -0.28225219708249882 0 -0.1468811506158991 -0.28912565090950809 0 -0.15162645984294551 -0.28670064183700439 0 -0.14011095662501261 -0.28947786809128212 0 -0.1458827091329962 -0.28225219708249882 0 -0.1468811506158991 -0.28912565090950809 0 -0.14390798587081549 -0.29739780507392732 0 -0.1468811506158991 -0.28912565090950809 0 -0.1510678287434867 -0.29559461902651829 0 -0.14390798587081549 -0.29739780507392732 0 -0.14011095662501261 -0.28947786809128212 0 -0.1468811506158991 -0.28912565090950809 0 -0.1468811506158991 -0.28912565090950809 0 -0.1510678287434867 -0.29559461902651829 0 -0.15162645984294551 -0.28670064183700439 0 -0.1458827091329962 -0.28225219708249882 0 -0.15162645984294551 -0.28670064183700439 0 -0.15098162864793119 -0.27663156012407891 0 -0.15162645984294551 -0.28670064183700439 0 -0.15098162864793119 -0.27663156012407891 0 -0.15585924966824549 -0.27338725763800159 0 -0.15098162864793119 -0.27663156012407891 0 -0.1522527558101047 -0.27366235468835692 0 -0.14903370440966179 -0.27344637702894548 0 -0.15098162864793119 -0.27663156012407891 0 -0.1522527558101047 -0.27366235468835692 0 -0.15585924966824549 -0.27338725763800159 0 -0.14903370440966179 -0.27344637702894548 0 -0.1531364405145805 -0.27118422396240138 0 -0.14385763015454139 -0.26954128824380802 0 -0.1522527558101047 -0.27366235468835692 0 -0.15585924966824549 -0.27338725763800159 0 -0.1531364405145805 -0.27118422396240138 0 -0.1522527558101047 -0.27366235468835692 0 -0.14903370440966179 -0.27344637702894548 0 -0.1531364405145805 -0.27118422396240138 0 -0.14903370440966179 -0.27344637702894548 0 -0.14385763015454139 -0.26954128824380802 0 -0.1442805510697899 -0.27562940435382949 0 -0.14385763015454139 -0.26954128824380802 0 -0.1442805510697899 -0.27562940435382949 0 -0.13835653564694769 -0.27242798417408381 0 -0.1458827091329962 -0.28225219708249882 0 -0.1442805510697899 -0.27562940435382949 0 -0.13687965345326569 -0.27993872332247433 0 -0.15098162864793119 -0.27663156012407891 0 -0.14903370440966179 -0.27344637702894548 0 -0.1442805510697899 -0.27562940435382949 0 -0.1458827091329962 -0.28225219708249882 0 -0.15098162864793119 -0.27663156012407891 0 -0.1442805510697899 -0.27562940435382949 0 -0.13687965345326569 -0.27993872332247433 0 -0.12970248462840331 -0.2717774759070859 0 -0.13835653564694769 -0.27242798417408381 0 -0.1442805510697899 -0.27562940435382949 0 -0.13687965345326569 -0.27993872332247433 0 -0.13835653564694769 -0.27242798417408381 0 -0.13687965345326569 -0.27993872332247433 0 -0.1257911728949061 -0.280427018304516 0 -0.12970248462840331 -0.2717774759070859 0 -0.12970248462840331 -0.2717774759070859 0 -0.13570208279224111 -0.26528350045903498 0 -0.12855037573501921 -0.26115248962005239 0 -0.14385763015454139 -0.26954128824380802 0 -0.13835653564694769 -0.27242798417408381 0 -0.13570208279224111 -0.26528350045903498 0 -0.12970248462840331 -0.2717774759070859 0 -0.13835653564694769 -0.27242798417408381 0 -0.13570208279224111 -0.26528350045903498 0 -0.13570208279224111 -0.26528350045903498 0 -0.12855037573501921 -0.26115248962005239 0 -0.1377523016625678 -0.25581657194563601 0 -0.14385763015454139 -0.26954128824380802 0 -0.13570208279224111 -0.26528350045903498 0 -0.1377523016625678 -0.25581657194563601 0 -0.12855037573501921 -0.26115248962005239 0 -0.1377523016625678 -0.25581657194563601 0 -0.1223681628105569 -0.24044891992886891 0 -0.1531364405145805 -0.27118422396240138 0 -0.1377523016625678 -0.25581657194563601 0 -0.15263230708737521 -0.24356194903458239 0 -0.15585924966824549 -0.27338725763800159 0 -0.1531364405145805 -0.27118422396240138 0 -0.15263230708737521 -0.24356194903458239 0 -0.15585924966824549 -0.27338725763800159 0 -0.15263230708737521 -0.24356194903458239 0 -0.1531364405145805 -0.27118422396240138 0 -0.1377523016625678 -0.25581657194563601 0 -0.1531364405145805 -0.27118422396240138 0 -0.14385763015454139 -0.26954128824380802 0 -0.1377523016625678 -0.25581657194563601 0 -0.1661931572416451 -0.36889933283976362 0 -0.1633245426028184 -0.34238590264286861 0 -0.15433175674287769 -0.35458729317269139 0 -0.1661931572416451 -0.36889933283976362 0 -0.1633245426028184 -0.34238590264286861 0 -0.1661931572416451 -0.36889933283976362 0 -0.17388048196752651 -0.3522733272046466 0 -0.1633245426028184 -0.34238590264286861 0 -0.1661931572416451 -0.36889933283976362 0 -0.15433175674287769 -0.35458729317269139 0 -0.148308101659717 -0.36695316985008092 0 -0.15761740849691311 -0.38818340141201402 0 -0.1661931572416451 -0.36889933283976362 0 -0.148308101659717 -0.36695316985008092 0 -0.183603859264966 -0.3766054584014627 0 -0.1661931572416451 -0.36889933283976362 0 -0.1863350517553729 -0.35962674217565882 0 -0.1661931572416451 -0.36889933283976362 0 -0.1863350517553729 -0.35962674217565882 0 -0.17388048196752651 -0.3522733272046466 0 -0.1863350517553729 -0.35962674217565882 0 -0.17388048196752651 -0.3522733272046466 0 -0.1789381536340362 -0.33872308817907848 0 -0.17388048196752651 -0.3522733272046466 0 -0.1789381536340362 -0.33872308817907848 0 -0.1633245426028184 -0.34238590264286861 0 -0.19562896033857519 -0.33020038185646122 0 -0.1789381536340362 -0.33872308817907848 0 -0.18477851095256179 -0.32477614194451959 0 -0.1789381536340362 -0.33872308817907848 0 -0.18477851095256179 -0.32477614194451959 0 -0.1735479853981102 -0.32728394705986258 0 -0.1789381536340362 -0.33872308817907848 0 -0.1735479853981102 -0.32728394705986258 0 -0.1633245426028184 -0.34238590264286861 0 -0.17759103405270391 -0.30762984517719472 0 -0.1803928959391416 -0.31521744924658562 0 -0.16045592796399111 -0.3158724724459735 0 -0.19575919956014079 -0.31702437624003538 0 -0.1803928959391416 -0.31521744924658562 0 -0.18477851095256179 -0.32477614194451959 0 -0.1803928959391416 -0.31521744924658562 0 -0.18477851095256179 -0.32477614194451959 0 -0.1735479853981102 -0.32728394705986258 0 -0.1803928959391416 -0.31521744924658562 0 -0.1735479853981102 -0.32728394705986258 0 -0.16045592796399111 -0.3158724724459735 0 -0.1735479853981102 -0.32728394705986258 0 -0.16045592796399111 -0.3158724724459735 0 -0.1633245426028184 -0.34238590264286861 0 -0.16045592796399111 -0.3158724724459735 0 -0.1633245426028184 -0.34238590264286861 0 -0.1476770575246594 -0.3298450188736391 0 -0.16045592796399111 -0.3158724724459735 0 -0.1633245426028184 -0.34238590264286861 0 -0.1633245426028184 -0.34238590264286861 0 -0.15030263560259111 -0.34285112818916452 0 -0.1476770575246594 -0.3298450188736391 0 -0.1476770575246594 -0.3298450188736391 0 -0.14130665940473261 -0.32287327510069419 0 -0.13989838249203351 -0.33226752099114382 0 -0.1476770575246594 -0.3298450188736391 0 -0.14096893258994439 -0.33934882548262568 0 -0.13989838249203351 -0.33226752099114382 0 -0.15030263560259111 -0.34285112818916452 0 -0.1476770575246594 -0.3298450188736391 0 -0.14096893258994439 -0.33934882548262568 0 -0.15908619224911419 -0.30321256624142101 0 -0.14130665940473261 -0.32287327510069419 0 -0.16045592796399111 -0.3158724724459735 0 -0.1476770575246594 -0.3298450188736391 0 -0.14130665940473261 -0.32287327510069419 0 -0.15908619224911419 -0.30321256624142101 0 -0.16045592796399111 -0.3158724724459735 0 -0.14130665940473261 -0.32287327510069419 0 -0.16045592796399111 -0.3158724724459735 0 -0.1476770575246594 -0.3298450188736391 0 -0.14130665940473261 -0.32287327510069419 0 -0.12766342535057629 -0.32481504462803062 0 -0.13033731665847181 -0.31286393971371201 0 -0.14032160831301491 -0.30752887986621158 0 -0.14130665940473261 -0.32287327510069419 0 -0.13033731665847181 -0.31286393971371201 0 -0.14130665940473261 -0.32287327510069419 0 -0.12766342535057629 -0.32481504462803062 0 -0.12902917457320359 -0.33644978787578289 0 -0.12766342535057629 -0.32481504462803062 0 -0.12902917457320359 -0.33644978787578289 0 -0.123033176677132 -0.34308019655903149 0 -0.14096893258994439 -0.33934882548262568 0 -0.12902917457320359 -0.33644978787578289 0 -0.13366226850604379 -0.34759248760944123 0 -0.14096893258994439 -0.33934882548262568 0 -0.13989838249203351 -0.33226752099114382 0 -0.12902917457320359 -0.33644978787578289 0 -0.14130665940473261 -0.32287327510069419 0 -0.12902917457320359 -0.33644978787578289 0 -0.14130665940473261 -0.32287327510069419 0 -0.13989838249203351 -0.33226752099114382 0 -0.12902917457320359 -0.33644978787578289 0 -0.12902917457320359 -0.33644978787578289 0 -0.123033176677132 -0.34308019655903149 0 -0.12902917457320359 -0.33644978787578289 0 -0.13366226850604379 -0.34759248760944123 0 -0.123033176677132 -0.34308019655903149 0 -0.13366226850604379 -0.34759248760944123 0 -0.1303219987982592 -0.3665496015062627 0 -0.123033176677132 -0.34308019655903149 0 -0.1303219987982592 -0.3665496015062627 0 -0.123033176677132 -0.34308019655903149 0 -0.13366226850604379 -0.34759248760944123 0 -0.1435303466076166 -0.35184693234157938 0 -0.1303219987982592 -0.3665496015062627 0 -0.14096893258994439 -0.33934882548262568 0 -0.13366226850604379 -0.34759248760944123 0 -0.1435303466076166 -0.35184693234157938 0 -0.15030263560259111 -0.34285112818916452 0 -0.14096893258994439 -0.33934882548262568 0 -0.1435303466076166 -0.35184693234157938 0 -0.1435303466076166 -0.35184693234157938 0 -0.15433175674287769 -0.35458729317269139 0 -0.148308101659717 -0.36695316985008092 0 -0.1633245426028184 -0.34238590264286861 0 -0.15030263560259111 -0.34285112818916452 0 -0.15433175674287769 -0.35458729317269139 0 -0.15030263560259111 -0.34285112818916452 0 -0.1435303466076166 -0.35184693234157938 0 -0.15433175674287769 -0.35458729317269139 0 -0.1435303466076166 -0.35184693234157938 0 -0.148308101659717 -0.36695316985008092 0 -0.1303219987982592 -0.3665496015062627 0 -0.1369224961495438 -0.38192389563367207 0 -0.148308101659717 -0.36695316985008092 0 -0.1303219987982592 -0.3665496015062627 0 -0.1303219987982592 -0.3665496015062627 0 -0.1159926709000937 -0.36685414663024191 0 -0.11895596668836859 -0.34683008488337108 0 -0.1303219987982592 -0.3665496015062627 0 -0.1159926709000937 -0.36685414663024191 0 -0.12201267174342199 -0.37938718301114999 0 -0.1024060606807759 -0.36205135125861898 0 -0.1016559479587178 -0.38500202459504551 0 -0.1159926709000937 -0.36685414663024191 0 -0.1024060606807759 -0.36205135125861898 0 -0.1094440337948836 -0.37923577087639421 0 -0.1024060606807759 -0.36205135125861898 0 -0.1016559479587178 -0.38500202459504551 0 -0.095426438310298192 -0.37780241062099151 0 -0.1024060606807759 -0.36205135125861898 0 -0.090139611558562177 -0.37333304007799939 0 -0.095426438310298192 -0.37780241062099151 0 -0.1024060606807759 -0.36205135125861898 0 -0.093943439343664059 -0.36410026383479388 0 -0.090139611558562177 -0.37333304007799939 0 -0.1024060606807759 -0.36205135125861898 0 -0.093943439343664059 -0.36410026383479388 0 -0.095626283443773746 -0.35612124291623848 0 -0.1024060606807759 -0.36205135125861898 0 -0.090139611558562177 -0.37333304007799939 0 -0.1024060606807759 -0.36205135125861898 0 -0.1029439411344124 -0.34559419992324319 0 -0.1024060606807759 -0.36205135125861898 0 -0.1029439411344124 -0.34559419992324319 0 -0.11895596668836859 -0.34683008488337108 0 -0.1024060606807759 -0.36205135125861898 0 -0.095626283443773746 -0.35612124291623848 0 -0.1029439411344124 -0.34559419992324319 0 -0.095626283443773746 -0.35612124291623848 0 -0.1029439411344124 -0.34559419992324319 0 -0.093212578299404075 -0.34130700998995739 0 -0.1159926709000937 -0.36685414663024191 0 -0.1024060606807759 -0.36205135125861898 0 -0.11895596668836859 -0.34683008488337108 0 -0.1024060606807759 -0.36205135125861898 0 -0.11895596668836859 -0.34683008488337108 0 -0.1303219987982592 -0.3665496015062627 0 -0.11895596668836859 -0.34683008488337108 0 -0.123033176677132 -0.34308019655903149 0 -0.1029439411344124 -0.34559419992324319 0 -0.11895596668836859 -0.34683008488337108 0 -0.123033176677132 -0.34308019655903149 0 -0.11895596668836859 -0.34683008488337108 0 -0.123033176677132 -0.34308019655903149 0 -0.1029439411344124 -0.34559419992324319 0 -0.1137910684918501 -0.33520612369310882 0 -0.123033176677132 -0.34308019655903149 0 -0.123033176677132 -0.34308019655903149 0 -0.1159692764993048 -0.31568518943543378 0 -0.1137910684918501 -0.33520612369310882 0 -0.123033176677132 -0.34308019655903149 0 -0.1159692764993048 -0.31568518943543378 0 -0.12766342535057629 -0.32481504462803062 0 -0.123033176677132 -0.34308019655903149 0 -0.1159692764993048 -0.31568518943543378 0 -0.1137910684918501 -0.33520612369310882 0 -0.1159692764993048 -0.31568518943543378 0 -0.1034818215880495 -0.3291370485878673 0 -0.12766342535057629 -0.32481504462803062 0 -0.13033731665847181 -0.31286393971371201 0 -0.1159692764993048 -0.31568518943543378 0 -0.1159692764993048 -0.31568518943543378 0 -0.10079975883819629 -0.31506063040533638 0 -0.1034818215880495 -0.3291370485878673 0 -0.10079975883819629 -0.31506063040533638 0 -0.093212578299404075 -0.34130700998995739 0 -0.10079975883819629 -0.31506063040533638 0 -0.093212578299404075 -0.34130700998995739 0 -0.087373844159168004 -0.3291061545470132 0 -0.10079975883819629 -0.31506063040533638 0 -0.1034818215880495 -0.3291370485878673 0 -0.093212578299404075 -0.34130700998995739 0 -0.1029439411344124 -0.34559419992324319 0 -0.1034818215880495 -0.3291370485878673 0 -0.1029439411344124 -0.34559419992324319 0 -0.1034818215880495 -0.3291370485878673 0 -0.093212578299404075 -0.34130700998995739 0 -0.1029439411344124 -0.34559419992324319 0 -0.1137910684918501 -0.33520612369310882 0 -0.1034818215880495 -0.3291370485878673 0 -0.093212578299404075 -0.34130700998995739 0 -0.087373844159168004 -0.3291061545470132 0 -0.080908772255243899 -0.33898270124258217 0 -0.087373844159168004 -0.3291061545470132 0 -0.080908772255243899 -0.33898270124258217 0 -0.077490532230771417 -0.32991328235931511 0 -0.093212578299404075 -0.34130700998995739 0 -0.080908772255243899 -0.33898270124258217 0 -0.080378844364046895 -0.35001101873094542 0 -0.10079975883819629 -0.31506063040533638 0 -0.085305929108392881 -0.31951846990187233 0 -0.091873739319295072 -0.31122357941036211 0 -0.10079975883819629 -0.31506063040533638 0 -0.087373844159168004 -0.3291061545470132 0 -0.085305929108392881 -0.31951846990187233 0 -0.085305929108392881 -0.31951846990187233 0 -0.076805788315873161 -0.32077910918615782 0 -0.077490532230771417 -0.32991328235931511 0 -0.087373844159168004 -0.3291061545470132 0 -0.085305929108392881 -0.31951846990187233 0 -0.077490532230771417 -0.32991328235931511 0 -0.085305929108392881 -0.31951846990187233 0 -0.076805788315873161 -0.32077910918615782 0 -0.078544889372492196 -0.31002595631180607 0 -0.085305929108392881 -0.31951846990187233 0 -0.091873739319295072 -0.31122357941036211 0 -0.078544889372492196 -0.31002595631180607 0 -0.066882954587322394 -0.32486941793266988 0 -0.078544889372492196 -0.31002595631180607 0 -0.05424539878688571 -0.319762651601179 0 -0.078544889372492196 -0.31002595631180607 0 -0.05424539878688571 -0.319762651601179 0 -0.076805788315873161 -0.32077910918615782 0 -0.066882954587322394 -0.32486941793266988 0 -0.078544889372492196 -0.31002595631180607 0 -0.076805788315873161 -0.32077910918615782 0 -0.066882954587322394 -0.32486941793266988 0 -0.077490532230771417 -0.32991328235931511 0 -0.066882954587322394 -0.32486941793266988 0 -0.070160141916437824 -0.34098238217286791 0 -0.054527031800802053 -0.34042178362413461 0 -0.066882954587322394 -0.32486941793266988 0 -0.077490532230771417 -0.32991328235931511 0 -0.070160141916437824 -0.34098238217286791 0 -0.080908772255243899 -0.33898270124258217 0 -0.077490532230771417 -0.32991328235931511 0 -0.070160141916437824 -0.34098238217286791 0 -0.080908772255243899 -0.33898270124258217 0 -0.070160141916437824 -0.34098238217286791 0 -0.080378844364046895 -0.35001101873094542 0 -0.070160141916437824 -0.34098238217286791 0 -0.066522813126512412 -0.35680227137673098 0 -0.054527031800802053 -0.34042178362413461 0 -0.070160141916437824 -0.34098238217286791 0 -0.066522813126512412 -0.35680227137673098 0 -0.080378844364046895 -0.35001101873094542 0 -0.066522813126512412 -0.35680227137673098 0 -0.076582500297099523 -0.36039923154202719 0 -0.080378844364046895 -0.35001101873094542 0 -0.066522813126512412 -0.35680227137673098 0 -0.073802945937226916 -0.36723024648585417 0 -0.058387822440418388 -0.36975607908058028 0 -0.073802945937226916 -0.36723024648585417 0 -0.058387822440418388 -0.36975607908058028 0 -0.08170780991661282 -0.38109255286014232 0 -0.066522813126512412 -0.35680227137673098 0 -0.073802945937226916 -0.36723024648585417 0 -0.076582500297099523 -0.36039923154202719 0 -0.073802945937226916 -0.36723024648585417 0 -0.076582500297099523 -0.36039923154202719 0 -0.085625397760611066 -0.36755338957457828 0 -0.085625397760611066 -0.36755338957457828 0 -0.087954911787112483 -0.37534235041220648 0 -0.08170780991661282 -0.38109255286014232 0 -0.073802945937226916 -0.36723024648585417 0 -0.085625397760611066 -0.36755338957457828 0 -0.08170780991661282 -0.38109255286014232 0 -0.085625397760611066 -0.36755338957457828 0 -0.08170780991661282 -0.38109255286014232 0 -0.093943439343664059 -0.36410026383479388 0 -0.085625397760611066 -0.36755338957457828 0 -0.090139611558562177 -0.37333304007799939 0 -0.093943439343664059 -0.36410026383479388 0 -0.090139611558562177 -0.37333304007799939 0 -0.085625397760611066 -0.36755338957457828 0 -0.090139611558562177 -0.37333304007799939 0 -0.087954911787112483 -0.37534235041220648 0 -0.085625397760611066 -0.36755338957457828 0 -0.087954911787112483 -0.37534235041220648 0 -0.090139611558562177 -0.37333304007799939 0 -0.087954911787112483 -0.37534235041220648 0 -0.093943439343664059 -0.36410026383479388 0 -0.095626283443773746 -0.35612124291623848 0 -0.085625397760611066 -0.36755338957457828 0 -0.093212578299404075 -0.34130700998995739 0 -0.085625397760611066 -0.36755338957457828 0 -0.076582500297099523 -0.36039923154202719 0 -0.085625397760611066 -0.36755338957457828 0 -0.080378844364046895 -0.35001101873094542 0 -0.093212578299404075 -0.34130700998995739 0 -0.085625397760611066 -0.36755338957457828 0 -0.080378844364046895 -0.35001101873094542 0 -0.085625397760611066 -0.36755338957457828 0 -0.080378844364046895 -0.35001101873094542 0 -0.095626283443773746 -0.35612124291623848 0 -0.093212578299404075 -0.34130700998995739 0 -0.085625397760611066 -0.36755338957457828 0 -0.10474757541744149 -0.26087495970427582 0 -0.090174700483665673 -0.26498018187443112 0 -0.1005321994236209 -0.2431127607729493 0 -0.10474757541744149 -0.26087495970427582 0 -0.11757885349586771 -0.25701660664448461 0 -0.1005321994236209 -0.2431127607729493 0 -0.12855037573501921 -0.26115248962005239 0 -0.11757885349586771 -0.25701660664448461 0 -0.1127895441811773 -0.27358429336009982 0 -0.12855037573501921 -0.26115248962005239 0 -0.11757885349586771 -0.25701660664448461 0 -0.1223681628105569 -0.24044891992886891 0 -0.10474757541744149 -0.26087495970427582 0 -0.11757885349586771 -0.25701660664448461 0 -0.1127895441811773 -0.27358429336009982 0 -0.11757885349586771 -0.25701660664448461 0 -0.1127895441811773 -0.27358429336009982 0 -0.1257911728949061 -0.280427018304516 0 -0.12970248462840331 -0.2717774759070859 0 -0.1127895441811773 -0.27358429336009982 0 -0.12855037573501921 -0.26115248962005239 0 -0.1127895441811773 -0.27358429336009982 0 -0.12970248462840331 -0.2717774759070859 0 -0.12855037573501921 -0.26115248962005239 0 -0.1127895441811773 -0.27358429336009982 0 -0.1257911728949061 -0.280427018304516 0 -0.1127895441811773 -0.27358429336009982 0 -0.1194571486541455 -0.28746452468861589 0 -0.1127895441811773 -0.27358429336009982 0 -0.1083869393769897 -0.28881425082071571 0 -0.1127895441811773 -0.27358429336009982 0 -0.093274829049746905 -0.28897707944045958 0 -0.090174700483665673 -0.26498018187443112 0 -0.10474757541744149 -0.26087495970427582 0 -0.1127895441811773 -0.27358429336009982 0 -0.090174700483665673 -0.26498018187443112 0 -0.1127895441811773 -0.27358429336009982 0 -0.1067008731150054 -0.28283902414649681 0 -0.093274829049746905 -0.28897707944045958 0 -0.1127895441811773 -0.27358429336009982 0 -0.093274829049746905 -0.28897707944045958 0 -0.1083869393769897 -0.28881425082071571 0 -0.102844379958099 -0.30028926102243358 0 -0.093274829049746905 -0.28897707944045958 0 -0.1127895441811773 -0.27358429336009982 0 -0.1083869393769897 -0.28881425082071571 0 -0.1067008731150054 -0.28283902414649681 0 -0.1083869393769897 -0.28881425082071571 0 -0.1067008731150054 -0.28283902414649681 0 -0.1083869393769897 -0.28881425082071571 0 -0.1067008731150054 -0.28283902414649681 0 -0.093274829049746905 -0.28897707944045958 0 -0.1127895441811773 -0.27358429336009982 0 -0.1083869393769897 -0.28881425082071571 0 -0.1194571486541455 -0.28746452468861589 0 -0.12994370463312691 -0.28995419054763111 0 -0.1194571486541455 -0.28746452468861589 0 -0.12304085188452731 -0.29931348820209958 0 -0.1083869393769897 -0.28881425082071571 0 -0.1194571486541455 -0.28746452468861589 0 -0.12304085188452731 -0.29931348820209958 0 -0.1159692764993048 -0.31568518943543378 0 -0.1083869393769897 -0.28881425082071571 0 -0.12304085188452731 -0.29931348820209958 0 -0.1159692764993048 -0.31568518943543378 0 -0.1083869393769897 -0.28881425082071571 0 -0.13033731665847181 -0.31286393971371201 0 -0.1159692764993048 -0.31568518943543378 0 -0.12304085188452731 -0.29931348820209958 0 -0.1159692764993048 -0.31568518943543378 0 -0.10079975883819629 -0.31506063040533638 0 -0.1083869393769897 -0.28881425082071571 0 -0.10079975883819629 -0.31506063040533638 0 -0.1083869393769897 -0.28881425082071571 0 -0.10079975883819629 -0.31506063040533638 0 -0.1083869393769897 -0.28881425082071571 0 -0.102844379958099 -0.30028926102243358 0 -0.10079975883819629 -0.31506063040533638 0 -0.102844379958099 -0.30028926102243358 0 -0.091873739319295072 -0.31122357941036211 0 -0.078544889372492196 -0.31002595631180607 0 -0.073760113918316481 -0.30436986552081963 0 -0.093274829049746905 -0.28897707944045958 0 -0.102844379958099 -0.30028926102243358 0 -0.078544889372492196 -0.31002595631180607 0 -0.093274829049746905 -0.28897707944045958 0 -0.102844379958099 -0.30028926102243358 0 -0.091873739319295072 -0.31122357941036211 0 -0.078544889372492196 -0.31002595631180607 0 -0.102844379958099 -0.30028926102243358 0 -0.078544889372492196 -0.31002595631180607 0 -0.078544889372492196 -0.31002595631180607 0 -0.073760113918316481 -0.30436986552081963 0 -0.05424539878688571 -0.319762651601179 0 -0.073760113918316481 -0.30436986552081963 0 -0.05424539878688571 -0.319762651601179 0 -0.073760113918316481 -0.30436986552081963 0 -0.071188273097670243 -0.28513602236808322 0 -0.055748641784298267 -0.30178875706485681 0 -0.073760113918316481 -0.30436986552081963 0 -0.071188273097670243 -0.28513602236808322 0 -0.093274829049746905 -0.28897707944045958 0 -0.073760113918316481 -0.30436986552081963 0 -0.093274829049746905 -0.28897707944045958 0 -0.071188273097670243 -0.28513602236808322 0 -0.093274829049746905 -0.28897707944045958 0 -0.090174700483665673 -0.26498018187443112 0 -0.071188273097670243 -0.28513602236808322 0 -0.063484538676239377 -0.26413124226689111 0 -0.090174700483665673 -0.26498018187443112 0 -0.063484538676239377 -0.26413124226689111 0 -0.076282262678724011 -0.24169347649274159 0 -0.063484538676239377 -0.26413124226689111 0 -0.090174700483665673 -0.26498018187443112 0 -0.076282262678724011 -0.24169347649274159 0 -0.036942597034766073 -0.27265489088473938 0 -0.050686814673754729 -0.28656900804104057 0 -0.0185119813334658 -0.28327625011988139 0 -0.038581934025118947 -0.25114857380685968 0 -0.038334603868346327 -0.2604973367990705 0 -0.03064478186574425 -0.25326356670072259 0 -0.038334603868346327 -0.2604973367990705 0 -0.029413390480137139 -0.26518294325465769 0 -0.03064478186574425 -0.25326356670072259 0 -0.038334603868346327 -0.2604973367990705 0 -0.046517308340487992 -0.25474718453952289 0 -0.048289188575406587 -0.26955092917192058 0 -0.038581934025118947 -0.25114857380685968 0 -0.038334603868346327 -0.2604973367990705 0 -0.046517308340487992 -0.25474718453952289 0 -0.063484538676239377 -0.26413124226689111 0 -0.046517308340487992 -0.25474718453952289 0 -0.0567919256119837 -0.24387644547435741 0 -0.063484538676239377 -0.26413124226689111 0 -0.046517308340487992 -0.25474718453952289 0 -0.048289188575406587 -0.26955092917192058 0 -0.063484538676239377 -0.26413124226689111 0 -0.050686814673754729 -0.28656900804104057 0 -0.071188273097670243 -0.28513602236808322 0 -0.063484538676239377 -0.26413124226689111 0 -0.050686814673754729 -0.28656900804104057 0 -0.063484538676239377 -0.26413124226689111 0 -0.048289188575406587 -0.26955092917192058 0 -0.050686814673754729 -0.28656900804104057 0 -0.048289188575406587 -0.26955092917192058 0 -0.036942597034766073 -0.27265489088473938 0 -0.050686814673754729 -0.28656900804104057 0 -0.038334603868346327 -0.2604973367990705 0 -0.048289188575406587 -0.26955092917192058 0 -0.036942597034766073 -0.27265489088473938 0 -0.038334603868346327 -0.2604973367990705 0 -0.036942597034766073 -0.27265489088473938 0 -0.029413390480137139 -0.26518294325465769 0 -0.050686814673754729 -0.28656900804104057 0 -0.037889090671270123 -0.30900677381518998 0 -0.0185119813334658 -0.28327625011988139 0 -0.071188273097670243 -0.28513602236808322 0 -0.050686814673754729 -0.28656900804104057 0 -0.055748641784298267 -0.30178875706485681 0 -0.073760113918316481 -0.30436986552081963 0 -0.055748641784298267 -0.30178875706485681 0 -0.05424539878688571 -0.319762651601179 0 -0.055748641784298267 -0.30178875706485681 0 -0.037889090671270123 -0.30900677381518998 0 -0.05424539878688571 -0.319762651601179 0 -0.050686814673754729 -0.28656900804104057 0 -0.055748641784298267 -0.30178875706485681 0 -0.037889090671270123 -0.30900677381518998 0 -0.050686814673754729 -0.28656900804104057 0 -0.037889090671270123 -0.30900677381518998 0 -0.037889090671270123 -0.30900677381518998 0 -0.014390974368570029 -0.31032982847088841 0 -0.0185119813334658 -0.28327625011988139 0 -0.014390974368570029 -0.31032982847088841 0 0.001904989571353899 -0.32214434476741449 0 0.0019518825097332619 -0.30029273945570772 0 -0.014390974368570029 -0.31032982847088841 0 -0.0185119813334658 -0.28327625011988139 0 0.0019518825097332619 -0.30029273945570772 0 -0.0185119813334658 -0.28327625011988139 0 -0.0020851015340006161 -0.28052611142458661 0 0.0019518825097332619 -0.30029273945570772 0 -0.014390974368570029 -0.31032982847088841 0 -0.0185119813334658 -0.28327625011988139 0 -0.036942597034766073 -0.27265489088473938 0 -0.0185119813334658 -0.28327625011988139 0 -0.029413390480137139 -0.26518294325465769 0 -0.0185119813334658 -0.28327625011988139 0 -0.02263298829836323 -0.25622267176887481 0 -0.029413390480137139 -0.26518294325465769 0 -0.0185119813334658 -0.28327625011988139 0 -0.02263298829836323 -0.25622267176887481 0 -0.0185119813334658 -0.28327625011988139 0 -0.0093077836028632385 -0.27105033158696179 0 -0.02263298829836323 -0.25622267176887481 0 -0.0185119813334658 -0.28327625011988139 0 -0.0020851015340006161 -0.28052611142458661 0 -0.0093077836028632385 -0.27105033158696179 0 -0.0020851015340006161 -0.28052611142458661 0 -0.0093077836028632385 -0.27105033158696179 0 0.0055944649301708496 -0.26664830233551728 0 -0.014059514610042069 -0.25416210053859828 0 -0.02263298829836323 -0.25622267176887481 0 0.0055944649301708496 -0.26664830233551728 0 -0.0093077836028632385 -0.27105033158696179 0 -0.02263298829836323 -0.25622267176887481 0 0.0055944649301708496 -0.26664830233551728 0 -0.02263298829836323 -0.25622267176887481 0 0.0055944649301708496 -0.26664830233551728 0 -0.014059514610042069 -0.25416210053859828 0 -0.0080727856436109482 -0.2481099565327444 0 0.0055944649301708496 -0.26664830233551728 0 -0.014059514610042069 -0.25416210053859828 0 -0.01887874476148543 -0.24814250919209771 0 -0.0080727856436109482 -0.2481099565327444 0 -0.014059514610042069 -0.25416210053859828 0 -0.02263298829836323 -0.25622267176887481 0 -0.02285766608625657 -0.25474770747244752 0 -0.014059514610042069 -0.25416210053859828 0 -0.02285766608625657 -0.25474770747244752 0 -0.01887874476148543 -0.24814250919209771 0 -0.02285766608625657 -0.25474770747244752 0 -0.026067501294639708 -0.24850247980592871 0 -0.01887874476148543 -0.24814250919209771 0 -0.02263298829836323 -0.25622267176887481 0 -0.02285766608625657 -0.25474770747244752 0 -0.02263298829836323 -0.25622267176887481 0 -0.029413390480137139 -0.26518294325465769 0 -0.03064478186574425 -0.25326356670072259 0 -0.02263298829836323 -0.25622267176887481 0 -0.03064478186574425 -0.25326356670072259 0 -0.02263298829836323 -0.25622267176887481 0 -0.02285766608625657 -0.25474770747244752 0 -0.03064478186574425 -0.25326356670072259 0 -0.02285766608625657 -0.25474770747244752 0 -0.03064478186574425 -0.25326356670072259 0 -0.026067501294639708 -0.24850247980592871 0 -0.040780788735907937 -0.34809370153295588 0 -0.035070660285960877 -0.35841379707961513 0 -0.051335308585544609 -0.35442186843706669 0 -0.040780788735907937 -0.34809370153295588 0 -0.033802973987086503 -0.33588719504380232 0 -0.029167969020145641 -0.35132386348016093 0 -0.040780788735907937 -0.34809370153295588 0 -0.035070660285960877 -0.35841379707961513 0 -0.029167969020145641 -0.35132386348016093 0 -0.035070660285960877 -0.35841379707961513 0 -0.040000350022935588 -0.37213681664196291 0 -0.021437446366364531 -0.36359117576668931 0 -0.035070660285960877 -0.35841379707961513 0 -0.058387822440418388 -0.36975607908058028 0 -0.035070660285960877 -0.35841379707961513 0 -0.040000350022935588 -0.37213681664196291 0 -0.058387822440418388 -0.36975607908058028 0 -0.040000350022935588 -0.37213681664196291 0 -0.058387822440418388 -0.36975607908058028 0 -0.058563253679506787 -0.38068245751723601 0 -0.035070660285960877 -0.35841379707961513 0 -0.058387822440418388 -0.36975607908058028 0 -0.051335308585544609 -0.35442186843706669 0 -0.066522813126512412 -0.35680227137673098 0 -0.058387822440418388 -0.36975607908058028 0 -0.051335308585544609 -0.35442186843706669 0 -0.066522813126512412 -0.35680227137673098 0 -0.051335308585544609 -0.35442186843706669 0 -0.054527031800802053 -0.34042178362413461 0 -0.040780788735907937 -0.34809370153295588 0 -0.051335308585544609 -0.35442186843706669 0 -0.054527031800802053 -0.34042178362413461 0 -0.066882954587322394 -0.32486941793266988 0 -0.054527031800802053 -0.34042178362413461 0 -0.05424539878688571 -0.319762651601179 0 -0.054527031800802053 -0.34042178362413461 0 -0.05424539878688571 -0.319762651601179 0 -0.033802973987086503 -0.33588719504380232 0 -0.05424539878688571 -0.319762651601179 0 -0.039668382727836717 -0.32560359559526031 0 -0.05424539878688571 -0.319762651601179 0 -0.033802973987086503 -0.33588719504380232 0 -0.037889090671270123 -0.30900677381518998 0 -0.025091366668787349 -0.3314445395893405 0 -0.05424539878688571 -0.319762651601179 0 -0.039668382727836717 -0.32560359559526031 0 -0.033802973987086503 -0.33588719504380232 0 -0.037889090671270123 -0.30900677381518998 0 -0.05424539878688571 -0.319762651601179 0 -0.039668382727836717 -0.32560359559526031 0 -0.037889090671270123 -0.30900677381518998 0 -0.039668382727836717 -0.32560359559526031 0 -0.025091366668787349 -0.3314445395893405 0 -0.040780788735907937 -0.34809370153295588 0 -0.054527031800802053 -0.34042178362413461 0 -0.033802973987086503 -0.33588719504380232 0 -0.039668382727836717 -0.32560359559526031 0 -0.025091366668787349 -0.3314445395893405 0 -0.039668382727836717 -0.32560359559526031 0 -0.033802973987086503 -0.33588719504380232 0 -0.025091366668787349 -0.3314445395893405 0 -0.025091366668787349 -0.3314445395893405 0 -0.01336054918728761 -0.35201173848642592 0 -0.033802973987086503 -0.33588719504380232 0 -0.025091366668787349 -0.3314445395893405 0 -0.01336054918728761 -0.35201173848642592 0 -0.025091366668787349 -0.3314445395893405 0 -0.01532372128421448 -0.33535839064186268 0 -0.01336054918728761 -0.35201173848642592 0 -0.025091366668787349 -0.3314445395893405 0 -0.022734703789933738 -0.32728556430890232 0 -0.01532372128421448 -0.33535839064186268 0 -0.025091366668787349 -0.3314445395893405 0 -0.01532372128421448 -0.33535839064186268 0 -0.022734703789933738 -0.32728556430890232 0 -0.01532372128421448 -0.33535839064186268 0 -0.037889090671270123 -0.30900677381518998 0 -0.014390974368570029 -0.31032982847088841 0 -0.022734703789933738 -0.32728556430890232 0 -0.037889090671270123 -0.30900677381518998 0 -0.025091366668787349 -0.3314445395893405 0 -0.022734703789933738 -0.32728556430890232 0 -0.014390974368570029 -0.31032982847088841 0 -0.022734703789933738 -0.32728556430890232 0 -0.01532372128421448 -0.33535839064186268 0 -0.014390974368570029 -0.31032982847088841 0 -0.010269967403673339 -0.33738340682189533 0 -0.014390974368570029 -0.31032982847088841 0 -0.010269967403673339 -0.33738340682189533 0 -0.01532372128421448 -0.33535839064186268 0 -0.014390974368570029 -0.31032982847088841 0 -0.010269967403673339 -0.33738340682189533 0 0.001904989571353899 -0.32214434476741449 0 -0.010269967403673339 -0.33738340682189533 0 -0.0096343958099064687 -0.34155580596031437 0 0.0075807645751098419 -0.34453611388615663 0 -0.010269967403673339 -0.33738340682189533 0 0.0075807645751098419 -0.34453611388615663 0 -0.0096343958099064687 -0.34155580596031437 0 -0.01532372128421448 -0.33535839064186268 0 -0.01336054918728761 -0.35201173848642592 0 -0.010269967403673339 -0.33738340682189533 0 -0.0096343958099064687 -0.34155580596031437 0 -0.010269967403673339 -0.33738340682189533 0 -0.0096343958099064687 -0.34155580596031437 0 -0.01532372128421448 -0.33535839064186268 0 -0.0096343958099064687 -0.34155580596031437 0 -0.01532372128421448 -0.33535839064186268 0 -0.010269967403673339 -0.33738340682189533 0 -0.01532372128421448 -0.33535839064186268 0 -0.010269967403673339 -0.33738340682189533 0 0.0034794820758208261 -0.33361449123698089 0 0.001904989571353899 -0.32214434476741449 0 -0.0096343958099064687 -0.34155580596031437 0 -0.0070150904897389628 -0.35875101633193152 0 -0.0096343958099064687 -0.34155580596031437 0 -0.0070150904897389628 -0.35875101633193152 0 -0.01336054918728761 -0.35201173848642592 0 -0.0096343958099064687 -0.34155580596031437 0 -0.0070150904897389628 -0.35875101633193152 0 0.0099352179383349771 -0.36287309999936251 0 -0.033802973987086503 -0.33588719504380232 0 -0.01336054918728761 -0.35201173848642592 0 -0.029167969020145641 -0.35132386348016093 0 -0.01336054918728761 -0.35201173848642592 0 -0.029167969020145641 -0.35132386348016093 0 -0.021437446366364531 -0.36359117576668931 0 -0.033802973987086503 -0.33588719504380232 0 -0.01336054918728761 -0.35201173848642592 0 -0.035070660285960877 -0.35841379707961513 0 -0.029167969020145641 -0.35132386348016093 0 -0.021437446366364531 -0.36359117576668931 0 -0.040000350022935588 -0.37213681664196291 0 -0.021437446366364531 -0.36359117576668931 0 -0.02618172091304426 -0.37743656618445498 0 -0.021437446366364531 -0.36359117576668931 0 -0.002178803782163227 -0.37161627006544062 0 -0.02618172091304426 -0.37743656618445498 0 -0.040000350022935588 -0.37213681664196291 0 -0.021437446366364531 -0.36359117576668931 0 -0.01336054918728761 -0.35201173848642592 0 -0.021437446366364531 -0.36359117576668931 0 -0.002178803782163227 -0.37161627006544062 0 -0.01336054918728761 -0.35201173848642592 0 -0.002178803782163227 -0.37161627006544062 0 -0.0070150904897389628 -0.35875101633193152 0 -0.01336054918728761 -0.35201173848642592 0 -0.002178803782163227 -0.37161627006544062 0 -0.002178803782163227 -0.37161627006544062 0 -0.026336278995230201 -0.38905167830789189 0 -0.002178803782163227 -0.37161627006544062 0 -0.0066930742226519926 -0.39143820132839208 0 -0.026336278995230201 -0.38905167830789189 0 -0.0066930742226519926 -0.39143820132839208 0 -0.001728596279610697 -0.40597762003102339 0 -0.017737199096442072 -0.40073047040120602 0 -0.0066930742226519926 -0.39143820132839208 0 -0.017737199096442072 -0.40073047040120602 0 -0.026336278995230201 -0.38905167830789189 0 -0.017737199096442072 -0.40073047040120602 0 -0.026336278995230201 -0.38905167830789189 0 -0.033287388117186109 -0.40399871831440642 0 -0.002178803782163227 -0.37161627006544062 0 -0.026336278995230201 -0.38905167830789189 0 -0.02618172091304426 -0.37743656618445498 0 -0.026336278995230201 -0.38905167830789189 0 -0.02618172091304426 -0.37743656618445498 0 -0.033482850758781962 -0.383939184607547 0 -0.02618172091304426 -0.37743656618445498 0 -0.042372487296275553 -0.37905951185084519 0 -0.033482850758781962 -0.383939184607547 0 -0.02618172091304426 -0.37743656618445498 0 -0.042372487296275553 -0.37905951185084519 0 -0.040000350022935588 -0.37213681664196291 0 -0.02618172091304426 -0.37743656618445498 0 -0.042372487296275553 -0.37905951185084519 0 -0.042372487296275553 -0.37905951185084519 0 -0.039040915830577852 -0.39020898208699611 0 -0.049048127186911553 -0.38756594990863991 0 -0.042372487296275553 -0.37905951185084519 0 -0.039040915830577852 -0.39020898208699611 0 -0.033482850758781962 -0.383939184607547 0 -0.026336278995230201 -0.38905167830789189 0 -0.039040915830577852 -0.39020898208699611 0 -0.033482850758781962 -0.383939184607547 0 -0.026336278995230201 -0.38905167830789189 0 -0.050493754208297943 -0.40648708655034188 0 -0.039040915830577852 -0.39020898208699611 0 -0.048181286987745188 -0.3967611761759377 0 -0.050493754208297943 -0.40648708655034188 0 -0.026336278995230201 -0.38905167830789189 0 -0.039040915830577852 -0.39020898208699611 0 -0.050493754208297943 -0.40648708655034188 0 -0.026336278995230201 -0.38905167830789189 0 -0.033287388117186109 -0.40399871831440642 0 -0.050493754208297943 -0.40648708655034188 0 -0.039040915830577852 -0.39020898208699611 0 -0.048181286987745188 -0.3967611761759377 0 -0.049048127186911553 -0.38756594990863991 0 -0.048181286987745188 -0.3967611761759377 0 -0.055512870853615448 -0.39455951290216967 0 -0.049048127186911553 -0.38756594990863991 0 -0.055512870853615448 -0.39455951290216967 0 -0.052509649903146327 -0.40794203844841681 0 -0.074281153156084773 -0.38791836881244668 0 -0.048181286987745188 -0.3967611761759377 0 -0.055512870853615448 -0.39455951290216967 0 -0.050493754208297943 -0.40648708655034188 0 -0.055512870853615448 -0.39455951290216967 0 -0.052509649903146327 -0.40794203844841681 0 -0.050493754208297943 -0.40648708655034188 0 -0.048181286987745188 -0.3967611761759377 0 -0.050493754208297943 -0.40648708655034188 0 -0.040000350022935588 -0.37213681664196291 0 -0.042372487296275553 -0.37905951185084519 0 -0.058563253679506787 -0.38068245751723601 0 -0.042372487296275553 -0.37905951185084519 0 -0.058563253679506787 -0.38068245751723601 0 -0.040000350022935588 -0.37213681664196291 0 -0.058563253679506787 -0.38068245751723601 0 -0.042372487296275553 -0.37905951185084519 0 -0.058563253679506787 -0.38068245751723601 0 -0.049048127186911553 -0.38756594990863991 0 -0.055512870853615448 -0.39455951290216967 0 -0.058563253679506787 -0.38068245751723601 0 -0.049048127186911553 -0.38756594990863991 0 -0.055571169944573007 -0.4278419796903028 0 -0.060002998013559863 -0.44648162232419802 0 -0.069408814394604765 -0.42365151461769918 0 -0.055571169944573007 -0.4278419796903028 0 -0.060002998013559863 -0.44648162232419802 0 -0.055571169944573007 -0.4278419796903028 0 -0.04142135733128624 -0.43391233418184683 0 -0.048623679129421588 -0.44273110985945369 0 -0.055571169944573007 -0.4278419796903028 0 -0.059775586818595829 -0.41787661413097049 0 -0.069408814394604765 -0.42365151461769918 0 -0.055571169944573007 -0.4278419796903028 0 -0.059775586818595829 -0.41787661413097049 0 -0.052509649903146327 -0.40794203844841681 0 -0.055571169944573007 -0.4278419796903028 0 -0.052509649903146327 -0.40794203844841681 0 -0.038621424185474637 -0.4207153063468223 0 -0.055571169944573007 -0.4278419796903028 0 -0.052509649903146327 -0.40794203844841681 0 -0.052509649903146327 -0.40794203844841681 0 -0.070248957975066639 -0.42074520084202788 0 -0.059775586818595829 -0.41787661413097049 0 -0.052509649903146327 -0.40794203844841681 0 -0.070248957975066639 -0.42074520084202788 0 -0.052509649903146327 -0.40794203844841681 0 -0.050493754208297943 -0.40648708655034188 0 -0.041470954428671609 -0.41006675355118111 0 -0.052509649903146327 -0.40794203844841681 0 -0.050493754208297943 -0.40648708655034188 0 -0.052509649903146327 -0.40794203844841681 0 -0.038621424185474637 -0.4207153063468223 0 -0.033287388117186109 -0.40399871831440642 0 -0.050493754208297943 -0.40648708655034188 0 -0.041470954428671609 -0.41006675355118111 0 -0.052509649903146327 -0.40794203844841681 0 -0.041470954428671609 -0.41006675355118111 0 -0.038621424185474637 -0.4207153063468223 0 -0.033287388117186109 -0.40399871831440642 0 -0.041470954428671609 -0.41006675355118111 0 -0.027792962261932352 -0.41547375898907968 0 -0.041470954428671609 -0.41006675355118111 0 -0.038621424185474637 -0.4207153063468223 0 -0.027792962261932352 -0.41547375898907968 0 -0.055571169944573007 -0.4278419796903028 0 -0.038621424185474637 -0.4207153063468223 0 -0.04142135733128624 -0.43391233418184683 0 -0.038621424185474637 -0.4207153063468223 0 -0.026103506495360269 -0.43222827563723731 0 -0.038621424185474637 -0.4207153063468223 0 -0.04142135733128624 -0.43391233418184683 0 -0.026103506495360269 -0.43222827563723731 0 -0.04142135733128624 -0.43391233418184683 0 -0.026103506495360269 -0.43222827563723731 0 -0.035662081446574762 -0.44437129177822371 0 -0.026103506495360269 -0.43222827563723731 0 -0.027792962261932352 -0.41547375898907968 0 -0.009537301248459449 -0.42510302968362512 0 -0.026103506495360269 -0.43222827563723731 0 -0.009537301248459449 -0.42510302968362512 0 -0.019709463090837601 -0.44530454005801179 0 -0.038621424185474637 -0.4207153063468223 0 -0.026103506495360269 -0.43222827563723731 0 -0.027792962261932352 -0.41547375898907968 0 -0.017737199096442072 -0.40073047040120602 0 -0.027792962261932352 -0.41547375898907968 0 -0.009537301248459449 -0.42510302968362512 0 -0.017737199096442072 -0.40073047040120602 0 -0.033287388117186109 -0.40399871831440642 0 -0.027792962261932352 -0.41547375898907968 0 -0.001728596279610697 -0.40597762003102339 0 -0.017737199096442072 -0.40073047040120602 0 -0.009537301248459449 -0.42510302968362512 0 -0.017737199096442072 -0.40073047040120602 0 -0.009537301248459449 -0.42510302968362512 0 -0.001728596279610697 -0.40597762003102339 0 -0.009537301248459449 -0.42510302968362512 0 0.0082246319185010179 -0.41465428951275207 0 -0.009537301248459449 -0.42510302968362512 0 -0.0013374034004768371 -0.44947558896604423 0 -0.009537301248459449 -0.42510302968362512 0 -0.0013374034004768371 -0.44947558896604423 0 0.01039378864355619 -0.42848339288335913 0 -0.009537301248459449 -0.42510302968362512 0 -0.0013374034004768371 -0.44947558896604423 0 -0.019709463090837601 -0.44530454005801179 0 -0.0013374034004768371 -0.44947558896604423 0 -0.014612752260004851 -0.46155177919014362 0 -0.019709463090837601 -0.44530454005801179 0 -0.0013374034004768371 -0.44947558896604423 0 -0.014612752260004851 -0.46155177919014362 0 0.0068624944475057766 -0.47384814824846327 0 -0.014612752260004851 -0.46155177919014362 0 -0.028521420705905499 -0.4674310816654948 0 -0.030789477839635839 -0.45543267362212791 0 -0.014612752260004851 -0.46155177919014362 0 -0.030789477839635839 -0.45543267362212791 0 -0.019709463090837601 -0.44530454005801179 0 -0.030789477839635839 -0.45543267362212791 0 -0.019709463090837601 -0.44530454005801179 0 -0.035662081446574762 -0.44437129177822371 0 -0.026103506495360269 -0.43222827563723731 0 -0.019709463090837601 -0.44530454005801179 0 -0.035662081446574762 -0.44437129177822371 0 -0.015217900669161011 -0.5 0 -0.01418124297067914 -0.47781864258071971 0 0.0024053695883212941 -0.48891336768777249 0 -0.01418124297067914 -0.47781864258071971 0 0.0068624944475057766 -0.47384814824846327 0 0.0024053695883212941 -0.48891336768777249 0 -0.014612752260004851 -0.46155177919014362 0 -0.01418124297067914 -0.47781864258071971 0 0.0068624944475057766 -0.47384814824846327 0 -0.014612752260004851 -0.46155177919014362 0 -0.028521420705905499 -0.4674310816654948 0 -0.01418124297067914 -0.47781864258071971 0 -0.028521420705905499 -0.4674310816654948 0 -0.01418124297067914 -0.47781864258071971 0 -0.027752274071966478 -0.47742461628286209 0 -0.015217900669161011 -0.5 0 -0.027752274071966478 -0.47742461628286209 0 -0.038171784631523778 -0.48284131767108018 0 -0.015217900669161011 -0.5 0 -0.01418124297067914 -0.47781864258071971 0 -0.027752274071966478 -0.47742461628286209 0 -0.015217900669161011 -0.5 0 -0.043972809743024373 -0.5 0 -0.038171784631523778 -0.48284131767108018 0 -0.043972809743024373 -0.5 0 -0.038171784631523778 -0.48284131767108018 0 -0.049841179956411519 -0.48183723669954598 0 -0.038171784631523778 -0.48284131767108018 0 -0.048675315621036823 -0.47094071089761919 0 -0.038171784631523778 -0.48284131767108018 0 -0.048675315621036823 -0.47094071089761919 0 -0.049841179956411519 -0.48183723669954598 0 -0.027752274071966478 -0.47742461628286209 0 -0.038171784631523778 -0.48284131767108018 0 -0.038764373548703768 -0.47063519779216179 0 -0.028521420705905499 -0.4674310816654948 0 -0.027752274071966478 -0.47742461628286209 0 -0.038764373548703768 -0.47063519779216179 0 -0.038764373548703768 -0.47063519779216179 0 -0.048675315621036823 -0.47094071089761919 0 -0.045335619097383061 -0.46570514195792412 0 -0.038171784631523778 -0.48284131767108018 0 -0.038764373548703768 -0.47063519779216179 0 -0.048675315621036823 -0.47094071089761919 0 -0.048675315621036823 -0.47094071089761919 0 -0.055120034750126161 -0.47128965669693351 0 -0.049841179956411519 -0.48183723669954598 0 -0.048675315621036823 -0.47094071089761919 0 -0.055120034750126161 -0.47128965669693351 0 -0.057384894248553399 -0.46524593439390849 0 -0.055120034750126161 -0.47128965669693351 0 -0.059149819292987238 -0.47777467248794547 0 -0.064422500494955764 -0.4650694252783244 0 -0.059149819292987238 -0.47777467248794547 0 -0.049841179956411519 -0.48183723669954598 0 -0.058853327493046781 -0.48842932436532971 0 -0.055120034750126161 -0.47128965669693351 0 -0.059149819292987238 -0.47777467248794547 0 -0.049841179956411519 -0.48183723669954598 0 -0.059149819292987238 -0.47777467248794547 0 -0.058853327493046781 -0.48842932436532971 0 -0.068575109655922298 -0.48253471263916042 0 -0.043972809743024373 -0.5 0 -0.058853327493046781 -0.48842932436532971 0 -0.072727718816887776 -0.49999999999999672 0 -0.043972809743024373 -0.5 0 -0.049841179956411519 -0.48183723669954598 0 -0.058853327493046781 -0.48842932436532971 0 -0.045123684251444827 -0.45223268167437758 0 -0.035662081446574762 -0.44437129177822371 0 -0.048623679129421588 -0.44273110985945369 0 -0.04142135733128624 -0.43391233418184683 0 -0.035662081446574762 -0.44437129177822371 0 -0.048623679129421588 -0.44273110985945369 0 -0.030789477839635839 -0.45543267362212791 0 -0.045123684251444827 -0.45223268167437758 0 -0.035662081446574762 -0.44437129177822371 0 -0.030789477839635839 -0.45543267362212791 0 -0.045123684251444827 -0.45223268167437758 0 -0.04007978340352341 -0.46172459869688548 0 -0.028521420705905499 -0.4674310816654948 0 -0.030789477839635839 -0.45543267362212791 0 -0.04007978340352341 -0.46172459869688548 0 -0.028521420705905499 -0.4674310816654948 0 -0.038764373548703768 -0.47063519779216179 0 -0.04007978340352341 -0.46172459869688548 0 -0.038764373548703768 -0.47063519779216179 0 -0.04007978340352341 -0.46172459869688548 0 -0.045335619097383061 -0.46570514195792412 0 -0.04007978340352341 -0.46172459869688548 0 -0.045335619097383061 -0.46570514195792412 0 -0.047248161051959649 -0.4591011094540644 0 -0.045123684251444827 -0.45223268167437758 0 -0.04007978340352341 -0.46172459869688548 0 -0.047248161051959649 -0.4591011094540644 0 -0.045123684251444827 -0.45223268167437758 0 -0.050581796861615229 -0.45333412325219669 0 -0.047248161051959649 -0.4591011094540644 0 -0.050581796861615229 -0.45333412325219669 0 -0.047248161051959649 -0.4591011094540644 0 -0.051910461861691633 -0.46612409294888979 0 -0.051910461861691633 -0.46612409294888979 0 -0.05917884661055 -0.4590401041241583 0 -0.060002998013559863 -0.44648162232419802 0 -0.051910461861691633 -0.46612409294888979 0 -0.060002998013559863 -0.44648162232419802 0 -0.050581796861615229 -0.45333412325219669 0 -0.051910461861691633 -0.46612409294888979 0 -0.060002998013559863 -0.44648162232419802 0 -0.048675315621036823 -0.47094071089761919 0 -0.05917884661055 -0.4590401041241583 0 -0.048675315621036823 -0.47094071089761919 0 -0.051910461861691633 -0.46612409294888979 0 -0.05917884661055 -0.4590401041241583 0 -0.048675315621036823 -0.47094071089761919 0 -0.045335619097383061 -0.46570514195792412 0 -0.051910461861691633 -0.46612409294888979 0 -0.045335619097383061 -0.46570514195792412 0 -0.047248161051959649 -0.4591011094540644 0 -0.051910461861691633 -0.46612409294888979 0 -0.055120034750126161 -0.47128965669693351 0 -0.057384894248553399 -0.46524593439390849 0 -0.064422500494955764 -0.4650694252783244 0 -0.048675315621036823 -0.47094071089761919 0 -0.057384894248553399 -0.46524593439390849 0 -0.05917884661055 -0.4590401041241583 0 -0.057384894248553399 -0.46524593439390849 0 -0.05917884661055 -0.4590401041241583 0 -0.059237257045792073 -0.46090013765886428 0 -0.064422500494955764 -0.4650694252783244 0 -0.057384894248553399 -0.46524593439390849 0 -0.059237257045792073 -0.46090013765886428 0 -0.064422500494955764 -0.4650694252783244 0 -0.057384894248553399 -0.46524593439390849 0 -0.059237257045792073 -0.46090013765886428 0 -0.05917884661055 -0.4590401041241583 0 -0.059237257045792073 -0.46090013765886428 0 -0.062180371227510647 -0.45563934639583059 0 -0.064422500494955764 -0.4650694252783244 0 -0.059237257045792073 -0.46090013765886428 0 -0.05917884661055 -0.4590401041241583 0 -0.062180371227510647 -0.45563934639583059 0 -0.05917884661055 -0.4590401041241583 0 -0.062180371227510647 -0.45563934639583059 0 -0.05917884661055 -0.4590401041241583 0 -0.061269440441321127 -0.45180810022505591 0 -0.05917884661055 -0.4590401041241583 0 -0.062180371227510647 -0.45563934639583059 0 -0.061269440441321127 -0.45180810022505591 0 -0.062180371227510647 -0.45563934639583059 0 -0.061269440441321127 -0.45180810022505591 0 -0.055571169944573007 -0.4278419796903028 0 -0.060002998013559863 -0.44648162232419802 0 -0.048623679129421588 -0.44273110985945369 0 -0.05917884661055 -0.4590401041241583 0 -0.061269440441321127 -0.45180810022505591 0 -0.060002998013559863 -0.44648162232419802 0 -0.061269440441321127 -0.45180810022505591 0 -0.060002998013559863 -0.44648162232419802 0 -0.050581796861615229 -0.45333412325219669 0 -0.060002998013559863 -0.44648162232419802 0 -0.048623679129421588 -0.44273110985945369 0 -0.045123684251444827 -0.45223268167437758 0 -0.050581796861615229 -0.45333412325219669 0 -0.048623679129421588 -0.44273110985945369 0 -0.061269440441321127 -0.45180810022505591 0 -0.069408814394604765 -0.42365151461769918 0 -0.062180371227510647 -0.45563934639583059 0 -0.061269440441321127 -0.45180810022505591 0 -0.077098496045509793 -0.43873696019506903 0 -0.062180371227510647 -0.45563934639583059 0 -0.077098496045509793 -0.43873696019506903 0 -0.073769461018799692 -0.45951707792468061 0 -0.061269440441321127 -0.45180810022505591 0 -0.077098496045509793 -0.43873696019506903 0 -0.069408814394604765 -0.42365151461769918 0 -0.061269440441321127 -0.45180810022505591 0 -0.060002998013559863 -0.44648162232419802 0 -0.069408814394604765 -0.42365151461769918 0 -0.062180371227510647 -0.45563934639583059 0 -0.077098496045509793 -0.43873696019506903 0 -0.062180371227510647 -0.45563934639583059 0 -0.064422500494955764 -0.4650694252783244 0 -0.062180371227510647 -0.45563934639583059 0 -0.064422500494955764 -0.4650694252783244 0 -0.073769461018799692 -0.45951707792468061 0 -0.084521355142842869 -0.45759592347480388 0 -0.086143661312174283 -0.48253471263916248 0 -0.099165393688022629 -0.46120376842987459 0 -0.073769461018799692 -0.45951707792468061 0 -0.084521355142842869 -0.45759592347480388 0 -0.086143661312174283 -0.48253471263916248 0 -0.084521355142842869 -0.45759592347480388 0 -0.089624247433654214 -0.44685599598904568 0 -0.099165393688022629 -0.46120376842987459 0 -0.077098496045509793 -0.43873696019506903 0 -0.084521355142842869 -0.45759592347480388 0 -0.089624247433654214 -0.44685599598904568 0 -0.077098496045509793 -0.43873696019506903 0 -0.073769461018799692 -0.45951707792468061 0 -0.084521355142842869 -0.45759592347480388 0 -0.089624247433654214 -0.44685599598904568 0 -0.099878095611554862 -0.4393977270813314 0 -0.089545628933694749 -0.43673796215895883 0 -0.077098496045509793 -0.43873696019506903 0 -0.089624247433654214 -0.44685599598904568 0 -0.089545628933694749 -0.43673796215895883 0 -0.072727718816887776 -0.49999999999999672 0 -0.068575109655922298 -0.48253471263916042 0 -0.058853327493046781 -0.48842932436532971 0 -0.072727718816887776 -0.49999999999999672 0 -0.068575109655922298 -0.48253471263916042 0 -0.072727718816887776 -0.49999999999999672 0 -0.068575109655922298 -0.48253471263916042 0 -0.086143661312174283 -0.48253471263916248 0 -0.064422500494955764 -0.4650694252783244 0 -0.068575109655922298 -0.48253471263916042 0 -0.059149819292987238 -0.47777467248794547 0 -0.064422500494955764 -0.4650694252783244 0 -0.068575109655922298 -0.48253471263916042 0 -0.064422500494955764 -0.4650694252783244 0 -0.073769461018799692 -0.45951707792468061 0 -0.086143661312174283 -0.48253471263916248 0 -0.064422500494955764 -0.4650694252783244 0 -0.068575109655922298 -0.48253471263916042 0 -0.086143661312174283 -0.48253471263916248 0 -0.064422500494955764 -0.4650694252783244 0 -0.086143661312174283 -0.48253471263916248 0 -0.072727718816887776 -0.49999999999999672 0 -0.086143661312174283 -0.48253471263916248 0 -0.090296270473140428 -0.5 0 -0.086143661312174283 -0.48253471263916248 0 -0.090296270473140428 -0.5 0 -0.10786482212939311 -0.50000000000000011 0 -0.086143661312174283 -0.48253471263916248 0 -0.10786482212939311 -0.50000000000000011 0 -0.086143661312174283 -0.48253471263916248 0 -0.10786482212939311 -0.50000000000000011 0 -0.1056577076014347 -0.47999846360012538 0 -0.086143661312174283 -0.48253471263916248 0 -0.1056577076014347 -0.47999846360012538 0 -0.099165393688022629 -0.46120376842987459 0 -0.1056577076014347 -0.47999846360012538 0 -0.12108079434187891 -0.47202921183540031 0 -0.099165393688022629 -0.46120376842987459 0 -0.1056577076014347 -0.47999846360012538 0 -0.12108079434187891 -0.47202921183540031 0 -0.1206292342060253 -0.48641385964910883 0 -0.131118449396015 -0.5 0 -0.10786482212939311 -0.50000000000000011 0 -0.1206292342060253 -0.48641385964910883 0 -0.10786482212939311 -0.50000000000000011 0 -0.1056577076014347 -0.47999846360012538 0 -0.1206292342060253 -0.48641385964910883 0 -0.099878095611554862 -0.4393977270813314 0 -0.099165393688022629 -0.46120376842987459 0 -0.099878095611554862 -0.4393977270813314 0 -0.099165393688022629 -0.46120376842987459 0 -0.11615585050415531 -0.45102464773050138 0 -0.089624247433654214 -0.44685599598904568 0 -0.099878095611554862 -0.4393977270813314 0 -0.099165393688022629 -0.46120376842987459 0 -0.12108079434187891 -0.47202921183540031 0 -0.099165393688022629 -0.46120376842987459 0 -0.11615585050415531 -0.45102464773050138 0 -0.13077987840644981 -0.46069854066347632 0 -0.12108079434187891 -0.47202921183540031 0 -0.11615585050415531 -0.45102464773050138 0 -0.13194602454298601 -0.43962244526902572 0 -0.11615585050415531 -0.45102464773050138 0 -0.1129403580353462 -0.43280081863281078 0 -0.099878095611554862 -0.4393977270813314 0 -0.11615585050415531 -0.45102464773050138 0 -0.1129403580353462 -0.43280081863281078 0 -0.13194602454298601 -0.43962244526902572 0 -0.1165997240041481 -0.41847011486561592 0 -0.13194602454298601 -0.43962244526902572 0 -0.1129403580353462 -0.43280081863281078 0 -0.1165997240041481 -0.41847011486561592 0 -0.1129403580353462 -0.43280081863281078 0 -0.1079125428112538 -0.41892639524425412 0 -0.1165997240041481 -0.41847011486561592 0 -0.099878095611554862 -0.4393977270813314 0 -0.100590797535087 -0.41759168573278821 0 -0.092016620863508841 -0.4218345739943074 0 -0.099878095611554862 -0.4393977270813314 0 -0.089545628933694749 -0.43673796215895883 0 -0.092016620863508841 -0.4218345739943074 0 -0.099878095611554862 -0.4393977270813314 0 -0.1129403580353462 -0.43280081863281078 0 -0.10283731640903 -0.42510314405888588 0 -0.099878095611554862 -0.4393977270813314 0 -0.100590797535087 -0.41759168573278821 0 -0.099878095611554862 -0.4393977270813314 0 -0.10283731640903 -0.42510314405888588 0 -0.100590797535087 -0.41759168573278821 0 -0.1129403580353462 -0.43280081863281078 0 -0.10283731640903 -0.42510314405888588 0 -0.1079125428112538 -0.41892639524425412 0 -0.100590797535087 -0.41759168573278821 0 -0.1012534234653099 -0.39731778446220639 0 -0.1165997240041481 -0.41847011486561592 0 -0.1012534234653099 -0.39731778446220639 0 -0.100590797535087 -0.41759168573278821 0 -0.094499944748829334 -0.39722631626938482 0 -0.088610052547492879 -0.41006814396079783 0 -0.100590797535087 -0.41759168573278821 0 -0.1079125428112538 -0.41892639524425412 0 -0.1012534234653099 -0.39731778446220639 0 -0.100590797535087 -0.41759168573278821 0 -0.094499944748829334 -0.39722631626938482 0 -0.1079125428112538 -0.41892639524425412 0 -0.1165997240041481 -0.41847011486561592 0 -0.1012534234653099 -0.39731778446220639 0 -0.10283731640903 -0.42510314405888588 0 -0.100590797535087 -0.41759168573278821 0 -0.1079125428112538 -0.41892639524425412 0 -0.10283731640903 -0.42510314405888588 0 -0.100590797535087 -0.41759168573278821 0 -0.12592730430259419 -0.40432488328170318 0 -0.1165997240041481 -0.41847011486561592 0 -0.1152538145686829 -0.39895411709426332 0 -0.1165997240041481 -0.41847011486561592 0 -0.1152538145686829 -0.39895411709426332 0 -0.1012534234653099 -0.39731778446220639 0 -0.12526638733901391 -0.39147447277512609 0 -0.12592730430259419 -0.40432488328170318 0 -0.1152538145686829 -0.39895411709426332 0 -0.12526638733901391 -0.39147447277512609 0 -0.1152538145686829 -0.39895411709426332 0 -0.1147112201852714 -0.38836266809632891 0 -0.1152538145686829 -0.39895411709426332 0 -0.1147112201852714 -0.38836266809632891 0 -0.1077648281157602 -0.39377477908459929 0 -0.12526638733901391 -0.39147447277512609 0 -0.12201267174342199 -0.37938718301114999 0 -0.1147112201852714 -0.38836266809632891 0 -0.1147112201852714 -0.38836266809632891 0 -0.1094440337948836 -0.37923577087639421 0 -0.1073228884697877 -0.3875649225559597 0 -0.1147112201852714 -0.38836266809632891 0 -0.1073228884697877 -0.3875649225559597 0 -0.1077648281157602 -0.39377477908459929 0 -0.12201267174342199 -0.37938718301114999 0 -0.1147112201852714 -0.38836266809632891 0 -0.1094440337948836 -0.37923577087639421 0 -0.1159926709000937 -0.36685414663024191 0 -0.12201267174342199 -0.37938718301114999 0 -0.1094440337948836 -0.37923577087639421 0 -0.1024060606807759 -0.36205135125861898 0 -0.1094440337948836 -0.37923577087639421 0 -0.1016559479587178 -0.38500202459504551 0 -0.1094440337948836 -0.37923577087639421 0 -0.1016559479587178 -0.38500202459504551 0 -0.1073228884697877 -0.3875649225559597 0 -0.1016559479587178 -0.38500202459504551 0 -0.1014693111655476 -0.390712419775258 0 -0.1016559479587178 -0.38500202459504551 0 -0.1073228884697877 -0.3875649225559597 0 -0.1014693111655476 -0.390712419775258 0 -0.1016559479587178 -0.38500202459504551 0 -0.091585827134305964 -0.3839926061052007 0 -0.1016559479587178 -0.38500202459504551 0 -0.1014693111655476 -0.390712419775258 0 -0.093729726096669103 -0.3869476153003294 0 -0.1016559479587178 -0.38500202459504551 0 -0.091585827134305964 -0.3839926061052007 0 -0.093729726096669103 -0.3869476153003294 0 -0.1014693111655476 -0.390712419775258 0 -0.093729726096669103 -0.3869476153003294 0 -0.1016559479587178 -0.38500202459504551 0 -0.095426438310298192 -0.37780241062099151 0 -0.091585827134305964 -0.3839926061052007 0 -0.100590797535087 -0.41759168573278821 0 -0.1012534234653099 -0.39731778446220639 0 -0.099487365185966847 -0.39952233119993291 0 -0.100590797535087 -0.41759168573278821 0 -0.094499944748829334 -0.39722631626938482 0 -0.099487365185966847 -0.39952233119993291 0 -0.1152538145686829 -0.39895411709426332 0 -0.1077648281157602 -0.39377477908459929 0 -0.1012534234653099 -0.39731778446220639 0 -0.1073228884697877 -0.3875649225559597 0 -0.1077648281157602 -0.39377477908459929 0 -0.1014693111655476 -0.390712419775258 0 -0.1077648281157602 -0.39377477908459929 0 -0.1012534234653099 -0.39731778446220639 0 -0.1014693111655476 -0.390712419775258 0 -0.1077648281157602 -0.39377477908459929 0 -0.1014693111655476 -0.390712419775258 0 -0.1012534234653099 -0.39731778446220639 0 -0.094499944748829334 -0.39722631626938482 0 -0.099487365185966847 -0.39952233119993291 0 -0.1012534234653099 -0.39731778446220639 0 -0.094499944748829334 -0.39722631626938482 0 -0.093729726096669103 -0.3869476153003294 0 -0.1012534234653099 -0.39731778446220639 0 -0.1014693111655476 -0.390712419775258 0 -0.093729726096669103 -0.3869476153003294 0 -0.1012534234653099 -0.39731778446220639 0 -0.093729726096669103 -0.3869476153003294 0 -0.1012534234653099 -0.39731778446220639 0 -0.1014693111655476 -0.390712419775258 0 -0.094499944748829334 -0.39722631626938482 0 -0.099487365185966847 -0.39952233119993291 0 -0.094499944748829334 -0.39722631626938482 0 -0.085553154766675646 -0.40134027138503481 0 -0.088610052547492879 -0.41006814396079783 0 -0.094499944748829334 -0.39722631626938482 0 -0.082560309743270749 -0.39172977139542609 0 -0.085553154766675646 -0.40134027138503481 0 -0.094499944748829334 -0.39722631626938482 0 -0.082560309743270749 -0.39172977139542609 0 -0.091033556626635648 -0.38563610430902873 0 -0.094499944748829334 -0.39722631626938482 0 -0.082560309743270749 -0.39172977139542609 0 -0.094499944748829334 -0.39722631626938482 0 -0.091033556626635648 -0.38563610430902873 0 -0.082560309743270749 -0.39172977139542609 0 -0.079097438192195432 -0.39013559964190198 0 -0.074673198083630793 -0.40544040024196493 0 -0.082560309743270749 -0.39172977139542609 0 -0.079097438192195432 -0.39013559964190198 0 -0.082560309743270749 -0.39172977139542609 0 -0.076542312027108539 -0.406336853914531 0 -0.082560309743270749 -0.39172977139542609 0 -0.085553154766675646 -0.40134027138503481 0 -0.076542312027108539 -0.406336853914531 0 -0.085553154766675646 -0.40134027138503481 0 -0.076542312027108539 -0.406336853914531 0 -0.088610052547492879 -0.41006814396079783 0 -0.090139611558562177 -0.37333304007799939 0 -0.088525620654428705 -0.37725057202694517 0 -0.088525620654428705 -0.37725057202694517 0 -0.087954911787112483 -0.37534235041220648 0 -0.08170780991661282 -0.38109255286014232 0 -0.090139611558562177 -0.37333304007799939 0 -0.088525620654428705 -0.37725057202694517 0 -0.087954911787112483 -0.37534235041220648 0 -0.088525620654428705 -0.37725057202694517 0 -0.087954911787112483 -0.37534235041220648 0 -0.090139611558562177 -0.37333304007799939 0 -0.095426438310298192 -0.37780241062099151 0 -0.088525620654428705 -0.37725057202694517 0 -0.088525620654428705 -0.37725057202694517 0 -0.091585827134305964 -0.3839926061052007 0 -0.095426438310298192 -0.37780241062099151 0 -0.088525620654428705 -0.37725057202694517 0 -0.091585827134305964 -0.3839926061052007 0 -0.088525620654428705 -0.37725057202694517 0 -0.086634605294488312 -0.38349630075200858 0 -0.088525620654428705 -0.37725057202694517 0 -0.086634605294488312 -0.38349630075200858 0 -0.091585827134305964 -0.3839926061052007 0 -0.082560309743270749 -0.39172977139542609 0 -0.086634605294488312 -0.38349630075200858 0 -0.091033556626635648 -0.38563610430902873 0 -0.094499944748829334 -0.39722631626938482 0 -0.091033556626635648 -0.38563610430902873 0 -0.093729726096669103 -0.3869476153003294 0 -0.086634605294488312 -0.38349630075200858 0 -0.091585827134305964 -0.3839926061052007 0 -0.086634605294488312 -0.38349630075200858 0 -0.091033556626635648 -0.38563610430902873 0 -0.086634605294488312 -0.38349630075200858 0 -0.091585827134305964 -0.3839926061052007 0 -0.091033556626635648 -0.38563610430902873 0 -0.091585827134305964 -0.3839926061052007 0 -0.091033556626635648 -0.38563610430902873 0 -0.093729726096669103 -0.3869476153003294 0 -0.091033556626635648 -0.38563610430902873 0 -0.093729726096669103 -0.3869476153003294 0 -0.091585827134305964 -0.3839926061052007 0 -0.093729726096669103 -0.3869476153003294 0 -0.091585827134305964 -0.3839926061052007 0 -0.091033556626635648 -0.38563610430902873 0 -0.082560309743270749 -0.39172977139542609 0 -0.086634605294488312 -0.38349630075200858 0 -0.082560309743270749 -0.39172977139542609 0 -0.086634605294488312 -0.38349630075200858 0 -0.081174899406055781 -0.38294902548401538 0 -0.082560309743270749 -0.39172977139542609 0 -0.079097438192195432 -0.39013559964190198 0 -0.081174899406055781 -0.38294902548401538 0 -0.079097438192195432 -0.39013559964190198 0 -0.081174899406055781 -0.38294902548401538 0 -0.074281153156084773 -0.38791836881244668 0 -0.079097438192195432 -0.39013559964190198 0 -0.081174899406055781 -0.38294902548401538 0 -0.086634605294488312 -0.38349630075200858 0 -0.081174899406055781 -0.38294902548401538 0 -0.088525620654428705 -0.37725057202694517 0 -0.086634605294488312 -0.38349630075200858 0 -0.08170780991661282 -0.38109255286014232 0 -0.086634605294488312 -0.38349630075200858 0 -0.081174899406055781 -0.38294902548401538 0 -0.08170780991661282 -0.38109255286014232 0 -0.086634605294488312 -0.38349630075200858 0 -0.08170780991661282 -0.38109255286014232 0 -0.081174899406055781 -0.38294902548401538 0 -0.08170780991661282 -0.38109255286014232 0 -0.087954911787112483 -0.37534235041220648 0 -0.08170780991661282 -0.38109255286014232 0 -0.055512870853615448 -0.39455951290216967 0 -0.058563253679506787 -0.38068245751723601 0 -0.074281153156084773 -0.38791836881244668 0 -0.058563253679506787 -0.38068245751723601 0 -0.074281153156084773 -0.38791836881244668 0 -0.058387822440418388 -0.36975607908058028 0 -0.08170780991661282 -0.38109255286014232 0 -0.058387822440418388 -0.36975607908058028 0 -0.081174899406055781 -0.38294902548401538 0 -0.08170780991661282 -0.38109255286014232 0 -0.058563253679506787 -0.38068245751723601 0 -0.081174899406055781 -0.38294902548401538 0 -0.074281153156084773 -0.38791836881244668 0 -0.058563253679506787 -0.38068245751723601 0 -0.081174899406055781 -0.38294902548401538 0 -0.058387822440418388 -0.36975607908058028 0 -0.058563253679506787 -0.38068245751723601 0 -0.081174899406055781 -0.38294902548401538 0 -0.081174899406055781 -0.38294902548401538 0 -0.074281153156084773 -0.38791836881244668 0 -0.079097438192195432 -0.39013559964190198 0 -0.074281153156084773 -0.38791836881244668 0 -0.079097438192195432 -0.39013559964190198 0 -0.074281153156084773 -0.38791836881244668 0 -0.074673198083630793 -0.40544040024196493 0 -0.052509649903146327 -0.40794203844841681 0 -0.074281153156084773 -0.38791836881244668 0 -0.052509649903146327 -0.40794203844841681 0 -0.074281153156084773 -0.38791836881244668 0 -0.074673198083630793 -0.40544040024196493 0 -0.082560309743270749 -0.39172977139542609 0 -0.074673198083630793 -0.40544040024196493 0 -0.076542312027108539 -0.406336853914531 0 -0.079097438192195432 -0.39013559964190198 0 -0.074673198083630793 -0.40544040024196493 0 -0.052509649903146327 -0.40794203844841681 0 -0.074673198083630793 -0.40544040024196493 0 -0.070248957975066639 -0.42074520084202788 0 -0.076542312027108539 -0.406336853914531 0 -0.070248957975066639 -0.42074520084202788 0 -0.074673198083630793 -0.40544040024196493 0 -0.070248957975066639 -0.42074520084202788 0 -0.074673198083630793 -0.40544040024196493 0 -0.076542312027108539 -0.406336853914531 0 -0.070248957975066639 -0.42074520084202788 0 -0.070248957975066639 -0.42074520084202788 0 -0.077246521605040669 -0.42579562012280953 0 -0.078194253298280558 -0.41865647959270891 0 -0.076542312027108539 -0.406336853914531 0 -0.070248957975066639 -0.42074520084202788 0 -0.078194253298280558 -0.41865647959270891 0 -0.059775586818595829 -0.41787661413097049 0 -0.070248957975066639 -0.42074520084202788 0 -0.069408814394604765 -0.42365151461769918 0 -0.060002998013559863 -0.44648162232419802 0 -0.069408814394604765 -0.42365151461769918 0 -0.070248957975066639 -0.42074520084202788 0 -0.069408814394604765 -0.42365151461769918 0 -0.077098496045509793 -0.43873696019506903 0 -0.069408814394604765 -0.42365151461769918 0 -0.077246521605040669 -0.42579562012280953 0 -0.070248957975066639 -0.42074520084202788 0 -0.069408814394604765 -0.42365151461769918 0 -0.077246521605040669 -0.42579562012280953 0 -0.070248957975066639 -0.42074520084202788 0 -0.077246521605040669 -0.42579562012280953 0 -0.077246521605040669 -0.42579562012280953 0 -0.082943237868067593 -0.4239856173255338 0 -0.078194253298280558 -0.41865647959270891 0 -0.077098496045509793 -0.43873696019506903 0 -0.082943237868067593 -0.4239856173255338 0 -0.092016620863508841 -0.4218345739943074 0 -0.077098496045509793 -0.43873696019506903 0 -0.089545628933694749 -0.43673796215895883 0 -0.092016620863508841 -0.4218345739943074 0 -0.077098496045509793 -0.43873696019506903 0 -0.092016620863508841 -0.4218345739943074 0 -0.077098496045509793 -0.43873696019506903 0 -0.077246521605040669 -0.42579562012280953 0 -0.082943237868067593 -0.4239856173255338 0 -0.100590797535087 -0.41759168573278821 0 -0.092016620863508841 -0.4218345739943074 0 -0.088610052547492879 -0.41006814396079783 0 -0.082943237868067593 -0.4239856173255338 0 -0.092016620863508841 -0.4218345739943074 0 -0.083714880680240453 -0.41622037016703428 0 -0.092016620863508841 -0.4218345739943074 0 -0.088610052547492879 -0.41006814396079783 0 -0.083714880680240453 -0.41622037016703428 0 -0.076542312027108539 -0.406336853914531 0 -0.088610052547492879 -0.41006814396079783 0 -0.083714880680240453 -0.41622037016703428 0 -0.076542312027108539 -0.406336853914531 0 -0.078194253298280558 -0.41865647959270891 0 -0.083714880680240453 -0.41622037016703428 0 -0.082943237868067593 -0.4239856173255338 0 -0.078194253298280558 -0.41865647959270891 0 -0.083714880680240453 -0.41622037016703428 0 -0.081808777729522386 -0.083143660930833002 0 -0.073985000225153141 -0.099795971436559522 0 -0.085935801107842547 -0.09579043756499836 0 -0.081808777729522386 -0.083143660930833002 0 -0.085935801107842547 -0.09579043756499836 0 -0.094306078709463503 -0.087148618235937392 0 -0.081808777729522386 -0.083143660930833002 0 -0.094306078709463503 -0.087148618235937392 0 -0.095869533599057435 -0.074719864200214883 0 -0.081808777729522386 -0.083143660930833002 0 -0.087640100333796281 -0.066301869750421821 0 -0.076351800502585221 -0.068318825045574613 0 -0.081808777729522386 -0.083143660930833002 0 -0.087640100333796281 -0.066301869750421821 0 -0.095869533599057435 -0.074719864200214883 0 -0.087640100333796281 -0.066301869750421821 0 -0.095869533599057435 -0.074719864200214883 0 -0.097041901727127691 -0.062312633498474219 0 -0.087640100333796281 -0.066301869750421821 0 -0.076351800502585221 -0.068318825045574613 0 -0.079773765115028039 -0.057914828426178573 0 -0.081808777729522386 -0.083143660930833002 0 -0.076351800502585221 -0.068318825045574613 0 -0.068001603171865072 -0.074911341683796137 0 -0.068001603171865072 -0.074911341683796137 0 -0.065822825648978775 -0.060485584973140792 0 -0.05753372126900759 -0.073422836261521005 0 -0.076351800502585221 -0.068318825045574613 0 -0.068001603171865072 -0.074911341683796137 0 -0.065822825648978775 -0.060485584973140792 0 -0.068001603171865072 -0.074911341683796137 0 -0.066670257350634976 -0.085780572793309681 0 -0.05753372126900759 -0.073422836261521005 0 -0.081808777729522386 -0.083143660930833002 0 -0.066670257350634976 -0.085780572793309681 0 -0.073985000225153141 -0.099795971436559522 0 -0.081808777729522386 -0.083143660930833002 0 -0.068001603171865072 -0.074911341683796137 0 -0.066670257350634976 -0.085780572793309681 0 -0.066670257350634976 -0.085780572793309681 0 -0.073985000225153141 -0.099795971436559522 0 -0.05982498813170789 -0.10249801488187529 0 -0.073985000225153141 -0.099795971436559522 0 -0.065415314349395459 -0.11473522154729129 0 -0.05982498813170789 -0.10249801488187529 0 -0.073985000225153141 -0.099795971436559522 0 -0.065415314349395459 -0.11473522154729129 0 -0.07727601190464152 -0.1134926659633375 0 -0.065415314349395459 -0.11473522154729129 0 -0.060446148579459319 -0.1303024678998376 0 -0.071674103496310607 -0.1250344835198243 0 -0.07727601190464152 -0.1134926659633375 0 -0.082994471061899833 -0.1234246307735777 0 -0.071674103496310607 -0.1250344835198243 0 -0.065415314349395459 -0.11473522154729129 0 -0.07727601190464152 -0.1134926659633375 0 -0.071674103496310607 -0.1250344835198243 0 -0.07727601190464152 -0.1134926659633375 0 -0.082994471061899833 -0.1234246307735777 0 -0.08680817640523622 -0.1078855820033275 0 -0.082994471061899833 -0.1234246307735777 0 -0.08680817640523622 -0.1078855820033275 0 -0.095277368860953449 -0.1178446661751102 0 -0.082994471061899833 -0.1234246307735777 0 -0.095277368860953449 -0.1178446661751102 0 -0.095971306836852913 -0.13086642389395989 0 -0.085935801107842547 -0.09579043756499836 0 -0.08680817640523622 -0.1078855820033275 0 -0.1020424425883536 -0.1015565670732166 0 -0.073985000225153141 -0.099795971436559522 0 -0.085935801107842547 -0.09579043756499836 0 -0.08680817640523622 -0.1078855820033275 0 -0.073985000225153141 -0.099795971436559522 0 -0.07727601190464152 -0.1134926659633375 0 -0.08680817640523622 -0.1078855820033275 0 -0.085935801107842547 -0.09579043756499836 0 -0.1020424425883536 -0.1015565670732166 0 -0.094306078709463503 -0.087148618235937392 0 -0.08680817640523622 -0.1078855820033275 0 -0.1020424425883536 -0.1015565670732166 0 -0.095277368860953449 -0.1178446661751102 0 -0.1020424425883536 -0.1015565670732166 0 -0.095277368860953449 -0.1178446661751102 0 -0.1085913382140784 -0.11903379143832921 0 -0.095277368860953449 -0.1178446661751102 0 -0.1085913382140784 -0.11903379143832921 0 -0.095971306836852913 -0.13086642389395989 0 -0.1085913382140784 -0.11903379143832921 0 -0.11893842975153809 -0.10446969177473921 0 -0.12736410167423581 -0.1213878944680517 0 -0.1020424425883536 -0.1015565670732166 0 -0.11893842975153809 -0.10446969177473921 0 -0.1189291253072135 -0.086669643832799348 0 -0.1020424425883536 -0.1015565670732166 0 -0.1085913382140784 -0.11903379143832921 0 -0.11893842975153809 -0.10446969177473921 0 -0.1189291253072135 -0.086669643832799348 0 -0.1056068239719813 -0.08097964138995771 0 -0.1139735316209595 -0.069866863539540053 0 -0.1020424425883536 -0.1015565670732166 0 -0.1189291253072135 -0.086669643832799348 0 -0.1056068239719813 -0.08097964138995771 0 -0.1020424425883536 -0.1015565670732166 0 -0.1056068239719813 -0.08097964138995771 0 -0.094306078709463503 -0.087148618235937392 0 -0.1056068239719813 -0.08097964138995771 0 -0.094306078709463503 -0.087148618235937392 0 -0.095869533599057435 -0.074719864200214883 0 -0.095869533599057435 -0.074719864200214883 0 -0.1039382096783972 -0.069282752438140638 0 -0.097041901727127691 -0.062312633498474219 0 -0.1056068239719813 -0.08097964138995771 0 -0.1039382096783972 -0.069282752438140638 0 -0.1139735316209595 -0.069866863539540053 0 -0.1056068239719813 -0.08097964138995771 0 -0.095869533599057435 -0.074719864200214883 0 -0.1039382096783972 -0.069282752438140638 0 -0.1039382096783972 -0.069282752438140638 0 -0.097041901727127691 -0.062312633498474219 0 -0.1071992574728602 -0.058534759562516372 0 -0.1039382096783972 -0.069282752438140638 0 -0.1139735316209595 -0.069866863539540053 0 -0.1071992574728602 -0.058534759562516372 0 -0.1189291253072135 -0.086669643832799348 0 -0.1139735316209595 -0.069866863539540053 0 -0.12930964035960699 -0.069761515268982097 0 -0.1139735316209595 -0.069866863539540053 0 -0.1161384697585349 -0.056806249932135858 0 -0.12930964035960699 -0.069761515268982097 0 -0.1161384697585349 -0.056806249932135858 0 -0.1208541397454049 -0.045822468476665427 0 -0.12930964035960699 -0.069761515268982097 0 -0.1248214427799455 -0.0491876577223027 0 -0.1208541397454049 -0.045822468476665427 0 -0.12930964035960699 -0.069761515268982097 0 -0.1161384697585349 -0.056806249932135858 0 -0.10991932193075039 -0.048940588969216672 0 -0.1071992574728602 -0.058534759562516372 0 -0.1139735316209595 -0.069866863539540053 0 -0.1161384697585349 -0.056806249932135858 0 -0.1071992574728602 -0.058534759562516372 0 -0.1161384697585349 -0.056806249932135858 0 -0.10991932193075039 -0.048940588969216672 0 -0.1149357203506014 -0.047989794102068162 0 -0.1161384697585349 -0.056806249932135858 0 -0.1149357203506014 -0.047989794102068162 0 -0.1208541397454049 -0.045822468476665427 0 -0.1248214427799455 -0.0491876577223027 0 -0.1208541397454049 -0.045822468476665427 0 -0.1246368416492639 -0.024787675353444869 0 -0.1128309499677153 -0.040389869030254703 0 -0.10841128816168021 -0.033720593740292633 0 -0.11239863913120279 -0.021883421684348751 0 -0.1208541397454049 -0.045822468476665427 0 -0.11239863913120279 -0.021883421684348751 0 -0.1208541397454049 -0.045822468476665427 0 -0.1128309499677153 -0.040389869030254703 0 -0.11239863913120279 -0.021883421684348751 0 -0.1248214427799455 -0.0491876577223027 0 -0.1246368416492639 -0.024787675353444869 0 -0.1149357203506014 -0.047989794102068162 0 -0.1208541397454049 -0.045822468476665427 0 -0.1128309499677153 -0.040389869030254703 0 -0.10991932193075039 -0.048940588969216672 0 -0.1149357203506014 -0.047989794102068162 0 -0.1128309499677153 -0.040389869030254703 0 -0.10991932193075039 -0.048940588969216672 0 -0.1128309499677153 -0.040389869030254703 0 -0.1049963107845597 -0.040407454994133042 0 -0.10991932193075039 -0.048940588969216672 0 -0.1049963107845597 -0.040407454994133042 0 -0.1002598709818909 -0.049694841596422852 0 -0.1049963107845597 -0.040407454994133042 0 -0.10841128816168021 -0.033720593740292633 0 -0.1012581714839781 -0.029848849592015819 0 -0.1128309499677153 -0.040389869030254703 0 -0.1049963107845597 -0.040407454994133042 0 -0.10841128816168021 -0.033720593740292633 0 -0.097298262181343159 -0.039849987036595598 0 -0.1012581714839781 -0.029848849592015819 0 -0.091929659262116575 -0.033133953101480262 0 -0.1049963107845597 -0.040407454994133042 0 -0.097298262181343159 -0.039849987036595598 0 -0.1012581714839781 -0.029848849592015819 0 -0.1049963107845597 -0.040407454994133042 0 -0.097298262181343159 -0.039849987036595598 0 -0.1002598709818909 -0.049694841596422852 0 -0.097298262181343159 -0.039849987036595598 0 -0.1002598709818909 -0.049694841596422852 0 -0.087030839425688053 -0.044306376809862227 0 -0.1002598709818909 -0.049694841596422852 0 -0.097041901727127691 -0.062312633498474219 0 -0.1071992574728602 -0.058534759562516372 0 -0.1002598709818909 -0.049694841596422852 0 -0.097041901727127691 -0.062312633498474219 0 -0.090164156554830718 -0.055563028782557922 0 -0.10991932193075039 -0.048940588969216672 0 -0.1002598709818909 -0.049694841596422852 0 -0.1071992574728602 -0.058534759562516372 0 -0.1244522405185825 -0.00038769298458709092 0 -0.11239863913120279 -0.021883421684348751 0 -0.10394313851700079 0.0020556251079679459 0 -0.1244522405185825 -0.00038769298458709092 0 -0.1246368416492639 -0.024787675353444869 0 -0.1244522405185825 -0.00038769298458709092 0 -0.11239863913120279 -0.021883421684348751 0 -0.1246368416492639 -0.024787675353444869 0 -0.1208541397454049 -0.045822468476665427 0 -0.11239863913120279 -0.021883421684348751 0 -0.1246368416492639 -0.024787675353444869 0 -0.10841128816168021 -0.033720593740292633 0 -0.11239863913120279 -0.021883421684348751 0 -0.1012581714839781 -0.029848849592015819 0 -0.1012581714839781 -0.029848849592015819 0 -0.090677970328949406 -0.022917020247476879 0 -0.091929659262116575 -0.033133953101480262 0 -0.1012581714839781 -0.029848849592015819 0 -0.1001126671493681 -0.016491083843961009 0 -0.090677970328949406 -0.022917020247476879 0 -0.1001126671493681 -0.016491083843961009 0 -0.092285416285709382 -0.0098617528039315269 0 -0.090677970328949406 -0.022917020247476879 0 -0.11239863913120279 -0.021883421684348751 0 -0.1012581714839781 -0.029848849592015819 0 -0.1001126671493681 -0.016491083843961009 0 -0.1001126671493681 -0.016491083843961009 0 -0.092285416285709382 -0.0098617528039315269 0 -0.10394313851700079 0.0020556251079679459 0 -0.11239863913120279 -0.021883421684348751 0 -0.1001126671493681 -0.016491083843961009 0 -0.10394313851700079 0.0020556251079679459 0 -0.092285416285709382 -0.0098617528039315269 0 -0.10394313851700079 0.0020556251079679459 0 -0.085958893623968774 0.001514634656162053 0 -0.11239863913120279 -0.021883421684348751 0 -0.10394313851700079 0.0020556251079679459 0 -0.092285416285709382 -0.0098617528039315269 0 -0.077949881484559239 -0.01307625006729682 0 -0.085958893623968774 0.001514634656162053 0 -0.092285416285709382 -0.0098617528039315269 0 -0.090677970328949406 -0.022917020247476879 0 -0.077949881484559239 -0.01307625006729682 0 -0.090677970328949406 -0.022917020247476879 0 -0.073841780976804383 -0.025706854857452392 0 -0.077949881484559239 -0.01307625006729682 0 -0.090677970328949406 -0.022917020247476879 0 -0.073841780976804383 -0.025706854857452392 0 -0.082102255714859004 -0.034759692131612618 0 -0.090677970328949406 -0.022917020247476879 0 -0.091929659262116575 -0.033133953101480262 0 -0.082102255714859004 -0.034759692131612618 0 -0.073841780976804383 -0.025706854857452392 0 -0.077949881484559239 -0.01307625006729682 0 -0.060674527584339763 -0.015412449877807689 0 -0.073841780976804383 -0.025706854857452392 0 -0.060674527584339763 -0.015412449877807689 0 -0.060703590497751453 -0.03101491529774986 0 -0.077949881484559239 -0.01307625006729682 0 -0.085958893623968774 0.001514634656162053 0 -0.065648076432031049 0.00090955339710942099 0 -0.077949881484559239 -0.01307625006729682 0 -0.060674527584339763 -0.015412449877807689 0 -0.065648076432031049 0.00090955339710942099 0 -0.079773765115028039 -0.057914828426178573 0 -0.087030839425688053 -0.044306376809862227 0 -0.074827122987446398 -0.047817820925290022 0 -0.079773765115028039 -0.057914828426178573 0 -0.090164156554830718 -0.055563028782557922 0 -0.087030839425688053 -0.044306376809862227 0 -0.087640100333796281 -0.066301869750421821 0 -0.079773765115028039 -0.057914828426178573 0 -0.090164156554830718 -0.055563028782557922 0 -0.087640100333796281 -0.066301869750421821 0 -0.097041901727127691 -0.062312633498474219 0 -0.090164156554830718 -0.055563028782557922 0 -0.1002598709818909 -0.049694841596422852 0 -0.090164156554830718 -0.055563028782557922 0 -0.087030839425688053 -0.044306376809862227 0 -0.097298262181343159 -0.039849987036595598 0 -0.087030839425688053 -0.044306376809862227 0 -0.091929659262116575 -0.033133953101480262 0 -0.087030839425688053 -0.044306376809862227 0 -0.091929659262116575 -0.033133953101480262 0 -0.082102255714859004 -0.034759692131612618 0 -0.087030839425688053 -0.044306376809862227 0 -0.082102255714859004 -0.034759692131612618 0 -0.074827122987446398 -0.047817820925290022 0 -0.082102255714859004 -0.034759692131612618 0 -0.070942460250367517 -0.03706080152277047 0 -0.074827122987446398 -0.047817820925290022 0 -0.073841780976804383 -0.025706854857452392 0 -0.082102255714859004 -0.034759692131612618 0 -0.070942460250367517 -0.03706080152277047 0 -0.073841780976804383 -0.025706854857452392 0 -0.070942460250367517 -0.03706080152277047 0 -0.060703590497751453 -0.03101491529774986 0 -0.070942460250367517 -0.03706080152277047 0 -0.061850736208416378 -0.044087883634974623 0 -0.060703590497751453 -0.03101491529774986 0 -0.070942460250367517 -0.03706080152277047 0 -0.074827122987446398 -0.047817820925290022 0 -0.061850736208416378 -0.044087883634974623 0 -0.074827122987446398 -0.047817820925290022 0 -0.065822825648978775 -0.060485584973140792 0 -0.061850736208416378 -0.044087883634974623 0 -0.079773765115028039 -0.057914828426178573 0 -0.074827122987446398 -0.047817820925290022 0 -0.065822825648978775 -0.060485584973140792 0 -0.076351800502585221 -0.068318825045574613 0 -0.079773765115028039 -0.057914828426178573 0 -0.065822825648978775 -0.060485584973140792 0 -0.065822825648978775 -0.060485584973140792 0 -0.051906109188989122 -0.051634581827710108 0 -0.055146373663134192 -0.063188587977351315 0 -0.065822825648978775 -0.060485584973140792 0 -0.051906109188989122 -0.051634581827710108 0 -0.061850736208416378 -0.044087883634974623 0 -0.051906109188989122 -0.051634581827710108 0 -0.044968642856814678 -0.064628327886466996 0 -0.055146373663134192 -0.063188587977351315 0 -0.061850736208416378 -0.044087883634974623 0 -0.048286593140243993 -0.039377229684959138 0 -0.060703590497751453 -0.03101491529774986 0 -0.051906109188989122 -0.051634581827710108 0 -0.061850736208416378 -0.044087883634974623 0 -0.048286593140243993 -0.039377229684959138 0 -0.048286593140243993 -0.039377229684959138 0 -0.039642814346724391 -0.052475069278980747 0 -0.030584103036016622 -0.035608219704199993 0 -0.039642814346724391 -0.052475069278980747 0 -0.024435088609687641 -0.049746151716912712 0 -0.030584103036016622 -0.035608219704199993 0 -0.048286593140243993 -0.039377229684959138 0 -0.044331283213942488 -0.020119990811347448 0 -0.030584103036016622 -0.035608219704199993 0 -0.039642814346724391 -0.052475069278980747 0 -0.03034189778213453 -0.060014988360291517 0 -0.024435088609687641 -0.049746151716912712 0 -0.039642814346724391 -0.052475069278980747 0 -0.03034189778213453 -0.060014988360291517 0 -0.044968642856814678 -0.064628327886466996 0 -0.051906109188989122 -0.051634581827710108 0 -0.039642814346724391 -0.052475069278980747 0 -0.044968642856814678 -0.064628327886466996 0 -0.051906109188989122 -0.051634581827710108 0 -0.048286593140243993 -0.039377229684959138 0 -0.039642814346724391 -0.052475069278980747 0 -0.060674527584339763 -0.015412449877807689 0 -0.044331283213942488 -0.020119990811347448 0 -0.045118160941850949 -0.00049033847668307538 0 -0.060674527584339763 -0.015412449877807689 0 -0.045118160941850949 -0.00049033847668307538 0 -0.065648076432031049 0.00090955339710942099 0 -0.048286593140243993 -0.039377229684959138 0 -0.060703590497751453 -0.03101491529774986 0 -0.044331283213942488 -0.020119990811347448 0 -0.060674527584339763 -0.015412449877807689 0 -0.060703590497751453 -0.03101491529774986 0 -0.044331283213942488 -0.020119990811347448 0 -0.044331283213942488 -0.020119990811347448 0 -0.027025641752002061 -0.0079319500279313396 0 -0.030584103036016622 -0.035608219704199993 0 -0.044331283213942488 -0.020119990811347448 0 -0.045118160941850949 -0.00049033847668307538 0 -0.027025641752002061 -0.0079319500279313396 0 -0.027025641752002061 -0.0079319500279313396 0 -0.0118242871531395 -0.020545428430059291 0 -0.0091716063734174208 -0.003332990253060792 0 -0.027025641752002061 -0.0079319500279313396 0 -0.0091716063734174208 -0.003332990253060792 0 -0.01566814095190756 0.010235570601176981 0 -0.027025641752002061 -0.0079319500279313396 0 -0.0118242871531395 -0.020545428430059291 0 -0.030584103036016622 -0.035608219704199993 0 -0.0118242871531395 -0.020545428430059291 0 -0.030584103036016622 -0.035608219704199993 0 -0.0118242871531395 -0.020545428430059291 0 0.006935528729737548 -0.0054826371559186567 0 0.0027408304473846411 -0.028176541972939319 0 -0.0118242871531395 -0.020545428430059291 0 -0.01026660782967455 -0.041229232136501717 0 0.0027408304473846411 -0.028176541972939319 0 -0.0118242871531395 -0.020545428430059291 0 -0.0091716063734174208 -0.003332990253060792 0 0.006935528729737548 -0.0054826371559186567 0 -0.0118242871531395 -0.020545428430059291 0 0.006935528729737548 -0.0054826371559186567 0 -0.024435088609687641 -0.049746151716912712 0 -0.01026660782967455 -0.041229232136501717 0 -0.01499476028908407 -0.06055090283160456 0 -0.03034189778213453 -0.060014988360291517 0 -0.01499476028908407 -0.06055090283160456 0 -0.03034189778213453 -0.060014988360291517 0 -0.024435088609687641 -0.049746151716912712 0 -0.01499476028908407 -0.06055090283160456 0 -0.024435088609687641 -0.049746151716912712 0 -0.030584103036016622 -0.035608219704199993 0 -0.01026660782967455 -0.041229232136501717 0 -0.0118242871531395 -0.020545428430059291 0 -0.030584103036016622 -0.035608219704199993 0 -0.01026660782967455 -0.041229232136501717 0 -0.01026660782967455 -0.041229232136501717 0 0.0096258971738255473 -0.043108802377643002 0 0.00035237720396625368 -0.061086817302918282 0 -0.01026660782967455 -0.041229232136501717 0 -0.01499476028908407 -0.06055090283160456 0 0.00035237720396625368 -0.061086817302918282 0 -0.01499476028908407 -0.06055090283160456 0 0.00035237720396625368 -0.061086817302918282 0 -0.011408129540087309 -0.083886203777590068 0 0.0065051428120863272 -0.082127796022149757 0 0.00035237720396625368 -0.061086817302918282 0 -0.011408129540087309 -0.083886203777590068 0 0.00035237720396625368 -0.061086817302918282 0 -0.01499476028908407 -0.06055090283160456 0 -0.011408129540087309 -0.083886203777590068 0 0.00035237720396625368 -0.061086817302918282 0 -0.011408129540087309 -0.083886203777590068 0 0.001856719827670471 -0.098182337095309047 0 0.0065051428120863272 -0.082127796022149757 0 -0.011408129540087309 -0.083886203777590068 0 -0.03053113156520738 -0.089911417014305078 0 -0.02316863628414112 -0.10668559025226169 0 -0.011408129540087309 -0.083886203777590068 0 -0.03053113156520738 -0.089911417014305078 0 -0.026049830403481512 -0.075342802050597457 0 -0.01499476028908407 -0.06055090283160456 0 -0.011408129540087309 -0.083886203777590068 0 -0.026049830403481512 -0.075342802050597457 0 -0.03034189778213453 -0.060014988360291517 0 -0.01499476028908407 -0.06055090283160456 0 -0.026049830403481512 -0.075342802050597457 0 -0.03034189778213453 -0.060014988360291517 0 -0.026049830403481512 -0.075342802050597457 0 -0.041349905228919973 -0.078428718904655664 0 -0.03034189778213453 -0.060014988360291517 0 -0.044968642856814678 -0.064628327886466996 0 -0.041349905228919973 -0.078428718904655664 0 -0.03053113156520738 -0.089911417014305078 0 -0.026049830403481512 -0.075342802050597457 0 -0.041349905228919973 -0.078428718904655664 0 -0.03053113156520738 -0.089911417014305078 0 -0.041349905228919973 -0.078428718904655664 0 -0.047432501145458397 -0.097370211357339573 0 -0.041349905228919973 -0.078428718904655664 0 -0.053879666709155317 -0.08598560359304859 0 -0.05753372126900759 -0.073422836261521005 0 -0.041349905228919973 -0.078428718904655664 0 -0.053879666709155317 -0.08598560359304859 0 -0.047432501145458397 -0.097370211357339573 0 -0.066670257350634976 -0.085780572793309681 0 -0.053879666709155317 -0.08598560359304859 0 -0.05982498813170789 -0.10249801488187529 0 -0.066670257350634976 -0.085780572793309681 0 -0.053879666709155317 -0.08598560359304859 0 -0.05753372126900759 -0.073422836261521005 0 -0.044968642856814678 -0.064628327886466996 0 -0.041349905228919973 -0.078428718904655664 0 -0.05753372126900759 -0.073422836261521005 0 -0.065822825648978775 -0.060485584973140792 0 -0.05753372126900759 -0.073422836261521005 0 -0.055146373663134192 -0.063188587977351315 0 -0.044968642856814678 -0.064628327886466996 0 -0.05753372126900759 -0.073422836261521005 0 -0.055146373663134192 -0.063188587977351315 0 -0.065415314349395459 -0.11473522154729129 0 -0.048239208743362072 -0.1165718691901324 0 -0.05982498813170789 -0.10249801488187529 0 -0.065415314349395459 -0.11473522154729129 0 -0.048239208743362072 -0.1165718691901324 0 -0.060446148579459319 -0.1303024678998376 0 -0.048239208743362072 -0.1165718691901324 0 -0.05982498813170789 -0.10249801488187529 0 -0.047432501145458397 -0.097370211357339573 0 -0.053879666709155317 -0.08598560359304859 0 -0.05982498813170789 -0.10249801488187529 0 -0.047432501145458397 -0.097370211357339573 0 -0.048239208743362072 -0.1165718691901324 0 -0.047432501145458397 -0.097370211357339573 0 -0.02316863628414112 -0.10668559025226169 0 -0.03053113156520738 -0.089911417014305078 0 -0.047432501145458397 -0.097370211357339573 0 -0.02316863628414112 -0.10668559025226169 0 -0.048239208743362072 -0.1165718691901324 0 -0.02316863628414112 -0.10668559025226169 0 -0.029948833034415319 -0.13246817914486481 0 -0.02316863628414112 -0.10668559025226169 0 -0.01250087523651249 -0.12826546419306251 0 -0.029948833034415319 -0.13246817914486481 0 -0.011408129540087309 -0.083886203777590068 0 -0.02316863628414112 -0.10668559025226169 0 -0.02316863628414112 -0.10668559025226169 0 0.0015243557028834459 -0.11711868301268021 0 0.001856719827670471 -0.098182337095309047 0 -0.011408129540087309 -0.083886203777590068 0 -0.02316863628414112 -0.10668559025226169 0 0.001856719827670471 -0.098182337095309047 0 -0.02316863628414112 -0.10668559025226169 0 -0.01250087523651249 -0.12826546419306251 0 0.0015243557028834459 -0.11711868301268021 0 -0.01250087523651249 -0.12826546419306251 0 -0.013317386200938249 -0.14799664519887931 0 0.0088678229424013627 -0.13941235935176011 0 -0.01250087523651249 -0.12826546419306251 0 0.0088678229424013627 -0.13941235935176011 0 0.0015243557028834459 -0.11711868301268021 0 -0.01250087523651249 -0.12826546419306251 0 -0.029948833034415319 -0.13246817914486481 0 -0.013317386200938249 -0.14799664519887931 0 -0.013317386200938249 -0.14799664519887931 0 -0.035502595344277812 -0.15658093104599841 0 -0.029948833034415319 -0.13246817914486481 0 -0.013317386200938249 -0.14799664519887931 0 -0.035502595344277812 -0.15658093104599841 0 -0.013317386200938249 -0.14799664519887931 0 0.0088678229424013627 -0.13941235935176011 0 -0.013317386200938249 -0.14799664519887931 0 0.0027310736070901482 -0.15493719994590471 0 0.0088678229424013627 -0.13941235935176011 0 -0.013317386200938249 -0.14799664519887931 0 -0.0013673002328405961 -0.1767093328090546 0 0.0027310736070901482 -0.15493719994590471 0 -0.013317386200938249 -0.14799664519887931 0 -0.0013673002328405961 -0.1767093328090546 0 -0.029934926785222919 -0.1776443960910804 0 -0.0013673002328405961 -0.1767093328090546 0 -0.0217915143334447 -0.19785215020996011 0 -0.0013673002328405961 -0.1767093328090546 0 -0.029934926785222919 -0.1776443960910804 0 -0.0217915143334447 -0.19785215020996011 0 -0.013317386200938249 -0.14799664519887931 0 -0.029934926785222919 -0.1776443960910804 0 -0.035502595344277812 -0.15658093104599841 0 -0.035502595344277812 -0.15658093104599841 0 -0.057687804487617317 -0.16516521689311761 0 -0.029934926785222919 -0.1776443960910804 0 -0.035502595344277812 -0.15658093104599841 0 -0.057687804487617317 -0.16516521689311761 0 -0.029934926785222919 -0.1776443960910804 0 -0.048583433801033478 -0.18728911877980611 0 -0.034676635542126917 -0.191298641696723 0 -0.029934926785222919 -0.1776443960910804 0 -0.048583433801033478 -0.18728911877980611 0 -0.057687804487617317 -0.16516521689311761 0 -0.048583433801033478 -0.18728911877980611 0 -0.057687804487617317 -0.16516521689311761 0 -0.063770138428779252 -0.18079669395549949 0 -0.035502595344277812 -0.15658093104599841 0 -0.057687804487617317 -0.16516521689311761 0 -0.06059931965736505 -0.14742373122833671 0 -0.035502595344277812 -0.15658093104599841 0 -0.06059931965736505 -0.14742373122833671 0 -0.046947221071775923 -0.13666943570183401 0 -0.048239208743362072 -0.1165718691901324 0 -0.046947221071775923 -0.13666943570183401 0 -0.060446148579459319 -0.1303024678998376 0 -0.06059931965736505 -0.14742373122833671 0 -0.046947221071775923 -0.13666943570183401 0 -0.060446148579459319 -0.1303024678998376 0 -0.048239208743362072 -0.1165718691901324 0 -0.029948833034415319 -0.13246817914486481 0 -0.046947221071775923 -0.13666943570183401 0 -0.029948833034415319 -0.13246817914486481 0 -0.035502595344277812 -0.15658093104599841 0 -0.046947221071775923 -0.13666943570183401 0 -0.03064478186574425 -0.25326356670072259 0 -0.026067501294639708 -0.24850247980592871 0 -0.033387688564450117 -0.24425465961654741 0 -0.026067501294639708 -0.24850247980592871 0 -0.02456862519526215 -0.24210395604782819 0 -0.033387688564450117 -0.24425465961654741 0 -0.02974340118516787 -0.23585106297766359 0 -0.02456862519526215 -0.24210395604782819 0 -0.02062871475200042 -0.2320366992723622 0 -0.02974340118516787 -0.23585106297766359 0 -0.02456862519526215 -0.24210395604782819 0 -0.033387688564450117 -0.24425465961654741 0 -0.02456862519526215 -0.24210395604782819 0 -0.01660477195623393 -0.2403164687020414 0 -0.02062871475200042 -0.2320366992723622 0 -0.02456862519526215 -0.24210395604782819 0 -0.01660477195623393 -0.2403164687020414 0 -0.01887874476148543 -0.24814250919209771 0 -0.026067501294639708 -0.24850247980592871 0 -0.02456862519526215 -0.24210395604782819 0 -0.01887874476148543 -0.24814250919209771 0 -0.01660477195623393 -0.2403164687020414 0 -0.01887874476148543 -0.24814250919209771 0 -0.0080727856436109482 -0.2481099565327444 0 -0.0080727856436109482 -0.2481099565327444 0 -0.0084819670471955304 -0.2367225590632196 0 0.0055632338660241776 -0.24332209518663511 0 -0.01660477195623393 -0.2403164687020414 0 -0.0084819670471955304 -0.2367225590632196 0 -0.02062871475200042 -0.2320366992723622 0 -0.01660477195623393 -0.2403164687020414 0 -0.0080727856436109482 -0.2481099565327444 0 -0.0084819670471955304 -0.2367225590632196 0 -0.0084819670471955304 -0.2367225590632196 0 -0.0075276580997289226 -0.21896018305478171 0 0.0032521440618358652 -0.23009641691855939 0 -0.0084819670471955304 -0.2367225590632196 0 -0.0075276580997289226 -0.21896018305478171 0 -0.02062871475200042 -0.2320366992723622 0 -0.0075276580997289226 -0.21896018305478171 0 -0.02062871475200042 -0.2320366992723622 0 -0.024832472176938718 -0.21885173135413241 0 -0.02974340118516787 -0.23585106297766359 0 -0.02062871475200042 -0.2320366992723622 0 -0.031998745265470661 -0.22641465662269231 0 -0.02062871475200042 -0.2320366992723622 0 -0.024832472176938718 -0.21885173135413241 0 -0.031998745265470661 -0.22641465662269231 0 -0.0075276580997289226 -0.21896018305478171 0 -0.024832472176938718 -0.21885173135413241 0 -0.0217915143334447 -0.19785215020996011 0 -0.024832472176938718 -0.21885173135413241 0 -0.0217915143334447 -0.19785215020996011 0 -0.042215728434048867 -0.21899496761086559 0 -0.0075276580997289226 -0.21896018305478171 0 -0.0217915143334447 -0.19785215020996011 0 0.003555539334036632 -0.19934620758084881 0 -0.0013673002328405961 -0.1767093328090546 0 -0.0217915143334447 -0.19785215020996011 0 0.003555539334036632 -0.19934620758084881 0 -0.029934926785222919 -0.1776443960910804 0 -0.0217915143334447 -0.19785215020996011 0 -0.034676635542126917 -0.191298641696723 0 -0.0217915143334447 -0.19785215020996011 0 -0.034676635542126917 -0.191298641696723 0 -0.04224094911505525 -0.20168175555289891 0 -0.048583433801033478 -0.18728911877980611 0 -0.034676635542126917 -0.191298641696723 0 -0.04224094911505525 -0.20168175555289891 0 -0.048583433801033478 -0.18728911877980611 0 -0.058327232484387218 -0.2013044317948425 0 -0.063770138428779252 -0.18079669395549949 0 -0.048583433801033478 -0.18728911877980611 0 -0.04224094911505525 -0.20168175555289891 0 -0.058327232484387218 -0.2013044317948425 0 -0.058327232484387218 -0.2013044317948425 0 -0.04785115009529034 -0.21335122322519601 0 -0.065984069430329237 -0.21594808513783789 0 -0.04224094911505525 -0.20168175555289891 0 -0.058327232484387218 -0.2013044317948425 0 -0.04785115009529034 -0.21335122322519601 0 -0.04785115009529034 -0.21335122322519601 0 -0.065984069430329237 -0.21594808513783789 0 -0.04785115009529034 -0.21335122322519601 0 -0.050089297127046031 -0.22131182591420251 0 -0.065984069430329237 -0.21594808513783789 0 -0.0217915143334447 -0.19785215020996011 0 -0.042215728434048867 -0.21899496761086559 0 -0.0217915143334447 -0.19785215020996011 0 -0.04224094911505525 -0.20168175555289891 0 -0.042215728434048867 -0.21899496761086559 0 -0.04224094911505525 -0.20168175555289891 0 -0.04785115009529034 -0.21335122322519601 0 -0.042215728434048867 -0.21899496761086559 0 -0.04785115009529034 -0.21335122322519601 0 -0.042215728434048867 -0.21899496761086559 0 -0.050089297127046031 -0.22131182591420251 0 -0.024832472176938718 -0.21885173135413241 0 -0.031998745265470661 -0.22641465662269231 0 -0.042215728434048867 -0.21899496761086559 0 -0.031998745265470661 -0.22641465662269231 0 -0.042215728434048867 -0.21899496761086559 0 -0.041320068815934301 -0.22639292378782619 0 -0.031998745265470661 -0.22641465662269231 0 -0.041320068815934301 -0.22639292378782619 0 -0.038133232148655979 -0.23444534332888789 0 -0.02974340118516787 -0.23585106297766359 0 -0.031998745265470661 -0.22641465662269231 0 -0.038133232148655979 -0.23444534332888789 0 -0.041320068815934301 -0.22639292378782619 0 -0.052151212760384272 -0.22988480121754831 0 -0.038133232148655979 -0.23444534332888789 0 -0.042215728434048867 -0.21899496761086559 0 -0.041320068815934301 -0.22639292378782619 0 -0.050089297127046031 -0.22131182591420251 0 -0.041320068815934301 -0.22639292378782619 0 -0.050089297127046031 -0.22131182591420251 0 -0.052151212760384272 -0.22988480121754831 0 -0.0567919256119837 -0.24387644547435741 0 -0.065984069430329237 -0.21594808513783789 0 -0.050089297127046031 -0.22131182591420251 0 -0.052151212760384272 -0.22988480121754831 0 -0.065984069430329237 -0.21594808513783789 0 -0.052151212760384272 -0.22988480121754831 0 -0.0567919256119837 -0.24387644547435741 0 -0.065984069430329237 -0.21594808513783789 0 -0.052151212760384272 -0.22988480121754831 0 -0.0567919256119837 -0.24387644547435741 0 -0.045207486351244337 -0.24272005325013779 0 -0.046517308340487992 -0.25474718453952289 0 -0.0567919256119837 -0.24387644547435741 0 -0.045207486351244337 -0.24272005325013779 0 -0.038581934025118947 -0.25114857380685968 0 -0.046517308340487992 -0.25474718453952289 0 -0.045207486351244337 -0.24272005325013779 0 -0.052151212760384272 -0.22988480121754831 0 -0.045207486351244337 -0.24272005325013779 0 -0.038133232148655979 -0.23444534332888789 0 -0.02974340118516787 -0.23585106297766359 0 -0.038133232148655979 -0.23444534332888789 0 -0.033387688564450117 -0.24425465961654741 0 -0.045207486351244337 -0.24272005325013779 0 -0.038133232148655979 -0.23444534332888789 0 -0.033387688564450117 -0.24425465961654741 0 -0.038581934025118947 -0.25114857380685968 0 -0.03064478186574425 -0.25326356670072259 0 -0.033387688564450117 -0.24425465961654741 0 -0.038581934025118947 -0.25114857380685968 0 -0.045207486351244337 -0.24272005325013779 0 -0.033387688564450117 -0.24425465961654741 0 -0.076282262678724011 -0.24169347649274159 0 -0.094544528280961701 -0.23130979592197831 0 -0.1005321994236209 -0.2431127607729493 0 -0.090174700483665673 -0.26498018187443112 0 -0.076282262678724011 -0.24169347649274159 0 -0.1005321994236209 -0.2431127607729493 0 -0.063484538676239377 -0.26413124226689111 0 -0.0567919256119837 -0.24387644547435741 0 -0.076282262678724011 -0.24169347649274159 0 -0.0567919256119837 -0.24387644547435741 0 -0.076282262678724011 -0.24169347649274159 0 -0.076216545617433393 -0.2267874217425101 0 -0.0567919256119837 -0.24387644547435741 0 -0.076216545617433393 -0.2267874217425101 0 -0.065984069430329237 -0.21594808513783789 0 -0.076216545617433393 -0.2267874217425101 0 -0.089079986681209755 -0.21925571071859279 0 -0.065984069430329237 -0.21594808513783789 0 -0.076282262678724011 -0.24169347649274159 0 -0.076216545617433393 -0.2267874217425101 0 -0.089079986681209755 -0.21925571071859279 0 -0.076282262678724011 -0.24169347649274159 0 -0.089079986681209755 -0.21925571071859279 0 -0.076282262678724011 -0.24169347649274159 0 -0.089079986681209755 -0.21925571071859279 0 -0.094544528280961701 -0.23130979592197831 0 -0.089079986681209755 -0.21925571071859279 0 -0.087982693832912948 -0.20610030108417279 0 -0.065984069430329237 -0.21594808513783789 0 -0.089079986681209755 -0.21925571071859279 0 -0.091681034097487346 -0.21469539259619891 0 -0.087982693832912948 -0.20610030108417279 0 -0.089079986681209755 -0.21925571071859279 0 -0.091681034097487346 -0.21469539259619891 0 -0.089079986681209755 -0.21925571071859279 0 -0.065984069430329237 -0.21594808513783789 0 -0.058327232484387218 -0.2013044317948425 0 -0.065984069430329237 -0.21594808513783789 0 -0.072928541530643487 -0.1948487939390374 0 -0.065984069430329237 -0.21594808513783789 0 -0.072928541530643487 -0.1948487939390374 0 -0.087982693832912948 -0.20610030108417279 0 -0.065984069430329237 -0.21594808513783789 0 -0.072928541530643487 -0.1948487939390374 0 -0.058327232484387218 -0.2013044317948425 0 -0.072928541530643487 -0.1948487939390374 0 -0.063770138428779252 -0.18079669395549949 0 -0.087982693832912948 -0.20610030108417279 0 -0.072928541530643487 -0.1948487939390374 0 -0.088647710124579282 -0.1895137930351245 0 -0.087982693832912948 -0.20610030108417279 0 -0.088647710124579282 -0.1895137930351245 0 -0.098413722631135098 -0.19641739989264009 0 -0.088647710124579282 -0.1895137930351245 0 -0.098413722631135098 -0.19641739989264009 0 -0.1039428787252024 -0.18306303235069041 0 -0.087982693832912948 -0.20610030108417279 0 -0.098413722631135098 -0.19641739989264009 0 -0.1018219586260966 -0.2062222809526808 0 -0.098413722631135098 -0.19641739989264009 0 -0.10967337184688419 -0.19718759204053191 0 -0.1018219586260966 -0.2062222809526808 0 -0.098413722631135098 -0.19641739989264009 0 -0.10967337184688419 -0.19718759204053191 0 -0.1039428787252024 -0.18306303235069041 0 -0.1039428787252024 -0.18306303235069041 0 -0.1280127438194481 -0.19237656196114411 0 -0.10967337184688419 -0.19718759204053191 0 -0.1178174188303993 -0.20556040013348681 0 -0.1280127438194481 -0.19237656196114411 0 -0.10967337184688419 -0.19718759204053191 0 -0.1039428787252024 -0.18306303235069041 0 -0.1280127438194481 -0.19237656196114411 0 -0.10967337184688419 -0.19718759204053191 0 -0.10961342770230489 -0.21003706569406461 0 -0.1178174188303993 -0.20556040013348681 0 -0.1178174188303993 -0.20556040013348681 0 -0.1109550451866443 -0.21888036136960631 0 -0.13246178853905299 -0.20873151589840269 0 -0.1109550451866443 -0.21888036136960631 0 -0.13246178853905299 -0.20873151589840269 0 -0.1109550451866443 -0.21888036136960631 0 -0.12407830270498089 -0.22426790937284519 0 -0.13246178853905299 -0.20873151589840269 0 -0.10961342770230489 -0.21003706569406461 0 -0.1178174188303993 -0.20556040013348681 0 -0.1109550451866443 -0.21888036136960631 0 -0.10961342770230489 -0.21003706569406461 0 -0.103172625086798 -0.22127395363072039 0 -0.1109550451866443 -0.21888036136960631 0 -0.10961342770230489 -0.21003706569406461 0 -0.1018219586260966 -0.2062222809526808 0 -0.103172625086798 -0.22127395363072039 0 -0.10967337184688419 -0.19718759204053191 0 -0.10961342770230489 -0.21003706569406461 0 -0.1018219586260966 -0.2062222809526808 0 -0.091681034097487346 -0.21469539259619891 0 -0.087982693832912948 -0.20610030108417279 0 -0.103172625086798 -0.22127395363072039 0 -0.089079986681209755 -0.21925571071859279 0 -0.091681034097487346 -0.21469539259619891 0 -0.103172625086798 -0.22127395363072039 0 -0.087982693832912948 -0.20610030108417279 0 -0.103172625086798 -0.22127395363072039 0 -0.087982693832912948 -0.20610030108417279 0 -0.1018219586260966 -0.2062222809526808 0 -0.103172625086798 -0.22127395363072039 0 -0.094544528280961701 -0.23130979592197831 0 -0.103172625086798 -0.22127395363072039 0 -0.1005321994236209 -0.2431127607729493 0 -0.089079986681209755 -0.21925571071859279 0 -0.103172625086798 -0.22127395363072039 0 -0.089079986681209755 -0.21925571071859279 0 -0.094544528280961701 -0.23130979592197831 0 -0.103172625086798 -0.22127395363072039 0 -0.103172625086798 -0.22127395363072039 0 -0.1223681628105569 -0.24044891992886891 0 -0.103172625086798 -0.22127395363072039 0 -0.12407830270498089 -0.22426790937284519 0 -0.1238233973506119 -0.23541481827178831 0 -0.103172625086798 -0.22127395363072039 0 -0.1223681628105569 -0.24044891992886891 0 -0.1238233973506119 -0.23541481827178831 0 -0.103172625086798 -0.22127395363072039 0 -0.12407830270498089 -0.22426790937284519 0 -0.103172625086798 -0.22127395363072039 0 -0.1109550451866443 -0.21888036136960631 0 -0.12407830270498089 -0.22426790937284519 0 -0.11757885349586771 -0.25701660664448461 0 -0.1223681628105569 -0.24044891992886891 0 -0.1005321994236209 -0.2431127607729493 0 -0.11757885349586771 -0.25701660664448461 0 -0.1223681628105569 -0.24044891992886891 0 -0.1223681628105569 -0.24044891992886891 0 -0.1238233973506119 -0.23541481827178831 0 -0.103172625086798 -0.22127395363072039 0 -0.1223681628105569 -0.24044891992886891 0 -0.1005321994236209 -0.2431127607729493 0 -0.088441251280713618 -0.1477167476767523 0 -0.085474651021334253 -0.13655174303235951 0 -0.077236065216807342 -0.1460130695171887 0 -0.088441251280713618 -0.1477167476767523 0 -0.077236065216807342 -0.1460130695171887 0 -0.072985053953480025 -0.15595005707556001 0 -0.088441251280713618 -0.1477167476767523 0 -0.093538562727787294 -0.15940564464812701 0 -0.098894310772838973 -0.14952020789867901 0 -0.088441251280713618 -0.1477167476767523 0 -0.085474651021334253 -0.13655174303235951 0 -0.095252038160572317 -0.1406191133899993 0 -0.085474651021334253 -0.13655174303235951 0 -0.095971306836852913 -0.13086642389395989 0 -0.095252038160572317 -0.1406191133899993 0 -0.082994471061899833 -0.1234246307735777 0 -0.085474651021334253 -0.13655174303235951 0 -0.095971306836852913 -0.13086642389395989 0 -0.082994471061899833 -0.1234246307735777 0 -0.085474651021334253 -0.13655174303235951 0 -0.073596501371478315 -0.1364787996572045 0 -0.085474651021334253 -0.13655174303235951 0 -0.073596501371478315 -0.1364787996572045 0 -0.077236065216807342 -0.1460130695171887 0 -0.06059931965736505 -0.14742373122833671 0 -0.060446148579459319 -0.1303024678998376 0 -0.073596501371478315 -0.1364787996572045 0 -0.082994471061899833 -0.1234246307735777 0 -0.073596501371478315 -0.1364787996572045 0 -0.071674103496310607 -0.1250344835198243 0 -0.060446148579459319 -0.1303024678998376 0 -0.073596501371478315 -0.1364787996572045 0 -0.071674103496310607 -0.1250344835198243 0 -0.06059931965736505 -0.14742373122833671 0 -0.073596501371478315 -0.1364787996572045 0 -0.077236065216807342 -0.1460130695171887 0 -0.057687804487617317 -0.16516521689311761 0 -0.06059931965736505 -0.14742373122833671 0 -0.072985053953480025 -0.15595005707556001 0 -0.06059931965736505 -0.14742373122833671 0 -0.077236065216807342 -0.1460130695171887 0 -0.072985053953480025 -0.15595005707556001 0 -0.057687804487617317 -0.16516521689311761 0 -0.079873013630956835 -0.17374950274023659 0 -0.057687804487617317 -0.16516521689311761 0 -0.072985053953480025 -0.15595005707556001 0 -0.079873013630956835 -0.17374950274023659 0 -0.072928541530643487 -0.1948487939390374 0 -0.079873013630956835 -0.17374950274023659 0 -0.057687804487617317 -0.16516521689311761 0 -0.063770138428779252 -0.18079669395549949 0 -0.079873013630956835 -0.17374950274023659 0 -0.072928541530643487 -0.1948487939390374 0 -0.063770138428779252 -0.18079669395549949 0 -0.079873013630956835 -0.17374950274023659 0 -0.072928541530643487 -0.1948487939390374 0 -0.088647710124579282 -0.1895137930351245 0 -0.079873013630956835 -0.17374950274023659 0 -0.079873013630956835 -0.17374950274023659 0 -0.1039428787252024 -0.18306303235069041 0 -0.088647710124579282 -0.1895137930351245 0 -0.079873013630956835 -0.17374950274023659 0 -0.1039428787252024 -0.18306303235069041 0 -0.088441251280713618 -0.1477167476767523 0 -0.079873013630956835 -0.17374950274023659 0 -0.079873013630956835 -0.17374950274023659 0 -0.093538562727787294 -0.15940564464812701 0 -0.098088850166783578 -0.16700629557107341 0 -0.088441251280713618 -0.1477167476767523 0 -0.079873013630956835 -0.17374950274023659 0 -0.093538562727787294 -0.15940564464812701 0 -0.088441251280713618 -0.1477167476767523 0 -0.072985053953480025 -0.15595005707556001 0 -0.079873013630956835 -0.17374950274023659 0 -0.093538562727787294 -0.15940564464812701 0 -0.098088850166783578 -0.16700629557107341 0 -0.1023953877876435 -0.15903546935389351 0 -0.098088850166783578 -0.16700629557107341 0 -0.1039428787252024 -0.18306303235069041 0 -0.1119878388851908 -0.16231915977259129 0 -0.098088850166783578 -0.16700629557107341 0 -0.1023953877876435 -0.15903546935389351 0 -0.1119878388851908 -0.16231915977259129 0 -0.079873013630956835 -0.17374950274023659 0 -0.098088850166783578 -0.16700629557107341 0 -0.1039428787252024 -0.18306303235069041 0 -0.1039428787252024 -0.18306303235069041 0 -0.11859204859796291 -0.17560578940816099 0 -0.1119878388851908 -0.16231915977259129 0 -0.1039428787252024 -0.18306303235069041 0 -0.11859204859796291 -0.17560578940816099 0 -0.1280127438194481 -0.19237656196114411 0 -0.1023953877876435 -0.15903546935389351 0 -0.1119878388851908 -0.16231915977259129 0 -0.1169630623746598 -0.14907522687480429 0 -0.11859204859796291 -0.17560578940816099 0 -0.1119878388851908 -0.16231915977259129 0 -0.12588679133122799 -0.1624874708491951 0 -0.1119878388851908 -0.16231915977259129 0 -0.1169630623746598 -0.14907522687480429 0 -0.12588679133122799 -0.1624874708491951 0 -0.1119878388851908 -0.16231915977259129 0 -0.1169630623746598 -0.14907522687480429 0 -0.1023953877876435 -0.15903546935389351 0 -0.1169630623746598 -0.14907522687480429 0 -0.098894310772838973 -0.14952020789867901 0 -0.1169630623746598 -0.14907522687480429 0 -0.098894310772838973 -0.14952020789867901 0 -0.1169630623746598 -0.14907522687480429 0 -0.098894310772838973 -0.14952020789867901 0 -0.1074786708911218 -0.1384404444482458 0 -0.088441251280713618 -0.1477167476767523 0 -0.098894310772838973 -0.14952020789867901 0 -0.095252038160572317 -0.1406191133899993 0 -0.098894310772838973 -0.14952020789867901 0 -0.095252038160572317 -0.1406191133899993 0 -0.1074786708911218 -0.1384404444482458 0 -0.093538562727787294 -0.15940564464812701 0 -0.1023953877876435 -0.15903546935389351 0 -0.098894310772838973 -0.14952020789867901 0 -0.1085913382140784 -0.11903379143832921 0 -0.095971306836852913 -0.13086642389395989 0 -0.1074786708911218 -0.1384404444482458 0 -0.095971306836852913 -0.13086642389395989 0 -0.095252038160572317 -0.1406191133899993 0 -0.1074786708911218 -0.1384404444482458 0 -0.1085913382140784 -0.11903379143832921 0 -0.1074786708911218 -0.1384404444482458 0 -0.12736410167423581 -0.1213878944680517 0 -0.1169630623746598 -0.14907522687480429 0 -0.1074786708911218 -0.1384404444482458 0 -0.12736410167423581 -0.1213878944680517 0 -0.1169630623746598 -0.14907522687480429 0 -0.12736410167423581 -0.1213878944680517 0 -0.13746664940214659 -0.13470709103134659 0 -0.12736410167423581 -0.1213878944680517 0 -0.14737054533773081 -0.1208951937003558 0 -0.1169630623746598 -0.14907522687480429 0 -0.13746664940214659 -0.13470709103134659 0 -0.12736410167423581 -0.1213878944680517 0 -0.1569759497016511 -0.14808982533941309 0 -0.14737054533773081 -0.1208951937003558 0 -0.13746664940214659 -0.13470709103134659 0 -0.1569759497016511 -0.14808982533941309 0 -0.14737054533773081 -0.1208951937003558 0 -0.1369695060381555 -0.1485825261071109 0 -0.1526603788815559 -0.1573596194762775 0 -0.1569759497016511 -0.14808982533941309 0 -0.13746664940214659 -0.13470709103134659 0 -0.1369695060381555 -0.1485825261071109 0 -0.1569759497016511 -0.14808982533941309 0 -0.1369695060381555 -0.1485825261071109 0 -0.1569759497016511 -0.14808982533941309 0 -0.1169630623746598 -0.14907522687480429 0 -0.1369695060381555 -0.1485825261071109 0 -0.1169630623746598 -0.14907522687480429 0 -0.1369695060381555 -0.1485825261071109 0 -0.12588679133122799 -0.1624874708491951 0 -0.1169630623746598 -0.14907522687480429 0 -0.13746664940214659 -0.13470709103134659 0 -0.1369695060381555 -0.1485825261071109 0 -0.11859204859796291 -0.17560578940816099 0 -0.12588679133122799 -0.1624874708491951 0 -0.13147554750711021 -0.17522771154146191 0 -0.12588679133122799 -0.1624874708491951 0 -0.13147554750711021 -0.17522771154146191 0 -0.14107140235061469 -0.16358211752318311 0 -0.13147554750711021 -0.17522771154146191 0 -0.14520517551865919 -0.17294749126987599 0 -0.14107140235061469 -0.16358211752318311 0 -0.1369695060381555 -0.1485825261071109 0 -0.12588679133122799 -0.1624874708491951 0 -0.14107140235061469 -0.16358211752318311 0 -0.11859204859796291 -0.17560578940816099 0 -0.13147554750711021 -0.17522771154146191 0 -0.1280127438194481 -0.19237656196114411 0 -0.13147554750711021 -0.17522771154146191 0 -0.1398254013782112 -0.18365029146927231 0 -0.1280127438194481 -0.19237656196114411 0 -0.13147554750711021 -0.17522771154146191 0 -0.1398254013782112 -0.18365029146927231 0 -0.14520517551865919 -0.17294749126987599 0 -0.1398254013782112 -0.18365029146927231 0 -0.14820117369214661 -0.18035874543477601 0 -0.1498687104188495 -0.18767128888863599 0 -0.1398254013782112 -0.18365029146927231 0 -0.14820117369214661 -0.18035874543477601 0 -0.14520517551865919 -0.17294749126987599 0 -0.14820117369214661 -0.18035874543477601 0 -0.14520517551865919 -0.17294749126987599 0 -0.1568216795970071 -0.17538216601134321 0 -0.14820117369214661 -0.18035874543477601 0 -0.15608754076248521 -0.18190001438557629 0 -0.1568216795970071 -0.17538216601134321 0 -0.14520517551865919 -0.17294749126987599 0 -0.15263532751206779 -0.16758471640843459 0 -0.1568216795970071 -0.17538216601134321 0 -0.14820117369214661 -0.18035874543477601 0 -0.15608754076248521 -0.18190001438557629 0 -0.1498687104188495 -0.18767128888863599 0 -0.15608754076248521 -0.18190001438557629 0 -0.1607184616130248 -0.18728683910860641 0 -0.1498687104188495 -0.18767128888863599 0 -0.1369695060381555 -0.1485825261071109 0 -0.14107140235061469 -0.16358211752318311 0 -0.1526603788815559 -0.1573596194762775 0 -0.14520517551865919 -0.17294749126987599 0 -0.14107140235061469 -0.16358211752318311 0 -0.15263532751206779 -0.16758471640843459 0 -0.15263532751206779 -0.16758471640843459 0 -0.1526603788815559 -0.1573596194762775 0 -0.16142564196989831 -0.16655703171874039 0 -0.14107140235061469 -0.16358211752318311 0 -0.15263532751206779 -0.16758471640843459 0 -0.1526603788815559 -0.1573596194762775 0 -0.1526603788815559 -0.1573596194762775 0 -0.16142564196989831 -0.16655703171874039 0 -0.16326087804426159 -0.16588359066980229 0 -0.16326087804426159 -0.16588359066980229 0 -0.1569759497016511 -0.14808982533941309 0 -0.1526603788815559 -0.1573596194762775 0 -0.16326087804426159 -0.16588359066980229 0 -0.1569759497016511 -0.14808982533941309 0 -0.1594122663447772 -0.17133307891758459 0 -0.16142564196989831 -0.16655703171874039 0 -0.16676641630013581 -0.17580840153182001 0 -0.15263532751206779 -0.16758471640843459 0 -0.1594122663447772 -0.17133307891758459 0 -0.16142564196989831 -0.16655703171874039 0 -0.16142564196989831 -0.16655703171874039 0 -0.16326087804426159 -0.16588359066980229 0 -0.16676641630013581 -0.17580840153182001 0 -0.15263532751206779 -0.16758471640843459 0 -0.1594122663447772 -0.17133307891758459 0 -0.1568216795970071 -0.17538216601134321 0 -0.16142564196989831 -0.16655703171874039 0 -0.16326087804426159 -0.16588359066980229 0 -0.16326087804426159 -0.16588359066980229 0 -0.16676641630013581 -0.17580840153182001 0 -0.1783922457352059 -0.17293489930968209 0 -0.16326087804426159 -0.16588359066980229 0 -0.16676641630013581 -0.17580840153182001 0 -0.15608754076248521 -0.18190001438557629 0 -0.1607184616130248 -0.18728683910860641 0 -0.16676641630013581 -0.17580840153182001 0 -0.15608754076248521 -0.18190001438557629 0 -0.1568216795970071 -0.17538216601134321 0 -0.16676641630013581 -0.17580840153182001 0 -0.1594122663447772 -0.17133307891758459 0 -0.1568216795970071 -0.17538216601134321 0 -0.16676641630013581 -0.17580840153182001 0 -0.1607184616130248 -0.18728683910860641 0 -0.16676641630013581 -0.17580840153182001 0 -0.17547527524387041 -0.1884338249559952 0 -0.17547527524387041 -0.1884338249559952 0 -0.1969820185962792 -0.17828497948479149 0 -0.1783922457352059 -0.17293489930968209 0 -0.17547527524387041 -0.1884338249559952 0 -0.1969820185962792 -0.17828497948479149 0 -0.16676641630013581 -0.17580840153182001 0 -0.1783922457352059 -0.17293489930968209 0 -0.17547527524387041 -0.1884338249559952 0 -0.16326087804426159 -0.16588359066980229 0 -0.18947664049148261 -0.1562636999060015 0 -0.16326087804426159 -0.16588359066980229 0 -0.18633417632017751 -0.14736681724080919 0 -0.18947664049148261 -0.1562636999060015 0 -0.16326087804426159 -0.16588359066980229 0 -0.1783922457352059 -0.17293489930968209 0 -0.18947664049148261 -0.1562636999060015 0 -0.18633417632017751 -0.14736681724080919 0 -0.16621773075288121 -0.1295318635244681 0 -0.18400621351090571 -0.1217110611121094 0 -0.16621773075288121 -0.1295318635244681 0 -0.1569759497016511 -0.14808982533941309 0 -0.14737054533773081 -0.1208951937003558 0 -0.18633417632017751 -0.14736681724080919 0 -0.16621773075288121 -0.1295318635244681 0 -0.1569759497016511 -0.14808982533941309 0 -0.18633417632017751 -0.14736681724080919 0 -0.1569759497016511 -0.14808982533941309 0 -0.16326087804426159 -0.16588359066980229 0 -0.18633417632017751 -0.14736681724080919 0 -0.1569759497016511 -0.14808982533941309 0 -0.1377523016625678 -0.25581657194563601 0 -0.15263230708737521 -0.24356194903458239 0 -0.13476861079800859 -0.2391754021203874 0 -0.15263230708737521 -0.24356194903458239 0 -0.13476861079800859 -0.2391754021203874 0 -0.14055595197029169 -0.22979662500526149 0 -0.1377523016625678 -0.25581657194563601 0 -0.1223681628105569 -0.24044891992886891 0 -0.13476861079800859 -0.2391754021203874 0 -0.1377523016625678 -0.25581657194563601 0 -0.1223681628105569 -0.24044891992886891 0 -0.1238233973506119 -0.23541481827178831 0 -0.13476861079800859 -0.2391754021203874 0 -0.13139441447274411 -0.22962184130071481 0 -0.1223681628105569 -0.24044891992886891 0 -0.1238233973506119 -0.23541481827178831 0 -0.13476861079800859 -0.2391754021203874 0 -0.13476861079800859 -0.2391754021203874 0 -0.14055595197029169 -0.22979662500526149 0 -0.13139441447274411 -0.22962184130071481 0 -0.12407830270498089 -0.22426790937284519 0 -0.1238233973506119 -0.23541481827178831 0 -0.13139441447274411 -0.22962184130071481 0 -0.12407830270498089 -0.22426790937284519 0 -0.13139441447274411 -0.22962184130071481 0 -0.13441394179160859 -0.22010184774946731 0 -0.14055595197029169 -0.22979662500526149 0 -0.13139441447274411 -0.22962184130071481 0 -0.13441394179160859 -0.22010184774946731 0 -0.14055595197029169 -0.22979662500526149 0 -0.13441394179160859 -0.22010184774946731 0 -0.14940536450650499 -0.21373664043116339 0 -0.15263230708737521 -0.24356194903458239 0 -0.14940536450650499 -0.21373664043116339 0 -0.15263230708737521 -0.24356194903458239 0 -0.14940536450650499 -0.21373664043116339 0 -0.16621803193972459 -0.22739125443424221 0 -0.15263230708737521 -0.24356194903458239 0 -0.14055595197029169 -0.22979662500526149 0 -0.14940536450650499 -0.21373664043116339 0 -0.14940536450650499 -0.21373664043116339 0 -0.13246178853905299 -0.20873151589840269 0 -0.1539685318914617 -0.1985826704271989 0 -0.13246178853905299 -0.20873151589840269 0 -0.1539685318914617 -0.1985826704271989 0 -0.13441394179160859 -0.22010184774946731 0 -0.14940536450650499 -0.21373664043116339 0 -0.13246178853905299 -0.20873151589840269 0 -0.12407830270498089 -0.22426790937284519 0 -0.13441394179160859 -0.22010184774946731 0 -0.13246178853905299 -0.20873151589840269 0 -0.1178174188303993 -0.20556040013348681 0 -0.13246178853905299 -0.20873151589840269 0 -0.1280127438194481 -0.19237656196114411 0 -0.13246178853905299 -0.20873151589840269 0 -0.1280127438194481 -0.19237656196114411 0 -0.14041115317576749 -0.19424917250638599 0 -0.1398254013782112 -0.18365029146927231 0 -0.1280127438194481 -0.19237656196114411 0 -0.14041115317576749 -0.19424917250638599 0 -0.13246178853905299 -0.20873151589840269 0 -0.14041115317576749 -0.19424917250638599 0 -0.1539685318914617 -0.1985826704271989 0 -0.14041115317576749 -0.19424917250638599 0 -0.1539685318914617 -0.1985826704271989 0 -0.1498687104188495 -0.18767128888863599 0 -0.1398254013782112 -0.18365029146927231 0 -0.14041115317576749 -0.19424917250638599 0 -0.1498687104188495 -0.18767128888863599 0 -0.1607184616130248 -0.18728683910860641 0 -0.1539685318914617 -0.1985826704271989 0 -0.1498687104188495 -0.18767128888863599 0 -0.1607184616130248 -0.18728683910860641 0 -0.1539685318914617 -0.1985826704271989 0 -0.17547527524387041 -0.1884338249559952 0 -0.1539685318914617 -0.1985826704271989 0 -0.17547527524387041 -0.1884338249559952 0 -0.16825702714884239 -0.20885775366498019 0 -0.1539685318914617 -0.1985826704271989 0 -0.17547527524387041 -0.1884338249559952 0 -0.17547527524387041 -0.1884338249559952 0 -0.18277425339256639 -0.2026996383603622 0 -0.16825702714884239 -0.20885775366498019 0 -0.17547527524387041 -0.1884338249559952 0 -0.18277425339256639 -0.2026996383603622 0 -0.1902080517791363 -0.1917922864575213 0 -0.18277425339256639 -0.2026996383603622 0 -0.16825702714884239 -0.20885775366498019 0 -0.18626938338499441 -0.22517712183416291 0 -0.14940536450650499 -0.21373664043116339 0 -0.1539685318914617 -0.1985826704271989 0 -0.16825702714884239 -0.20885775366498019 0 -0.14940536450650499 -0.21373664043116339 0 -0.16825702714884239 -0.20885775366498019 0 -0.16621803193972459 -0.22739125443424221 0 -0.16825702714884239 -0.20885775366498019 0 -0.16621803193972459 -0.22739125443424221 0 -0.18626938338499441 -0.22517712183416291 0 -0.16621803193972459 -0.22739125443424221 0 -0.18626938338499441 -0.22517712183416291 0 -0.1745260775709061 -0.24562280720632229 0 -0.18626938338499441 -0.22517712183416291 0 -0.1745260775709061 -0.24562280720632229 0 -0.19988453840298659 -0.24176205441804 0 -0.18626938338499441 -0.22517712183416291 0 -0.1745260775709061 -0.24562280720632229 0 -0.15263230708737521 -0.24356194903458239 0 -0.16621803193972459 -0.22739125443424221 0 -0.1745260775709061 -0.24562280720632229 0 -0.1689202540561075 -0.25519621835756329 0 -0.15263230708737521 -0.24356194903458239 0 -0.1745260775709061 -0.24562280720632229 0 -0.21854221021918649 -0.25236034283526498 0 -0.19988453840298659 -0.24176205441804 0 -0.21493562756427159 -0.22243862284749449 0 -0.19160736129165659 -0.25262396586623759 0 -0.1745260775709061 -0.24562280720632229 0 -0.19988453840298659 -0.24176205441804 0 -0.18626938338499441 -0.22517712183416291 0 -0.19988453840298659 -0.24176205441804 0 -0.21493562756427159 -0.22243862284749449 0 -0.21493562756427159 -0.22243862284749449 0 -0.19801268919908249 -0.2047314364620034 0 -0.21541309520260529 -0.20113031717637361 0 -0.18626938338499441 -0.22517712183416291 0 -0.19801268919908249 -0.2047314364620034 0 -0.18277425339256639 -0.2026996383603622 0 -0.18626938338499441 -0.22517712183416291 0 -0.19801268919908249 -0.2047314364620034 0 -0.18626938338499441 -0.22517712183416291 0 -0.21493562756427159 -0.22243862284749449 0 -0.19801268919908249 -0.2047314364620034 0 -0.19801268919908249 -0.2047314364620034 0 -0.1902080517791363 -0.1917922864575213 0 -0.20975599501317069 -0.18428575108984399 0 -0.18277425339256639 -0.2026996383603622 0 -0.19801268919908249 -0.2047314364620034 0 -0.1902080517791363 -0.1917922864575213 0 -0.21541309520260529 -0.20113031717637361 0 -0.20975599501317069 -0.18428575108984399 0 -0.229896455205026 -0.18225842567294781 0 -0.19801268919908249 -0.2047314364620034 0 -0.21541309520260529 -0.20113031717637361 0 -0.20975599501317069 -0.18428575108984399 0 -0.19801268919908249 -0.2047314364620034 0 -0.20975599501317069 -0.18428575108984399 0 -0.21541309520260529 -0.20113031717637361 0 -0.23384346774119599 -0.2034651679104556 0 -0.229896455205026 -0.18225842567294781 0 -0.24262172765942899 -0.19089247064050549 0 -0.25644706280453389 -0.1995927939493197 0 -0.25029992488695979 -0.1782534950292988 0 -0.24262172765942899 -0.19089247064050549 0 -0.23384346774119599 -0.2034651679104556 0 -0.25644706280453389 -0.1995927939493197 0 -0.24262172765942899 -0.19089247064050549 0 -0.23384346774119599 -0.2034651679104556 0 -0.229896455205026 -0.18225842567294781 0 -0.23384346774119599 -0.2034651679104556 0 -0.2377451423251814 -0.23136366228574551 0 -0.25674041691710447 -0.22108212323078871 0 -0.23384346774119599 -0.2034651679104556 0 -0.25674041691710447 -0.22108212323078871 0 -0.25644706280453389 -0.1995927939493197 0 -0.21493562756427159 -0.22243862284749449 0 -0.21541309520260529 -0.20113031717637361 0 -0.23384346774119599 -0.2034651679104556 0 -0.21493562756427159 -0.22243862284749449 0 -0.23384346774119599 -0.2034651679104556 0 -0.2377451423251814 -0.23136366228574551 0 -0.24465976002352091 -0.25387891845332877 0 -0.2377451423251814 -0.23136366228574551 0 -0.25992972331208369 -0.2410680052130979 0 -0.24465976002352091 -0.25387891845332877 0 -0.21854221021918649 -0.25236034283526498 0 -0.2377451423251814 -0.23136366228574551 0 -0.21854221021918649 -0.25236034283526498 0 -0.21493562756427159 -0.22243862284749449 0 -0.2377451423251814 -0.23136366228574551 0 -0.21854221021918649 -0.25236034283526498 0 -0.2377451423251814 -0.23136366228574551 0 -0.21569240293870359 -0.1466438091422006 0 -0.18947664049148261 -0.1562636999060015 0 -0.2105647825198341 -0.15627799774793921 0 -0.2105647825198341 -0.15627799774793921 0 -0.22149930082725899 -0.1638400657176845 0 -0.22047208921520459 -0.14652609931143951 0 -0.21569240293870359 -0.1466438091422006 0 -0.2105647825198341 -0.15627799774793921 0 -0.22047208921520459 -0.14652609931143951 0 -0.21569240293870359 -0.1466438091422006 0 -0.22047208921520459 -0.14652609931143951 0 -0.20228853596836749 -0.13187567246267581 0 -0.2244809527826766 -0.1321180186971766 0 -0.2129261089666101 -0.1196792574727195 0 -0.21569240293870359 -0.1466438091422006 0 -0.20228853596836749 -0.13187567246267581 0 -0.2244809527826766 -0.1321180186971766 0 -0.18633417632017751 -0.14736681724080919 0 -0.20228853596836749 -0.13187567246267581 0 -0.18400621351090571 -0.1217110611121094 0 -0.21569240293870359 -0.1466438091422006 0 -0.18947664049148261 -0.1562636999060015 0 -0.18633417632017751 -0.14736681724080919 0 -0.21569240293870359 -0.1466438091422006 0 -0.18947664049148261 -0.1562636999060015 0 -0.18633417632017751 -0.14736681724080919 0 -0.21569240293870359 -0.1466438091422006 0 -0.18633417632017751 -0.14736681724080919 0 -0.21569240293870359 -0.1466438091422006 0 -0.20228853596836749 -0.13187567246267581 0 -0.1783922457352059 -0.17293489930968209 0 -0.18947664049148261 -0.1562636999060015 0 -0.1969820185962792 -0.17828497948479149 0 -0.18947664049148261 -0.1562636999060015 0 -0.1969820185962792 -0.17828497948479149 0 -0.20568347912652049 -0.16811631466237001 0 -0.18947664049148261 -0.1562636999060015 0 -0.20568347912652049 -0.16811631466237001 0 -0.2105647825198341 -0.15627799774793921 0 -0.1902080517791363 -0.1917922864575213 0 -0.1969820185962792 -0.17828497948479149 0 -0.20975599501317069 -0.18428575108984399 0 -0.17547527524387041 -0.1884338249559952 0 -0.1902080517791363 -0.1917922864575213 0 -0.1969820185962792 -0.17828497948479149 0 -0.20975599501317069 -0.18428575108984399 0 -0.22149930082725899 -0.1638400657176845 0 -0.20975599501317069 -0.18428575108984399 0 -0.20568347912652049 -0.16811631466237001 0 -0.22149930082725899 -0.1638400657176845 0 -0.1969820185962792 -0.17828497948479149 0 -0.20975599501317069 -0.18428575108984399 0 -0.20568347912652049 -0.16811631466237001 0 -0.20568347912652049 -0.16811631466237001 0 -0.2105647825198341 -0.15627799774793921 0 -0.22149930082725899 -0.1638400657176845 0 -0.22149930082725899 -0.1638400657176845 0 -0.2402834514435094 -0.1667894474332684 0 -0.2341322288468432 -0.15422277024092529 0 -0.22149930082725899 -0.1638400657176845 0 -0.229896455205026 -0.18225842567294781 0 -0.2402834514435094 -0.1667894474332684 0 -0.20975599501317069 -0.18428575108984399 0 -0.22149930082725899 -0.1638400657176845 0 -0.229896455205026 -0.18225842567294781 0 -0.229896455205026 -0.18225842567294781 0 -0.2402834514435094 -0.1667894474332684 0 -0.25029992488695979 -0.1782534950292988 0 -0.24262172765942899 -0.19089247064050549 0 -0.229896455205026 -0.18225842567294781 0 -0.25029992488695979 -0.1782534950292988 0 -0.2402834514435094 -0.1667894474332684 0 -0.25029992488695979 -0.1782534950292988 0 -0.25761979100978533 -0.16665415002795461 0 -0.2402834514435094 -0.1667894474332684 0 -0.24825300788518309 -0.1555077779107997 0 -0.25761979100978533 -0.16665415002795461 0 -0.2402834514435094 -0.1667894474332684 0 -0.24825300788518309 -0.1555077779107997 0 -0.2341322288468432 -0.15422277024092529 0 -0.24825300788518309 -0.1555077779107997 0 -0.2405789555143194 -0.1375116727892334 0 -0.25601133851015478 -0.1487044986697981 0 -0.24825300788518309 -0.1555077779107997 0 -0.2341322288468432 -0.15422277024092529 0 -0.2405789555143194 -0.1375116727892334 0 -0.21569240293870359 -0.1466438091422006 0 -0.22047208921520459 -0.14652609931143951 0 -0.2405789555143194 -0.1375116727892334 0 -0.22149930082725899 -0.1638400657176845 0 -0.2341322288468432 -0.15422277024092529 0 -0.22047208921520459 -0.14652609931143951 0 -0.21569240293870359 -0.1466438091422006 0 -0.2405789555143194 -0.1375116727892334 0 -0.2341322288468432 -0.15422277024092529 0 -0.22047208921520459 -0.14652609931143951 0 -0.2405789555143194 -0.1375116727892334 0 -0.21569240293870359 -0.1466438091422006 0 -0.2244809527826766 -0.1321180186971766 0 -0.2405789555143194 -0.1375116727892334 0 -0.2244809527826766 -0.1321180186971766 0 -0.2405789555143194 -0.1375116727892334 0 -0.23651179230599079 -0.1199754775459997 0 -0.2405789555143194 -0.1375116727892334 0 -0.23651179230599079 -0.1199754775459997 0 -0.25054446979338107 -0.12912519928877991 0 -0.23651179230599079 -0.1199754775459997 0 -0.24959534238117709 -0.1078054475449232 0 -0.26009747564537128 -0.1202716976192799 0 -0.23651179230599079 -0.1199754775459997 0 -0.26009747564537128 -0.1202716976192799 0 -0.23651179230599079 -0.1199754775459997 0 -0.26009747564537128 -0.1202716976192799 0 -0.25054446979338107 -0.12912519928877991 0 -0.23651179230599079 -0.1199754775459997 0 -0.24959534238117709 -0.1078054475449232 0 -0.23746734258601571 -0.1067534300414448 0 -0.24098124084432149 -0.095291905336151436 0 -0.23746734258601571 -0.1067534300414448 0 -0.22473934926471251 -0.1042306158888877 0 -0.24959534238117709 -0.1078054475449232 0 -0.24098124084432149 -0.095291905336151436 0 -0.25687551172258971 -0.095275519396915032 0 -0.24959534238117709 -0.1078054475449232 0 -0.24098124084432149 -0.095291905336151436 0 -0.23746734258601571 -0.1067534300414448 0 -0.22473934926471251 -0.1042306158888877 0 -0.22774604229393439 -0.087804120453188278 0 -0.20897213189474381 -0.093424031558921927 0 -0.24098124084432149 -0.095291905336151436 0 -0.22473934926471251 -0.1042306158888877 0 -0.22774604229393439 -0.087804120453188278 0 -0.2244809527826766 -0.1321180186971766 0 -0.23651179230599079 -0.1199754775459997 0 -0.2129261089666101 -0.1196792574727195 0 -0.23651179230599079 -0.1199754775459997 0 -0.2129261089666101 -0.1196792574727195 0 -0.23651179230599079 -0.1199754775459997 0 -0.23746734258601571 -0.1067534300414448 0 -0.22473934926471251 -0.1042306158888877 0 -0.23651179230599079 -0.1199754775459997 0 -0.22473934926471251 -0.1042306158888877 0 -0.2129261089666101 -0.1196792574727195 0 -0.2466384096447127 -0.069214282175018252 0 -0.23144064811545881 -0.071679072189906365 0 -0.24006258296416741 -0.059977364163272567 0 -0.2466384096447127 -0.069214282175018252 0 -0.23867713564867771 -0.0818228939715063 0 -0.25106785873748549 -0.083001848322642804 0 -0.2466384096447127 -0.069214282175018252 0 -0.23867713564867771 -0.0818228939715063 0 -0.23144064811545881 -0.071679072189906365 0 -0.24098124084432149 -0.095291905336151436 0 -0.25106785873748549 -0.083001848322642804 0 -0.25687551172258971 -0.095275519396915032 0 -0.24098124084432149 -0.095291905336151436 0 -0.23867713564867771 -0.0818228939715063 0 -0.25106785873748549 -0.083001848322642804 0 -0.24098124084432149 -0.095291905336151436 0 -0.23867713564867771 -0.0818228939715063 0 -0.22774604229393439 -0.087804120453188278 0 -0.22048160989483939 -0.080833284582646742 0 -0.22774604229393439 -0.087804120453188278 0 -0.23144064811545881 -0.071679072189906365 0 -0.23867713564867771 -0.0818228939715063 0 -0.22774604229393439 -0.087804120453188278 0 -0.23144064811545881 -0.071679072189906365 0 -0.22048160989483939 -0.080833284582646742 0 -0.22774604229393439 -0.087804120453188278 0 -0.20897213189474381 -0.093424031558921927 0 -0.23144064811545881 -0.071679072189906365 0 -0.2137676172752207 -0.070425914128570383 0 -0.21856310265569601 -0.047427796698218422 0 -0.22048160989483939 -0.080833284582646742 0 -0.23144064811545881 -0.071679072189906365 0 -0.2137676172752207 -0.070425914128570383 0 -0.23144064811545881 -0.071679072189906365 0 -0.23092663332862359 -0.057189961691847993 0 -0.24006258296416741 -0.059977364163272567 0 -0.20335705558913081 -0.063140738221072371 0 -0.2137676172752207 -0.070425914128570383 0 -0.20224544779007569 -0.076575791796341275 0 -0.2137676172752207 -0.070425914128570383 0 -0.20897213189474381 -0.093424031558921927 0 -0.20224544779007569 -0.076575791796341275 0 -0.2137676172752207 -0.070425914128570383 0 -0.20897213189474381 -0.093424031558921927 0 -0.22048160989483939 -0.080833284582646742 0 -0.2137676172752207 -0.070425914128570383 0 -0.20897213189474381 -0.093424031558921927 0 -0.20897213189474381 -0.093424031558921927 0 -0.18864483179057751 -0.079783658531738119 0 -0.20224544779007569 -0.076575791796341275 0 -0.20897213189474381 -0.093424031558921927 0 -0.18864483179057751 -0.079783658531738119 0 -0.1843208979706715 -0.098582101900239388 0 -0.20335705558913081 -0.063140738221072371 0 -0.18864483179057751 -0.079783658531738119 0 -0.20224544779007569 -0.076575791796341275 0 -0.20335705558913081 -0.063140738221072371 0 -0.18864483179057751 -0.079783658531738119 0 -0.20335705558913081 -0.063140738221072371 0 -0.18864483179057751 -0.079783658531738119 0 -0.18476368522970901 -0.060313507398174523 0 -0.22473934926471251 -0.1042306158888877 0 -0.2129261089666101 -0.1196792574727195 0 -0.1994025973422491 -0.10829052452779669 0 -0.20228853596836749 -0.13187567246267581 0 -0.2129261089666101 -0.1196792574727195 0 -0.1994025973422491 -0.10829052452779669 0 -0.22473934926471251 -0.1042306158888877 0 -0.20897213189474381 -0.093424031558921927 0 -0.1994025973422491 -0.10829052452779669 0 -0.20897213189474381 -0.093424031558921927 0 -0.1994025973422491 -0.10829052452779669 0 -0.1843208979706715 -0.098582101900239388 0 -0.20228853596836749 -0.13187567246267581 0 -0.1994025973422491 -0.10829052452779669 0 -0.18400621351090571 -0.1217110611121094 0 -0.1994025973422491 -0.10829052452779669 0 -0.18400621351090571 -0.1217110611121094 0 -0.1843208979706715 -0.098582101900239388 0 -0.16621773075288121 -0.1295318635244681 0 -0.18400621351090571 -0.1217110611121094 0 -0.16647442841019139 -0.11035058163789351 0 -0.18400621351090571 -0.1217110611121094 0 -0.16647442841019139 -0.11035058163789351 0 -0.1843208979706715 -0.098582101900239388 0 -0.16621773075288121 -0.1295318635244681 0 -0.16647442841019139 -0.11035058163789351 0 -0.14737054533773081 -0.1208951937003558 0 -0.16647442841019139 -0.11035058163789351 0 -0.16521255597131029 -0.094363556792246006 0 -0.15171862691764881 -0.097019712797942706 0 -0.16647442841019139 -0.11035058163789351 0 -0.16521255597131029 -0.094363556792246006 0 -0.1843208979706715 -0.098582101900239388 0 -0.16521255597131029 -0.094363556792246006 0 -0.1843208979706715 -0.098582101900239388 0 -0.1718657805157274 -0.077566403117392158 0 -0.18864483179057751 -0.079783658531738119 0 -0.1843208979706715 -0.098582101900239388 0 -0.1718657805157274 -0.077566403117392158 0 -0.18864483179057751 -0.079783658531738119 0 -0.1718657805157274 -0.077566403117392158 0 -0.18476368522970901 -0.060313507398174523 0 -0.1718657805157274 -0.077566403117392158 0 -0.16766997596840549 -0.055069670457126463 0 -0.18476368522970901 -0.060313507398174523 0 -0.1718657805157274 -0.077566403117392158 0 -0.1555984100513392 -0.067553704814911478 0 -0.16766997596840549 -0.055069670457126463 0 -0.1718657805157274 -0.077566403117392158 0 -0.15451520526235171 -0.083858215916353424 0 -0.1555984100513392 -0.067553704814911478 0 -0.16521255597131029 -0.094363556792246006 0 -0.1718657805157274 -0.077566403117392158 0 -0.15451520526235171 -0.083858215916353424 0 -0.16521255597131029 -0.094363556792246006 0 -0.15451520526235171 -0.083858215916353424 0 -0.15171862691764881 -0.097019712797942706 0 -0.15451520526235171 -0.083858215916353424 0 -0.14334301715898221 -0.074859018030624863 0 -0.13903100861317999 -0.090330850909877913 0 -0.15451520526235171 -0.083858215916353424 0 -0.13903100861317999 -0.090330850909877913 0 -0.15171862691764881 -0.097019712797942706 0 -0.1377651409738101 -0.093700562061298426 0 -0.13903100861317999 -0.090330850909877913 0 -0.15171862691764881 -0.097019712797942706 0 -0.15451520526235171 -0.083858215916353424 0 -0.1555984100513392 -0.067553704814911478 0 -0.14334301715898221 -0.074859018030624863 0 -0.1555984100513392 -0.067553704814911478 0 -0.14334301715898221 -0.074859018030624863 0 -0.13945189113323761 -0.059806177835795588 0 -0.14334301715898221 -0.074859018030624863 0 -0.12930964035960699 -0.069761515268982097 0 -0.13945189113323761 -0.059806177835795588 0 -0.12930964035960699 -0.069761515268982097 0 -0.1377651409738101 -0.093700562061298426 0 -0.12930964035960699 -0.069761515268982097 0 -0.1377651409738101 -0.093700562061298426 0 -0.13903100861317999 -0.090330850909877913 0 -0.1189291253072135 -0.086669643832799348 0 -0.12930964035960699 -0.069761515268982097 0 -0.1377651409738101 -0.093700562061298426 0 -0.14334301715898221 -0.074859018030624863 0 -0.12930964035960699 -0.069761515268982097 0 -0.13903100861317999 -0.090330850909877913 0 -0.1377651409738101 -0.093700562061298426 0 -0.13903100861317999 -0.090330850909877913 0 -0.11893842975153809 -0.10446969177473921 0 -0.1377651409738101 -0.093700562061298426 0 -0.12736410167423581 -0.1213878944680517 0 -0.1377651409738101 -0.093700562061298426 0 -0.12736410167423581 -0.1213878944680517 0 -0.11893842975153809 -0.10446969177473921 0 -0.1189291253072135 -0.086669643832799348 0 -0.1377651409738101 -0.093700562061298426 0 -0.1377651409738101 -0.093700562061298426 0 -0.12736410167423581 -0.1213878944680517 0 -0.14737054533773081 -0.1208951937003558 0 -0.16647442841019139 -0.11035058163789351 0 -0.14737054533773081 -0.1208951937003558 0 -0.15171862691764881 -0.097019712797942706 0 -0.1377651409738101 -0.093700562061298426 0 -0.14737054533773081 -0.1208951937003558 0 -0.15171862691764881 -0.097019712797942706 0 -0.1377651409738101 -0.093700562061298426 0 -0.14737054533773081 -0.1208951937003558 0 -0.14925834278157041 -0.027771983247297551 0 -0.15381676672243971 -0.0048344028756085976 0 -0.16158573310271521 -0.019122381719964599 0 -0.14925834278157041 -0.027771983247297551 0 -0.15381676672243971 -0.0048344028756085976 0 -0.14925834278157041 -0.027771983247297551 0 -0.13622810944285851 -0.025664644749336048 0 -0.13728148428220571 -0.03631729474545041 0 -0.15381676672243971 -0.0048344028756085976 0 -0.13373576905839379 -0.01378162565115138 0 -0.13796817939809339 -7.5853332940862265e-05 0 -0.14925834278157041 -0.027771983247297551 0 -0.15381676672243971 -0.0048344028756085976 0 -0.13373576905839379 -0.01378162565115138 0 -0.1244522405185825 -0.00038769298458709092 0 -0.1246368416492639 -0.024787675353444869 0 -0.13373576905839379 -0.01378162565115138 0 -0.1244522405185825 -0.00038769298458709092 0 -0.13373576905839379 -0.01378162565115138 0 -0.13796817939809339 -7.5853332940862265e-05 0 -0.1244522405185825 -0.00038769298458709092 0 -0.13373576905839379 -0.01378162565115138 0 -0.1246368416492639 -0.024787675353444869 0 -0.13373576905839379 -0.01378162565115138 0 -0.13622810944285851 -0.025664644749336048 0 -0.14925834278157041 -0.027771983247297551 0 -0.13373576905839379 -0.01378162565115138 0 -0.13622810944285851 -0.025664644749336048 0 -0.1246368416492639 -0.024787675353444869 0 -0.13622810944285851 -0.025664644749336048 0 -0.13728148428220571 -0.03631729474545041 0 -0.1248214427799455 -0.0491876577223027 0 -0.1246368416492639 -0.024787675353444869 0 -0.13067566527459321 -0.039597081228004503 0 -0.1246368416492639 -0.024787675353444869 0 -0.13067566527459321 -0.039597081228004503 0 -0.13728148428220571 -0.03631729474545041 0 -0.1248214427799455 -0.0491876577223027 0 -0.13067566527459321 -0.039597081228004503 0 -0.1359628923869578 -0.048095697090820053 0 -0.13067566527459321 -0.039597081228004503 0 -0.13728148428220571 -0.03631729474545041 0 -0.1359628923869578 -0.048095697090820053 0 -0.13728148428220571 -0.03631729474545041 0 -0.1359628923869578 -0.048095697090820053 0 -0.14767594406259391 -0.049379474087132447 0 -0.1248214427799455 -0.0491876577223027 0 -0.12930964035960699 -0.069761515268982097 0 -0.13945189113323761 -0.059806177835795588 0 -0.1208541397454049 -0.045822468476665427 0 -0.12930964035960699 -0.069761515268982097 0 -0.1248214427799455 -0.0491876577223027 0 -0.1359628923869578 -0.048095697090820053 0 -0.13945189113323761 -0.059806177835795588 0 -0.1555984100513392 -0.067553704814911478 0 -0.13945189113323761 -0.059806177835795588 0 -0.14767594406259391 -0.049379474087132447 0 -0.1359628923869578 -0.048095697090820053 0 -0.13945189113323761 -0.059806177835795588 0 -0.14767594406259391 -0.049379474087132447 0 -0.14925834278157041 -0.027771983247297551 0 -0.14767594406259391 -0.049379474087132447 0 -0.16346190388351911 -0.035477368974388322 0 -0.14925834278157041 -0.027771983247297551 0 -0.13728148428220571 -0.03631729474545041 0 -0.14767594406259391 -0.049379474087132447 0 -0.14767594406259391 -0.049379474087132447 0 -0.16346190388351911 -0.035477368974388322 0 -0.16766997596840549 -0.055069670457126463 0 -0.16346190388351911 -0.035477368974388322 0 -0.16766997596840549 -0.055069670457126463 0 -0.1792130821544009 -0.041655239440509813 0 -0.1555984100513392 -0.067553704814911478 0 -0.14767594406259391 -0.049379474087132447 0 -0.16766997596840549 -0.055069670457126463 0 -0.16766997596840549 -0.055069670457126463 0 -0.18476368522970901 -0.060313507398174523 0 -0.1792130821544009 -0.041655239440509813 0 -0.18476368522970901 -0.060313507398174523 0 -0.1792130821544009 -0.041655239440509813 0 -0.19607578221694649 -0.043845816873478577 0 -0.16346190388351911 -0.035477368974388322 0 -0.1792130821544009 -0.041655239440509813 0 -0.1747539590121796 -0.02148713112583673 0 -0.1792130821544009 -0.041655239440509813 0 -0.1747539590121796 -0.02148713112583673 0 -0.18874747204970219 -0.028974905836781941 0 -0.1747539590121796 -0.02148713112583673 0 -0.18814241231787171 -0.014961103822567131 0 -0.18874747204970219 -0.028974905836781941 0 -0.14925834278157041 -0.027771983247297551 0 -0.16346190388351911 -0.035477368974388322 0 -0.16158573310271521 -0.019122381719964599 0 -0.16346190388351911 -0.035477368974388322 0 -0.1747539590121796 -0.02148713112583673 0 -0.16158573310271521 -0.019122381719964599 0 -0.1747539590121796 -0.02148713112583673 0 -0.16158573310271521 -0.019122381719964599 0 -0.1670666400728934 -0.0075955490013497832 0 -0.15381676672243971 -0.0048344028756085976 0 -0.1670666400728934 -0.0075955490013497832 0 -0.16872927738725291 0.0066655648670224509 0 -0.15381676672243971 -0.0048344028756085976 0 -0.16158573310271521 -0.019122381719964599 0 -0.1670666400728934 -0.0075955490013497832 0 -0.1670666400728934 -0.0075955490013497832 0 -0.1785064095432054 -0.0066611219507198768 0 -0.16872927738725291 0.0066655648670224509 0 -0.1747539590121796 -0.02148713112583673 0 -0.1670666400728934 -0.0075955490013497832 0 -0.1785064095432054 -0.0066611219507198768 0 -0.1747539590121796 -0.02148713112583673 0 -0.1785064095432054 -0.0066611219507198768 0 -0.18814241231787171 -0.014961103822567131 0 -0.1785064095432054 -0.0066611219507198768 0 -0.18814241231787171 -0.014961103822567131 0 -0.193034969706537 0.00064734206737222756 0 -0.20555212454711219 -0.022925237921517471 0 -0.20993853639106591 -0.0035380738047605968 0 -0.193034969706537 0.00064734206737222756 0 -0.18814241231787171 -0.014961103822567131 0 -0.20555212454711219 -0.022925237921517471 0 -0.193034969706537 0.00064734206737222756 0 -0.20555212454711219 -0.022925237921517471 0 -0.193034969706537 0.00064734206737222756 0 -0.20993853639106591 -0.0035380738047605968 0 -0.193034969706537 0.00064734206737222756 0 -0.18814241231787171 -0.014961103822567131 0 -0.18874747204970219 -0.028974905836781941 0 -0.20555212454711219 -0.022925237921517471 0 -0.20555212454711219 -0.022925237921517471 0 -0.21630961893328751 -0.01519709454307171 0 -0.22290571171937651 -0.026601576769118469 0 -0.20993853639106591 -0.0035380738047605968 0 -0.22684210307559549 -0.0077234896768903086 0 -0.21568563774484731 0.0082874278720449449 0 -0.20993853639106591 -0.0035380738047605968 0 -0.21630961893328751 -0.01519709454307171 0 -0.22684210307559549 -0.0077234896768903086 0 -0.20555212454711219 -0.022925237921517471 0 -0.20993853639106591 -0.0035380738047605968 0 -0.21630961893328751 -0.01519709454307171 0 -0.20993853639106591 -0.0035380738047605968 0 -0.22684210307559549 -0.0077234896768903086 0 -0.20335705558913081 -0.063140738221072371 0 -0.18476368522970901 -0.060313507398174523 0 -0.19607578221694649 -0.043845816873478577 0 -0.1792130821544009 -0.041655239440509813 0 -0.18874747204970219 -0.028974905836781941 0 -0.19607578221694649 -0.043845816873478577 0 -0.18874747204970219 -0.028974905836781941 0 -0.20555212454711219 -0.022925237921517471 0 -0.19607578221694649 -0.043845816873478577 0 -0.20555212454711219 -0.022925237921517471 0 -0.21856310265569601 -0.047427796698218422 0 -0.20555212454711219 -0.022925237921517471 0 -0.21856310265569601 -0.047427796698218422 0 -0.21896932036315811 -0.045479663861346789 0 -0.20555212454711219 -0.022925237921517471 0 -0.19607578221694649 -0.043845816873478577 0 -0.21856310265569601 -0.047427796698218422 0 -0.20555212454711219 -0.022925237921517471 0 -0.21896932036315811 -0.045479663861346789 0 -0.22290571171937651 -0.026601576769118469 0 -0.2137676172752207 -0.070425914128570383 0 -0.21856310265569601 -0.047427796698218422 0 -0.20335705558913081 -0.063140738221072371 0 -0.2137676172752207 -0.070425914128570383 0 -0.21856310265569601 -0.047427796698218422 0 -0.20335705558913081 -0.063140738221072371 0 -0.19607578221694649 -0.043845816873478577 0 -0.21856310265569601 -0.047427796698218422 0 -0.20335705558913081 -0.063140738221072371 0 -0.21856310265569601 -0.047427796698218422 0 -0.23144064811545881 -0.071679072189906365 0 -0.21856310265569601 -0.047427796698218422 0 -0.23092663332862359 -0.057189961691847993 0 -0.23144064811545881 -0.071679072189906365 0 -0.21856310265569601 -0.047427796698218422 0 -0.21856310265569601 -0.047427796698218422 0 -0.23092663332862359 -0.057189961691847993 0 -0.22458774444026389 -0.046948698447319907 0 -0.23092663332862359 -0.057189961691847993 0 -0.2320274706224234 -0.04981915803055513 0 -0.23892230415514151 -0.050781370399802413 0 -0.23092663332862359 -0.057189961691847993 0 -0.22458774444026389 -0.046948698447319907 0 -0.2320274706224234 -0.04981915803055513 0 -0.21896932036315811 -0.045479663861346789 0 -0.2306307955349908 -0.032287844280089482 0 -0.22290571171937651 -0.026601576769118469 0 -0.21896932036315811 -0.045479663861346789 0 -0.22290571171937651 -0.026601576769118469 0 -0.22458774444026389 -0.046948698447319907 0 -0.2320274706224234 -0.04981915803055513 0 -0.23529860714157019 -0.041169280456794459 0 -0.22458774444026389 -0.046948698447319907 0 -0.2306307955349908 -0.032287844280089482 0 -0.23529860714157019 -0.041169280456794459 0 -0.22458774444026389 -0.046948698447319907 0 -0.21896932036315811 -0.045479663861346789 0 -0.2306307955349908 -0.032287844280089482 0 -0.21856310265569601 -0.047427796698218422 0 -0.22458774444026389 -0.046948698447319907 0 -0.21896932036315811 -0.045479663861346789 0 -0.21856310265569601 -0.047427796698218422 0 -0.21896932036315811 -0.045479663861346789 0 -0.21896932036315811 -0.045479663861346789 0 -0.2306307955349908 -0.032287844280089482 0 -0.2306307955349908 -0.032287844280089482 0 -0.23529860714157019 -0.041169280456794459 0 -0.241537864008738 -0.030171217790278881 0 -0.24798951326795751 -0.035882587373858313 0 -0.23529860714157019 -0.041169280456794459 0 -0.241537864008738 -0.030171217790278881 0 -0.24798951326795751 -0.035882587373858313 0 -0.24357205858261219 -0.044359355700093257 0 -0.23529860714157019 -0.041169280456794459 0 -0.24798951326795751 -0.035882587373858313 0 -0.24357205858261219 -0.044359355700093257 0 -0.25238491957690051 -0.051022134359787842 0 -0.24357205858261219 -0.044359355700093257 0 -0.23529860714157019 -0.041169280456794459 0 -0.23892230415514151 -0.050781370399802413 0 -0.2466384096447127 -0.069214282175018252 0 -0.24006258296416741 -0.059977364163272567 0 -0.25238491957690051 -0.051022134359787842 0 -0.2320274706224234 -0.04981915803055513 0 -0.23529860714157019 -0.041169280456794459 0 -0.23892230415514151 -0.050781370399802413 0 -0.23892230415514151 -0.050781370399802413 0 -0.24006258296416741 -0.059977364163272567 0 -0.25238491957690051 -0.051022134359787842 0 -0.24357205858261219 -0.044359355700093257 0 -0.23892230415514151 -0.050781370399802413 0 -0.25238491957690051 -0.051022134359787842 0 -0.23092663332862359 -0.057189961691847993 0 -0.23892230415514151 -0.050781370399802413 0 -0.24006258296416741 -0.059977364163272567 0 -0.21630961893328751 -0.01519709454307171 0 -0.22684210307559549 -0.0077234896768903086 0 -0.22290571171937651 -0.026601576769118469 0 -0.22684210307559549 -0.0077234896768903086 0 -0.22290571171937651 -0.026601576769118469 0 -0.23226271327452069 -0.02198020745377605 0 -0.22684210307559549 -0.0077234896768903086 0 -0.22290571171937651 -0.026601576769118469 0 -0.2306307955349908 -0.032287844280089482 0 -0.22290571171937651 -0.026601576769118469 0 -0.23226271327452069 -0.02198020745377605 0 -0.22684210307559549 -0.0077234896768903086 0 -0.23226271327452069 -0.02198020745377605 0 -0.24229227070682269 -0.019096024698831499 0 -0.2306307955349908 -0.032287844280089482 0 -0.241537864008738 -0.030171217790278881 0 -0.24229227070682269 -0.019096024698831499 0 -0.2306307955349908 -0.032287844280089482 0 -0.23226271327452069 -0.02198020745377605 0 -0.24229227070682269 -0.019096024698831499 0 -0.2306307955349908 -0.032287844280089482 0 -0.24229227070682269 -0.019096024698831499 0 -0.24798951326795751 -0.035882587373858313 0 -0.241537864008738 -0.030171217790278881 0 -0.25387676547985721 -0.02452441136234379 0 -0.241537864008738 -0.030171217790278881 0 -0.24229227070682269 -0.019096024698831499 0 -0.25387676547985721 -0.02452441136234379 0 -0.24229227070682269 -0.019096024698831499 0 -0.24826461013585729 -0.013027819984466921 0 -0.25387676547985721 -0.02452441136234379 0 -0.22684210307559549 -0.0077234896768903086 0 -0.24826461013585729 -0.013027819984466921 0 -0.24598119983726671 0.0037338506766126851 0 -0.22684210307559549 -0.0077234896768903086 0 -0.24229227070682269 -0.019096024698831499 0 -0.24826461013585729 -0.013027819984466921 0 -0.22684210307559549 -0.0077234896768903086 0 -0.24826461013585729 -0.013027819984466921 0 -0.24826461013585729 -0.013027819984466921 0 -0.26003022337954462 -0.0038093911555793728 0 -0.24598119983726671 0.0037338506766126851 0 -0.24826461013585729 -0.013027819984466921 0 -0.26003022337954462 -0.0038093911555793728 0 -0.26968711719611937 -0.018332150292041979 0 -0.24826461013585729 -0.013027819984466921 0 -0.26968711719611937 -0.018332150292041979 0 -0.25387676547985721 -0.02452441136234379 0 -0.26968711719611937 -0.018332150292041979 0 -0.26155562347943467 -0.037861138146123199 0 -0.24826461013585729 -0.013027819984466921 0 -0.25387676547985721 -0.02452441136234379 0 -0.26968711719611937 -0.018332150292041979 0 -0.26968711719611937 -0.018332150292041979 0 -0.28953187906397732 -0.034281883787379987 0 -0.27524211720584768 -0.038538427260779863 0 -0.26003022337954462 -0.0038093911555793728 0 -0.26968711719611937 -0.018332150292041979 0 -0.27433688946420332 -0.0007833753365484626 0 -0.26968711719611937 -0.018332150292041979 0 -0.27433688946420332 -0.0007833753365484626 0 -0.28631392786639209 -0.0070506759659385472 0 -0.28631392786639209 -0.0070506759659385472 0 -0.29653674479957171 -0.021015146411400301 0 -0.3025805037907468 -0.0027432771802810229 0 -0.28631392786639209 -0.0070506759659385472 0 -0.3025805037907468 -0.0027432771802810229 0 -0.28842838408131971 0.0076205693905790281 0 -0.27433688946420332 -0.0007833753365484626 0 -0.28631392786639209 -0.0070506759659385472 0 -0.28842838408131971 0.0076205693905790281 0 -0.26968711719611937 -0.018332150292041979 0 -0.28631392786639209 -0.0070506759659385472 0 -0.29653674479957171 -0.021015146411400301 0 -0.26968711719611937 -0.018332150292041979 0 -0.29653674479957171 -0.021015146411400301 0 -0.28953187906397732 -0.034281883787379987 0 -0.29653674479957171 -0.021015146411400301 0 -0.28953187906397732 -0.034281883787379987 0 -0.31718310516035308 -0.038172790333745737 0 -0.29653674479957171 -0.021015146411400301 0 -0.31459326366374579 -0.01532774276474733 0 -0.31718310516035308 -0.038172790333745737 0 -0.29653674479957171 -0.021015146411400301 0 -0.3025805037907468 -0.0027432771802810229 0 -0.31459326366374579 -0.01532774276474733 0 -0.30229462048881822 -0.056161209871372138 0 -0.29850594913894141 -0.055440370537233663 0 -0.30849544073550722 -0.074776909133231664 0 -0.30229462048881822 -0.056161209871372138 0 -0.29366820665513949 -0.048519954280836622 0 -0.31370341578724742 -0.051143824177853653 0 -0.30229462048881822 -0.056161209871372138 0 -0.29850594913894141 -0.055440370537233663 0 -0.29366820665513949 -0.048519954280836622 0 -0.30229462048881822 -0.056161209871372138 0 -0.31629816603535338 -0.060261719535131632 0 -0.30229462048881822 -0.056161209871372138 0 -0.31178497446605258 -0.064623658022855565 0 -0.31629816603535338 -0.060261719535131632 0 -0.30229462048881822 -0.056161209871372138 0 -0.31370341578724742 -0.051143824177853653 0 -0.31629816603535338 -0.060261719535131632 0 -0.29366820665513949 -0.048519954280836622 0 -0.31718310516035308 -0.038172790333745737 0 -0.29366820665513949 -0.048519954280836622 0 -0.31718310516035308 -0.038172790333745737 0 -0.31370341578724742 -0.051143824177853653 0 -0.28953187906397732 -0.034281883787379987 0 -0.29366820665513949 -0.048519954280836622 0 -0.31718310516035308 -0.038172790333745737 0 -0.28953187906397732 -0.034281883787379987 0 -0.29366820665513949 -0.048519954280836622 0 -0.27524211720584768 -0.038538427260779863 0 -0.29366820665513949 -0.048519954280836622 0 -0.27015330814992611 -0.058867118227927437 0 -0.29366820665513949 -0.048519954280836622 0 -0.28660483069534037 -0.061918496488246169 0 -0.27015330814992611 -0.058867118227927437 0 -0.29850594913894141 -0.055440370537233663 0 -0.28660483069534037 -0.061918496488246169 0 -0.29557893925590151 -0.069462416794053169 0 -0.29850594913894141 -0.055440370537233663 0 -0.29366820665513949 -0.048519954280836622 0 -0.28660483069534037 -0.061918496488246169 0 -0.29366820665513949 -0.048519954280836622 0 -0.27015330814992611 -0.058867118227927437 0 -0.27524211720584768 -0.038538427260779863 0 -0.26968711719611937 -0.018332150292041979 0 -0.27524211720584768 -0.038538427260779863 0 -0.26155562347943467 -0.037861138146123199 0 -0.27015330814992611 -0.058867118227927437 0 -0.27524211720584768 -0.038538427260779863 0 -0.26155562347943467 -0.037861138146123199 0 -0.24798951326795751 -0.035882587373858313 0 -0.26155562347943467 -0.037861138146123199 0 -0.25238491957690051 -0.051022134359787842 0 -0.24798951326795751 -0.035882587373858313 0 -0.25387676547985721 -0.02452441136234379 0 -0.26155562347943467 -0.037861138146123199 0 -0.27015330814992611 -0.058867118227927437 0 -0.26155562347943467 -0.037861138146123199 0 -0.25238491957690051 -0.051022134359787842 0 -0.2466384096447127 -0.069214282175018252 0 -0.27015330814992611 -0.058867118227927437 0 -0.25238491957690051 -0.051022134359787842 0 -0.2466384096447127 -0.069214282175018252 0 -0.27015330814992611 -0.058867118227927437 0 -0.26102584033089798 -0.073534373921212107 0 -0.2466384096447127 -0.069214282175018252 0 -0.27015330814992611 -0.058867118227927437 0 -0.2466384096447127 -0.069214282175018252 0 -0.26102584033089798 -0.073534373921212107 0 -0.25106785873748549 -0.083001848322642804 0 -0.25106785873748549 -0.083001848322642804 0 -0.26431637422662529 -0.083961298504163229 0 -0.25687551172258971 -0.095275519396915032 0 -0.26431637422662529 -0.083961298504163229 0 -0.25687551172258971 -0.095275519396915032 0 -0.26922948176741379 -0.094556007429682482 0 -0.26102584033089798 -0.073534373921212107 0 -0.25106785873748549 -0.083001848322642804 0 -0.26431637422662529 -0.083961298504163229 0 -0.26431637422662529 -0.083961298504163229 0 -0.27622487875609619 -0.085738752979791055 0 -0.27411142324960069 -0.07331497732508381 0 -0.26431637422662529 -0.083961298504163229 0 -0.27622487875609619 -0.085738752979791055 0 -0.26922948176741379 -0.094556007429682482 0 -0.27622487875609619 -0.085738752979791055 0 -0.26922948176741379 -0.094556007429682482 0 -0.28208733676033698 -0.099544680508420066 0 -0.27622487875609619 -0.085738752979791055 0 -0.27411142324960069 -0.07331497732508381 0 -0.28634330733871821 -0.075869823829162894 0 -0.28660483069534037 -0.061918496488246169 0 -0.27015330814992611 -0.058867118227927437 0 -0.27411142324960069 -0.07331497732508381 0 -0.27015330814992611 -0.058867118227927437 0 -0.26102584033089798 -0.073534373921212107 0 -0.27411142324960069 -0.07331497732508381 0 -0.26102584033089798 -0.073534373921212107 0 -0.26431637422662529 -0.083961298504163229 0 -0.27411142324960069 -0.07331497732508381 0 -0.24959534238117709 -0.1078054475449232 0 -0.26009747564537128 -0.1202716976192799 0 -0.26511094786836592 -0.1069062435210571 0 -0.24959534238117709 -0.1078054475449232 0 -0.26511094786836592 -0.1069062435210571 0 -0.25687551172258971 -0.095275519396915032 0 -0.26511094786836592 -0.1069062435210571 0 -0.25687551172258971 -0.095275519396915032 0 -0.26922948176741379 -0.094556007429682482 0 -0.26511094786836592 -0.1069062435210571 0 -0.27676276389741278 -0.11052104179975 0 -0.28208733676033698 -0.099544680508420066 0 -0.26511094786836592 -0.1069062435210571 0 -0.26922948176741379 -0.094556007429682482 0 -0.28208733676033698 -0.099544680508420066 0 -0.26511094786836592 -0.1069062435210571 0 -0.28208733676033698 -0.099544680508420066 0 -0.26009747564537128 -0.1202716976192799 0 -0.28368315898475188 -0.1205679176925603 0 -0.26697405985724948 -0.1304210152969853 0 -0.26009747564537128 -0.1202716976192799 0 -0.27676276389741278 -0.11052104179975 0 -0.28368315898475188 -0.1205679176925603 0 -0.26009747564537128 -0.1202716976192799 0 -0.28368315898475188 -0.1205679176925603 0 -0.26009747564537128 -0.1202716976192799 0 -0.26511094786836592 -0.1069062435210571 0 -0.27676276389741278 -0.11052104179975 0 -0.28368315898475188 -0.1205679176925603 0 -0.30807566230962469 -0.12087427087378499 0 -0.28368315898475188 -0.1205679176925603 0 -0.29137344231852969 -0.1063755175941712 0 -0.30807566230962469 -0.12087427087378499 0 -0.27676276389741278 -0.11052104179975 0 -0.28368315898475188 -0.1205679176925603 0 -0.29137344231852969 -0.1063755175941712 0 -0.28368315898475188 -0.1205679176925603 0 -0.29137344231852969 -0.1063755175941712 0 -0.29137344231852969 -0.1063755175941712 0 -0.28208733676033698 -0.099544680508420066 0 -0.29906372565230788 -0.092183117495782341 0 -0.28208733676033698 -0.099544680508420066 0 -0.29906372565230788 -0.092183117495782341 0 -0.27676276389741278 -0.11052104179975 0 -0.29137344231852969 -0.1063755175941712 0 -0.28208733676033698 -0.099544680508420066 0 -0.29137344231852969 -0.1063755175941712 0 -0.29906372565230788 -0.092183117495782341 0 -0.30690970986333499 -0.10413412755240679 0 -0.29906372565230788 -0.092183117495782341 0 -0.31411573014289268 -0.085656035662949492 0 -0.29137344231852969 -0.1063755175941712 0 -0.30690970986333499 -0.10413412755240679 0 -0.29906372565230788 -0.092183117495782341 0 -0.28368315898475188 -0.1205679176925603 0 -0.30807566230962469 -0.12087427087378499 0 -0.30140371581860798 -0.1292511186866305 0 -0.29137344231852969 -0.1063755175941712 0 -0.30690970986333499 -0.10413412755240679 0 -0.30807566230962469 -0.12087427087378499 0 -0.29557893925590151 -0.069462416794053169 0 -0.28634330733871821 -0.075869823829162894 0 -0.29528406594296941 -0.079953964946478426 0 -0.28660483069534037 -0.061918496488246169 0 -0.29557893925590151 -0.069462416794053169 0 -0.28634330733871821 -0.075869823829162894 0 -0.28660483069534037 -0.061918496488246169 0 -0.27411142324960069 -0.07331497732508381 0 -0.28634330733871821 -0.075869823829162894 0 -0.27622487875609619 -0.085738752979791055 0 -0.28634330733871821 -0.075869823829162894 0 -0.28693891673241251 -0.08747755748016231 0 -0.28208733676033698 -0.099544680508420066 0 -0.28693891673241251 -0.08747755748016231 0 -0.29906372565230788 -0.092183117495782341 0 -0.27622487875609619 -0.085738752979791055 0 -0.28208733676033698 -0.099544680508420066 0 -0.28693891673241251 -0.08747755748016231 0 -0.28693891673241251 -0.08747755748016231 0 -0.29528406594296941 -0.079953964946478426 0 -0.29906372565230788 -0.092183117495782341 0 -0.28634330733871821 -0.075869823829162894 0 -0.28693891673241251 -0.08747755748016231 0 -0.29528406594296941 -0.079953964946478426 0 -0.29528406594296941 -0.079953964946478426 0 -0.29906372565230788 -0.092183117495782341 0 -0.30849544073550722 -0.074776909133231664 0 -0.29906372565230788 -0.092183117495782341 0 -0.30849544073550722 -0.074776909133231664 0 -0.29906372565230788 -0.092183117495782341 0 -0.30849544073550722 -0.074776909133231664 0 -0.31411573014289268 -0.085656035662949492 0 -0.29906372565230788 -0.092183117495782341 0 -0.31411573014289268 -0.085656035662949492 0 -0.30849544073550722 -0.074776909133231664 0 -0.31411573014289268 -0.085656035662949492 0 -0.30229462048881822 -0.056161209871372138 0 -0.30849544073550722 -0.074776909133231664 0 -0.31178497446605258 -0.064623658022855565 0 -0.29850594913894141 -0.055440370537233663 0 -0.29557893925590151 -0.069462416794053169 0 -0.30849544073550722 -0.074776909133231664 0 -0.30849544073550722 -0.074776909133231664 0 -0.31286059459191501 -0.066721027791507209 0 -0.29850594913894141 -0.055440370537233663 0 -0.30849544073550722 -0.074776909133231664 0 -0.29557893925590151 -0.069462416794053169 0 -0.29528406594296941 -0.079953964946478426 0 -0.30849544073550722 -0.074776909133231664 0 -0.30849544073550722 -0.074776909133231664 0 -0.31178497446605258 -0.064623658022855565 0 -0.31286059459191501 -0.066721027791507209 0 -0.31178497446605258 -0.064623658022855565 0 -0.31286059459191501 -0.066721027791507209 0 -0.31286059459191501 -0.066721027791507209 0 -0.32103296817657878 -0.082656476452658639 0 -0.31286059459191501 -0.066721027791507209 0 -0.32103296817657878 -0.082656476452658639 0 -0.32352590008436471 -0.062378140209921912 0 -0.31178497446605258 -0.064623658022855565 0 -0.31286059459191501 -0.066721027791507209 0 -0.31629816603535338 -0.060261719535131632 0 -0.30849544073550722 -0.074776909133231664 0 -0.31286059459191501 -0.066721027791507209 0 -0.32103296817657878 -0.082656476452658639 0 -0.31286059459191501 -0.066721027791507209 0 -0.31629816603535338 -0.060261719535131632 0 -0.31286059459191501 -0.066721027791507209 0 -0.31629816603535338 -0.060261719535131632 0 -0.32352590008436471 -0.062378140209921912 0 -0.32103296817657878 -0.082656476452658639 0 -0.33093834944883532 -0.101971145942244 0 -0.30849544073550722 -0.074776909133231664 0 -0.31411573014289268 -0.085656035662949492 0 -0.32103296817657878 -0.082656476452658639 0 -0.31411573014289268 -0.085656035662949492 0 -0.32103296817657878 -0.082656476452658639 0 -0.32329194788869442 -0.1034183298589804 0 -0.31411573014289268 -0.085656035662949492 0 -0.32103296817657878 -0.082656476452658639 0 -0.32103296817657878 -0.082656476452658639 0 -0.33692687914299491 -0.089632102483736459 0 -0.33093834944883532 -0.101971145942244 0 -0.32103296817657878 -0.082656476452658639 0 -0.33692687914299491 -0.089632102483736459 0 -0.3453529791357649 -0.07211045902320197 0 -0.32103296817657878 -0.082656476452658639 0 -0.3453529791357649 -0.07211045902320197 0 -0.32352590008436471 -0.062378140209921912 0 -0.34475717967991132 -0.068595070548471249 0 -0.3453529791357649 -0.07211045902320197 0 -0.32352590008436471 -0.062378140209921912 0 -0.34475717967991132 -0.068595070548471249 0 -0.32352590008436471 -0.062378140209921912 0 -0.32103296817657878 -0.082656476452658639 0 -0.3453529791357649 -0.07211045902320197 0 -0.30807566230962469 -0.12087427087378499 0 -0.32329194788869442 -0.1034183298589804 0 -0.33246816563449738 -0.1211806240550105 0 -0.30807566230962469 -0.12087427087378499 0 -0.33246816563449738 -0.1211806240550105 0 -0.30807566230962469 -0.12087427087378499 0 -0.32007374605487132 -0.12494213909402439 0 -0.33246816563449738 -0.1211806240550105 0 -0.30690970986333499 -0.10413412755240679 0 -0.30807566230962469 -0.12087427087378499 0 -0.32329194788869442 -0.1034183298589804 0 -0.32329194788869442 -0.1034183298589804 0 -0.33246816563449738 -0.1211806240550105 0 -0.32007374605487132 -0.12494213909402439 0 -0.33441303965894859 -0.1249452932850653 0 -0.30690970986333499 -0.10413412755240679 0 -0.31411573014289268 -0.085656035662949492 0 -0.32329194788869442 -0.1034183298589804 0 -0.32103296817657878 -0.082656476452658639 0 -0.32329194788869442 -0.1034183298589804 0 -0.33093834944883532 -0.101971145942244 0 -0.31411573014289268 -0.085656035662949492 0 -0.32329194788869442 -0.1034183298589804 0 -0.32329194788869442 -0.1034183298589804 0 -0.33093834944883532 -0.101971145942244 0 -0.33246816563449738 -0.1211806240550105 0 -0.33692687914299491 -0.089632102483736459 0 -0.33093834944883532 -0.101971145942244 0 -0.35038321981080389 -0.10179032851684799 0 -0.33093834944883532 -0.101971145942244 0 -0.34773438721257438 -0.1121772477149196 0 -0.35038321981080389 -0.10179032851684799 0 -0.33093834944883532 -0.101971145942244 0 -0.3408437307210912 -0.1212858154318297 0 -0.33093834944883532 -0.101971145942244 0 -0.3408437307210912 -0.1212858154318297 0 -0.33246816563449738 -0.1211806240550105 0 -0.33093834944883532 -0.101971145942244 0 -0.3408437307210912 -0.1212858154318297 0 -0.34773438721257438 -0.1121772477149196 0 -0.34272140335036932 -0.124947120862287 0 -0.3408437307210912 -0.1212858154318297 0 -0.33441303965894859 -0.1249452932850653 0 -0.3408437307210912 -0.1212858154318297 0 -0.33246816563449738 -0.1211806240550105 0 -0.34272140335036932 -0.124947120862287 0 -0.33441303965894859 -0.1249452932850653 0 -0.34272140335036932 -0.124947120862287 0 -0.3408437307210912 -0.1212858154318297 0 -0.32007374605487132 -0.12494213909402439 0 -0.33441303965894859 -0.1249452932850653 0 -0.33246816563449738 -0.1211806240550105 0 -0.3408437307210912 -0.1212858154318297 0 -0.33441303965894859 -0.1249452932850653 0 -0.33246816563449738 -0.1211806240550105 0 -0.33441303965894859 -0.1249452932850653 0 -0.33246816563449738 -0.1211806240550105 0 -0.34272140335036932 -0.124947120862287 0 -0.35433435295871402 -0.1214552484327875 0 -0.36893450279197471 -0.1249528869149899 0 -0.34272140335036932 -0.124947120862287 0 -0.36893450279197471 -0.1249528869149899 0 -0.3408437307210912 -0.1212858154318297 0 -0.35433435295871402 -0.1214552484327875 0 -0.3408437307210912 -0.1212858154318297 0 -0.35433435295871402 -0.1214552484327875 0 -0.34773438721257438 -0.1121772477149196 0 -0.34272140335036932 -0.124947120862287 0 -0.3408437307210912 -0.1212858154318297 0 -0.35433435295871402 -0.1214552484327875 0 -0.35433435295871402 -0.1214552484327875 0 -0.34773438721257438 -0.1121772477149196 0 -0.3623387343604032 -0.1125517513480446 0 -0.34773438721257438 -0.1121772477149196 0 -0.35038321981080389 -0.10179032851684799 0 -0.3623387343604032 -0.1125517513480446 0 -0.37380044498630338 -0.100392191664622 0 -0.3623387343604032 -0.1125517513480446 0 -0.3789649235099295 -0.11270856972454819 0 -0.35038321981080389 -0.10179032851684799 0 -0.37380044498630338 -0.100392191664622 0 -0.36747037526515469 -0.088210616938563927 0 -0.35038321981080389 -0.10179032851684799 0 -0.37380044498630338 -0.100392191664622 0 -0.3623387343604032 -0.1125517513480446 0 -0.3623387343604032 -0.1125517513480446 0 -0.36893450279197471 -0.1249528869149899 0 -0.3789649235099295 -0.11270856972454819 0 -0.35433435295871402 -0.1214552484327875 0 -0.3623387343604032 -0.1125517513480446 0 -0.36893450279197471 -0.1249528869149899 0 -0.34995192587724822 -0.070116192960804249 0 -0.35645509357982358 -0.081628608772215283 0 -0.36843110820579178 -0.075527255856609146 0 -0.34995192587724822 -0.070116192960804249 0 -0.36608399240098949 -0.063120758007335118 0 -0.35494834161021771 -0.06194377696909157 0 -0.34995192587724822 -0.070116192960804249 0 -0.36843110820579178 -0.075527255856609146 0 -0.34995192587724822 -0.070116192960804249 0 -0.36608399240098949 -0.063120758007335118 0 -0.34995192587724822 -0.070116192960804249 0 -0.34475717967991132 -0.068595070548471249 0 -0.35494834161021771 -0.06194377696909157 0 -0.34995192587724822 -0.070116192960804249 0 -0.34475717967991132 -0.068595070548471249 0 -0.34995192587724822 -0.070116192960804249 0 -0.34475717967991132 -0.068595070548471249 0 -0.3453529791357649 -0.07211045902320197 0 -0.34995192587724822 -0.070116192960804249 0 -0.3453529791357649 -0.07211045902320197 0 -0.34995192587724822 -0.070116192960804249 0 -0.3453529791357649 -0.07211045902320197 0 -0.35645509357982358 -0.081628608772215283 0 -0.34475717967991132 -0.068595070548471249 0 -0.3453529791357649 -0.07211045902320197 0 -0.35038321981080389 -0.10179032851684799 0 -0.35645509357982358 -0.081628608772215283 0 -0.36747037526515469 -0.088210616938563927 0 -0.35038321981080389 -0.10179032851684799 0 -0.3453529791357649 -0.07211045902320197 0 -0.35645509357982358 -0.081628608772215283 0 -0.33692687914299491 -0.089632102483736459 0 -0.35038321981080389 -0.10179032851684799 0 -0.3453529791357649 -0.07211045902320197 0 -0.35038321981080389 -0.10179032851684799 0 -0.3453529791357649 -0.07211045902320197 0 -0.36747037526515469 -0.088210616938563927 0 -0.36843110820579178 -0.075527255856609146 0 -0.38691029053433551 -0.080938318752413793 0 -0.35645509357982358 -0.081628608772215283 0 -0.36747037526515469 -0.088210616938563927 0 -0.36843110820579178 -0.075527255856609146 0 -0.34995192587724822 -0.070116192960804249 0 -0.36843110820579178 -0.075527255856609146 0 -0.36608399240098949 -0.063120758007335118 0 -0.36843110820579178 -0.075527255856609146 0 -0.36608399240098949 -0.063120758007335118 0 -0.37978412082390189 -0.068029865631836883 0 -0.36608399240098949 -0.063120758007335118 0 -0.37085155020467431 -0.050438611479832557 0 -0.38221605892473098 -0.056125323053866277 0 -0.36608399240098949 -0.063120758007335118 0 -0.38221605892473098 -0.056125323053866277 0 -0.37085155020467431 -0.050438611479832557 0 -0.36177701350261748 -0.054750595911384127 0 -0.36329546327126672 -0.041142767418341691 0 -0.36608399240098949 -0.063120758007335118 0 -0.36177701350261748 -0.054750595911384127 0 -0.35494834161021771 -0.06194377696909157 0 -0.36608399240098949 -0.063120758007335118 0 -0.37085155020467431 -0.050438611479832557 0 -0.36177701350261748 -0.054750595911384127 0 -0.36177701350261748 -0.054750595911384127 0 -0.35494834161021771 -0.06194377696909157 0 -0.35217159659032232 -0.05313626741746251 0 -0.34475717967991132 -0.068595070548471249 0 -0.35217159659032232 -0.05313626741746251 0 -0.34008173660725832 -0.04100860914713586 0 -0.36177701350261748 -0.054750595911384127 0 -0.35217159659032232 -0.05313626741746251 0 -0.36329546327126672 -0.041142767418341691 0 -0.34475717967991132 -0.068595070548471249 0 -0.35494834161021771 -0.06194377696909157 0 -0.35217159659032232 -0.05313626741746251 0 -0.35217159659032232 -0.05313626741746251 0 -0.35233090603521772 -0.034345905606361089 0 -0.36329546327126672 -0.041142767418341691 0 -0.35217159659032232 -0.05313626741746251 0 -0.35233090603521772 -0.034345905606361089 0 -0.34008173660725832 -0.04100860914713586 0 -0.35233090603521772 -0.034345905606361089 0 -0.34677261788783459 -0.022263095799622792 0 -0.34008173660725832 -0.04100860914713586 0 -0.35233090603521772 -0.034345905606361089 0 -0.36329546327126672 -0.041142767418341691 0 -0.36125368123050811 -0.029816691131076791 0 -0.36329546327126672 -0.041142767418341691 0 -0.37015544225173291 -0.03012439130571171 0 -0.36125368123050811 -0.029816691131076791 0 -0.37085155020467431 -0.050438611479832557 0 -0.36329546327126672 -0.041142767418341691 0 -0.37439980638912518 -0.038891661293645137 0 -0.36329546327126672 -0.041142767418341691 0 -0.37439980638912518 -0.038891661293645137 0 -0.37015544225173291 -0.03012439130571171 0 -0.37439980638912518 -0.038891661293645137 0 -0.37015544225173291 -0.03012439130571171 0 -0.37866743010551202 -0.02906954498465647 0 -0.37015544225173291 -0.03012439130571171 0 -0.37402384376206249 -0.023759624541515059 0 -0.37866743010551202 -0.02906954498465647 0 -0.37015544225173291 -0.03012439130571171 0 -0.37402384376206249 -0.023759624541515059 0 -0.36652472594663232 -0.022500501643346649 0 -0.37402384376206249 -0.023759624541515059 0 -0.37465439862472261 -0.016787835852634068 0 -0.36652472594663232 -0.022500501643346649 0 -0.37465439862472261 -0.016787835852634068 0 -0.36652472594663232 -0.022500501643346649 0 -0.3596530522362773 -0.017262546391789129 0 -0.36652472594663232 -0.022500501643346649 0 -0.3596530522362773 -0.017262546391789129 0 -0.35649867437881472 -0.022585523222405649 0 -0.36652472594663232 -0.022500501643346649 0 -0.36125368123050811 -0.029816691131076791 0 -0.35649867437881472 -0.022585523222405649 0 -0.37015544225173291 -0.03012439130571171 0 -0.36652472594663232 -0.022500501643346649 0 -0.36125368123050811 -0.029816691131076791 0 -0.37465439862472261 -0.016787835852634068 0 -0.3596530522362773 -0.017262546391789129 0 -0.34857824671955512 -0.007874197240844389 0 -0.37465439862472261 -0.016787835852634068 0 -0.3597652811465577 -0.0058215117475868012 0 -0.34857824671955512 -0.007874197240844389 0 -0.37465439862472261 -0.016787835852634068 0 -0.34857824671955512 -0.007874197240844389 0 -0.37126952376897032 -0.00085078512189483576 0 -0.36867541047690239 -0.006920070417115203 0 -0.36494834593608783 -0.001298186014321303 0 -0.37126952376897032 -0.00085078512189483576 0 -0.37464851222799189 -0.0076089195940836872 0 -0.37774077980655368 -0.001289555558904682 0 -0.37126952376897032 -0.00085078512189483576 0 -0.37464851222799189 -0.0076089195940836872 0 -0.36867541047690239 -0.006920070417115203 0 -0.37465439862472261 -0.016787835852634068 0 -0.36867541047690239 -0.006920070417115203 0 -0.3597652811465577 -0.0058215117475868012 0 -0.37465439862472261 -0.016787835852634068 0 -0.37464851222799189 -0.0076089195940836872 0 -0.36867541047690239 -0.006920070417115203 0 -0.36867541047690239 -0.006920070417115203 0 -0.3597652811465577 -0.0058215117475868012 0 -0.36494834593608783 -0.001298186014321303 0 -0.3597652811465577 -0.0058215117475868012 0 -0.36494834593608783 -0.001298186014321303 0 -0.35900139338342918 0.0020097317905480609 0 -0.3597652811465577 -0.0058215117475868012 0 -0.35221409618436439 -0.0049109655465913588 0 -0.34857824671955512 -0.007874197240844389 0 -0.3597652811465577 -0.0058215117475868012 0 -0.35509488683577939 -0.0004162838960613095 0 -0.35900139338342918 0.0020097317905480609 0 -0.3597652811465577 -0.0058215117475868012 0 -0.35509488683577939 -0.0004162838960613095 0 -0.35221409618436439 -0.0049109655465913588 0 -0.3596530522362773 -0.017262546391789129 0 -0.34857824671955512 -0.007874197240844389 0 -0.35200921551166209 -0.0165646739997149 0 -0.34857824671955512 -0.007874197240844389 0 -0.34618108527798752 -0.01472783018749277 0 -0.35200921551166209 -0.0165646739997149 0 -0.35233090603521772 -0.034345905606361089 0 -0.36125368123050811 -0.029816691131076791 0 -0.35649867437881472 -0.022585523222405649 0 -0.35233090603521772 -0.034345905606361089 0 -0.35649867437881472 -0.022585523222405649 0 -0.34677261788783459 -0.022263095799622792 0 -0.35649867437881472 -0.022585523222405649 0 -0.35200921551166209 -0.0165646739997149 0 -0.34677261788783459 -0.022263095799622792 0 -0.3596530522362773 -0.017262546391789129 0 -0.35649867437881472 -0.022585523222405649 0 -0.35200921551166209 -0.0165646739997149 0 -0.34618108527798752 -0.01472783018749277 0 -0.35200921551166209 -0.0165646739997149 0 -0.34677261788783459 -0.022263095799622792 0 -0.33540629353460438 -0.01342214774580049 0 -0.31718310516035308 -0.038172790333745737 0 -0.34008173660725832 -0.04100860914713586 0 -0.33540629353460438 -0.01342214774580049 0 -0.34008173660725832 -0.04100860914713586 0 -0.34677261788783459 -0.022263095799622792 0 -0.33540629353460438 -0.01342214774580049 0 -0.34008173660725832 -0.04100860914713586 0 -0.34618108527798752 -0.01472783018749277 0 -0.34677261788783459 -0.022263095799622792 0 -0.33540629353460438 -0.01342214774580049 0 -0.33540629353460438 -0.01342214774580049 0 -0.3204068892458079 -0.0014125807301150939 0 -0.33073085046195078 0.01416431365553468 0 -0.34857824671955512 -0.007874197240844389 0 -0.33540629353460438 -0.01342214774580049 0 -0.33073085046195078 0.01416431365553468 0 -0.34857824671955512 -0.007874197240844389 0 -0.34618108527798752 -0.01472783018749277 0 -0.33540629353460438 -0.01342214774580049 0 -0.3025805037907468 -0.0027432771802810229 0 -0.31459326366374579 -0.01532774276474733 0 -0.3204068892458079 -0.0014125807301150939 0 -0.33540629353460438 -0.01342214774580049 0 -0.31459326366374579 -0.01532774276474733 0 -0.3204068892458079 -0.0014125807301150939 0 -0.33540629353460438 -0.01342214774580049 0 -0.31459326366374579 -0.01532774276474733 0 -0.31718310516035308 -0.038172790333745737 0 -0.31718310516035308 -0.038172790333745737 0 -0.3268834079531176 -0.05023453433316457 0 -0.34008173660725832 -0.04100860914713586 0 -0.31718310516035308 -0.038172790333745737 0 -0.31370341578724742 -0.051143824177853653 0 -0.3268834079531176 -0.05023453433316457 0 -0.31370341578724742 -0.051143824177853653 0 -0.31629816603535338 -0.060261719535131632 0 -0.32352590008436471 -0.062378140209921912 0 -0.31629816603535338 -0.060261719535131632 0 -0.32352590008436471 -0.062378140209921912 0 -0.32352590008436471 -0.062378140209921912 0 -0.3268834079531176 -0.05023453433316457 0 -0.33381205608116321 -0.055554088559673351 0 -0.31370341578724742 -0.051143824177853653 0 -0.32352590008436471 -0.062378140209921912 0 -0.3268834079531176 -0.05023453433316457 0 -0.34475717967991132 -0.068595070548471249 0 -0.32352590008436471 -0.062378140209921912 0 -0.33381205608116321 -0.055554088559673351 0 -0.34475717967991132 -0.068595070548471249 0 -0.33381205608116321 -0.055554088559673351 0 -0.34008173660725832 -0.04100860914713586 0 -0.3268834079531176 -0.05023453433316457 0 -0.33381205608116321 -0.055554088559673351 0 -0.34008173660725832 -0.04100860914713586 0 -0.34475717967991132 -0.068595070548471249 0 -0.34008173660725832 -0.04100860914713586 0 -0.29131753467172561 -0.25675805269722002 0 -0.30769212114973271 -0.24578220261295139 0 -0.29241592956139478 -0.23974284613727589 0 -0.30769212114973271 -0.24578220261295139 0 -0.30829656048542242 -0.23127198481015249 0 -0.29241592956139478 -0.23974284613727589 0 -0.30829656048542242 -0.23127198481015249 0 -0.29279532374442052 -0.2217612167757172 0 -0.3129652712195421 -0.2114706657937139 0 -0.30829656048542242 -0.23127198481015249 0 -0.29279532374442052 -0.2217612167757172 0 -0.29241592956139478 -0.23974284613727589 0 -0.29279532374442052 -0.2217612167757172 0 -0.29241592956139478 -0.23974284613727589 0 -0.27798049023744681 -0.23352671123603991 0 -0.29279532374442052 -0.2217612167757172 0 -0.27798049023744681 -0.23352671123603991 0 -0.27449661508218531 -0.21747639879007349 0 -0.29131753467172561 -0.25675805269722002 0 -0.29241592956139478 -0.23974284613727589 0 -0.27722523139620658 -0.24922189107985179 0 -0.29241592956139478 -0.23974284613727589 0 -0.27722523139620658 -0.24922189107985179 0 -0.27798049023744681 -0.23352671123603991 0 -0.27722523139620658 -0.24922189107985179 0 -0.25992972331208369 -0.2410680052130979 0 -0.27798049023744681 -0.23352671123603991 0 -0.26398002587916253 -0.25656090854441049 0 -0.27722523139620658 -0.24922189107985179 0 -0.25992972331208369 -0.2410680052130979 0 -0.25992972331208369 -0.2410680052130979 0 -0.25674041691710447 -0.22108212323078871 0 -0.27798049023744681 -0.23352671123603991 0 -0.2377451423251814 -0.23136366228574551 0 -0.25992972331208369 -0.2410680052130979 0 -0.25674041691710447 -0.22108212323078871 0 -0.25674041691710447 -0.22108212323078871 0 -0.27798049023744681 -0.23352671123603991 0 -0.27449661508218531 -0.21747639879007349 0 -0.27449661508218531 -0.21747639879007349 0 -0.25644706280453389 -0.1995927939493197 0 -0.27817485521465529 -0.19463925610534399 0 -0.27449661508218531 -0.21747639879007349 0 -0.27817485521465529 -0.19463925610534399 0 -0.25674041691710447 -0.22108212323078871 0 -0.27449661508218531 -0.21747639879007349 0 -0.25644706280453389 -0.1995927939493197 0 -0.25644706280453389 -0.1995927939493197 0 -0.27817485521465529 -0.19463925610534399 0 -0.26629571781906192 -0.18034234132084431 0 -0.27817485521465529 -0.19463925610534399 0 -0.29367807880863189 -0.20345752952089671 0 -0.29386082525749962 -0.1848532680646672 0 -0.27449661508218531 -0.21747639879007349 0 -0.27817485521465529 -0.19463925610534399 0 -0.29367807880863189 -0.20345752952089671 0 -0.29279532374442052 -0.2217612167757172 0 -0.27449661508218531 -0.21747639879007349 0 -0.29367807880863189 -0.20345752952089671 0 -0.29279532374442052 -0.2217612167757172 0 -0.29367807880863189 -0.20345752952089671 0 -0.3129652712195421 -0.2114706657937139 0 -0.29367807880863189 -0.20345752952089671 0 -0.30717411826112789 -0.1920401195635244 0 -0.29386082525749962 -0.1848532680646672 0 -0.29367807880863189 -0.20345752952089671 0 -0.30717411826112789 -0.1920401195635244 0 -0.3129652712195421 -0.2114706657937139 0 -0.30551265723832022 -0.17938492804960809 0 -0.29677214667513702 -0.1677956617280158 0 -0.29386082525749962 -0.1848532680646672 0 -0.30717411826112789 -0.1920401195635244 0 -0.30551265723832022 -0.17938492804960809 0 -0.29386082525749962 -0.1848532680646672 0 -0.30717411826112789 -0.1920401195635244 0 -0.30551265723832022 -0.17938492804960809 0 -0.31489114071409963 -0.18333745750317351 0 -0.30551265723832022 -0.17938492804960809 0 -0.31220508881165993 -0.16846949012138551 0 -0.29677214667513702 -0.1677956617280158 0 -0.30551265723832022 -0.17938492804960809 0 -0.31220508881165993 -0.16846949012138551 0 -0.31489114071409963 -0.18333745750317351 0 -0.31220508881165993 -0.16846949012138551 0 -0.2949530938874384 -0.15245549241185349 0 -0.31498630483336881 -0.15987728715749039 0 -0.31220508881165993 -0.16846949012138551 0 -0.2949530938874384 -0.15245549241185349 0 -0.31220508881165993 -0.16846949012138551 0 -0.29677214667513702 -0.1677956617280158 0 -0.2949530938874384 -0.15245549241185349 0 -0.28185309534712533 -0.17180211342061449 0 -0.28553133547959519 -0.14896497073588499 0 -0.29677214667513702 -0.1677956617280158 0 -0.28185309534712533 -0.17180211342061449 0 -0.2949530938874384 -0.15245549241185349 0 -0.28185309534712533 -0.17180211342061449 0 -0.28553133547959519 -0.14896497073588499 0 -0.2949530938874384 -0.15245549241185349 0 -0.27817485521465529 -0.19463925610534399 0 -0.28185309534712533 -0.17180211342061449 0 -0.29386082525749962 -0.1848532680646672 0 -0.29677214667513702 -0.1677956617280158 0 -0.28185309534712533 -0.17180211342061449 0 -0.29386082525749962 -0.1848532680646672 0 -0.27817485521465529 -0.19463925610534399 0 -0.28185309534712533 -0.17180211342061449 0 -0.27817485521465529 -0.19463925610534399 0 -0.28185309534712533 -0.17180211342061449 0 -0.26629571781906192 -0.18034234132084431 0 -0.26629571781906192 -0.18034234132084431 0 -0.25029992488695979 -0.1782534950292988 0 -0.25761979100978533 -0.16665415002795461 0 -0.25644706280453389 -0.1995927939493197 0 -0.26629571781906192 -0.18034234132084431 0 -0.25029992488695979 -0.1782534950292988 0 -0.26629571781906192 -0.18034234132084431 0 -0.25761979100978533 -0.16665415002795461 0 -0.26933386928146391 -0.16300442301689841 0 -0.24825300788518309 -0.1555077779107997 0 -0.25761979100978533 -0.16665415002795461 0 -0.26108146703715113 -0.15708396540124031 0 -0.25761979100978533 -0.16665415002795461 0 -0.26108146703715113 -0.15708396540124031 0 -0.26933386928146391 -0.16300442301689841 0 -0.28185309534712533 -0.17180211342061449 0 -0.27598770130958522 -0.15333886838191951 0 -0.28553133547959519 -0.14896497073588499 0 -0.28185309534712533 -0.17180211342061449 0 -0.26629571781906192 -0.18034234132084431 0 -0.26933386928146391 -0.16300442301689841 0 -0.26108146703715113 -0.15708396540124031 0 -0.26933386928146391 -0.16300442301689841 0 -0.26726071412102442 -0.15087550168963329 0 -0.28185309534712533 -0.17180211342061449 0 -0.26933386928146391 -0.16300442301689841 0 -0.27598770130958522 -0.15333886838191951 0 -0.27598770130958522 -0.15333886838191951 0 -0.271177428866754 -0.14364721368904659 0 -0.28553133547959519 -0.14896497073588499 0 -0.271177428866754 -0.14364721368904659 0 -0.28662611268527088 -0.1421678116724244 0 -0.28553133547959519 -0.14896497073588499 0 -0.271177428866754 -0.14364721368904659 0 -0.28553133547959519 -0.14896497073588499 0 -0.271177428866754 -0.14364721368904659 0 -0.26726071412102442 -0.15087550168963329 0 -0.25891484533836889 -0.13910423861407881 0 -0.271177428866754 -0.14364721368904659 0 -0.26726071412102442 -0.15087550168963329 0 -0.27598770130958522 -0.15333886838191951 0 -0.271177428866754 -0.14364721368904659 0 -0.26726071412102442 -0.15087550168963329 0 -0.26933386928146391 -0.16300442301689841 0 -0.27598770130958522 -0.15333886838191951 0 -0.26726071412102442 -0.15087550168963329 0 -0.2405789555143194 -0.1375116727892334 0 -0.25601133851015478 -0.1487044986697981 0 -0.25891484533836889 -0.13910423861407881 0 -0.26108146703715113 -0.15708396540124031 0 -0.26726071412102442 -0.15087550168963329 0 -0.25601133851015478 -0.1487044986697981 0 -0.271177428866754 -0.14364721368904659 0 -0.25891484533836889 -0.13910423861407881 0 -0.26726071412102442 -0.15087550168963329 0 -0.25601133851015478 -0.1487044986697981 0 -0.25891484533836889 -0.13910423861407881 0 -0.24825300788518309 -0.1555077779107997 0 -0.26108146703715113 -0.15708396540124031 0 -0.25601133851015478 -0.1487044986697981 0 -0.26009747564537128 -0.1202716976192799 0 -0.25054446979338107 -0.12912519928877991 0 -0.26697405985724948 -0.1304210152969853 0 -0.25054446979338107 -0.12912519928877991 0 -0.25891484533836889 -0.13910423861407881 0 -0.26697405985724948 -0.1304210152969853 0 -0.2405789555143194 -0.1375116727892334 0 -0.25054446979338107 -0.12912519928877991 0 -0.25891484533836889 -0.13910423861407881 0 -0.28368315898475188 -0.1205679176925603 0 -0.271177428866754 -0.14364721368904659 0 -0.26697405985724948 -0.1304210152969853 0 -0.28368315898475188 -0.1205679176925603 0 -0.271177428866754 -0.14364721368904659 0 -0.28514813781506088 -0.1345929107172644 0 -0.28368315898475188 -0.1205679176925603 0 -0.271177428866754 -0.14364721368904659 0 -0.271177428866754 -0.14364721368904659 0 -0.25891484533836889 -0.13910423861407881 0 -0.26697405985724948 -0.1304210152969853 0 -0.271177428866754 -0.14364721368904659 0 -0.28514813781506088 -0.1345929107172644 0 -0.28662611268527088 -0.1421678116724244 0 -0.28368315898475188 -0.1205679176925603 0 -0.29492821592448881 -0.13453805291007029 0 -0.28514813781506088 -0.1345929107172644 0 -0.28368315898475188 -0.1205679176925603 0 -0.29492821592448881 -0.13453805291007029 0 -0.30140371581860798 -0.1292511186866305 0 -0.29492821592448881 -0.13453805291007029 0 -0.2912775948780732 -0.1389862943003273 0 -0.28514813781506088 -0.1345929107172644 0 -0.29657756063899582 -0.140013172184488 0 -0.29492821592448881 -0.13453805291007029 0 -0.2912775948780732 -0.1389862943003273 0 -0.2912775948780732 -0.1389862943003273 0 -0.28514813781506088 -0.1345929107172644 0 -0.28662611268527088 -0.1421678116724244 0 -0.28662611268527088 -0.1421678116724244 0 -0.28553133547959519 -0.14896497073588499 0 -0.28662611268527088 -0.1421678116724244 0 -0.28553133547959519 -0.14896497073588499 0 -0.28937009998544028 -0.14621975116982991 0 -0.28553133547959519 -0.14896497073588499 0 -0.2922536480049423 -0.1499497578362777 0 -0.28937009998544028 -0.14621975116982991 0 -0.28553133547959519 -0.14896497073588499 0 -0.2922536480049423 -0.1499497578362777 0 -0.2949530938874384 -0.15245549241185349 0 -0.28553133547959519 -0.14896497073588499 0 -0.2949530938874384 -0.15245549241185349 0 -0.2922536480049423 -0.1499497578362777 0 -0.2949530938874384 -0.15245549241185349 0 -0.29617843115691228 -0.14802272380236281 0 -0.2922536480049423 -0.1499497578362777 0 -0.2949530938874384 -0.15245549241185349 0 -0.2912775948780732 -0.1389862943003273 0 -0.28662611268527088 -0.1421678116724244 0 -0.29310794732654949 -0.1436195240173895 0 -0.28662611268527088 -0.1421678116724244 0 -0.28937009998544028 -0.14621975116982991 0 -0.29310794732654949 -0.1436195240173895 0 -0.2922536480049423 -0.1499497578362777 0 -0.28937009998544028 -0.14621975116982991 0 -0.29310794732654949 -0.1436195240173895 0 -0.29617843115691228 -0.14802272380236281 0 -0.29310794732654949 -0.1436195240173895 0 -0.29956135480037449 -0.14472193576336759 0 -0.2922536480049423 -0.1499497578362777 0 -0.29617843115691228 -0.14802272380236281 0 -0.29310794732654949 -0.1436195240173895 0 -0.29657756063899582 -0.140013172184488 0 -0.2912775948780732 -0.1389862943003273 0 -0.29310794732654949 -0.1436195240173895 0 -0.29657756063899582 -0.140013172184488 0 -0.29310794732654949 -0.1436195240173895 0 -0.29956135480037449 -0.14472193576336759 0 -0.29956135480037449 -0.14472193576336759 0 -0.30554397810907652 -0.146919348525368 0 -0.30456114821214081 -0.13888567554976469 0 -0.2949530938874384 -0.15245549241185349 0 -0.30620642865757891 -0.15285211384445899 0 -0.31498630483336881 -0.15987728715749039 0 -0.2949530938874384 -0.15245549241185349 0 -0.31498630483336881 -0.15987728715749039 0 -0.29657756063899582 -0.140013172184488 0 -0.29956135480037449 -0.14472193576336759 0 -0.30456114821214081 -0.13888567554976469 0 -0.29617843115691228 -0.14802272380236281 0 -0.29956135480037449 -0.14472193576336759 0 -0.30052761464898298 -0.14908162957255741 0 -0.29956135480037449 -0.14472193576336759 0 -0.30052761464898298 -0.14908162957255741 0 -0.30554397810907652 -0.146919348525368 0 -0.2949530938874384 -0.15245549241185349 0 -0.30052761464898298 -0.14908162957255741 0 -0.30620642865757891 -0.15285211384445899 0 -0.2949530938874384 -0.15245549241185349 0 -0.29617843115691228 -0.14802272380236281 0 -0.30052761464898298 -0.14908162957255741 0 -0.30052761464898298 -0.14908162957255741 0 -0.30620642865757891 -0.15285211384445899 0 -0.30554397810907652 -0.146919348525368 0 -0.30620642865757891 -0.15285211384445899 0 -0.31211863317072019 -0.1538765410016501 0 -0.31498630483336881 -0.15987728715749039 0 -0.30620642865757891 -0.15285211384445899 0 -0.31071230574427161 -0.15022116190891349 0 -0.30554397810907652 -0.146919348525368 0 -0.30620642865757891 -0.15285211384445899 0 -0.31071230574427161 -0.15022116190891349 0 -0.31211863317072019 -0.1538765410016501 0 -0.31246836027323899 -0.14497521722301901 0 -0.31246708178415561 -0.13872402753426441 0 -0.30456114821214081 -0.13888567554976469 0 -0.30554397810907652 -0.146919348525368 0 -0.31246836027323899 -0.14497521722301901 0 -0.30456114821214081 -0.13888567554976469 0 -0.31071230574427161 -0.15022116190891349 0 -0.30554397810907652 -0.146919348525368 0 -0.31246836027323899 -0.14497521722301901 0 -0.30140371581860798 -0.1292511186866305 0 -0.30456114821214081 -0.13888567554976469 0 -0.31280589771709483 -0.13181614145056869 0 -0.31246708178415561 -0.13872402753426441 0 -0.30456114821214081 -0.13888567554976469 0 -0.31280589771709483 -0.13181614145056869 0 -0.30807566230962469 -0.12087427087378499 0 -0.30140371581860798 -0.1292511186866305 0 -0.31280589771709483 -0.13181614145056869 0 -0.29657756063899582 -0.140013172184488 0 -0.29492821592448881 -0.13453805291007029 0 -0.30456114821214081 -0.13888567554976469 0 -0.29492821592448881 -0.13453805291007029 0 -0.30140371581860798 -0.1292511186866305 0 -0.30456114821214081 -0.13888567554976469 0 -0.3226930215385343 -0.13395567837890529 0 -0.31855308997834159 -0.13934265221991729 0 -0.32506280578504959 -0.14064102607364051 0 -0.3226930215385343 -0.13395567837890529 0 -0.32506280578504959 -0.14064102607364051 0 -0.33047387389575927 -0.1369340691945744 0 -0.3226930215385343 -0.13395567837890529 0 -0.32807010768985068 -0.12986880773923029 0 -0.33047387389575927 -0.1369340691945744 0 -0.32007374605487132 -0.12494213909402439 0 -0.33441303965894859 -0.1249452932850653 0 -0.32807010768985068 -0.12986880773923029 0 -0.32007374605487132 -0.12494213909402439 0 -0.3226930215385343 -0.13395567837890529 0 -0.32807010768985068 -0.12986880773923029 0 -0.32007374605487132 -0.12494213909402439 0 -0.3226930215385343 -0.13395567837890529 0 -0.31280589771709483 -0.13181614145056869 0 -0.30807566230962469 -0.12087427087378499 0 -0.32007374605487132 -0.12494213909402439 0 -0.31280589771709483 -0.13181614145056869 0 -0.3226930215385343 -0.13395567837890529 0 -0.31280589771709483 -0.13181614145056869 0 -0.31855308997834159 -0.13934265221991729 0 -0.31246708178415561 -0.13872402753426441 0 -0.31280589771709483 -0.13181614145056869 0 -0.31855308997834159 -0.13934265221991729 0 -0.31246836027323899 -0.14497521722301901 0 -0.31246708178415561 -0.13872402753426441 0 -0.31855308997834159 -0.13934265221991729 0 -0.31246836027323899 -0.14497521722301901 0 -0.31855308997834159 -0.13934265221991729 0 -0.32096396999162452 -0.14503749675666289 0 -0.31246836027323899 -0.14497521722301901 0 -0.31722412851074311 -0.15248258895007169 0 -0.32096396999162452 -0.14503749675666289 0 -0.31211863317072019 -0.1538765410016501 0 -0.31722412851074311 -0.15248258895007169 0 -0.31498630483336881 -0.15987728715749039 0 -0.31071230574427161 -0.15022116190891349 0 -0.31246836027323899 -0.14497521722301901 0 -0.31722412851074311 -0.15248258895007169 0 -0.31071230574427161 -0.15022116190891349 0 -0.31211863317072019 -0.1538765410016501 0 -0.31722412851074311 -0.15248258895007169 0 -0.32096396999162452 -0.14503749675666289 0 -0.32506280578504959 -0.14064102607364051 0 -0.33039285730051032 -0.1475567648151897 0 -0.31722412851074311 -0.15248258895007169 0 -0.32096396999162452 -0.14503749675666289 0 -0.33039285730051032 -0.1475567648151897 0 -0.31855308997834159 -0.13934265221991729 0 -0.32096396999162452 -0.14503749675666289 0 -0.32506280578504959 -0.14064102607364051 0 -0.33039285730051032 -0.1475567648151897 0 -0.33813688440009898 -0.15615522653291031 0 -0.34198145815712638 -0.1395953898376964 0 -0.32506280578504959 -0.14064102607364051 0 -0.33039285730051032 -0.1475567648151897 0 -0.33047387389575927 -0.1369340691945744 0 -0.31722412851074311 -0.15248258895007169 0 -0.33039285730051032 -0.1475567648151897 0 -0.33813688440009898 -0.15615522653291031 0 -0.33039285730051032 -0.1475567648151897 0 -0.34198145815712638 -0.1395953898376964 0 -0.33047387389575927 -0.1369340691945744 0 -0.33813688440009898 -0.15615522653291031 0 -0.34198145815712638 -0.1395953898376964 0 -0.34954987665533299 -0.15424548639031271 0 -0.34198145815712638 -0.1395953898376964 0 -0.3337346198504213 -0.1328358900141379 0 -0.33047387389575927 -0.1369340691945744 0 -0.32807010768985068 -0.12986880773923029 0 -0.3337346198504213 -0.1328358900141379 0 -0.33047387389575927 -0.1369340691945744 0 -0.33441303965894859 -0.1249452932850653 0 -0.32807010768985068 -0.12986880773923029 0 -0.3337346198504213 -0.1328358900141379 0 -0.33441303965894859 -0.1249452932850653 0 -0.34198145815712638 -0.1395953898376964 0 -0.34272140335036932 -0.124947120862287 0 -0.33441303965894859 -0.1249452932850653 0 -0.34198145815712638 -0.1395953898376964 0 -0.33441303965894859 -0.1249452932850653 0 -0.34198145815712638 -0.1395953898376964 0 -0.3337346198504213 -0.1328358900141379 0 -0.34272140335036932 -0.124947120862287 0 -0.35413341494744088 -0.14719959415449421 0 -0.34272140335036932 -0.124947120862287 0 -0.35599685079288468 -0.13305792836185981 0 -0.35413341494744088 -0.14719959415449421 0 -0.34272140335036932 -0.124947120862287 0 -0.34198145815712638 -0.1395953898376964 0 -0.35413341494744088 -0.14719959415449421 0 -0.34272140335036932 -0.124947120862287 0 -0.36893450279197471 -0.1249528869149899 0 -0.35599685079288468 -0.13305792836185981 0 -0.35599685079288468 -0.13305792836185981 0 -0.36484224068191412 -0.14157370685753851 0 -0.35413341494744088 -0.14719959415449421 0 -0.36893450279197471 -0.1249528869149899 0 -0.35599685079288468 -0.13305792836185981 0 -0.36484224068191412 -0.14157370685753851 0 -0.36893450279197471 -0.1249528869149899 0 -0.36484224068191412 -0.14157370685753851 0 -0.3777566452334315 -0.14913711856379011 0 -0.3679743334396014 -0.15408772885571331 0 -0.37696591512674532 -0.1609827341034305 0 -0.3777566452334315 -0.14913711856379011 0 -0.3679743334396014 -0.15408772885571331 0 -0.36484224068191412 -0.14157370685753851 0 -0.3777566452334315 -0.14913711856379011 0 -0.3679743334396014 -0.15408772885571331 0 -0.36484224068191412 -0.14157370685753851 0 -0.35413341494744088 -0.14719959415449421 0 -0.35413341494744088 -0.14719959415449421 0 -0.34954987665533299 -0.15424548639031271 0 -0.35445721343992059 -0.1619675590177023 0 -0.34198145815712638 -0.1395953898376964 0 -0.34954987665533299 -0.15424548639031271 0 -0.34198145815712638 -0.1395953898376964 0 -0.35413341494744088 -0.14719959415449421 0 -0.34954987665533299 -0.15424548639031271 0 -0.33813688440009898 -0.15615522653291031 0 -0.34954987665533299 -0.15424548639031271 0 -0.34648545334868369 -0.16311147615285329 0 -0.34648545334868369 -0.16311147615285329 0 -0.35788001493839611 -0.17576831496813999 0 -0.33501951577929873 -0.16729908190312789 0 -0.34954987665533299 -0.15424548639031271 0 -0.34648545334868369 -0.16311147615285329 0 -0.35445721343992059 -0.1619675590177023 0 -0.35413341494744088 -0.14719959415449421 0 -0.35445721343992059 -0.1619675590177023 0 -0.36554542654456429 -0.16945206744667471 0 -0.35788001493839611 -0.17576831496813999 0 -0.33501951577929873 -0.16729908190312789 0 -0.34648545334868369 -0.16311147615285329 0 -0.35445721343992059 -0.1619675590177023 0 -0.35788001493839611 -0.17576831496813999 0 -0.35445721343992059 -0.1619675590177023 0 -0.36554542654456429 -0.16945206744667471 0 -0.35788001493839611 -0.17576831496813999 0 -0.35413341494744088 -0.14719959415449421 0 -0.36554542654456429 -0.16945206744667471 0 -0.3679743334396014 -0.15408772885571331 0 -0.35413341494744088 -0.14719959415449421 0 -0.36554542654456429 -0.16945206744667471 0 -0.3679743334396014 -0.15408772885571331 0 -0.36554542654456429 -0.16945206744667471 0 -0.37696591512674532 -0.1609827341034305 0 -0.37016556171889331 -0.18126023377528719 0 -0.3536864721015115 -0.18284124587119119 0 -0.37235342842372432 -0.19838340983925429 0 -0.36554542654456429 -0.16945206744667471 0 -0.37016556171889331 -0.18126023377528719 0 -0.38426477739238413 -0.17192867897072969 0 -0.37016556171889331 -0.18126023377528719 0 -0.3536864721015115 -0.18284124587119119 0 -0.35788001493839611 -0.17576831496813999 0 -0.36554542654456429 -0.16945206744667471 0 -0.37016556171889331 -0.18126023377528719 0 -0.35788001493839611 -0.17576831496813999 0 -0.3536864721015115 -0.18284124587119119 0 -0.33501951577929873 -0.16729908190312789 0 -0.3536864721015115 -0.18284124587119119 0 -0.35788001493839611 -0.17576831496813999 0 -0.33501951577929873 -0.16729908190312789 0 -0.3536864721015115 -0.18284124587119119 0 -0.32945708373588178 -0.18448348783091689 0 -0.33501951577929873 -0.16729908190312789 0 -0.31722412851074311 -0.15248258895007169 0 -0.33813688440009898 -0.15615522653291031 0 -0.33501951577929873 -0.16729908190312789 0 -0.33813688440009898 -0.15615522653291031 0 -0.34648545334868369 -0.16311147615285329 0 -0.33501951577929873 -0.16729908190312789 0 -0.31722412851074311 -0.15248258895007169 0 -0.33501951577929873 -0.16729908190312789 0 -0.31722412851074311 -0.15248258895007169 0 -0.33501951577929873 -0.16729908190312789 0 -0.31498630483336881 -0.15987728715749039 0 -0.31220508881165993 -0.16846949012138551 0 -0.33501951577929873 -0.16729908190312789 0 -0.31498630483336881 -0.15987728715749039 0 -0.33501951577929873 -0.16729908190312789 0 -0.31498630483336881 -0.15987728715749039 0 -0.31220508881165993 -0.16846949012138551 0 -0.32945708373588178 -0.18448348783091689 0 -0.31489114071409963 -0.18333745750317351 0 -0.31220508881165993 -0.16846949012138551 0 -0.32945708373588178 -0.18448348783091689 0 -0.31220508881165993 -0.16846949012138551 0 -0.32945708373588178 -0.18448348783091689 0 -0.33501951577929873 -0.16729908190312789 0 -0.32945708373588178 -0.18448348783091689 0 -0.31489114071409963 -0.18333745750317351 0 -0.32010675552350842 -0.19230926195043291 0 -0.30717411826112789 -0.1920401195635244 0 -0.32010675552350842 -0.19230926195043291 0 -0.3129652712195421 -0.2114706657937139 0 -0.32945708373588178 -0.18448348783091689 0 -0.32010675552350842 -0.19230926195043291 0 -0.32566449460190838 -0.20326261146105551 0 -0.32010675552350842 -0.19230926195043291 0 -0.3129652712195421 -0.2114706657937139 0 -0.32566449460190838 -0.20326261146105551 0 -0.30717411826112789 -0.1920401195635244 0 -0.31489114071409963 -0.18333745750317351 0 -0.32010675552350842 -0.19230926195043291 0 -0.3129652712195421 -0.2114706657937139 0 -0.32566449460190838 -0.20326261146105551 0 -0.33208474862113468 -0.21873250337862821 0 -0.33208474862113468 -0.21873250337862821 0 -0.34670907866010381 -0.20049748554044841 0 -0.34896881396179619 -0.22434135344573131 0 -0.32566449460190838 -0.20326261146105551 0 -0.33208474862113468 -0.21873250337862821 0 -0.34670907866010381 -0.20049748554044841 0 -0.3536864721015115 -0.18284124587119119 0 -0.32945708373588178 -0.18448348783091689 0 -0.34670907866010381 -0.20049748554044841 0 -0.32945708373588178 -0.18448348783091689 0 -0.32566449460190838 -0.20326261146105551 0 -0.34670907866010381 -0.20049748554044841 0 -0.32945708373588178 -0.18448348783091689 0 -0.34670907866010381 -0.20049748554044841 0 -0.3536864721015115 -0.18284124587119119 0 -0.35917751319241631 -0.19955840612521841 0 -0.34670907866010381 -0.20049748554044841 0 -0.3536864721015115 -0.18284124587119119 0 -0.37235342842372432 -0.19838340983925429 0 -0.3536864721015115 -0.18284124587119119 0 -0.35917751319241631 -0.19955840612521841 0 -0.37235342842372432 -0.19838340983925429 0 -0.37235342842372432 -0.19838340983925429 0 -0.36396107358432572 -0.21651148324997979 0 -0.37772562505684643 -0.22219038377974651 0 -0.35917751319241631 -0.19955840612521841 0 -0.37235342842372432 -0.19838340983925429 0 -0.36396107358432572 -0.21651148324997979 0 -0.34670907866010381 -0.20049748554044841 0 -0.36396107358432572 -0.21651148324997979 0 -0.34896881396179619 -0.22434135344573131 0 -0.34670907866010381 -0.20049748554044841 0 -0.36396107358432572 -0.21651148324997979 0 -0.35917751319241631 -0.19955840612521841 0 -0.34670907866010381 -0.20049748554044841 0 -0.36396107358432572 -0.21651148324997979 0 -0.34896881396179619 -0.22434135344573131 0 -0.36764811873304098 -0.23322730847002751 0 -0.35305879752332059 -0.24486073726717009 0 -0.36396107358432572 -0.21651148324997979 0 -0.36764811873304098 -0.23322730847002751 0 -0.37772562505684643 -0.22219038377974651 0 -0.36396107358432572 -0.21651148324997979 0 -0.34896881396179619 -0.22434135344573131 0 -0.36764811873304098 -0.23322730847002751 0 -0.37533687834285862 -0.25417213976024849 0 -0.36764811873304098 -0.23322730847002751 0 -0.35305879752332059 -0.24486073726717009 0 -0.34896881396179619 -0.22434135344573131 0 -0.35305879752332059 -0.24486073726717009 0 -0.33568364413539042 -0.23615154195274179 0 -0.33623326073948312 -0.25365348176558788 0 -0.33568364413539042 -0.23615154195274179 0 -0.32213598881581812 -0.2442700999577708 0 -0.33623326073948312 -0.25365348176558788 0 -0.35305879752332059 -0.24486073726717009 0 -0.33568364413539042 -0.23615154195274179 0 -0.33208474862113468 -0.21873250337862821 0 -0.33568364413539042 -0.23615154195274179 0 -0.32219037366776621 -0.22897372759534659 0 -0.33208474862113468 -0.21873250337862821 0 -0.34896881396179619 -0.22434135344573131 0 -0.33568364413539042 -0.23615154195274179 0 -0.30829656048542242 -0.23127198481015249 0 -0.3129652712195421 -0.2114706657937139 0 -0.32219037366776621 -0.22897372759534659 0 -0.3129652712195421 -0.2114706657937139 0 -0.33208474862113468 -0.21873250337862821 0 -0.32219037366776621 -0.22897372759534659 0 -0.30769212114973271 -0.24578220261295139 0 -0.30829656048542242 -0.23127198481015249 0 -0.32213598881581812 -0.2442700999577708 0 -0.30829656048542242 -0.23127198481015249 0 -0.32219037366776621 -0.22897372759534659 0 -0.32213598881581812 -0.2442700999577708 0 -0.31968345090478489 -0.25798973640781447 0 -0.30769212114973271 -0.24578220261295139 0 -0.32213598881581812 -0.2442700999577708 0 -0.33568364413539042 -0.23615154195274179 0 -0.32219037366776621 -0.22897372759534659 0 -0.32213598881581812 -0.2442700999577708 0 -0.43598079583492633 -0.24721882136819351 0 -0.42311134176242837 -0.2304528026464861 0 -0.41615383063077721 -0.2466412503256647 0 -0.43598079583492633 -0.24721882136819351 0 -0.42311134176242837 -0.2304528026464861 0 -0.43908324849522451 -0.2287046610080686 0 -0.42311134176242837 -0.2304528026464861 0 -0.41411505562058892 -0.2091502018577929 0 -0.42948217154750851 -0.21815887616964899 0 -0.42311134176242837 -0.2304528026464861 0 -0.42948217154750851 -0.21815887616964899 0 -0.43908324849522451 -0.2287046610080686 0 -0.42948217154750851 -0.21815887616964899 0 -0.43955036875351089 -0.21658504913102711 0 -0.43908324849522451 -0.2287046610080686 0 -0.40619246279161347 -0.2313797712556602 0 -0.41411505562058892 -0.2091502018577929 0 -0.42311134176242837 -0.2304528026464861 0 -0.40619246279161347 -0.2313797712556602 0 -0.41411505562058892 -0.2091502018577929 0 -0.39826986996263802 -0.25360934065352753 0 -0.41615383063077721 -0.2466412503256647 0 -0.40619246279161347 -0.2313797712556602 0 -0.42311134176242837 -0.2304528026464861 0 -0.41615383063077721 -0.2466412503256647 0 -0.40619246279161347 -0.2313797712556602 0 -0.39826986996263802 -0.25360934065352753 0 -0.38632210934187061 -0.2364082567837591 0 -0.40619246279161347 -0.2313797712556602 0 -0.39826986996263802 -0.25360934065352753 0 -0.40619246279161347 -0.2313797712556602 0 -0.37533687834285862 -0.25417213976024849 0 -0.36764811873304098 -0.23322730847002751 0 -0.38632210934187061 -0.2364082567837591 0 -0.37533687834285862 -0.25417213976024849 0 -0.39826986996263802 -0.25360934065352753 0 -0.38632210934187061 -0.2364082567837591 0 -0.36764811873304098 -0.23322730847002751 0 -0.38632210934187061 -0.2364082567837591 0 -0.37772562505684643 -0.22219038377974651 0 -0.38632210934187061 -0.2364082567837591 0 -0.37772562505684643 -0.22219038377974651 0 -0.39102038474593709 -0.2139255738073175 0 -0.38632210934187061 -0.2364082567837591 0 -0.40619246279161347 -0.2313797712556602 0 -0.39102038474593709 -0.2139255738073175 0 -0.39102038474593709 -0.2139255738073175 0 -0.40351751052996843 -0.1957217498792192 0 -0.41411505562058892 -0.2091502018577929 0 -0.40619246279161347 -0.2313797712556602 0 -0.39102038474593709 -0.2139255738073175 0 -0.41411505562058892 -0.2091502018577929 0 -0.37235342842372432 -0.19838340983925429 0 -0.39102038474593709 -0.2139255738073175 0 -0.37235342842372432 -0.19838340983925429 0 -0.37772562505684643 -0.22219038377974651 0 -0.39102038474593709 -0.2139255738073175 0 -0.37016556171889331 -0.18126023377528719 0 -0.37235342842372432 -0.19838340983925429 0 -0.38726325091278008 -0.18918768555573329 0 -0.37235342842372432 -0.19838340983925429 0 -0.39102038474593709 -0.2139255738073175 0 -0.38726325091278008 -0.18918768555573329 0 -0.38726325091278008 -0.18918768555573329 0 -0.40351751052996843 -0.1957217498792192 0 -0.40315121292097328 -0.17942465571532731 0 -0.39102038474593709 -0.2139255738073175 0 -0.38726325091278008 -0.18918768555573329 0 -0.40351751052996843 -0.1957217498792192 0 -0.41411505562058892 -0.2091502018577929 0 -0.42203764844956237 -0.18692063245992491 0 -0.40351751052996843 -0.1957217498792192 0 -0.41411505562058892 -0.2091502018577929 0 -0.42203764844956237 -0.18692063245992491 0 -0.41411505562058892 -0.2091502018577929 0 -0.42948217154750851 -0.21815887616964899 0 -0.43155084310578928 -0.2059016662048701 0 -0.42948217154750851 -0.21815887616964899 0 -0.43155084310578928 -0.2059016662048701 0 -0.43955036875351089 -0.21658504913102711 0 -0.42203764844956237 -0.18692063245992491 0 -0.44484374680150301 -0.19597231310248839 0 -0.41411505562058892 -0.2091502018577929 0 -0.43155084310578928 -0.2059016662048701 0 -0.42203764844956237 -0.18692063245992491 0 -0.43155084310578928 -0.2059016662048701 0 -0.42203764844956237 -0.18692063245992491 0 -0.44484374680150301 -0.19597231310248839 0 -0.42203764844956237 -0.18692063245992491 0 -0.44134853753678083 -0.18159229851429221 0 -0.44484374680150301 -0.19597231310248839 0 -0.42203764844956237 -0.18692063245992491 0 -0.42880774722037651 -0.1679247830322266 0 -0.42203764844956237 -0.18692063245992491 0 -0.42880774722037651 -0.1679247830322266 0 -0.44134853753678083 -0.18159229851429221 0 -0.42880774722037651 -0.1679247830322266 0 -0.43557784599118871 -0.14892893360452769 0 -0.44631139980808621 -0.1631836851414229 0 -0.42880774722037651 -0.1679247830322266 0 -0.43557784599118871 -0.14892893360452769 0 -0.42880774722037651 -0.1679247830322266 0 -0.41236960909879722 -0.16540507401591409 0 -0.42079860369606048 -0.15043713941075901 0 -0.42203764844956237 -0.18692063245992491 0 -0.42880774722037651 -0.1679247830322266 0 -0.41236960909879722 -0.16540507401591409 0 -0.40351751052996843 -0.1957217498792192 0 -0.42203764844956237 -0.18692063245992491 0 -0.40315121292097328 -0.17942465571532731 0 -0.42203764844956237 -0.18692063245992491 0 -0.40315121292097328 -0.17942465571532731 0 -0.42203764844956237 -0.18692063245992491 0 -0.41236960909879722 -0.16540507401591409 0 -0.40315121292097328 -0.17942465571532731 0 -0.38726325091278008 -0.18918768555573329 0 -0.40315121292097328 -0.17942465571532731 0 -0.38426477739238413 -0.17192867897072969 0 -0.40315121292097328 -0.17942465571532731 0 -0.38426477739238413 -0.17192867897072969 0 -0.37016556171889331 -0.18126023377528719 0 -0.38726325091278008 -0.18918768555573329 0 -0.38426477739238413 -0.17192867897072969 0 -0.36554542654456429 -0.16945206744667471 0 -0.38426477739238413 -0.17192867897072969 0 -0.37696591512674532 -0.1609827341034305 0 -0.38426477739238413 -0.17192867897072969 0 -0.37696591512674532 -0.1609827341034305 0 -0.39230106084837368 -0.15838844905994759 0 -0.40315121292097328 -0.17942465571532731 0 -0.38426477739238413 -0.17192867897072969 0 -0.39230106084837368 -0.15838844905994759 0 -0.41236960909879722 -0.16540507401591409 0 -0.39230106084837368 -0.15838844905994759 0 -0.40587711449475489 -0.1449624873806776 0 -0.41236960909879722 -0.16540507401591409 0 -0.40315121292097328 -0.17942465571532731 0 -0.39230106084837368 -0.15838844905994759 0 -0.39230106084837368 -0.15838844905994759 0 -0.39162863389564362 -0.14105630786861159 0 -0.40587711449475489 -0.1449624873806776 0 -0.39230106084837368 -0.15838844905994759 0 -0.39162863389564362 -0.14105630786861159 0 -0.3777566452334315 -0.14913711856379011 0 -0.37696591512674532 -0.1609827341034305 0 -0.39230106084837368 -0.15838844905994759 0 -0.3777566452334315 -0.14913711856379011 0 -0.36893450279197471 -0.1249528869149899 0 -0.39162863389564362 -0.14105630786861159 0 -0.3777566452334315 -0.14913711856379011 0 -0.36893450279197471 -0.1249528869149899 0 -0.39162863389564362 -0.14105630786861159 0 -0.39514760223357998 -0.1249586529677193 0 -0.39162863389564362 -0.14105630786861159 0 -0.40587711449475489 -0.1449624873806776 0 -0.39514760223357998 -0.1249586529677193 0 -0.40587711449475489 -0.1449624873806776 0 -0.39514760223357998 -0.1249586529677193 0 -0.42136070167518519 -0.1249644190204488 0 -0.40587711449475489 -0.1449624873806776 0 -0.42079860369606048 -0.15043713941075901 0 -0.42136070167518519 -0.1249644190204488 0 -0.41236960909879722 -0.16540507401591409 0 -0.40587711449475489 -0.1449624873806776 0 -0.42079860369606048 -0.15043713941075901 0 -0.42079860369606048 -0.15043713941075901 0 -0.43557784599118871 -0.14892893360452769 0 -0.42136070167518519 -0.1249644190204488 0 -0.42880774722037651 -0.1679247830322266 0 -0.42079860369606048 -0.15043713941075901 0 -0.43557784599118871 -0.14892893360452769 0 -0.43557784599118871 -0.14892893360452769 0 -0.42136070167518519 -0.1249644190204488 0 -0.44757380111679052 -0.12497018507317829 0 -0.43557784599118871 -0.14892893360452769 0 -0.45596445488588 -0.14427568033770541 0 -0.44757380111679052 -0.12497018507317829 0 -0.43557784599118871 -0.14892893360452769 0 -0.45596445488588 -0.14427568033770541 0 -0.44631139980808621 -0.1631836851414229 0 -0.45596445488588 -0.14427568033770541 0 -0.46278066629215481 -0.1610158872753634 0 -0.44631139980808621 -0.1631836851414229 0 -0.45596445488588 -0.14427568033770541 0 -0.47930750267908417 -0.1480635854121114 0 -0.46278066629215481 -0.1610158872753634 0 -0.45596445488588 -0.14427568033770541 0 -0.44757380111679052 -0.12497018507317829 0 -0.47378690055839578 -0.1249759511259078 0 -0.48827360080937021 -0.13531742911399189 0 -0.47930750267908417 -0.1480635854121114 0 -0.47378690055839578 -0.1249759511259078 0 -0.45596445488588 -0.14427568033770541 0 -0.47930750267908417 -0.1480635854121114 0 -0.47378690055839578 -0.1249759511259078 0 -0.48827360080937021 -0.13531742911399189 0 -0.5 -0.14324846273931111 0 -0.50000000000000111 -0.12498171717863731 0 -0.48827360080937021 -0.13531742911399189 0 -0.47378690055839578 -0.1249759511259078 0 -0.50000000000000111 -0.12498171717863731 0 -0.5 -0.14324846273931111 0 -0.47930750267908417 -0.1480635854121114 0 -0.49999999999999961 -0.161515208299985 0 -0.48827360080937021 -0.13531742911399189 0 -0.5 -0.14324846273931111 0 -0.47930750267908417 -0.1480635854121114 0 -0.47930750267908417 -0.1480635854121114 0 -0.47738728335761421 -0.1682509267597351 0 -0.46278066629215481 -0.1610158872753634 0 -0.47738728335761421 -0.1682509267597351 0 -0.49999999999999961 -0.161515208299985 0 -0.48839409620634278 -0.18039624849769001 0 -0.49999999999999961 -0.161515208299985 0 -0.48839409620634278 -0.18039624849769001 0 -0.47930750267908417 -0.1480635854121114 0 -0.47738728335761421 -0.1682509267597351 0 -0.49999999999999961 -0.161515208299985 0 -0.49999999999999961 -0.161515208299985 0 -0.5 -0.18618779176616679 0 -0.48839409620634278 -0.18039624849769001 0 -0.5 -0.18618779176616679 0 -0.48839409620634278 -0.18039624849769001 0 -0.48957789370491162 -0.19386933705848941 0 -0.47738728335761421 -0.1682509267597351 0 -0.48839409620634278 -0.18039624849769001 0 -0.47328693949397721 -0.18411760774338479 0 -0.47738728335761421 -0.1682509267597351 0 -0.47328693949397721 -0.18411760774338479 0 -0.45860677246597031 -0.17520894370368309 0 -0.47328693949397721 -0.18411760774338479 0 -0.45860677246597031 -0.17520894370368309 0 -0.45906836497473352 -0.19043479360484361 0 -0.47738728335761421 -0.1682509267597351 0 -0.45860677246597031 -0.17520894370368309 0 -0.46278066629215481 -0.1610158872753634 0 -0.45860677246597031 -0.17520894370368309 0 -0.46278066629215481 -0.1610158872753634 0 -0.44631139980808621 -0.1631836851414229 0 -0.42880774722037651 -0.1679247830322266 0 -0.44631139980808621 -0.1631836851414229 0 -0.44134853753678083 -0.18159229851429221 0 -0.45860677246597031 -0.17520894370368309 0 -0.44631139980808621 -0.1631836851414229 0 -0.44134853753678083 -0.18159229851429221 0 -0.45860677246597031 -0.17520894370368309 0 -0.44134853753678083 -0.18159229851429221 0 -0.45906836497473352 -0.19043479360484361 0 -0.44134853753678083 -0.18159229851429221 0 -0.45906836497473352 -0.19043479360484361 0 -0.44134853753678083 -0.18159229851429221 0 -0.44484374680150301 -0.19597231310248839 0 -0.45906836497473352 -0.19043479360484361 0 -0.43155084310578928 -0.2059016662048701 0 -0.44484374680150301 -0.19597231310248839 0 -0.44343463088850471 -0.20721188330797369 0 -0.43155084310578928 -0.2059016662048701 0 -0.44343463088850471 -0.20721188330797369 0 -0.43955036875351089 -0.21658504913102711 0 -0.44343463088850471 -0.20721188330797369 0 -0.43955036875351089 -0.21658504913102711 0 -0.44966782191270221 -0.21345696714665749 0 -0.44966782191270221 -0.21345696714665749 0 -0.45691127413918359 -0.218140336649912 0 -0.44903912237987481 -0.22310222333220869 0 -0.43955036875351089 -0.21658504913102711 0 -0.44966782191270221 -0.21345696714665749 0 -0.44903912237987481 -0.22310222333220869 0 -0.44484374680150301 -0.19597231310248839 0 -0.44343463088850471 -0.20721188330797369 0 -0.45285363365211462 -0.2065344908709397 0 -0.44343463088850471 -0.20721188330797369 0 -0.44966782191270221 -0.21345696714665749 0 -0.45285363365211462 -0.2065344908709397 0 -0.45285363365211462 -0.2065344908709397 0 -0.4586721235044201 -0.2110072970525271 0 -0.46764984515344349 -0.20502399374505181 0 -0.44966782191270221 -0.21345696714665749 0 -0.45285363365211462 -0.2065344908709397 0 -0.4586721235044201 -0.2110072970525271 0 -0.44966782191270221 -0.21345696714665749 0 -0.4586721235044201 -0.2110072970525271 0 -0.45691127413918359 -0.218140336649912 0 -0.4586721235044201 -0.2110072970525271 0 -0.45691127413918359 -0.218140336649912 0 -0.46757130244775341 -0.21427176676618889 0 -0.4586721235044201 -0.2110072970525271 0 -0.46757130244775341 -0.21427176676618889 0 -0.46764984515344349 -0.20502399374505181 0 -0.44484374680150301 -0.19597231310248839 0 -0.46764984515344349 -0.20502399374505181 0 -0.45906836497473352 -0.19043479360484361 0 -0.44484374680150301 -0.19597231310248839 0 -0.45285363365211462 -0.2065344908709397 0 -0.46764984515344349 -0.20502399374505181 0 -0.45906836497473352 -0.19043479360484361 0 -0.47678819241268611 -0.1992772886953951 0 -0.44484374680150301 -0.19597231310248839 0 -0.46764984515344349 -0.20502399374505181 0 -0.46764984515344349 -0.20502399374505181 0 -0.45906836497473352 -0.19043479360484361 0 -0.47678819241268611 -0.1992772886953951 0 -0.47328693949397721 -0.18411760774338479 0 -0.45906836497473352 -0.19043479360484361 0 -0.47678819241268611 -0.1992772886953951 0 -0.48839409620634278 -0.18039624849769001 0 -0.47328693949397721 -0.18411760774338479 0 -0.47678819241268611 -0.1992772886953951 0 -0.48839409620634278 -0.18039624849769001 0 -0.47678819241268611 -0.1992772886953951 0 -0.47678819241268611 -0.1992772886953951 0 -0.48957789370491162 -0.19386933705848941 0 -0.50000000000000222 -0.21086037523234849 0 -0.48839409620634278 -0.18039624849769001 0 -0.47678819241268611 -0.1992772886953951 0 -0.48957789370491162 -0.19386933705848941 0 -0.5 -0.18618779176616679 0 -0.48957789370491162 -0.19386933705848941 0 -0.50000000000000222 -0.21086037523234849 0 -0.50000000000000222 -0.21086037523234849 0 -0.48101414991814051 -0.21220490785157131 0 -0.4775447229854059 -0.22535576830415929 0 -0.47678819241268611 -0.1992772886953951 0 -0.50000000000000222 -0.21086037523234849 0 -0.47678819241268611 -0.1992772886953951 0 -0.50000000000000222 -0.21086037523234849 0 -0.48101414991814051 -0.21220490785157131 0 -0.46757130244775341 -0.21427176676618889 0 -0.47678819241268611 -0.1992772886953951 0 -0.48101414991814051 -0.21220490785157131 0 -0.46757130244775341 -0.21427176676618889 0 -0.47678819241268611 -0.1992772886953951 0 -0.46757130244775341 -0.21427176676618889 0 -0.46764984515344349 -0.20502399374505181 0 -0.47678819241268611 -0.1992772886953951 0 -0.46757130244775341 -0.21427176676618889 0 -0.48101414991814051 -0.21220490785157131 0 -0.4775447229854059 -0.22535576830415929 0 -0.46757130244775341 -0.21427176676618889 0 -0.4775447229854059 -0.22535576830415929 0 -0.46571952953094348 -0.22577651025912229 0 -0.4775447229854059 -0.22535576830415929 0 -0.4726071657750785 -0.240360200228666 0 -0.45676275941016609 -0.23628729483617639 0 -0.50000000000000222 -0.21086037523234849 0 -0.4775447229854059 -0.22535576830415929 0 -0.48548116721245049 -0.23774912910784329 0 -0.50000000000000222 -0.21086037523234849 0 -0.5 -0.2401545466321974 0 -0.48548116721245049 -0.23774912910784329 0 -0.48050148842732221 -0.25523221810557922 0 -0.5 -0.2401545466321974 0 -0.48548116721245049 -0.23774912910784329 0 -0.48050148842732221 -0.25523221810557922 0 -0.4726071657750785 -0.240360200228666 0 -0.46267023581878858 -0.24817136713935201 0 -0.48050148842732221 -0.25523221810557922 0 -0.48548116721245049 -0.23774912910784329 0 -0.4726071657750785 -0.240360200228666 0 -0.4775447229854059 -0.22535576830415929 0 -0.48548116721245049 -0.23774912910784329 0 -0.4726071657750785 -0.240360200228666 0 -0.4726071657750785 -0.240360200228666 0 -0.46267023581878858 -0.24817136713935201 0 -0.45676275941016609 -0.23628729483617639 0 -0.46267023581878858 -0.24817136713935201 0 -0.45676275941016609 -0.23628729483617639 0 -0.45139902778349827 -0.24711062934306771 0 -0.4775447229854059 -0.22535576830415929 0 -0.45676275941016609 -0.23628729483617639 0 -0.46571952953094348 -0.22577651025912229 0 -0.4775447229854059 -0.22535576830415929 0 -0.45676275941016609 -0.23628729483617639 0 -0.46757130244775341 -0.21427176676618889 0 -0.45835441248282049 -0.22926624483698249 0 -0.45691127413918359 -0.218140336649912 0 -0.46757130244775341 -0.21427176676618889 0 -0.45835441248282049 -0.22926624483698249 0 -0.46757130244775341 -0.21427176676618889 0 -0.46571952953094348 -0.22577651025912229 0 -0.45835441248282049 -0.22926624483698249 0 -0.45691127413918359 -0.218140336649912 0 -0.45835441248282049 -0.22926624483698249 0 -0.44903912237987481 -0.22310222333220869 0 -0.45676275941016609 -0.23628729483617639 0 -0.46571952953094348 -0.22577651025912229 0 -0.45835441248282049 -0.22926624483698249 0 -0.45676275941016609 -0.23628729483617639 0 -0.45835441248282049 -0.22926624483698249 0 -0.44784406772060242 -0.23291584907632601 0 -0.45835441248282049 -0.22926624483698249 0 -0.44784406772060242 -0.23291584907632601 0 -0.44903912237987481 -0.22310222333220869 0 -0.44784406772060242 -0.23291584907632601 0 -0.44903912237987481 -0.22310222333220869 0 -0.43908324849522451 -0.2287046610080686 0 -0.43955036875351089 -0.21658504913102711 0 -0.44903912237987481 -0.22310222333220869 0 -0.43908324849522451 -0.2287046610080686 0 -0.43598079583492633 -0.24721882136819351 0 -0.44784406772060242 -0.23291584907632601 0 -0.43908324849522451 -0.2287046610080686 0 -0.43598079583492633 -0.24721882136819351 0 -0.45676275941016609 -0.23628729483617639 0 -0.45139902778349827 -0.24711062934306771 0 -0.43598079583492633 -0.24721882136819351 0 -0.45676275941016609 -0.23628729483617639 0 -0.44784406772060242 -0.23291584907632601 0 -0.43598079583492633 -0.24721882136819351 0 -0.45676275941016609 -0.23628729483617639 0 -0.41513049604948221 -0.033942569896895612 0 -0.42680670243505803 -0.034615113076212713 0 -0.40073055052989021 -0.025701474464423758 0 -0.41513049604948221 -0.033942569896895612 0 -0.42462943043776058 -0.041038039404546971 0 -0.40237332615973681 -0.030676944162886681 0 -0.42462943043776058 -0.041038039404546971 0 -0.40237332615973681 -0.030676944162886681 0 -0.41105872637709778 -0.041104419315527559 0 -0.42462943043776058 -0.041038039404546971 0 -0.40237332615973681 -0.030676944162886681 0 -0.41795689190558921 -0.046390941043723911 0 -0.41105872637709778 -0.041104419315527559 0 -0.42462943043776058 -0.041038039404546971 0 -0.41513049604948221 -0.033942569896895612 0 -0.42462943043776058 -0.041038039404546971 0 -0.4243569293735685 -0.037306081984415762 0 -0.41105872637709778 -0.041104419315527559 0 -0.4050251302254127 -0.045922345921936697 0 -0.40306291723554027 -0.039039715031688543 0 -0.41795689190558921 -0.046390941043723911 0 -0.41105872637709778 -0.041104419315527559 0 -0.41174405323292163 -0.047949206462353358 0 -0.41105872637709778 -0.041104419315527559 0 -0.41174405323292163 -0.047949206462353358 0 -0.4050251302254127 -0.045922345921936697 0 -0.41174405323292163 -0.047949206462353358 0 -0.4050251302254127 -0.045922345921936697 0 -0.40603099279739802 -0.054788986838451827 0 -0.41174405323292163 -0.047949206462353358 0 -0.4187470457232762 -0.053937065845881961 0 -0.40603099279739802 -0.054788986838451827 0 -0.4187470457232762 -0.053937065845881961 0 -0.40603099279739802 -0.054788986838451827 0 -0.41284572228237681 -0.064006668923108523 0 -0.4187470457232762 -0.053937065845881961 0 -0.41284572228237681 -0.064006668923108523 0 -0.42746868386642678 -0.066478460468227696 0 -0.41795689190558921 -0.046390941043723911 0 -0.41174405323292163 -0.047949206462353358 0 -0.4187470457232762 -0.053937065845881961 0 -0.41795689190558921 -0.046390941043723911 0 -0.4187470457232762 -0.053937065845881961 0 -0.42320145590089769 -0.048540393412862697 0 -0.42320145590089769 -0.048540393412862697 0 -0.43147245553696489 -0.05279552735729795 0 -0.42462943043776058 -0.041038039404546971 0 -0.4187470457232762 -0.053937065845881961 0 -0.42320145590089769 -0.048540393412862697 0 -0.43147245553696489 -0.05279552735729795 0 -0.43147245553696489 -0.05279552735729795 0 -0.42462943043776058 -0.041038039404546971 0 -0.44688553471578463 -0.051399134646207288 0 -0.4187470457232762 -0.053937065845881961 0 -0.43147245553696489 -0.05279552735729795 0 -0.42746868386642678 -0.066478460468227696 0 -0.43147245553696489 -0.05279552735729795 0 -0.42746868386642678 -0.066478460468227696 0 -0.43950717444435422 -0.063784996514660589 0 -0.42818951741271921 -0.038310772776573528 0 -0.43628267576141971 -0.035329403205585218 0 -0.44688553471578463 -0.051399134646207288 0 -0.42462943043776058 -0.041038039404546971 0 -0.42818951741271921 -0.038310772776573528 0 -0.44688553471578463 -0.051399134646207288 0 -0.42462943043776058 -0.041038039404546971 0 -0.44688553471578463 -0.051399134646207288 0 -0.41795689190558921 -0.046390941043723911 0 -0.42320145590089769 -0.048540393412862697 0 -0.42462943043776058 -0.041038039404546971 0 -0.41513049604948221 -0.033942569896895612 0 -0.4243569293735685 -0.037306081984415762 0 -0.42680670243505803 -0.034615113076212713 0 -0.42462943043776058 -0.041038039404546971 0 -0.4243569293735685 -0.037306081984415762 0 -0.42818951741271921 -0.038310772776573528 0 -0.42818951741271921 -0.038310772776573528 0 -0.42680670243505803 -0.034615113076212713 0 -0.4243569293735685 -0.037306081984415762 0 -0.42818951741271921 -0.038310772776573528 0 -0.42680670243505803 -0.034615113076212713 0 -0.42818951741271921 -0.038310772776573528 0 -0.42680670243505803 -0.034615113076212713 0 -0.42995577540377822 -0.032900560567165532 0 -0.42818951741271921 -0.038310772776573528 0 -0.42995577540377822 -0.032900560567165532 0 -0.43628267576141971 -0.035329403205585218 0 -0.42995577540377822 -0.032900560567165532 0 -0.43628267576141971 -0.035329403205585218 0 -0.4327931004709421 -0.029092843067932112 0 -0.42680670243505803 -0.034615113076212713 0 -0.4285090787839364 -0.025262373234060161 0 -0.41794895562780338 -0.01094222954485795 0 -0.42680670243505803 -0.034615113076212713 0 -0.41794895562780338 -0.01094222954485795 0 -0.43628267576141971 -0.035329403205585218 0 -0.4327931004709421 -0.029092843067932112 0 -0.43710875721387199 -0.026668229939385779 0 -0.42995577540377822 -0.032900560567165532 0 -0.4327931004709421 -0.029092843067932112 0 -0.4285090787839364 -0.025262373234060161 0 -0.43210921519170409 -0.025303648393463829 0 -0.43710875721387199 -0.026668229939385779 0 -0.43108579893039811 -0.01948839847471974 0 -0.4327931004709421 -0.029092843067932112 0 -0.43210921519170409 -0.025303648393463829 0 -0.4285090787839364 -0.025262373234060161 0 -0.4327931004709421 -0.029092843067932112 0 -0.43210921519170409 -0.025303648393463829 0 -0.43710875721387199 -0.026668229939385779 0 -0.43108579893039811 -0.01948839847471974 0 -0.43397544616601241 -0.014244232554068349 0 -0.43928417642389239 -0.017661557407765791 0 -0.43710875721387199 -0.026668229939385779 0 -0.43108579893039811 -0.01948839847471974 0 -0.43928417642389239 -0.017661557407765791 0 -0.43210921519170409 -0.025303648393463829 0 -0.43108579893039811 -0.01948839847471974 0 -0.4285090787839364 -0.025262373234060161 0 -0.43108579893039811 -0.01948839847471974 0 -0.4285090787839364 -0.025262373234060161 0 -0.41794895562780338 -0.01094222954485795 0 -0.42680670243505803 -0.034615113076212713 0 -0.42995577540377822 -0.032900560567165532 0 -0.4285090787839364 -0.025262373234060161 0 -0.43591977417237449 -0.008065469867085449 0 -0.42907061680018699 -0.010664914002041091 0 -0.42583279771702431 0.00046528033667210148 0 -0.43108579893039811 -0.01948839847471974 0 -0.43397544616601241 -0.014244232554068349 0 -0.42907061680018699 -0.010664914002041091 0 -0.43591977417237449 -0.008065469867085449 0 -0.43397544616601241 -0.014244232554068349 0 -0.43928417642389239 -0.017661557407765791 0 -0.43591977417237449 -0.008065469867085449 0 -0.43397544616601241 -0.014244232554068349 0 -0.42907061680018699 -0.010664914002041091 0 -0.43108579893039811 -0.01948839847471974 0 -0.42907061680018699 -0.010664914002041091 0 -0.41794895562780338 -0.01094222954485795 0 -0.42907061680018699 -0.010664914002041091 0 -0.41794895562780338 -0.01094222954485795 0 -0.42583279771702431 0.00046528033667210148 0 -0.41794895562780338 -0.01094222954485795 0 -0.4102220184461346 -0.019351118920435541 0 -0.40021295305484711 -0.013852611056198059 0 -0.41794895562780338 -0.01094222954485795 0 -0.40352261506359649 -0.001038070178381474 0 -0.40021295305484711 -0.013852611056198059 0 -0.42680670243505803 -0.034615113076212713 0 -0.41794895562780338 -0.01094222954485795 0 -0.4102220184461346 -0.019351118920435541 0 -0.42680670243505803 -0.034615113076212713 0 -0.4102220184461346 -0.019351118920435541 0 -0.40073055052989021 -0.025701474464423758 0 -0.42680670243505803 -0.034615113076212713 0 -0.40073055052989021 -0.025701474464423758 0 -0.41513049604948221 -0.033942569896895612 0 -0.40073055052989021 -0.025701474464423758 0 -0.40237332615973681 -0.030676944162886681 0 -0.40073055052989021 -0.025701474464423758 0 -0.40237332615973681 -0.030676944162886681 0 -0.38011722188171299 -0.020315848921226409 0 -0.40237332615973681 -0.030676944162886681 0 -0.38011722188171299 -0.020315848921226409 0 -0.4102220184461346 -0.019351118920435541 0 -0.40073055052989021 -0.025701474464423758 0 -0.40021295305484711 -0.013852611056198059 0 -0.40073055052989021 -0.025701474464423758 0 -0.40021295305484711 -0.013852611056198059 0 -0.38745402304870558 -0.01483805838738575 0 -0.40352261506359649 -0.001038070178381474 0 -0.40021295305484711 -0.013852611056198059 0 -0.39408165103759368 -0.0019794594859314238 0 -0.40021295305484711 -0.013852611056198059 0 -0.39408165103759368 -0.0019794594859314238 0 -0.39005949432245718 -0.0085411321607220259 0 -0.40021295305484711 -0.013852611056198059 0 -0.39005949432245718 -0.0085411321607220259 0 -0.38745402304870558 -0.01483805838738575 0 -0.39408165103759368 -0.0019794594859314238 0 -0.3848191179490616 -0.0027051675553946518 0 -0.39005949432245718 -0.0085411321607220259 0 -0.3848191179490616 -0.0027051675553946518 0 -0.38372972652207787 -0.0093303643187002475 0 -0.39005949432245718 -0.0085411321607220259 0 -0.38372972652207787 -0.0093303643187002475 0 -0.38745402304870558 -0.01483805838738575 0 -0.3791207175096093 -0.01135650732177081 0 -0.38372972652207787 -0.0093303643187002475 0 -0.39005949432245718 -0.0085411321607220259 0 -0.38745402304870558 -0.01483805838738575 0 -0.37465439862472261 -0.016787835852634068 0 -0.37464851222799189 -0.0076089195940836872 0 -0.3791207175096093 -0.01135650732177081 0 -0.37465439862472261 -0.016787835852634068 0 -0.38745402304870558 -0.01483805838738575 0 -0.3791207175096093 -0.01135650732177081 0 -0.37464851222799189 -0.0076089195940836872 0 -0.3791207175096093 -0.01135650732177081 0 -0.37960876280762101 -0.0064231604720931881 0 -0.38372972652207787 -0.0093303643187002475 0 -0.3791207175096093 -0.01135650732177081 0 -0.37960876280762101 -0.0064231604720931881 0 -0.3848191179490616 -0.0027051675553946518 0 -0.38372972652207787 -0.0093303643187002475 0 -0.37960876280762101 -0.0064231604720931881 0 -0.37464851222799189 -0.0076089195940836872 0 -0.37960876280762101 -0.0064231604720931881 0 -0.37774077980655368 -0.001289555558904682 0 -0.3848191179490616 -0.0027051675553946518 0 -0.37960876280762101 -0.0064231604720931881 0 -0.37774077980655368 -0.001289555558904682 0 -0.37465439862472261 -0.016787835852634068 0 -0.40073055052989021 -0.025701474464423758 0 -0.38745402304870558 -0.01483805838738575 0 -0.40237332615973681 -0.030676944162886681 0 -0.38781453024876661 -0.02996800237218563 0 -0.38011722188171299 -0.020315848921226409 0 -0.37465439862472261 -0.016787835852634068 0 -0.40073055052989021 -0.025701474464423758 0 -0.38011722188171299 -0.020315848921226409 0 -0.37465439862472261 -0.016787835852634068 0 -0.40073055052989021 -0.025701474464423758 0 -0.37402384376206249 -0.023759624541515059 0 -0.37465439862472261 -0.016787835852634068 0 -0.38011722188171299 -0.020315848921226409 0 -0.37402384376206249 -0.023759624541515059 0 -0.38011722188171299 -0.020315848921226409 0 -0.37866743010551202 -0.02906954498465647 0 -0.38781453024876661 -0.02996800237218563 0 -0.38011722188171299 -0.020315848921226409 0 -0.37866743010551202 -0.02906954498465647 0 -0.37439980638912518 -0.038891661293645137 0 -0.37866743010551202 -0.02906954498465647 0 -0.38394575501216083 -0.036535335565972972 0 -0.37439980638912518 -0.038891661293645137 0 -0.37993408630244868 -0.045501240077299353 0 -0.38394575501216083 -0.036535335565972972 0 -0.37085155020467431 -0.050438611479832557 0 -0.37439980638912518 -0.038891661293645137 0 -0.37993408630244868 -0.045501240077299353 0 -0.37993408630244868 -0.045501240077299353 0 -0.38895054345211377 -0.045335196083553769 0 -0.38394575501216083 -0.036535335565972972 0 -0.38895054345211377 -0.045335196083553769 0 -0.38394575501216083 -0.036535335565972972 0 -0.39396365166307989 -0.03445798481758762 0 -0.38781453024876661 -0.02996800237218563 0 -0.38394575501216083 -0.036535335565972972 0 -0.39396365166307989 -0.03445798481758762 0 -0.38781453024876661 -0.02996800237218563 0 -0.37866743010551202 -0.02906954498465647 0 -0.38394575501216083 -0.036535335565972972 0 -0.40237332615973681 -0.030676944162886681 0 -0.38781453024876661 -0.02996800237218563 0 -0.39396365166307989 -0.03445798481758762 0 -0.39396365166307989 -0.03445798481758762 0 -0.39750411751227832 -0.042292212187568533 0 -0.39928834571923882 -0.035924112998793431 0 -0.38895054345211377 -0.045335196083553769 0 -0.39396365166307989 -0.03445798481758762 0 -0.39750411751227832 -0.042292212187568533 0 -0.39750411751227832 -0.042292212187568533 0 -0.4050251302254127 -0.045922345921936697 0 -0.40306291723554027 -0.039039715031688543 0 -0.39750411751227832 -0.042292212187568533 0 -0.40306291723554027 -0.039039715031688543 0 -0.39928834571923882 -0.035924112998793431 0 -0.40237332615973681 -0.030676944162886681 0 -0.39396365166307989 -0.03445798481758762 0 -0.39928834571923882 -0.035924112998793431 0 -0.41105872637709778 -0.041104419315527559 0 -0.40237332615973681 -0.030676944162886681 0 -0.40306291723554027 -0.039039715031688543 0 -0.40237332615973681 -0.030676944162886681 0 -0.40306291723554027 -0.039039715031688543 0 -0.39928834571923882 -0.035924112998793431 0 -0.40603099279739802 -0.054788986838451827 0 -0.39527915405366182 -0.064437672488960096 0 -0.41284572228237681 -0.064006668923108523 0 -0.40603099279739802 -0.054788986838451827 0 -0.39443592701229091 -0.053019652188425637 0 -0.39527915405366182 -0.064437672488960096 0 -0.4050251302254127 -0.045922345921936697 0 -0.40603099279739802 -0.054788986838451827 0 -0.39443592701229091 -0.053019652188425637 0 -0.39750411751227832 -0.042292212187568533 0 -0.4050251302254127 -0.045922345921936697 0 -0.39443592701229091 -0.053019652188425637 0 -0.38895054345211377 -0.045335196083553769 0 -0.39750411751227832 -0.042292212187568533 0 -0.39443592701229091 -0.053019652188425637 0 -0.39443592701229091 -0.053019652188425637 0 -0.38221605892473098 -0.056125323053866277 0 -0.39527915405366182 -0.064437672488960096 0 -0.36608399240098949 -0.063120758007335118 0 -0.38221605892473098 -0.056125323053866277 0 -0.37978412082390189 -0.068029865631836883 0 -0.38895054345211377 -0.045335196083553769 0 -0.39443592701229091 -0.053019652188425637 0 -0.38221605892473098 -0.056125323053866277 0 -0.37993408630244868 -0.045501240077299353 0 -0.38895054345211377 -0.045335196083553769 0 -0.38221605892473098 -0.056125323053866277 0 -0.37085155020467431 -0.050438611479832557 0 -0.37993408630244868 -0.045501240077299353 0 -0.38221605892473098 -0.056125323053866277 0 -0.36843110820579178 -0.075527255856609146 0 -0.37978412082390189 -0.068029865631836883 0 -0.38691029053433551 -0.080938318752413793 0 -0.37978412082390189 -0.068029865631836883 0 -0.38691029053433551 -0.080938318752413793 0 -0.39527915405366182 -0.064437672488960096 0 -0.38221605892473098 -0.056125323053866277 0 -0.37978412082390189 -0.068029865631836883 0 -0.39527915405366182 -0.064437672488960096 0 -0.37380044498630338 -0.100392191664622 0 -0.36747037526515469 -0.088210616938563927 0 -0.38691029053433551 -0.080938318752413793 0 -0.36843110820579178 -0.075527255856609146 0 -0.38691029053433551 -0.080938318752413793 0 -0.40007542381043809 -0.086939242353532731 0 -0.39460333317738627 -0.1006873657273652 0 -0.41352047356827321 -0.0909948847898496 0 -0.38691029053433551 -0.080938318752413793 0 -0.40007542381043809 -0.086939242353532731 0 -0.40767355229219521 -0.074626636544090755 0 -0.38691029053433551 -0.080938318752413793 0 -0.40007542381043809 -0.086939242353532731 0 -0.39460333317738627 -0.1006873657273652 0 -0.38691029053433551 -0.080938318752413793 0 -0.39527915405366182 -0.064437672488960096 0 -0.40767355229219521 -0.074626636544090755 0 -0.39527915405366182 -0.064437672488960096 0 -0.41284572228237681 -0.064006668923108523 0 -0.40767355229219521 -0.074626636544090755 0 -0.36893450279197471 -0.1249528869149899 0 -0.3789649235099295 -0.11270856972454819 0 -0.39514760223357998 -0.1249586529677193 0 -0.36893450279197471 -0.1249528869149899 0 -0.39514760223357998 -0.1249586529677193 0 -0.3789649235099295 -0.11270856972454819 0 -0.39460333317738627 -0.1006873657273652 0 -0.39514760223357998 -0.1249586529677193 0 -0.37380044498630338 -0.100392191664622 0 -0.38691029053433551 -0.080938318752413793 0 -0.39460333317738627 -0.1006873657273652 0 -0.37380044498630338 -0.100392191664622 0 -0.3789649235099295 -0.11270856972454819 0 -0.39460333317738627 -0.1006873657273652 0 -0.39460333317738627 -0.1006873657273652 0 -0.39514760223357998 -0.1249586529677193 0 -0.4114708495464785 -0.1093321351213095 0 -0.42136070167518519 -0.1249644190204488 0 -0.4114708495464785 -0.1093321351213095 0 -0.43272213707796769 -0.1050553531011644 0 -0.39514760223357998 -0.1249586529677193 0 -0.42136070167518519 -0.1249644190204488 0 -0.39514760223357998 -0.1249586529677193 0 -0.42136070167518519 -0.1249644190204488 0 -0.4114708495464785 -0.1093321351213095 0 -0.39460333317738627 -0.1006873657273652 0 -0.4114708495464785 -0.1093321351213095 0 -0.41352047356827321 -0.0909948847898496 0 -0.4114708495464785 -0.1093321351213095 0 -0.43272213707796769 -0.1050553531011644 0 -0.41352047356827321 -0.0909948847898496 0 -0.42136070167518519 -0.1249644190204488 0 -0.43272213707796769 -0.1050553531011644 0 -0.44757380111679052 -0.12497018507317829 0 -0.42136070167518519 -0.1249644190204488 0 -0.44757380111679052 -0.12497018507317829 0 -0.42023793718526542 -0.076451056482049876 0 -0.41284572228237681 -0.064006668923108523 0 -0.42746868386642678 -0.066478460468227696 0 -0.42023793718526542 -0.076451056482049876 0 -0.41284572228237681 -0.064006668923108523 0 -0.40767355229219521 -0.074626636544090755 0 -0.42023793718526542 -0.076451056482049876 0 -0.40767355229219521 -0.074626636544090755 0 -0.41352047356827321 -0.0909948847898496 0 -0.40007542381043809 -0.086939242353532731 0 -0.40767355229219521 -0.074626636544090755 0 -0.41352047356827321 -0.0909948847898496 0 -0.42023793718526542 -0.076451056482049876 0 -0.41352047356827321 -0.0909948847898496 0 -0.43051036701793649 -0.083964229305721505 0 -0.43272213707796769 -0.1050553531011644 0 -0.41352047356827321 -0.0909948847898496 0 -0.43051036701793649 -0.083964229305721505 0 -0.43272213707796769 -0.1050553531011644 0 -0.43051036701793649 -0.083964229305721505 0 -0.44869793539396702 -0.090613631575090198 0 -0.43051036701793649 -0.083964229305721505 0 -0.42746868386642678 -0.066478460468227696 0 -0.43938561630945938 -0.075374003134316428 0 -0.42023793718526542 -0.076451056482049876 0 -0.43051036701793649 -0.083964229305721505 0 -0.42746868386642678 -0.066478460468227696 0 -0.42746868386642678 -0.066478460468227696 0 -0.43950717444435422 -0.063784996514660589 0 -0.43938561630945938 -0.075374003134316428 0 -0.43950717444435422 -0.063784996514660589 0 -0.45074392082461212 -0.072028697807882153 0 -0.43938561630945938 -0.075374003134316428 0 -0.43051036701793649 -0.083964229305721505 0 -0.43938561630945938 -0.075374003134316428 0 -0.44869793539396702 -0.090613631575090198 0 -0.45074392082461212 -0.072028697807882153 0 -0.43938561630945938 -0.075374003134316428 0 -0.44869793539396702 -0.090613631575090198 0 -0.45074392082461212 -0.072028697807882153 0 -0.44869793539396702 -0.090613631575090198 0 -0.4647336852437608 -0.080388630180202481 0 -0.44869793539396702 -0.090613631575090198 0 -0.4647336852437608 -0.080388630180202481 0 -0.47380622041468068 -0.096022360055862885 0 -0.4647336852437608 -0.080388630180202481 0 -0.46264955769922828 -0.069236149835977229 0 -0.47254815090776853 -0.069469283055039688 0 -0.45074392082461212 -0.072028697807882153 0 -0.46264955769922828 -0.069236149835977229 0 -0.44688553471578463 -0.051399134646207288 0 -0.46264955769922828 -0.069236149835977229 0 -0.47254815090776853 -0.069469283055039688 0 -0.46914163899380801 -0.061760229887868598 0 -0.45074392082461212 -0.072028697807882153 0 -0.4647336852437608 -0.080388630180202481 0 -0.46264955769922828 -0.069236149835977229 0 -0.43272213707796769 -0.1050553531011644 0 -0.44757380111679052 -0.12497018507317829 0 -0.46022938895027038 -0.10869066194517669 0 -0.43272213707796769 -0.1050553531011644 0 -0.44869793539396702 -0.090613631575090198 0 -0.46022938895027038 -0.10869066194517669 0 -0.44869793539396702 -0.090613631575090198 0 -0.46022938895027038 -0.10869066194517669 0 -0.47380622041468068 -0.096022360055862885 0 -0.44757380111679052 -0.12497018507317829 0 -0.47378690055839578 -0.1249759511259078 0 -0.44757380111679052 -0.12497018507317829 0 -0.46022938895027038 -0.10869066194517669 0 -0.47378690055839578 -0.1249759511259078 0 -0.46022938895027038 -0.10869066194517669 0 -0.47378690055839578 -0.1249759511259078 0 -0.48374478807960558 -0.1092121363906397 0 -0.46022938895027038 -0.10869066194517669 0 -0.48374478807960558 -0.1092121363906397 0 -0.47380622041468068 -0.096022360055862885 0 -0.48374478807960558 -0.1092121363906397 0 -0.47380622041468068 -0.096022360055862885 0 -0.48832582805197727 -0.092109142267116931 0 -0.48374478807960558 -0.1092121363906397 0 -0.5 -0.10055386622176241 0 -0.48832582805197727 -0.092109142267116931 0 -0.47378690055839578 -0.1249759511259078 0 -0.48374478807960558 -0.1092121363906397 0 -0.50000000000000111 -0.12498171717863731 0 -0.48374478807960558 -0.1092121363906397 0 -0.5 -0.10055386622176241 0 -0.50000000000000111 -0.12498171717863731 0 -0.47378690055839578 -0.1249759511259078 0 -0.50000000000000111 -0.12498171717863731 0 -0.47254815090776853 -0.069469283055039688 0 -0.47913967023945842 -0.082463322467565006 0 -0.48457081949690362 -0.068943122576377761 0 -0.47913967023945842 -0.082463322467565006 0 -0.48808502354595151 -0.080031310268457945 0 -0.48457081949690362 -0.068943122576377761 0 -0.48457081949690362 -0.068943122576377761 0 -0.46914163899380801 -0.061760229887868598 0 -0.48457081949690362 -0.068943122576377761 0 -0.48230491698392047 -0.057318093012348498 0 -0.46914163899380801 -0.061760229887868598 0 -0.47254815090776853 -0.069469283055039688 0 -0.48457081949690362 -0.068943122576377761 0 -0.46914163899380801 -0.061760229887868598 0 -0.47254815090776853 -0.069469283055039688 0 -0.46914163899380801 -0.061760229887868598 0 -0.4647336852437608 -0.080388630180202481 0 -0.47254815090776853 -0.069469283055039688 0 -0.47913967023945842 -0.082463322467565006 0 -0.4647336852437608 -0.080388630180202481 0 -0.47380622041468068 -0.096022360055862885 0 -0.47913967023945842 -0.082463322467565006 0 -0.47380622041468068 -0.096022360055862885 0 -0.47913967023945842 -0.082463322467565006 0 -0.48832582805197727 -0.092109142267116931 0 -0.5 -0.10055386622176241 0 -0.48832582805197727 -0.092109142267116931 0 -0.499999999999999 -0.07612601526488752 0 -0.48808502354595151 -0.080031310268457945 0 -0.48832582805197727 -0.092109142267116931 0 -0.499999999999999 -0.07612601526488752 0 -0.47913967023945842 -0.082463322467565006 0 -0.48808502354595151 -0.080031310268457945 0 -0.48832582805197727 -0.092109142267116931 0 -0.499999999999999 -0.07612601526488752 0 -0.48457081949690362 -0.068943122576377761 0 -0.499999999999999 -0.07612601526488752 0 -0.48457081949690362 -0.068943122576377761 0 -0.5 -0.055081012739928707 0 -0.48808502354595151 -0.080031310268457945 0 -0.499999999999999 -0.07612601526488752 0 -0.48457081949690362 -0.068943122576377761 0 -0.48457081949690362 -0.068943122576377761 0 -0.5 -0.055081012739928707 0 -0.48230491698392047 -0.057318093012348498 0 -0.5 -0.055081012739928707 0 -0.48157039955536241 -0.044558511477442143 0 -0.48230491698392047 -0.057318093012348498 0 -0.5 -0.055081012739928707 0 -0.500000000000004 -0.034036010214970061 0 -0.48157039955536241 -0.044558511477442143 0 -0.500000000000004 -0.034036010214970061 0 -0.48157039955536241 -0.044558511477442143 0 -0.48148290990478199 -0.029591545163434652 0 -0.48157039955536241 -0.044558511477442143 0 -0.45768975774058179 -0.035844230274481748 0 -0.48148290990478199 -0.029591545163434652 0 -0.48157039955536241 -0.044558511477442143 0 -0.46914163899380801 -0.061760229887868598 0 -0.45768975774058179 -0.035844230274481748 0 -0.48157039955536241 -0.044558511477442143 0 -0.48230491698392047 -0.057318093012348498 0 -0.46914163899380801 -0.061760229887868598 0 -0.46914163899380801 -0.061760229887868598 0 -0.45768975774058179 -0.035844230274481748 0 -0.44688553471578463 -0.051399134646207288 0 -0.46914163899380801 -0.061760229887868598 0 -0.45768975774058179 -0.035844230274481748 0 -0.46264955769922828 -0.069236149835977229 0 -0.46914163899380801 -0.061760229887868598 0 -0.44688553471578463 -0.051399134646207288 0 -0.46914163899380801 -0.061760229887868598 0 -0.44688553471578463 -0.051399134646207288 0 -0.43628267576141971 -0.035329403205585218 0 -0.44354830351403418 -0.034418653902415733 0 -0.44688553471578463 -0.051399134646207288 0 -0.45768975774058179 -0.035844230274481748 0 -0.44354830351403418 -0.034418653902415733 0 -0.44688553471578463 -0.051399134646207288 0 -0.45768975774058179 -0.035844230274481748 0 -0.44354830351403418 -0.034418653902415733 0 -0.44312252706978628 -0.024928407146411868 0 -0.43628267576141971 -0.035329403205585218 0 -0.43710875721387199 -0.026668229939385779 0 -0.44354830351403418 -0.034418653902415733 0 -0.43950717444435422 -0.063784996514660589 0 -0.45074392082461212 -0.072028697807882153 0 -0.44688553471578463 -0.051399134646207288 0 -0.43147245553696489 -0.05279552735729795 0 -0.43950717444435422 -0.063784996514660589 0 -0.44688553471578463 -0.051399134646207288 0 -0.43591977417237449 -0.008065469867085449 0 -0.44623787648735791 -0.0099282306610938807 0 -0.43740981058492812 0.01004998492246997 0 -0.43591977417237449 -0.008065469867085449 0 -0.44623787648735791 -0.0099282306610938807 0 -0.43928417642389239 -0.017661557407765791 0 -0.43591977417237449 -0.008065469867085449 0 -0.44623787648735791 -0.0099282306610938807 0 -0.43710875721387199 -0.026668229939385779 0 -0.43928417642389239 -0.017661557407765791 0 -0.44312252706978628 -0.024928407146411868 0 -0.45768975774058179 -0.035844230274481748 0 -0.44623787648735791 -0.0099282306610938807 0 -0.44312252706978628 -0.024928407146411868 0 -0.45768975774058179 -0.035844230274481748 0 -0.44623787648735791 -0.0099282306610938807 0 -0.44623787648735791 -0.0099282306610938807 0 -0.43928417642389239 -0.017661557407765791 0 -0.44312252706978628 -0.024928407146411868 0 -0.43710875721387199 -0.026668229939385779 0 -0.44354830351403418 -0.034418653902415733 0 -0.44312252706978628 -0.024928407146411868 0 -0.45768975774058179 -0.035844230274481748 0 -0.44623787648735791 -0.0099282306610938807 0 -0.47146408957177099 -0.01448240150379307 0 -0.44623787648735791 -0.0099282306610938807 0 -0.47146408957177099 -0.01448240150379307 0 -0.44623787648735791 -0.0099282306610938807 0 -0.47146408957177099 -0.01448240150379307 0 -0.46048772545436639 0.0043098071123656434 0 -0.47146408957177099 -0.01448240150379307 0 -0.47882554305316488 -0.0018417715126103191 0 -0.46048772545436639 0.0043098071123656434 0 -0.47146408957177099 -0.01448240150379307 0 -0.47882554305316488 -0.0018417715126103191 0 -0.49669030265618502 -0.01903657234648758 0 -0.47146408957177099 -0.01448240150379307 0 -0.49669030265618502 -0.01903657234648758 0 -0.47146408957177099 -0.01448240150379307 0 -0.48148290990478199 -0.029591545163434652 0 -0.49669030265618502 -0.01903657234648758 0 -0.45768975774058179 -0.035844230274481748 0 -0.47146408957177099 -0.01448240150379307 0 -0.48148290990478199 -0.029591545163434652 0 -0.500000000000004 -0.034036010214970061 0 -0.48148290990478199 -0.029591545163434652 0 -0.49669030265618502 -0.01903657234648758 0 -0.49669030265618502 -0.01903657234648758 0 -0.50000000000000056 -0.019634082844440681 0 -0.500000000000004 -0.034036010214970061 0 -0.49669030265618502 -0.01903657234648758 0 -0.500000000000004 -0.034036010214970061 0 -0.49669030265618502 -0.01903657234648758 0 -0.50000000000000056 -0.019634082844440681 0 -0.47882554305316488 -0.0018417715126103191 0 -0.49669030265618502 -0.01903657234648758 0 -0.49160980924365538 0.0039880541876541054 0 -0.49669030265618502 -0.01903657234648758 0 -0.49160980924365538 0.0039880541876541054 0 -0.49669030265618502 -0.01903657234648758 0 -0.50000000000000056 -0.019634082844440681 0 -0.49160980924365538 0.0039880541876541054 0 -0.50000000000000056 -0.019634082844440681 0 -0.49160980924365538 0.0039880541876541054 0 -0.50000000000000033 0.009303662189531537 0 -0.49160980924365538 0.0039880541876541054 0 -0.48652931583112352 0.027012680721795381 0 -0.49160980924365538 0.0039880541876541054 0 -0.50000000000000033 0.009303662189531537 0 -0.48652931583112352 0.027012680721795381 0 -0.50000000000000033 0.009303662189531537 0 -0.5 0.03611151152349279 0 -0.49175907743105379 0.031398254416965428 0 -0.50000000000000033 0.009303662189531537 0 -0.49175907743105379 0.031398254416965428 0 -0.50000000000000033 0.009303662189531537 0 -0.48652931583112352 0.027012680721795381 0 -0.49175907743105379 0.031398254416965428 0 -0.48652931583112352 0.027012680721795381 0 -0.47387578833984401 0.016012254987208822 0 -0.46815351836101687 0.031449839152918539 0 -0.49160980924365538 0.0039880541876541054 0 -0.48652931583112352 0.027012680721795381 0 -0.47387578833984401 0.016012254987208822 0 -0.47882554305316488 -0.0018417715126103191 0 -0.49160980924365538 0.0039880541876541054 0 -0.47387578833984401 0.016012254987208822 0 -0.47882554305316488 -0.0018417715126103191 0 -0.47387578833984401 0.016012254987208822 0 -0.46048772545436639 0.0043098071123656434 0 -0.49282352307895688 0.045257754500502748 0 -0.5 0.03611151152349279 0 -0.5 0.062919360857453976 0 -0.49282352307895688 0.045257754500502748 0 -0.48351815486210709 0.053492846644399093 0 -0.5 0.062919360857453976 0 -0.49175907743105379 0.031398254416965428 0 -0.48144882241859149 0.050037307255936581 0 -0.48351815486210709 0.053492846644399093 0 -0.48652931583112352 0.027012680721795381 0 -0.49175907743105379 0.031398254416965428 0 -0.48144882241859149 0.050037307255936581 0 -0.49175907743105379 0.031398254416965428 0 -0.48351815486210709 0.053492846644399093 0 -0.49282352307895688 0.045257754500502748 0 -0.49175907743105379 0.031398254416965428 0 -0.48351815486210709 0.053492846644399093 0 -0.49282352307895688 0.045257754500502748 0 -0.5 0.03611151152349279 0 -0.49175907743105379 0.031398254416965428 0 -0.48144882241859149 0.050037307255936581 0 -0.4639696453013944 0.043374392403556838 0 -0.46815351836101687 0.031449839152918539 0 -0.48652931583112352 0.027012680721795381 0 -0.48144882241859149 0.050037307255936581 0 -0.48652931583112352 0.027012680721795381 0 -0.48144882241859149 0.050037307255936581 0 -0.46815351836101687 0.031449839152918539 0 -0.48144882241859149 0.050037307255936581 0 -0.45709786057011947 0.055708105081253657 0 -0.47636832900606041 0.073061933790077832 0 -0.48144882241859149 0.050037307255936581 0 -0.48351815486210709 0.053492846644399093 0 -0.47636832900606041 0.073061933790077832 0 -0.48144882241859149 0.050037307255936581 0 -0.47636832900606041 0.073061933790077832 0 -0.48144882241859149 0.050037307255936581 0 -0.45709786057011947 0.055708105081253657 0 -0.4639696453013944 0.043374392403556838 0 -0.45709786057011947 0.055708105081253657 0 -0.4639696453013944 0.043374392403556838 0 -0.45299045524759751 0.034902057762674861 0 -0.4639696453013944 0.043374392403556838 0 -0.46815351836101687 0.031449839152918539 0 -0.45299045524759751 0.034902057762674861 0 -0.46815351836101687 0.031449839152918539 0 -0.45299045524759751 0.034902057762674861 0 -0.45709786057011947 0.055708105081253657 0 -0.45299045524759751 0.034902057762674861 0 -0.43782739213417787 0.038354276372430232 0 -0.45299045524759751 0.034902057762674861 0 -0.43782739213417787 0.038354276372430232 0 -0.45299045524759751 0.034902057762674861 0 -0.43782739213417787 0.038354276372430232 0 -0.44297011017848281 0.02707887027054981 0 -0.45709786057011947 0.055708105081253657 0 -0.43782739213417787 0.038354276372430232 0 -0.43187248081207541 0.055496176207803817 0 -0.45709786057011947 0.055708105081253657 0 -0.43782739213417787 0.038354276372430232 0 -0.45709786057011947 0.055708105081253657 0 -0.43187248081207541 0.055496176207803817 0 -0.43763284036668942 0.072255399145110422 0 -0.47387578833984401 0.016012254987208822 0 -0.46048772545436639 0.0043098071123656434 0 -0.45598123469437257 0.020633802368031268 0 -0.47387578833984401 0.016012254987208822 0 -0.46815351836101687 0.031449839152918539 0 -0.45598123469437257 0.020633802368031268 0 -0.46815351836101687 0.031449839152918539 0 -0.45299045524759751 0.034902057762674861 0 -0.45598123469437257 0.020633802368031268 0 -0.45598123469437257 0.020633802368031268 0 -0.44297011017848281 0.02707887027054981 0 -0.43740981058492812 0.01004998492246997 0 -0.45299045524759751 0.034902057762674861 0 -0.45598123469437257 0.020633802368031268 0 -0.44297011017848281 0.02707887027054981 0 -0.46048772545436639 0.0043098071123656434 0 -0.45598123469437257 0.020633802368031268 0 -0.43740981058492812 0.01004998492246997 0 -0.44623787648735791 -0.0099282306610938807 0 -0.46048772545436639 0.0043098071123656434 0 -0.43740981058492812 0.01004998492246997 0 -0.44623787648735791 -0.0099282306610938807 0 -0.43740981058492812 0.01004998492246997 0 -0.43591977417237449 -0.008065469867085449 0 -0.43740981058492812 0.01004998492246997 0 -0.42583279771702431 0.00046528033667210148 0 -0.43740981058492812 0.01004998492246997 0 -0.42292027786463471 0.01349413118407828 0 -0.42583279771702431 0.00046528033667210148 0 -0.41794895562780338 -0.01094222954485795 0 -0.40909120882054839 0.01273065398649661 0 -0.41794895562780338 -0.01094222954485795 0 -0.40352261506359649 -0.001038070178381474 0 -0.40909120882054839 0.01273065398649661 0 -0.42292027786463471 0.01349413118407828 0 -0.42583279771702431 0.00046528033667210148 0 -0.40909120882054839 0.01273065398649661 0 -0.41794895562780338 -0.01094222954485795 0 -0.42583279771702431 0.00046528033667210148 0 -0.40909120882054839 0.01273065398649661 0 -0.40909120882054839 0.01273065398649661 0 -0.41494363987246979 0.023236645495722939 0 -0.40023346201329341 0.036403537517851137 0 -0.41494363987246979 0.023236645495722939 0 -0.41436175989852531 0.033604495869393458 0 -0.40023346201329341 0.036403537517851137 0 -0.42292027786463471 0.01349413118407828 0 -0.41494363987246979 0.023236645495722939 0 -0.424969395700869 0.026775135554755129 0 -0.42292027786463471 0.01349413118407828 0 -0.40909120882054839 0.01273065398649661 0 -0.41494363987246979 0.023236645495722939 0 -0.41494363987246979 0.023236645495722939 0 -0.41896391809246269 0.029132761591660509 0 -0.41436175989852531 0.033604495869393458 0 -0.41494363987246979 0.023236645495722939 0 -0.41896391809246269 0.029132761591660509 0 -0.424969395700869 0.026775135554755129 0 -0.41896391809246269 0.029132761591660509 0 -0.424969395700869 0.026775135554755129 0 -0.42158087689798668 0.032914769446770492 0 -0.424969395700869 0.026775135554755129 0 -0.42858174468249838 0.030028200506033911 0 -0.42158087689798668 0.032914769446770492 0 -0.44297011017848281 0.02707887027054981 0 -0.43740981058492812 0.01004998492246997 0 -0.42858174468249838 0.030028200506033911 0 -0.43740981058492812 0.01004998492246997 0 -0.42292027786463471 0.01349413118407828 0 -0.424969395700869 0.026775135554755129 0 -0.43740981058492812 0.01004998492246997 0 -0.42858174468249838 0.030028200506033911 0 -0.43740981058492812 0.01004998492246997 0 -0.424969395700869 0.026775135554755129 0 -0.42858174468249838 0.030028200506033911 0 -0.424969395700869 0.026775135554755129 0 -0.42858174468249838 0.030028200506033911 0 -0.43782739213417787 0.038354276372430232 0 -0.44297011017848281 0.02707887027054981 0 -0.42858174468249838 0.030028200506033911 0 -0.43782739213417787 0.038354276372430232 0 -0.42858174468249838 0.030028200506033911 0 -0.42345682706553001 0.041626064651069543 0 -0.43782739213417787 0.038354276372430232 0 -0.42345682706553001 0.041626064651069543 0 -0.43187248081207541 0.055496176207803817 0 -0.43782739213417787 0.038354276372430232 0 -0.42858174468249838 0.030028200506033911 0 -0.43782739213417787 0.038354276372430232 0 -0.42345682706553001 0.041626064651069543 0 -0.42858174468249838 0.030028200506033911 0 -0.42345682706553001 0.041626064651069543 0 -0.42158087689798668 0.032914769446770492 0 -0.42858174468249838 0.030028200506033911 0 -0.42345682706553001 0.041626064651069543 0 -0.42345682706553001 0.041626064651069543 0 -0.43187248081207541 0.055496176207803817 0 -0.4177568865966339 0.054525225210098782 0 -0.43187248081207541 0.055496176207803817 0 -0.4177568865966339 0.054525225210098782 0 -0.41753301535116211 0.067129086497859855 0 -0.42345682706553001 0.041626064651069543 0 -0.4177568865966339 0.054525225210098782 0 -0.40276573021624068 0.046336866753853997 0 -0.4177568865966339 0.054525225210098782 0 -0.40750332447406851 0.057375884956624552 0 -0.41753301535116211 0.067129086497859855 0 -0.42345682706553001 0.041626064651069543 0 -0.4177568865966339 0.054525225210098782 0 -0.4177568865966339 0.054525225210098782 0 -0.40750332447406851 0.057375884956624552 0 -0.40276573021624068 0.046336866753853997 0 -0.42345682706553001 0.041626064651069543 0 -0.40276573021624068 0.046336866753853997 0 -0.42345682706553001 0.041626064651069543 0 -0.41020444479839763 0.039492741198042178 0 -0.40276573021624068 0.046336866753853997 0 -0.42345682706553001 0.041626064651069543 0 -0.41436175989852531 0.033604495869393458 0 -0.42158087689798668 0.032914769446770492 0 -0.42345682706553001 0.041626064651069543 0 -0.41436175989852531 0.033604495869393458 0 -0.41020444479839763 0.039492741198042178 0 -0.41896391809246269 0.029132761591660509 0 -0.41436175989852531 0.033604495869393458 0 -0.42158087689798668 0.032914769446770492 0 -0.41436175989852531 0.033604495869393458 0 -0.41020444479839763 0.039492741198042178 0 -0.40023346201329341 0.036403537517851137 0 -0.40276573021624068 0.046336866753853997 0 -0.38207463336695202 0.051047668856640811 0 -0.38772007791329738 0.03985096685417347 0 -0.41020444479839763 0.039492741198042178 0 -0.40023346201329341 0.036403537517851137 0 -0.40276573021624068 0.046336866753853997 0 -0.40023346201329341 0.036403537517851137 0 -0.40276573021624068 0.046336866753853997 0 -0.38772007791329738 0.03985096685417347 0 -0.40023346201329341 0.036403537517851137 0 -0.38772007791329738 0.03985096685417347 0 -0.38925836826538629 0.030805614435688099 0 -0.40276573021624068 0.046336866753853997 0 -0.38207463336695202 0.051047668856640811 0 -0.40276573021624068 0.046336866753853997 0 -0.39689466156197101 0.057407184083191301 0 -0.38207463336695202 0.051047668856640811 0 -0.40750332447406851 0.057375884956624552 0 -0.39689466156197101 0.057407184083191301 0 -0.40210564328563447 0.066115584712721373 0 -0.40750332447406851 0.057375884956624552 0 -0.40276573021624068 0.046336866753853997 0 -0.39689466156197101 0.057407184083191301 0 -0.38207463336695202 0.051047668856640811 0 -0.38848633305814179 0.065600711414542545 0 -0.36891219827968119 0.060077996683558232 0 -0.39689466156197101 0.057407184083191301 0 -0.38207463336695202 0.051047668856640811 0 -0.38848633305814179 0.065600711414542545 0 -0.38772007791329738 0.03985096685417347 0 -0.37937813184432773 0.031366277704107569 0 -0.38925836826538629 0.030805614435688099 0 -0.38207463336695202 0.051047668856640811 0 -0.38772007791329738 0.03985096685417347 0 -0.37261014177358448 0.043145835856899219 0 -0.38772007791329738 0.03985096685417347 0 -0.37937813184432773 0.031366277704107569 0 -0.37261014177358448 0.043145835856899219 0 -0.37937813184432773 0.031366277704107569 0 -0.38391758338059062 0.022870450659759161 0 -0.37479293228070759 0.022502646493578662 0 -0.37937813184432773 0.031366277704107569 0 -0.38925836826538629 0.030805614435688099 0 -0.38391758338059062 0.022870450659759161 0 -0.38925836826538629 0.030805614435688099 0 -0.38391758338059062 0.022870450659759161 0 -0.3946160130735708 0.021551959563878339 0 -0.38391758338059062 0.022870450659759161 0 -0.38667067902898572 0.013842153393714489 0 -0.3946160130735708 0.021551959563878339 0 -0.38391758338059062 0.022870450659759161 0 -0.3778438638662554 0.014761087644765769 0 -0.38667067902898572 0.013842153393714489 0 -0.38391758338059062 0.022870450659759161 0 -0.3778438638662554 0.014761087644765769 0 -0.37479293228070759 0.022502646493578662 0 -0.3778438638662554 0.014761087644765769 0 -0.38165634421242611 0.0056742618597281089 0 -0.38667067902898572 0.013842153393714489 0 -0.3778438638662554 0.014761087644765769 0 -0.38165634421242611 0.0056742618597281089 0 -0.37464316483836829 0.0066416053135349984 0 -0.37774077980655368 -0.001289555558904682 0 -0.38165634421242611 0.0056742618597281089 0 -0.37464316483836829 0.0066416053135349984 0 -0.3848191179490616 -0.0027051675553946518 0 -0.37774077980655368 -0.001289555558904682 0 -0.38165634421242611 0.0056742618597281089 0 -0.3848191179490616 -0.0027051675553946518 0 -0.38165634421242611 0.0056742618597281089 0 -0.38845980705381639 0.0057813395070211177 0 -0.39408165103759368 -0.0019794594859314238 0 -0.3848191179490616 -0.0027051675553946518 0 -0.38845980705381639 0.0057813395070211177 0 -0.38845980705381639 0.0057813395070211177 0 -0.38667067902898572 0.013842153393714489 0 -0.39627830677719 0.008853295208583448 0 -0.38165634421242611 0.0056742618597281089 0 -0.38845980705381639 0.0057813395070211177 0 -0.38667067902898572 0.013842153393714489 0 -0.38667067902898572 0.013842153393714489 0 -0.39627830677719 0.008853295208583448 0 -0.3946160130735708 0.021551959563878339 0 -0.39408165103759368 -0.0019794594859314238 0 -0.38845980705381639 0.0057813395070211177 0 -0.39627830677719 0.008853295208583448 0 -0.40352261506359649 -0.001038070178381474 0 -0.39408165103759368 -0.0019794594859314238 0 -0.39627830677719 0.008853295208583448 0 -0.40352261506359649 -0.001038070178381474 0 -0.40909120882054839 0.01273065398649661 0 -0.39627830677719 0.008853295208583448 0 -0.40909120882054839 0.01273065398649661 0 -0.39627830677719 0.008853295208583448 0 -0.3946160130735708 0.021551959563878339 0 -0.40909120882054839 0.01273065398649661 0 -0.40023346201329341 0.036403537517851137 0 -0.3946160130735708 0.021551959563878339 0 -0.40909120882054839 0.01273065398649661 0 -0.40023346201329341 0.036403537517851137 0 -0.40023346201329341 0.036403537517851137 0 -0.38925836826538629 0.030805614435688099 0 -0.3946160130735708 0.021551959563878339 0 -0.38696142946532958 0.1003701901717608 0 -0.40164011277457379 0.081352107660276216 0 -0.40864304721671202 0.1107171055473533 0 -0.38750957741872682 0.11885909540365321 0 -0.40864304721671202 0.1107171055473533 0 -0.39401402549175851 0.1361747599337243 0 -0.38750957741872682 0.11885909540365321 0 -0.38696142946532958 0.1003701901717608 0 -0.40864304721671202 0.1107171055473533 0 -0.38750957741872682 0.11885909540365321 0 -0.38696142946532958 0.1003701901717608 0 -0.36904533532088801 0.1177582563576956 0 -0.38696142946532958 0.1003701901717608 0 -0.37090825683648998 0.098456277756480637 0 -0.36904533532088801 0.1177582563576956 0 -0.37929074908003868 0.077603726490867345 0 -0.40164011277457379 0.081352107660276216 0 -0.38696142946532958 0.1003701901717608 0 -0.37929074908003868 0.077603726490867345 0 -0.40164011277457379 0.081352107660276216 0 -0.38696142946532958 0.1003701901717608 0 -0.37929074908003868 0.077603726490867345 0 -0.37090825683648998 0.098456277756480637 0 -0.37929074908003868 0.077603726490867345 0 -0.38848633305814179 0.065600711414542545 0 -0.36891219827968119 0.060077996683558232 0 -0.37929074908003868 0.077603726490867345 0 -0.38848633305814179 0.065600711414542545 0 -0.40164011277457379 0.081352107660276216 0 -0.38848633305814179 0.065600711414542545 0 -0.40210564328563447 0.066115584712721373 0 -0.40164011277457379 0.081352107660276216 0 -0.39689466156197101 0.057407184083191301 0 -0.38848633305814179 0.065600711414542545 0 -0.40210564328563447 0.066115584712721373 0 -0.40164011277457379 0.081352107660276216 0 -0.42398947646910912 0.085100488829685086 0 -0.40164011277457379 0.081352107660276216 0 -0.42398947646910912 0.085100488829685086 0 -0.40864304721671202 0.1107171055473533 0 -0.40210564328563447 0.066115584712721373 0 -0.40164011277457379 0.081352107660276216 0 -0.41753301535116211 0.067129086497859855 0 -0.40164011277457379 0.081352107660276216 0 -0.41753301535116211 0.067129086497859855 0 -0.42398947646910912 0.085100488829685086 0 -0.40750332447406851 0.057375884956624552 0 -0.40210564328563447 0.066115584712721373 0 -0.41753301535116211 0.067129086497859855 0 -0.41753301535116211 0.067129086497859855 0 -0.42398947646910912 0.085100488829685086 0 -0.43763284036668942 0.072255399145110422 0 -0.43187248081207541 0.055496176207803817 0 -0.41753301535116211 0.067129086497859855 0 -0.43763284036668942 0.072255399145110422 0 -0.42398947646910912 0.085100488829685086 0 -0.44633884016364428 0.088848869999093971 0 -0.42398947646910912 0.085100488829685086 0 -0.43763284036668942 0.072255399145110422 0 -0.44633884016364428 0.088848869999093971 0 -0.42398947646910912 0.085100488829685086 0 -0.42906186480059683 0.10519001099972999 0 -0.44633884016364428 0.088848869999093971 0 -0.42398947646910912 0.085100488829685086 0 -0.42906186480059683 0.10519001099972999 0 -0.40864304721671202 0.1107171055473533 0 -0.40864304721671202 0.1107171055473533 0 -0.43267942878230348 0.12559175737704789 0 -0.42906186480059683 0.10519001099972999 0 -0.40864304721671202 0.1107171055473533 0 -0.43267942878230348 0.12559175737704789 0 -0.42906186480059683 0.10519001099972999 0 -0.4489383204882843 0.11104189391905871 0 -0.43267942878230348 0.12559175737704789 0 -0.4489383204882843 0.11104189391905871 0 -0.45289828098281221 0.1241297055338681 0 -0.43267942878230348 0.12559175737704789 0 -0.4489383204882843 0.11104189391905871 0 -0.43267942878230348 0.12559175737704789 0 -0.42906186480059683 0.10519001099972999 0 -0.4489383204882843 0.11104189391905871 0 -0.44633884016364428 0.088848869999093971 0 -0.4489383204882843 0.11104189391905871 0 -0.44633884016364428 0.088848869999093971 0 -0.47121921728662652 0.096397536200283296 0 -0.46607010556719342 0.11973313861048911 0 -0.47121921728662652 0.096397536200283296 0 -0.4489383204882843 0.11104189391905871 0 -0.46607010556719342 0.11973313861048911 0 -0.47121921728662652 0.096397536200283296 0 -0.4489383204882843 0.11104189391905871 0 -0.45289828098281221 0.1241297055338681 0 -0.46607010556719342 0.11973313861048911 0 -0.45709786057011947 0.055708105081253657 0 -0.43763284036668942 0.072255399145110422 0 -0.45544766770060358 0.07348919590478746 0 -0.43763284036668942 0.072255399145110422 0 -0.44633884016364428 0.088848869999093971 0 -0.45544766770060358 0.07348919590478746 0 -0.44633884016364428 0.088848869999093971 0 -0.45544766770060358 0.07348919590478746 0 -0.47121921728662652 0.096397536200283296 0 -0.45544766770060358 0.07348919590478746 0 -0.47636832900606041 0.073061933790077832 0 -0.47121921728662652 0.096397536200283296 0 -0.45709786057011947 0.055708105081253657 0 -0.47636832900606041 0.073061933790077832 0 -0.45709786057011947 0.055708105081253657 0 -0.45544766770060358 0.07348919590478746 0 -0.47636832900606041 0.073061933790077832 0 -0.48351815486210709 0.053492846644399093 0 -0.47636832900606041 0.073061933790077832 0 -0.49140909277123612 0.074197219851226057 0 -0.47636832900606041 0.073061933790077832 0 -0.48274454235378189 0.091705374172880549 0 -0.47121921728662652 0.096397536200283296 0 -0.47636832900606041 0.073061933790077832 0 -0.47121921728662652 0.096397536200283296 0 -0.47636832900606041 0.073061933790077832 0 -0.49715897998801373 0.091784747772784503 0 -0.5 0.089727210191415163 0 -0.49715897998801373 0.091784747772784503 0 -0.49140909277123612 0.074197219851226057 0 -0.47636832900606041 0.073061933790077832 0 -0.48274454235378189 0.091705374172880549 0 -0.49715897998801373 0.091784747772784503 0 -0.47636832900606041 0.073061933790077832 0 -0.49715897998801373 0.091784747772784503 0 -0.49140909277123612 0.074197219851226057 0 -0.5 0.089727210191415163 0 -0.5 0.062919360857453976 0 -0.49140909277123612 0.074197219851226057 0 -0.48351815486210709 0.053492846644399093 0 -0.5 0.062919360857453976 0 -0.49140909277123612 0.074197219851226057 0 -0.46607010556719342 0.11973313861048911 0 -0.48623164313442779 0.1055772789283768 0 -0.48453668432005692 0.123143207324586 0 -0.46607010556719342 0.11973313861048911 0 -0.47121921728662652 0.096397536200283296 0 -0.48623164313442779 0.1055772789283768 0 -0.48274454235378189 0.091705374172880549 0 -0.47121921728662652 0.096397536200283296 0 -0.48623164313442779 0.1055772789283768 0 -0.5 0.089727210191415163 0 -0.49715897998801373 0.091784747772784503 0 -0.5 0.1165350595253765 0 -0.49715897998801373 0.091784747772784503 0 -0.48623164313442779 0.1055772789283768 0 -0.5 0.1165350595253765 0 -0.48274454235378189 0.091705374172880549 0 -0.49715897998801373 0.091784747772784503 0 -0.48623164313442779 0.1055772789283768 0 -0.48623164313442779 0.1055772789283768 0 -0.5 0.1165350595253765 0 -0.48453668432005692 0.123143207324586 0 -0.5 0.1165350595253765 0 -0.48453668432005692 0.123143207324586 0 -0.5 0.1433429088593379 0 -0.48453668432005692 0.123143207324586 0 -0.48049738108946538 0.1379484740379 0 -0.5 0.1433429088593379 0 -0.46607010556719342 0.11973313861048911 0 -0.48453668432005692 0.123143207324586 0 -0.48049738108946538 0.1379484740379 0 -0.46607010556719342 0.11973313861048911 0 -0.48049738108946538 0.1379484740379 0 -0.46092099384776192 0.14306874102069511 0 -0.48464943840857888 0.15775282940309851 0 -0.46990863904630059 0.1670362475492525 0 -0.46092099384776192 0.14306874102069511 0 -0.48464943840857888 0.15775282940309851 0 -0.46092099384776192 0.14306874102069511 0 -0.48049738108946538 0.1379484740379 0 -0.48464943840857888 0.15775282940309851 0 -0.46092099384776192 0.14306874102069511 0 -0.48049738108946538 0.1379484740379 0 -0.5 0.1433429088593379 0 -0.48464943840857888 0.15775282940309851 0 -0.48464943840857888 0.15775282940309851 0 -0.5 0.17015075819329931 0 -0.4898809761324775 0.17912292006808481 0 -0.5 0.1433429088593379 0 -0.48464943840857888 0.15775282940309851 0 -0.5 0.17015075819329931 0 -0.48464943840857888 0.15775282940309851 0 -0.4898809761324775 0.17912292006808481 0 -0.47865635922375932 0.17909963177513319 0 -0.5 0.17015075819329931 0 -0.4898809761324775 0.17912292006808481 0 -0.5 0.19695860752726069 0 -0.4898809761324775 0.17912292006808481 0 -0.47865635922375932 0.17909963177513319 0 -0.48609908303004917 0.1916527734416324 0 -0.47865635922375932 0.17909963177513319 0 -0.47279817792341111 0.1948006201282925 0 -0.47865635922375932 0.17909963177513319 0 -0.46589335310649882 0.18744802338852329 0 -0.47279817792341111 0.1948006201282925 0 -0.47865635922375932 0.17909963177513319 0 -0.46927870962167312 0.17493875400548389 0 -0.46990863904630059 0.1670362475492525 0 -0.47865635922375932 0.17909963177513319 0 -0.46927870962167312 0.17493875400548389 0 -0.46555461593459269 0.18128722400797501 0 -0.47865635922375932 0.17909963177513319 0 -0.46589335310649882 0.18744802338852329 0 -0.46555461593459269 0.18128722400797501 0 -0.48464943840857888 0.15775282940309851 0 -0.47865635922375932 0.17909963177513319 0 -0.46990863904630059 0.1670362475492525 0 -0.45742932361540911 0.15889287394486271 0 -0.45393765338305497 0.17471700686903011 0 -0.46990863904630059 0.1670362475492525 0 -0.45742932361540911 0.15889287394486271 0 -0.46092099384776192 0.14306874102069511 0 -0.45742932361540911 0.15889287394486271 0 -0.46299522428203971 0.17233191268957501 0 -0.45393765338305497 0.17471700686903011 0 -0.46927870962167312 0.17493875400548389 0 -0.46990863904630059 0.1670362475492525 0 -0.46299522428203971 0.17233191268957501 0 -0.46990863904630059 0.1670362475492525 0 -0.45742932361540911 0.15889287394486271 0 -0.46299522428203971 0.17233191268957501 0 -0.46589335310649882 0.18744802338852329 0 -0.46555461593459269 0.18128722400797501 0 -0.45393765338305497 0.17471700686903011 0 -0.46589335310649882 0.18744802338852329 0 -0.46555461593459269 0.18128722400797501 0 -0.46927870962167312 0.17493875400548389 0 -0.46555461593459269 0.18128722400797501 0 -0.46299522428203971 0.17233191268957501 0 -0.46555461593459269 0.18128722400797501 0 -0.46299522428203971 0.17233191268957501 0 -0.45393765338305497 0.17471700686903011 0 -0.46589335310649882 0.18744802338852329 0 -0.45393765338305497 0.17471700686903011 0 -0.45393765338305497 0.17471700686903011 0 -0.44047241453070329 0.18324079402305421 0 -0.44820564853932793 0.20069426145875721 0 -0.45393765338305497 0.17471700686903011 0 -0.44047241453070329 0.18324079402305421 0 -0.44174290600336708 0.16173144065936321 0 -0.45742932361540911 0.15889287394486271 0 -0.44174290600336708 0.16173144065936321 0 -0.44616928685712581 0.1494742970518641 0 -0.45742932361540911 0.15889287394486271 0 -0.45393765338305497 0.17471700686903011 0 -0.44174290600336708 0.16173144065936321 0 -0.45393765338305497 0.17471700686903011 0 -0.44174290600336708 0.16173144065936321 0 -0.44174290600336708 0.16173144065936321 0 -0.44616928685712581 0.1494742970518641 0 -0.43187713239064979 0.1573343508491826 0 -0.44616928685712581 0.1494742970518641 0 -0.43700896048386301 0.14249666109927989 0 -0.43187713239064979 0.1573343508491826 0 -0.44616928685712581 0.1494742970518641 0 -0.44680021131503311 0.13433024919887079 0 -0.46092099384776192 0.14306874102069511 0 -0.44616928685712581 0.1494742970518641 0 -0.44680021131503311 0.13433024919887079 0 -0.43700896048386301 0.14249666109927989 0 -0.45289828098281221 0.1241297055338681 0 -0.44680021131503311 0.13433024919887079 0 -0.43267942878230348 0.12559175737704789 0 -0.44680021131503311 0.13433024919887079 0 -0.43267942878230348 0.12559175737704789 0 -0.43700896048386301 0.14249666109927989 0 -0.44680021131503311 0.13433024919887079 0 -0.43267942878230348 0.12559175737704789 0 -0.45289828098281221 0.1241297055338681 0 -0.44680021131503311 0.13433024919887079 0 -0.46092099384776192 0.14306874102069511 0 -0.46607010556719342 0.11973313861048911 0 -0.46092099384776192 0.14306874102069511 0 -0.45289828098281221 0.1241297055338681 0 -0.46607010556719342 0.11973313861048911 0 -0.46092099384776192 0.14306874102069511 0 -0.44680021131503311 0.13433024919887079 0 -0.46092099384776192 0.14306874102069511 0 -0.45742932361540911 0.15889287394486271 0 -0.46092099384776192 0.14306874102069511 0 -0.45742932361540911 0.15889287394486271 0 -0.44616928685712581 0.1494742970518641 0 -0.46092099384776192 0.14306874102069511 0 -0.46853242371352971 0.23544625301742969 0 -0.46993231893463527 0.26090691788180947 0 -0.48177750529808522 0.24619974485466931 0 -0.46853242371352971 0.23544625301742969 0 -0.46993231893463527 0.26090691788180947 0 -0.48177750529808522 0.24619974485466931 0 -0.48375626182904402 0.22755154475287301 0 -0.46853242371352971 0.23544625301742969 0 -0.48177750529808522 0.24619974485466931 0 -0.5 0.2461359573144368 0 -0.48375626182904402 0.22755154475287301 0 -0.5 0.2461359573144368 0 -0.48375626182904402 0.22755154475287301 0 -0.49999999999999978 0.22376645686122221 0 -0.48375626182904402 0.22755154475287301 0 -0.48639908896170481 0.20928353849475789 0 -0.5 0.2461359573144368 0 -0.49999999999999978 0.22376645686122221 0 -0.48375626182904402 0.22755154475287301 0 -0.47173343442327142 0.22048762952866541 0 -0.46713252849242448 0.20998558815304991 0 -0.46853242371352971 0.23544625301742969 0 -0.48375626182904402 0.22755154475287301 0 -0.47173343442327142 0.22048762952866541 0 -0.4670472636537164 0.20843482960316059 0 -0.48375626182904402 0.22755154475287301 0 -0.47173343442327142 0.22048762952866541 0 -0.46853242371352971 0.23544625301742969 0 -0.48375626182904402 0.22755154475287301 0 -0.4670472636537164 0.20843482960316059 0 -0.48639908896170481 0.20928353849475789 0 -0.47279817792341111 0.1948006201282925 0 -0.4670472636537164 0.20843482960316059 0 -0.48375626182904402 0.22755154475287301 0 -0.48639908896170481 0.20928353849475789 0 -0.4670472636537164 0.20843482960316059 0 -0.49999999999999978 0.22376645686122221 0 -0.48639908896170481 0.20928353849475789 0 -0.5 0.19695860752726069 0 -0.49999999999999978 0.22376645686122221 0 -0.48639908896170481 0.20928353849475789 0 -0.48639908896170481 0.20928353849475789 0 -0.5 0.19695860752726069 0 -0.48609908303004917 0.1916527734416324 0 -0.4898809761324775 0.17912292006808481 0 -0.5 0.19695860752726069 0 -0.48609908303004917 0.1916527734416324 0 -0.48639908896170481 0.20928353849475789 0 -0.48609908303004917 0.1916527734416324 0 -0.47279817792341111 0.1948006201282925 0 -0.47865635922375932 0.17909963177513319 0 -0.48609908303004917 0.1916527734416324 0 -0.47279817792341111 0.1948006201282925 0 -0.48639908896170481 0.20928353849475789 0 -0.47279817792341111 0.1948006201282925 0 -0.47279817792341111 0.1948006201282925 0 -0.4670472636537164 0.20843482960316059 0 -0.46589335310649882 0.18744802338852329 0 -0.47279817792341111 0.1948006201282925 0 -0.46589335310649882 0.18744802338852329 0 -0.4603250720810298 0.20074399020462361 0 -0.4670472636537164 0.20843482960316059 0 -0.46589335310649882 0.18744802338852329 0 -0.45393765338305497 0.17471700686903011 0 -0.44820564853932793 0.20069426145875721 0 -0.46589335310649882 0.18744802338852329 0 -0.4603250720810298 0.20074399020462361 0 -0.44820564853932793 0.20069426145875721 0 -0.46589335310649882 0.18744802338852329 0 -0.47279817792341111 0.1948006201282925 0 -0.4670472636537164 0.20843482960316059 0 -0.46589335310649882 0.18744802338852329 0 -0.4670472636537164 0.20843482960316059 0 -0.45393765338305497 0.17471700686903011 0 -0.44820564853932793 0.20069426145875721 0 -0.44820564853932793 0.20069426145875721 0 -0.45427794118362658 0.21265328965042851 0 -0.44247364369559788 0.22667151604848371 0 -0.44820564853932793 0.20069426145875721 0 -0.44247364369559788 0.22667151604848371 0 -0.44820564853932793 0.20069426145875721 0 -0.44247364369559788 0.22667151604848371 0 -0.42336320141575168 0.21609666274764849 0 -0.45880341375183131 0.2186303689721085 0 -0.45427794118362658 0.21265328965042851 0 -0.46188137931700068 0.21002659871962689 0 -0.45880341375183131 0.2186303689721085 0 -0.45427794118362658 0.21265328965042851 0 -0.4536201791639074 0.2236252940046442 0 -0.4603250720810298 0.20074399020462361 0 -0.45427794118362658 0.21265328965042851 0 -0.46188137931700068 0.21002659871962689 0 -0.4603250720810298 0.20074399020462361 0 -0.44820564853932793 0.20069426145875721 0 -0.45427794118362658 0.21265328965042851 0 -0.4603250720810298 0.20074399020462361 0 -0.46188137931700068 0.21002659871962689 0 -0.4670472636537164 0.20843482960316059 0 -0.4603250720810298 0.20074399020462361 0 -0.4670472636537164 0.20843482960316059 0 -0.46188137931700068 0.21002659871962689 0 -0.4670472636537164 0.20843482960316059 0 -0.46713252849242448 0.20998558815304991 0 -0.4670472636537164 0.20843482960316059 0 -0.46713252849242448 0.20998558815304991 0 -0.47173343442327142 0.22048762952866541 0 -0.4670472636537164 0.20843482960316059 0 -0.46713252849242448 0.20998558815304991 0 -0.45880341375183131 0.2186303689721085 0 -0.46188137931700068 0.21002659871962689 0 -0.46713252849242448 0.20998558815304991 0 -0.46713252849242448 0.20998558815304991 0 -0.45710504060219709 0.23686107433279269 0 -0.46713252849242448 0.20998558815304991 0 -0.45710504060219709 0.23686107433279269 0 -0.46853242371352971 0.23544625301742969 0 -0.45880341375183131 0.2186303689721085 0 -0.46713252849242448 0.20998558815304991 0 -0.45710504060219709 0.23686107433279269 0 -0.45880341375183131 0.2186303689721085 0 -0.4536201791639074 0.2236252940046442 0 -0.45710504060219709 0.23686107433279269 0 -0.46713252849242448 0.20998558815304991 0 -0.46853242371352971 0.23544625301742969 0 -0.45427794118362658 0.21265328965042851 0 -0.4536201791639074 0.2236252940046442 0 -0.44247364369559788 0.22667151604848371 0 -0.4536201791639074 0.2236252940046442 0 -0.44247364369559788 0.22667151604848371 0 -0.45710504060219709 0.23686107433279269 0 -0.44247364369559788 0.22667151604848371 0 -0.4367416388518679 0.25264877063821017 0 -0.44247364369559788 0.22667151604848371 0 -0.45710504060219709 0.23686107433279269 0 -0.4367416388518679 0.25264877063821017 0 -0.45710504060219709 0.23686107433279269 0 -0.46853242371352971 0.23544625301742969 0 -0.46993231893463527 0.26090691788180947 0 -0.41931835140954682 0.23739665832436521 0 -0.40367044579520373 0.24132688110038639 0 -0.41175872593851298 0.2549478601346914 0 -0.41931835140954682 0.23739665832436521 0 -0.40790513800462019 0.22799805468035339 0 -0.40367044579520373 0.24132688110038639 0 -0.41931835140954682 0.23739665832436521 0 -0.4367416388518679 0.25264877063821017 0 -0.41175872593851298 0.2549478601346914 0 -0.44247364369559788 0.22667151604848371 0 -0.41931835140954682 0.23739665832436521 0 -0.4367416388518679 0.25264877063821017 0 -0.44247364369559788 0.22667151604848371 0 -0.41931835140954682 0.23739665832436521 0 -0.42336320141575168 0.21609666274764849 0 -0.41931835140954682 0.23739665832436521 0 -0.40790513800462019 0.22799805468035339 0 -0.42336320141575168 0.21609666274764849 0 -0.40790513800462019 0.22799805468035339 0 -0.42336320141575168 0.21609666274764849 0 -0.40538393777915788 0.2123952851453417 0 -0.42336320141575168 0.21609666274764849 0 -0.42071240458675369 0.1920614743917832 0 -0.40538393777915788 0.2123952851453417 0 -0.44820564853932793 0.20069426145875721 0 -0.42336320141575168 0.21609666274764849 0 -0.42071240458675369 0.1920614743917832 0 -0.44047241453070329 0.18324079402305421 0 -0.44820564853932793 0.20069426145875721 0 -0.42071240458675369 0.1920614743917832 0 -0.42071240458675369 0.1920614743917832 0 -0.40538393777915788 0.2123952851453417 0 -0.42071240458675369 0.1920614743917832 0 -0.4022878927449296 0.1970928012265635 0 -0.40298680868332198 0.18508216307238631 0 -0.42071240458675369 0.1920614743917832 0 -0.4022878927449296 0.1970928012265635 0 -0.40538393777915788 0.2123952851453417 0 -0.4022878927449296 0.1970928012265635 0 -0.39286614404695941 0.1920732104686422 0 -0.40298680868332198 0.18508216307238631 0 -0.4022878927449296 0.1970928012265635 0 -0.39286614404695941 0.1920732104686422 0 -0.39380007669083689 0.206464460861051 0 -0.38422654444444693 0.2008322729754812 0 -0.38088029112643113 0.1825210369279657 0 -0.38422654444444693 0.2008322729754812 0 -0.38088029112643113 0.1825210369279657 0 -0.36802074197771562 0.19700904511440151 0 -0.38422654444444693 0.2008322729754812 0 -0.37368745339656201 0.20924711939208951 0 -0.36802074197771562 0.19700904511440151 0 -0.39286614404695941 0.1920732104686422 0 -0.38422654444444693 0.2008322729754812 0 -0.38088029112643113 0.1825210369279657 0 -0.39286614404695941 0.1920732104686422 0 -0.38422654444444693 0.2008322729754812 0 -0.39380007669083689 0.206464460861051 0 -0.38422654444444693 0.2008322729754812 0 -0.38757279776246373 0.21914350902299659 0 -0.38757279776246373 0.21914350902299659 0 -0.36800338097472479 0.22147713987588341 0 -0.37368745339656201 0.20924711939208951 0 -0.38422654444444693 0.2008322729754812 0 -0.39380007669083689 0.206464460861051 0 -0.38757279776246373 0.21914350902299659 0 -0.38422654444444693 0.2008322729754812 0 -0.38757279776246373 0.21914350902299659 0 -0.37368745339656201 0.20924711939208951 0 -0.39141353052387118 0.2186855059784025 0 -0.39380007669083689 0.206464460861051 0 -0.38757279776246373 0.21914350902299659 0 -0.39141353052387118 0.2186855059784025 0 -0.39380007669083689 0.206464460861051 0 -0.40538393777915788 0.2123952851453417 0 -0.4022878927449296 0.1970928012265635 0 -0.39380007669083689 0.206464460861051 0 -0.40538393777915788 0.2123952851453417 0 -0.40790513800462019 0.22799805468035339 0 -0.39005547097156312 0.23272909589890109 0 -0.40367044579520373 0.24132688110038639 0 -0.39141353052387118 0.2186855059784025 0 -0.40538393777915788 0.2123952851453417 0 -0.39005547097156312 0.23272909589890109 0 -0.40790513800462019 0.22799805468035339 0 -0.40538393777915788 0.2123952851453417 0 -0.39005547097156312 0.23272909589890109 0 -0.40538393777915788 0.2123952851453417 0 -0.39005547097156312 0.23272909589890109 0 -0.38757279776246373 0.21914350902299659 0 -0.39005547097156312 0.23272909589890109 0 -0.38757279776246373 0.21914350902299659 0 -0.36800338097472479 0.22147713987588341 0 -0.39141353052387118 0.2186855059784025 0 -0.38757279776246373 0.21914350902299659 0 -0.39005547097156312 0.23272909589890109 0 -0.38757279776246373 0.21914350902299659 0 -0.37939186114838758 0.22424627805714001 0 -0.36800338097472479 0.22147713987588341 0 -0.38757279776246373 0.21914350902299659 0 -0.37939186114838758 0.22424627805714001 0 -0.39005547097156312 0.23272909589890109 0 -0.39141353052387118 0.2186855059784025 0 -0.38757279776246373 0.21914350902299659 0 -0.37939186114838758 0.22424627805714001 0 -0.37477717689163992 0.25299635056682518 0 -0.39005547097156312 0.23272909589890109 0 -0.39384597734802013 0.25347135609337229 0 -0.37477717689163992 0.25299635056682518 0 -0.37939186114838758 0.22424627805714001 0 -0.39005547097156312 0.23272909589890109 0 -0.37477717689163992 0.25299635056682518 0 -0.39005547097156312 0.23272909589890109 0 -0.37477717689163992 0.25299635056682518 0 -0.40367044579520373 0.24132688110038639 0 -0.41175872593851298 0.2549478601346914 0 -0.39384597734802013 0.25347135609337229 0 -0.39005547097156312 0.23272909589890109 0 -0.39384597734802013 0.25347135609337229 0 -0.39005547097156312 0.23272909589890109 0 -0.40367044579520373 0.24132688110038639 0 -0.39384597734802013 0.25347135609337229 0 -0.41485942150404181 0.14153864215909739 0 -0.41553858058260518 0.15317901213210369 0 -0.42574561826610652 0.14613969243370301 0 -0.41553858058260518 0.15317901213210369 0 -0.42574561826610652 0.14613969243370301 0 -0.42127399236650492 0.15770626544657529 0 -0.41485942150404181 0.14153864215909739 0 -0.41553858058260518 0.15317901213210369 0 -0.4044664398419977 0.15594807455379561 0 -0.40864304721671202 0.1107171055473533 0 -0.41485942150404181 0.14153864215909739 0 -0.43267942878230348 0.12559175737704789 0 -0.41485942150404181 0.14153864215909739 0 -0.43267942878230348 0.12559175737704789 0 -0.42574561826610652 0.14613969243370301 0 -0.43267942878230348 0.12559175737704789 0 -0.43700896048386301 0.14249666109927989 0 -0.42574561826610652 0.14613969243370301 0 -0.41485942150404181 0.14153864215909739 0 -0.43267942878230348 0.12559175737704789 0 -0.42574561826610652 0.14613969243370301 0 -0.43187713239064979 0.1573343508491826 0 -0.42127399236650492 0.15770626544657529 0 -0.43700896048386301 0.14249666109927989 0 -0.42574561826610652 0.14613969243370301 0 -0.43187713239064979 0.1573343508491826 0 -0.43187713239064979 0.1573343508491826 0 -0.42946357341586749 0.17496324995209989 0 -0.4216380035134229 0.16659483191912641 0 -0.44174290600336708 0.16173144065936321 0 -0.43187713239064979 0.1573343508491826 0 -0.42946357341586749 0.17496324995209989 0 -0.43187713239064979 0.1573343508491826 0 -0.42127399236650492 0.15770626544657529 0 -0.4216380035134229 0.16659483191912641 0 -0.44047241453070329 0.18324079402305421 0 -0.44174290600336708 0.16173144065936321 0 -0.42946357341586749 0.17496324995209989 0 -0.44047241453070329 0.18324079402305421 0 -0.42071240458675369 0.1920614743917832 0 -0.42946357341586749 0.17496324995209989 0 -0.42071240458675369 0.1920614743917832 0 -0.42946357341586749 0.17496324995209989 0 -0.41235879422937732 0.17543682721938669 0 -0.42071240458675369 0.1920614743917832 0 -0.41235879422937732 0.17543682721938669 0 -0.40298680868332198 0.18508216307238631 0 -0.42946357341586749 0.17496324995209989 0 -0.41235879422937732 0.17543682721938669 0 -0.4216380035134229 0.16659483191912641 0 -0.41553858058260518 0.15317901213210369 0 -0.42127399236650492 0.15770626544657529 0 -0.41302135350813218 0.1630654313638546 0 -0.42127399236650492 0.15770626544657529 0 -0.4216380035134229 0.16659483191912641 0 -0.41302135350813218 0.1630654313638546 0 -0.41235879422937732 0.17543682721938669 0 -0.4216380035134229 0.16659483191912641 0 -0.41302135350813218 0.1630654313638546 0 -0.41235879422937732 0.17543682721938669 0 -0.41302135350813218 0.1630654313638546 0 -0.40449990094882532 0.16792382984329149 0 -0.41302135350813218 0.1630654313638546 0 -0.40449990094882532 0.16792382984329149 0 -0.4044664398419977 0.15594807455379561 0 -0.41553858058260518 0.15317901213210369 0 -0.41302135350813218 0.1630654313638546 0 -0.4044664398419977 0.15594807455379561 0 -0.3926733654842145 0.1692345557408807 0 -0.4044664398419977 0.15594807455379561 0 -0.40449990094882532 0.16792382984329149 0 -0.3926733654842145 0.1692345557408807 0 -0.40078474618547688 0.17571320347163299 0 -0.40449990094882532 0.16792382984329149 0 -0.3926733654842145 0.1692345557408807 0 -0.4044664398419977 0.15594807455379561 0 -0.3926733654842145 0.1692345557408807 0 -0.39703941422577987 0.15748552694114659 0 -0.4044664398419977 0.15594807455379561 0 -0.40298680868332198 0.18508216307238631 0 -0.40078474618547688 0.17571320347163299 0 -0.39301525059178999 0.18044652774840561 0 -0.41235879422937732 0.17543682721938669 0 -0.40298680868332198 0.18508216307238631 0 -0.40078474618547688 0.17571320347163299 0 -0.41235879422937732 0.17543682721938669 0 -0.40449990094882532 0.16792382984329149 0 -0.40078474618547688 0.17571320347163299 0 -0.3926733654842145 0.1692345557408807 0 -0.40078474618547688 0.17571320347163299 0 -0.39301525059178999 0.18044652774840561 0 -0.39286614404695941 0.1920732104686422 0 -0.40298680868332198 0.18508216307238631 0 -0.39301525059178999 0.18044652774840561 0 -0.39286614404695941 0.1920732104686422 0 -0.39301525059178999 0.18044652774840561 0 -0.38088029112643113 0.1825210369279657 0 -0.3926733654842145 0.1692345557408807 0 -0.38088029112643113 0.1825210369279657 0 -0.3926733654842145 0.1692345557408807 0 -0.39301525059178999 0.18044652774840561 0 -0.38088029112643113 0.1825210369279657 0 -0.3926733654842145 0.1692345557408807 0 -0.37921940694751782 0.17343241172319571 0 -0.38088029112643113 0.1825210369279657 0 -0.37921940694751782 0.17343241172319571 0 -0.38088029112643113 0.1825210369279657 0 -0.37921940694751782 0.17343241172319571 0 -0.38088029112643113 0.1825210369279657 0 -0.37283571032282492 0.1791450959532255 0 -0.3784015845151173 0.16895715591276281 0 -0.37283571032282492 0.1791450959532255 0 -0.37921940694751782 0.17343241172319571 0 -0.3784015845151173 0.16895715591276281 0 -0.37283571032282492 0.1791450959532255 0 -0.37921940694751782 0.17343241172319571 0 -0.37283571032282492 0.1791450959532255 0 -0.39703941422577987 0.15748552694114659 0 -0.37921940694751782 0.17343241172319571 0 -0.38193020105096481 0.16249827228531991 0 -0.3784015845151173 0.16895715591276281 0 -0.38193020105096481 0.16249827228531991 0 -0.37372345991800282 0.14335770613522919 0 -0.39703941422577987 0.15748552694114659 0 -0.37921940694751782 0.17343241172319571 0 -0.3926733654842145 0.1692345557408807 0 -0.39703941422577987 0.15748552694114659 0 -0.37921940694751782 0.17343241172319571 0 -0.39703941422577987 0.15748552694114659 0 -0.38193020105096481 0.16249827228531991 0 -0.38598126975628672 0.1494316781992327 0 -0.37921940694751782 0.17343241172319571 0 -0.3784015845151173 0.16895715591276281 0 -0.38193020105096481 0.16249827228531991 0 -0.3784015845151173 0.16895715591276281 0 -0.38193020105096481 0.16249827228531991 0 -0.37921940694751782 0.17343241172319571 0 -0.3784015845151173 0.16895715591276281 0 -0.38598126975628672 0.1494316781992327 0 -0.39401402549175851 0.1361747599337243 0 -0.37372345991800282 0.14335770613522919 0 -0.38193020105096481 0.16249827228531991 0 -0.38598126975628672 0.1494316781992327 0 -0.37372345991800282 0.14335770613522919 0 -0.3784015845151173 0.16895715591276281 0 -0.37372345991800282 0.14335770613522919 0 -0.39703941422577987 0.15748552694114659 0 -0.38598126975628672 0.1494316781992327 0 -0.39401402549175851 0.1361747599337243 0 -0.41485942150404181 0.14153864215909739 0 -0.39703941422577987 0.15748552694114659 0 -0.39401402549175851 0.1361747599337243 0 -0.41485942150404181 0.14153864215909739 0 -0.39703941422577987 0.15748552694114659 0 -0.4044664398419977 0.15594807455379561 0 -0.41485942150404181 0.14153864215909739 0 -0.39703941422577987 0.15748552694114659 0 -0.40864304721671202 0.1107171055473533 0 -0.41485942150404181 0.14153864215909739 0 -0.39401402549175851 0.1361747599337243 0 -0.38750957741872682 0.11885909540365321 0 -0.37372345991800282 0.14335770613522919 0 -0.36904533532088801 0.1177582563576956 0 -0.38750957741872682 0.11885909540365321 0 -0.39401402549175851 0.1361747599337243 0 -0.37372345991800282 0.14335770613522919 0 -0.35823941519022368 0.13573745574644491 0 -0.37372345991800282 0.14335770613522919 0 -0.36904533532088801 0.1177582563576956 0 -0.37372345991800282 0.14335770613522919 0 -0.36904533532088801 0.1177582563576956 0 -0.35823941519022368 0.13573745574644491 0 -0.34455851703438989 0.13305210298766909 0 -0.35158166360451942 0.11704707172714621 0 -0.35823941519022368 0.13573745574644491 0 -0.34455851703438989 0.13305210298766909 0 -0.34873147585397152 0.15030858297792049 0 -0.35823941519022368 0.13573745574644491 0 -0.34873147585397152 0.15030858297792049 0 -0.36179603940957061 0.15290101429300901 0 -0.34873147585397152 0.15030858297792049 0 -0.34720568730415252 0.1616956217090188 0 -0.33647431770126862 0.14798842126345041 0 -0.34873147585397152 0.15030858297792049 0 -0.36179603940957061 0.15290101429300901 0 -0.35552330674067661 0.16014073544654131 0 -0.35823941519022368 0.13573745574644491 0 -0.36179603940957061 0.15290101429300901 0 -0.37372345991800282 0.14335770613522919 0 -0.3784015845151173 0.16895715591276281 0 -0.36179603940957061 0.15290101429300901 0 -0.37372345991800282 0.14335770613522919 0 -0.3784015845151173 0.16895715591276281 0 -0.36179603940957061 0.15290101429300901 0 -0.3628088848288224 0.16705289795690309 0 -0.3784015845151173 0.16895715591276281 0 -0.3628088848288224 0.16705289795690309 0 -0.36959790597703868 0.17377317275203899 0 -0.36179603940957061 0.15290101429300901 0 -0.3628088848288224 0.16705289795690309 0 -0.35552330674067661 0.16014073544654131 0 -0.38088029112643113 0.1825210369279657 0 -0.37283571032282492 0.1791450959532255 0 -0.36802074197771562 0.19700904511440151 0 -0.37283571032282492 0.1791450959532255 0 -0.36399845157591232 0.19532107462703119 0 -0.37283571032282492 0.1791450959532255 0 -0.36261880381503758 0.18828806813974089 0 -0.3784015845151173 0.16895715591276281 0 -0.36959790597703868 0.17377317275203899 0 -0.37283571032282492 0.1791450959532255 0 -0.36959790597703868 0.17377317275203899 0 -0.37283571032282492 0.1791450959532255 0 -0.36409588864576692 0.17933358541092431 0 -0.3628088848288224 0.16705289795690309 0 -0.36959790597703868 0.17377317275203899 0 -0.36409588864576692 0.17933358541092431 0 -0.3628088848288224 0.16705289795690309 0 -0.36409588864576692 0.17933358541092431 0 -0.35614161380151321 0.17761165346375071 0 -0.36409588864576692 0.17933358541092431 0 -0.35797279878738592 0.18411861580098379 0 -0.35614161380151321 0.17761165346375071 0 -0.36409588864576692 0.17933358541092431 0 -0.35797279878738592 0.18411861580098379 0 -0.36261880381503758 0.18828806813974089 0 -0.37283571032282492 0.1791450959532255 0 -0.36409588864576692 0.17933358541092431 0 -0.36261880381503758 0.18828806813974089 0 -0.35797279878738592 0.18411861580098379 0 -0.35614161380151321 0.17761165346375071 0 -0.35065229879255438 0.18593262723135329 0 -0.35797279878738592 0.18411861580098379 0 -0.35065229879255438 0.18593262723135329 0 -0.35645772166264922 0.19211102842263869 0 -0.35614161380151321 0.17761165346375071 0 -0.34811061985946878 0.17434540014992381 0 -0.35436851446084039 0.1683048517912053 0 -0.35614161380151321 0.17761165346375071 0 -0.34811061985946878 0.17434540014992381 0 -0.35065229879255438 0.18593262723135329 0 -0.35065229879255438 0.18593262723135329 0 -0.34227569468909552 0.1811403169530669 0 -0.33993633525554889 0.19055096072852831 0 -0.34811061985946878 0.17434540014992381 0 -0.35065229879255438 0.18593262723135329 0 -0.34227569468909552 0.1811403169530669 0 -0.35552330674067661 0.16014073544654131 0 -0.35436851446084039 0.1683048517912053 0 -0.34720568730415252 0.1616956217090188 0 -0.3628088848288224 0.16705289795690309 0 -0.35614161380151321 0.17761165346375071 0 -0.35436851446084039 0.1683048517912053 0 -0.3628088848288224 0.16705289795690309 0 -0.35552330674067661 0.16014073544654131 0 -0.35436851446084039 0.1683048517912053 0 -0.34811061985946878 0.17434540014992381 0 -0.34720568730415252 0.1616956217090188 0 -0.33801991010865667 0.17138732975114751 0 -0.34811061985946878 0.17434540014992381 0 -0.35436851446084039 0.1683048517912053 0 -0.34720568730415252 0.1616956217090188 0 -0.34873147585397152 0.15030858297792049 0 -0.35552330674067661 0.16014073544654131 0 -0.34720568730415252 0.1616956217090188 0 -0.34720568730415252 0.1616956217090188 0 -0.33801991010865667 0.17138732975114751 0 -0.33092539158612982 0.1609515407851054 0 -0.34720568730415252 0.1616956217090188 0 -0.33092539158612982 0.1609515407851054 0 -0.33647431770126862 0.14798842126345041 0 -0.33801991010865667 0.17138732975114751 0 -0.33092539158612982 0.1609515407851054 0 -0.3265778886375873 0.17202186172735501 0 -0.34227569468909552 0.1811403169530669 0 -0.33183788287013261 0.1831818366374682 0 -0.33993633525554889 0.19055096072852831 0 -0.34811061985946878 0.17434540014992381 0 -0.33801991010865667 0.17138732975114751 0 -0.34227569468909552 0.1811403169530669 0 -0.33801991010865667 0.17138732975114751 0 -0.34227569468909552 0.1811403169530669 0 -0.33183788287013261 0.1831818366374682 0 -0.33801991010865667 0.17138732975114751 0 -0.33183788287013261 0.1831818366374682 0 -0.3265778886375873 0.17202186172735501 0 -0.3265778886375873 0.17202186172735501 0 -0.31632076704925127 0.18575639557221951 0 -0.3167678101826048 0.16359462978275929 0 -0.33183788287013261 0.1831818366374682 0 -0.3265778886375873 0.17202186172735501 0 -0.31632076704925127 0.18575639557221951 0 -0.33092539158612982 0.1609515407851054 0 -0.3167678101826048 0.16359462978275929 0 -0.32050673558250908 0.1490213804769015 0 -0.33092539158612982 0.1609515407851054 0 -0.3265778886375873 0.17202186172735501 0 -0.3167678101826048 0.16359462978275929 0 -0.32050673558250908 0.1490213804769015 0 -0.30739524272803709 0.15185112365938391 0 -0.31211500736378339 0.1240031522641292 0 -0.3167678101826048 0.16359462978275929 0 -0.32050673558250908 0.1490213804769015 0 -0.30739524272803709 0.15185112365938391 0 -0.32050673558250908 0.1490213804769015 0 -0.30739524272803709 0.15185112365938391 0 -0.32919359534549508 0.13424827028365749 0 -0.31211500736378339 0.1240031522641292 0 -0.33231339904552459 0.1171762944261375 0 -0.32050673558250908 0.1490213804769015 0 -0.32919359534549508 0.13424827028365749 0 -0.31211500736378339 0.1240031522641292 0 -0.34455851703438989 0.13305210298766909 0 -0.32919359534549508 0.13424827028365749 0 -0.33231339904552459 0.1171762944261375 0 -0.34455851703438989 0.13305210298766909 0 -0.32919359534549508 0.13424827028365749 0 -0.33647431770126862 0.14798842126345041 0 -0.32050673558250908 0.1490213804769015 0 -0.32919359534549508 0.13424827028365749 0 -0.33647431770126862 0.14798842126345041 0 -0.33092539158612982 0.1609515407851054 0 -0.32050673558250908 0.1490213804769015 0 -0.33647431770126862 0.14798842126345041 0 -0.34455851703438989 0.13305210298766909 0 -0.34873147585397152 0.15030858297792049 0 -0.33647431770126862 0.14798842126345041 0 -0.35416421148584648 0.23888623464626721 0 -0.34843396418698602 0.22381077072877051 0 -0.33845336435013867 0.242079554605789 0 -0.35416421148584648 0.23888623464626721 0 -0.33845336435013867 0.242079554605789 0 -0.35464358931248319 0.25491115920099722 0 -0.37939186114838758 0.22424627805714001 0 -0.37013679196984273 0.23750613219799629 0 -0.37477717689163992 0.25299635056682518 0 -0.37013679196984273 0.23750613219799629 0 -0.35464358931248319 0.25491115920099722 0 -0.37477717689163992 0.25299635056682518 0 -0.35416421148584648 0.23888623464626721 0 -0.37013679196984273 0.23750613219799629 0 -0.35464358931248319 0.25491115920099722 0 -0.35416421148584648 0.23888623464626721 0 -0.37013679196984273 0.23750613219799629 0 -0.36148561266771267 0.2305011068434443 0 -0.36148561266771267 0.2305011068434443 0 -0.36975441169016687 0.228432664243616 0 -0.36800338097472479 0.22147713987588341 0 -0.37013679196984273 0.23750613219799629 0 -0.36148561266771267 0.2305011068434443 0 -0.36975441169016687 0.228432664243616 0 -0.37939186114838758 0.22424627805714001 0 -0.37013679196984273 0.23750613219799629 0 -0.36975441169016687 0.228432664243616 0 -0.37939186114838758 0.22424627805714001 0 -0.36975441169016687 0.228432664243616 0 -0.36800338097472479 0.22147713987588341 0 -0.36800338097472479 0.22147713987588341 0 -0.34843396418698602 0.22381077072877051 0 -0.35516119282899983 0.21149705330083701 0 -0.36148561266771267 0.2305011068434443 0 -0.36800338097472479 0.22147713987588341 0 -0.34843396418698602 0.22381077072877051 0 -0.36800338097472479 0.22147713987588341 0 -0.34843396418698602 0.22381077072877051 0 -0.35416421148584648 0.23888623464626721 0 -0.36148561266771267 0.2305011068434443 0 -0.34843396418698602 0.22381077072877051 0 -0.34843396418698602 0.22381077072877051 0 -0.34802604401402371 0.21953575615482759 0 -0.33982416592956399 0.21665757569738961 0 -0.34802604401402371 0.21953575615482759 0 -0.34581283434165899 0.20861347152532789 0 -0.33982416592956399 0.21665757569738961 0 -0.34802604401402371 0.21953575615482759 0 -0.34581283434165899 0.20861347152532789 0 -0.35516119282899983 0.21149705330083701 0 -0.34843396418698602 0.22381077072877051 0 -0.34802604401402371 0.21953575615482759 0 -0.35516119282899983 0.21149705330083701 0 -0.34581283434165899 0.20861347152532789 0 -0.35516119282899983 0.21149705330083701 0 -0.35389383475621161 0.20092716755479181 0 -0.34802604401402371 0.21953575615482759 0 -0.35516119282899983 0.21149705330083701 0 -0.34843396418698602 0.22381077072877051 0 -0.35516119282899983 0.21149705330083701 0 -0.36800338097472479 0.22147713987588341 0 -0.35516119282899983 0.21149705330083701 0 -0.37368745339656201 0.20924711939208951 0 -0.35516119282899983 0.21149705330083701 0 -0.37368745339656201 0.20924711939208951 0 -0.36802074197771562 0.19700904511440151 0 -0.35516119282899983 0.21149705330083701 0 -0.36399845157591232 0.19532107462703119 0 -0.35516119282899983 0.21149705330083701 0 -0.36802074197771562 0.19700904511440151 0 -0.37283571032282492 0.1791450959532255 0 -0.36399845157591232 0.19532107462703119 0 -0.36261880381503758 0.18828806813974089 0 -0.37283571032282492 0.1791450959532255 0 -0.36399845157591232 0.19532107462703119 0 -0.36802074197771562 0.19700904511440151 0 -0.35516119282899983 0.21149705330083701 0 -0.36399845157591232 0.19532107462703119 0 -0.36802074197771562 0.19700904511440151 0 -0.38088029112643113 0.1825210369279657 0 -0.36802074197771562 0.19700904511440151 0 -0.36399845157591232 0.19532107462703119 0 -0.36261880381503758 0.18828806813974089 0 -0.35645772166264922 0.19211102842263869 0 -0.35797279878738592 0.18411861580098379 0 -0.36261880381503758 0.18828806813974089 0 -0.35645772166264922 0.19211102842263869 0 -0.35065229879255438 0.18593262723135329 0 -0.35645772166264922 0.19211102842263869 0 -0.34803897337183792 0.19709320989812409 0 -0.35516119282899983 0.21149705330083701 0 -0.36399845157591232 0.19532107462703119 0 -0.35389383475621161 0.20092716755479181 0 -0.35645772166264922 0.19211102842263869 0 -0.35389383475621161 0.20092716755479181 0 -0.34803897337183792 0.19709320989812409 0 -0.36399845157591232 0.19532107462703119 0 -0.35645772166264922 0.19211102842263869 0 -0.35389383475621161 0.20092716755479181 0 -0.34581283434165899 0.20861347152532789 0 -0.35389383475621161 0.20092716755479181 0 -0.34803897337183792 0.19709320989812409 0 -0.34581283434165899 0.20861347152532789 0 -0.34803897337183792 0.19709320989812409 0 -0.33933674095816863 0.19971543786353729 0 -0.35065229879255438 0.18593262723135329 0 -0.34803897337183792 0.19709320989812409 0 -0.33993633525554889 0.19055096072852831 0 -0.33993633525554889 0.19055096072852831 0 -0.33933674095816863 0.19971543786353729 0 -0.33069942903629101 0.19625725860753851 0 -0.34803897337183792 0.19709320989812409 0 -0.33993633525554889 0.19055096072852831 0 -0.33933674095816863 0.19971543786353729 0 -0.33933674095816863 0.19971543786353729 0 -0.33069942903629101 0.19625725860753851 0 -0.33422481296465362 0.2080963853910347 0 -0.33183788287013261 0.1831818366374682 0 -0.33993633525554889 0.19055096072852831 0 -0.33069942903629101 0.19625725860753851 0 -0.31632076704925127 0.18575639557221951 0 -0.33069942903629101 0.19625725860753851 0 -0.32036655352850157 0.2095523693350691 0 -0.33183788287013261 0.1831818366374682 0 -0.31632076704925127 0.18575639557221951 0 -0.33069942903629101 0.19625725860753851 0 -0.32036655352850157 0.2095523693350691 0 -0.32458589997660492 0.2266546254550818 0 -0.30779163400160159 0.21927945841494459 0 -0.32036655352850157 0.2095523693350691 0 -0.32934906837639222 0.21536895119528529 0 -0.32458589997660492 0.2266546254550818 0 -0.32036655352850157 0.2095523693350691 0 -0.32934906837639222 0.21536895119528529 0 -0.33422481296465362 0.2080963853910347 0 -0.32934906837639222 0.21536895119528529 0 -0.33422481296465362 0.2080963853910347 0 -0.33982416592956399 0.21665757569738961 0 -0.33069942903629101 0.19625725860753851 0 -0.32036655352850157 0.2095523693350691 0 -0.33422481296465362 0.2080963853910347 0 -0.34581283434165899 0.20861347152532789 0 -0.33933674095816863 0.19971543786353729 0 -0.33422481296465362 0.2080963853910347 0 -0.34581283434165899 0.20861347152532789 0 -0.33422481296465362 0.2080963853910347 0 -0.33982416592956399 0.21665757569738961 0 -0.34843396418698602 0.22381077072877051 0 -0.33982416592956399 0.21665757569738961 0 -0.32458589997660492 0.2266546254550818 0 -0.34843396418698602 0.22381077072877051 0 -0.32458589997660492 0.2266546254550818 0 -0.34843396418698602 0.22381077072877051 0 -0.32458589997660492 0.2266546254550818 0 -0.33845336435013867 0.242079554605789 0 -0.34843396418698602 0.22381077072877051 0 -0.33845336435013867 0.242079554605789 0 -0.32934906837639222 0.21536895119528529 0 -0.33982416592956399 0.21665757569738961 0 -0.32458589997660492 0.2266546254550818 0 -0.32458589997660492 0.2266546254550818 0 -0.30073783576622393 0.22949848018139329 0 -0.32458589997660492 0.2266546254550818 0 -0.32455092720978362 0.24357057421839101 0 -0.31122576982003303 0.23714335435801151 0 -0.32455092720978362 0.24357057421839101 0 -0.311575650220281 0.24878047680599949 0 -0.31122576982003303 0.23714335435801151 0 -0.32458589997660492 0.2266546254550818 0 -0.32455092720978362 0.24357057421839101 0 -0.33845336435013867 0.242079554605789 0 -0.32455092720978362 0.24357057421839101 0 -0.33845336435013867 0.242079554605789 0 -0.32847276451329022 0.26034833848280681 0 -0.29310990672191722 0.23613872254877591 0 -0.29467853592727078 0.23721261512919359 0 -0.28985028671148488 0.25537141990030859 0 -0.29310990672191722 0.23613872254877591 0 -0.27131573767068418 0.22826101281380451 0 -0.28058301219108422 0.24181621635705669 0 -0.29310990672191722 0.23613872254877591 0 -0.28985028671148488 0.25537141990030859 0 -0.29310990672191722 0.23613872254877591 0 -0.28058301219108422 0.24181621635705669 0 -0.28985028671148488 0.25537141990030859 0 -0.28058301219108422 0.24181621635705669 0 -0.28985028671148488 0.25537141990030859 0 -0.29310990672191722 0.23613872254877591 0 -0.29467853592727078 0.23721261512919359 0 -0.29467853592727078 0.23721261512919359 0 -0.31122576982003303 0.23714335435801151 0 -0.30073783576622393 0.22949848018139329 0 -0.29467853592727078 0.23721261512919359 0 -0.311575650220281 0.24878047680599949 0 -0.31122576982003303 0.23714335435801151 0 -0.29467853592727078 0.23721261512919359 0 -0.311575650220281 0.24878047680599949 0 -0.29467853592727078 0.23721261512919359 0 -0.311575650220281 0.24878047680599949 0 -0.29523766041035199 0.26325150879709891 0 -0.32458589997660492 0.2266546254550818 0 -0.30073783576622393 0.22949848018139329 0 -0.30779163400160159 0.21927945841494459 0 -0.32458589997660492 0.2266546254550818 0 -0.31122576982003303 0.23714335435801151 0 -0.30073783576622393 0.22949848018139329 0 -0.30073783576622393 0.22949848018139329 0 -0.30779163400160159 0.21927945841494459 0 -0.29448167989639912 0.22804486553003031 0 -0.29310990672191722 0.23613872254877591 0 -0.29448167989639912 0.22804486553003031 0 -0.27369133376421262 0.22284465576077489 0 -0.29448167989639912 0.22804486553003031 0 -0.2838712618875629 0.21479465795795599 0 -0.27369133376421262 0.22284465576077489 0 -0.29448167989639912 0.22804486553003031 0 -0.29413635243235581 0.21196267741475219 0 -0.29310990672191722 0.23613872254877591 0 -0.27369133376421262 0.22284465576077489 0 -0.29467853592727078 0.23721261512919359 0 -0.30073783576622393 0.22949848018139329 0 -0.29448167989639912 0.22804486553003031 0 -0.29310990672191722 0.23613872254877591 0 -0.29467853592727078 0.23721261512919359 0 -0.29448167989639912 0.22804486553003031 0 -0.29467853592727078 0.23721261512919359 0 -0.29448167989639912 0.22804486553003031 0 -0.29310990672191722 0.23613872254877591 0 -0.29448167989639912 0.22804486553003031 0 -0.29413635243235581 0.21196267741475219 0 -0.29878620084027852 0.20264695157314819 0 -0.29379102496831272 0.19588048929947419 0 -0.29448167989639912 0.22804486553003031 0 -0.29413635243235581 0.21196267741475219 0 -0.29878620084027852 0.20264695157314819 0 -0.29448167989639912 0.22804486553003031 0 -0.29878620084027852 0.20264695157314819 0 -0.29413635243235581 0.21196267741475219 0 -0.29379102496831272 0.19588048929947419 0 -0.28522308967114912 0.20452327137286261 0 -0.29413635243235581 0.21196267741475219 0 -0.29379102496831272 0.19588048929947419 0 -0.29448167989639912 0.22804486553003031 0 -0.2838712618875629 0.21479465795795599 0 -0.29413635243235581 0.21196267741475219 0 -0.2838712618875629 0.21479465795795599 0 -0.28522308967114912 0.20452327137286261 0 -0.29413635243235581 0.21196267741475219 0 -0.32036655352850157 0.2095523693350691 0 -0.30779163400160159 0.21927945841494459 0 -0.29878620084027852 0.20264695157314819 0 -0.30779163400160159 0.21927945841494459 0 -0.29448167989639912 0.22804486553003031 0 -0.29878620084027852 0.20264695157314819 0 -0.29878620084027852 0.20264695157314819 0 -0.29379102496831272 0.19588048929947419 0 -0.30309072178415769 0.17724903761626601 0 -0.31632076704925127 0.18575639557221951 0 -0.29878620084027852 0.20264695157314819 0 -0.30309072178415769 0.17724903761626601 0 -0.31632076704925127 0.18575639557221951 0 -0.32036655352850157 0.2095523693350691 0 -0.29878620084027852 0.20264695157314819 0 -0.29878620084027852 0.20264695157314819 0 -0.30309072178415769 0.17724903761626601 0 -0.28522308967114912 0.20452327137286261 0 -0.29379102496831272 0.19588048929947419 0 -0.28124953787461371 0.1935735916895788 0 -0.29379102496831272 0.19588048929947419 0 -0.28124953787461371 0.1935735916895788 0 -0.28752446549241689 0.1832489647230989 0 -0.28124953787461371 0.1935735916895788 0 -0.2659766044530758 0.19238405035351089 0 -0.27494974420821611 0.1793112011395637 0 -0.28522308967114912 0.20452327137286261 0 -0.28124953787461371 0.1935735916895788 0 -0.27431068871210279 0.20621206129374381 0 -0.28124953787461371 0.1935735916895788 0 -0.2659766044530758 0.19238405035351089 0 -0.27431068871210279 0.20621206129374381 0 -0.25427276080650663 0.20955058897277601 0 -0.24947341468037071 0.1874691479585941 0 -0.2659766044530758 0.19238405035351089 0 -0.25427276080650663 0.20955058897277601 0 -0.24947341468037071 0.1874691479585941 0 -0.2659766044530758 0.19238405035351089 0 -0.25427276080650663 0.20955058897277601 0 -0.27431068871210279 0.20621206129374381 0 -0.25427276080650663 0.20955058897277601 0 -0.27369133376421262 0.22284465576077489 0 -0.25427276080650663 0.20955058897277601 0 -0.25977281016601761 0.2185578892770178 0 -0.27369133376421262 0.22284465576077489 0 -0.25427276080650663 0.20955058897277601 0 -0.25561524088587501 0.21572724177218369 0 -0.25977281016601761 0.2185578892770178 0 -0.25427276080650663 0.20955058897277601 0 -0.25561524088587501 0.21572724177218369 0 -0.24333230173327219 0.21221501244476959 0 -0.25427276080650663 0.20955058897277601 0 -0.25561524088587501 0.21572724177218369 0 -0.25427276080650663 0.20955058897277601 0 -0.27431068871210279 0.20621206129374381 0 -0.27369133376421262 0.22284465576077489 0 -0.2838712618875629 0.21479465795795599 0 -0.27431068871210279 0.20621206129374381 0 -0.27369133376421262 0.22284465576077489 0 -0.2838712618875629 0.21479465795795599 0 -0.28522308967114912 0.20452327137286261 0 -0.27431068871210279 0.20621206129374381 0 -0.29310990672191722 0.23613872254877591 0 -0.27369133376421262 0.22284465576077489 0 -0.27131573767068418 0.22826101281380451 0 -0.27131573767068418 0.22826101281380451 0 -0.26439065681250729 0.2289784260688752 0 -0.26819560602517328 0.23507842756581021 0 -0.27131573767068418 0.22826101281380451 0 -0.26675876456119929 0.22568570462696191 0 -0.26439065681250729 0.2289784260688752 0 -0.27369133376421262 0.22284465576077489 0 -0.26675876456119929 0.22568570462696191 0 -0.26371349664181459 0.22286429712754721 0 -0.25977281016601761 0.2185578892770178 0 -0.27369133376421262 0.22284465576077489 0 -0.26371349664181459 0.22286429712754721 0 -0.27369133376421262 0.22284465576077489 0 -0.27131573767068418 0.22826101281380451 0 -0.26675876456119929 0.22568570462696191 0 -0.26675876456119929 0.22568570462696191 0 -0.26371349664181459 0.22286429712754721 0 -0.26068259791677789 0.22548013136380779 0 -0.26068259791677789 0.22548013136380779 0 -0.25678634991227811 0.22260498734460241 0 -0.2574101570832959 0.22971939663687391 0 -0.26371349664181459 0.22286429712754721 0 -0.26068259791677789 0.22548013136380779 0 -0.25678634991227811 0.22260498734460241 0 -0.25977281016601761 0.2185578892770178 0 -0.26371349664181459 0.22286429712754721 0 -0.25678634991227811 0.22260498734460241 0 -0.25561524088587501 0.21572724177218369 0 -0.25977281016601761 0.2185578892770178 0 -0.25678634991227811 0.22260498734460241 0 -0.25678634991227811 0.22260498734460241 0 -0.249817319625419 0.2274340479663062 0 -0.24904636230289101 0.22050689045355901 0 -0.25561524088587501 0.21572724177218369 0 -0.25678634991227811 0.22260498734460241 0 -0.24904636230289101 0.22050689045355901 0 -0.25109603964961891 0.234366577265785 0 -0.2574101570832959 0.22971939663687391 0 -0.249817319625419 0.2274340479663062 0 -0.25678634991227811 0.22260498734460241 0 -0.2574101570832959 0.22971939663687391 0 -0.249817319625419 0.2274340479663062 0 -0.2574101570832959 0.22971939663687391 0 -0.26439065681250729 0.2289784260688752 0 -0.26193406046231932 0.2344272911270443 0 -0.26068259791677789 0.22548013136380779 0 -0.2574101570832959 0.22971939663687391 0 -0.26439065681250729 0.2289784260688752 0 -0.26675876456119929 0.22568570462696191 0 -0.26068259791677789 0.22548013136380779 0 -0.26439065681250729 0.2289784260688752 0 -0.26439065681250729 0.2289784260688752 0 -0.26193406046231932 0.2344272911270443 0 -0.26819560602517328 0.23507842756581021 0 -0.26193406046231932 0.2344272911270443 0 -0.26614348890836192 0.24293385421211869 0 -0.26819560602517328 0.23507842756581021 0 -0.2574101570832959 0.22971939663687391 0 -0.26193406046231932 0.2344272911270443 0 -0.25699538715464082 0.23905233796863981 0 -0.26193406046231932 0.2344272911270443 0 -0.25699538715464082 0.23905233796863981 0 -0.26614348890836192 0.24293385421211869 0 -0.25109603964961891 0.234366577265785 0 -0.25699538715464082 0.23905233796863981 0 -0.2470081454867771 0.2422065880623451 0 -0.25109603964961891 0.234366577265785 0 -0.2574101570832959 0.22971939663687391 0 -0.25699538715464082 0.23905233796863981 0 -0.25699538715464082 0.23905233796863981 0 -0.25693865295534157 0.25278860643768353 0 -0.2470081454867771 0.2422065880623451 0 -0.25699538715464082 0.23905233796863981 0 -0.26614348890836192 0.24293385421211869 0 -0.25693865295534157 0.25278860643768353 0 -0.26614348890836192 0.24293385421211869 0 -0.2724296921133022 0.25217156250687062 0 -0.25693865295534157 0.25278860643768353 0 -0.26614348890836192 0.24293385421211869 0 -0.28058301219108422 0.24181621635705669 0 -0.2724296921133022 0.25217156250687062 0 -0.28058301219108422 0.24181621635705669 0 -0.28985028671148488 0.25537141990030859 0 -0.2724296921133022 0.25217156250687062 0 -0.26614348890836192 0.24293385421211869 0 -0.26819560602517328 0.23507842756581021 0 -0.28058301219108422 0.24181621635705669 0 -0.27131573767068418 0.22826101281380451 0 -0.26819560602517328 0.23507842756581021 0 -0.28058301219108422 0.24181621635705669 0 -0.27131573767068418 0.22826101281380451 0 -0.28058301219108422 0.24181621635705669 0 -0.29326612220823411 0.13512644163735801 0 -0.28648818467010168 0.15636331808772699 0 -0.27141175194646833 0.1445184244171912 0 -0.29326612220823411 0.13512644163735801 0 -0.30739524272803709 0.15185112365938391 0 -0.28648818467010168 0.15636331808772699 0 -0.30739524272803709 0.15185112365938391 0 -0.31211500736378339 0.1240031522641292 0 -0.29326612220823411 0.13512644163735801 0 -0.30739524272803709 0.15185112365938391 0 -0.31211500736378339 0.1240031522641292 0 -0.30739524272803709 0.15185112365938391 0 -0.28648818467010168 0.15636331808772699 0 -0.30739524272803709 0.15185112365938391 0 -0.30309072178415769 0.17724903761626601 0 -0.3167678101826048 0.16359462978275929 0 -0.30739524272803709 0.15185112365938391 0 -0.30309072178415769 0.17724903761626601 0 -0.30739524272803709 0.15185112365938391 0 -0.30309072178415769 0.17724903761626601 0 -0.28648818467010168 0.15636331808772699 0 -0.31632076704925127 0.18575639557221951 0 -0.3167678101826048 0.16359462978275929 0 -0.30309072178415769 0.17724903761626601 0 -0.30309072178415769 0.17724903761626601 0 -0.28752446549241689 0.1832489647230989 0 -0.28381669143151822 0.17107272026056419 0 -0.29379102496831272 0.19588048929947419 0 -0.30309072178415769 0.17724903761626601 0 -0.28752446549241689 0.1832489647230989 0 -0.28752446549241689 0.1832489647230989 0 -0.28381669143151822 0.17107272026056419 0 -0.27494974420821611 0.1793112011395637 0 -0.30309072178415769 0.17724903761626601 0 -0.28648818467010168 0.15636331808772699 0 -0.28381669143151822 0.17107272026056419 0 -0.28648818467010168 0.15636331808772699 0 -0.28381669143151822 0.17107272026056419 0 -0.26558112661216632 0.16087551251606999 0 -0.28381669143151822 0.17107272026056419 0 -0.27494974420821611 0.1793112011395637 0 -0.26558112661216632 0.16087551251606999 0 -0.28648818467010168 0.15636331808772699 0 -0.26558112661216632 0.16087551251606999 0 -0.27494974420821611 0.1793112011395637 0 -0.26084394980388648 0.17618123618614701 0 -0.26558112661216632 0.16087551251606999 0 -0.2659766044530758 0.19238405035351089 0 -0.27494974420821611 0.1793112011395637 0 -0.26084394980388648 0.17618123618614701 0 -0.28124953787461371 0.1935735916895788 0 -0.28752446549241689 0.1832489647230989 0 -0.27494974420821611 0.1793112011395637 0 -0.2659766044530758 0.19238405035351089 0 -0.26084394980388648 0.17618123618614701 0 -0.24947341468037071 0.1874691479585941 0 -0.26084394980388648 0.17618123618614701 0 -0.24467406855423091 0.1653877069444131 0 -0.24947341468037071 0.1874691479585941 0 -0.26558112661216632 0.16087551251606999 0 -0.24467406855423091 0.1653877069444131 0 -0.26558112661216632 0.16087551251606999 0 -0.2543915534089356 0.15018751405662761 0 -0.24467406855423091 0.1653877069444131 0 -0.26084394980388648 0.17618123618614701 0 -0.26558112661216632 0.16087551251606999 0 -0.24467406855423091 0.1653877069444131 0 -0.26558112661216632 0.16087551251606999 0 -0.2543915534089356 0.15018751405662761 0 -0.27141175194646833 0.1445184244171912 0 -0.2543915534089356 0.15018751405662761 0 -0.27141175194646833 0.1445184244171912 0 -0.25477231595188199 0.13792181725732239 0 -0.28648818467010168 0.15636331808772699 0 -0.26558112661216632 0.16087551251606999 0 -0.27141175194646833 0.1445184244171912 0 -0.29326612220823411 0.13512644163735801 0 -0.27141175194646833 0.1445184244171912 0 -0.27545980130109921 0.1239996051278405 0 -0.27141175194646833 0.1445184244171912 0 -0.25477231595188199 0.13792181725732239 0 -0.27545980130109921 0.1239996051278405 0 -0.25477231595188199 0.13792181725732239 0 -0.27545980130109921 0.1239996051278405 0 -0.25477231595188199 0.13792181725732239 0 -0.27545980130109921 0.1239996051278405 0 -0.2495823492922267 0.12121763785839371 0 -0.25610310449345419 0.1041046972302731 0 -0.27545980130109921 0.1239996051278405 0 -0.2495823492922267 0.12121763785839371 0 -0.25610310449345419 0.1041046972302731 0 -0.25413031243694739 0.089521027236778197 0 -0.2427234934652894 0.090762762990284518 0 -0.25610310449345419 0.1041046972302731 0 -0.26471001572300679 0.091779207982481292 0 -0.25413031243694739 0.089521027236778197 0 -0.25610310449345419 0.1041046972302731 0 -0.27632390472144541 0.10600366135062909 0 -0.26471001572300679 0.091779207982481292 0 -0.27632390472144541 0.10600366135062909 0 -0.27815219556391091 0.091433986845849968 0 -0.26471001572300679 0.091779207982481292 0 -0.27632390472144541 0.10600366135062909 0 -0.28783094919658059 0.096999283795453681 0 -0.27815219556391091 0.091433986845849968 0 -0.25610310449345419 0.1041046972302731 0 -0.27632390472144541 0.10600366135062909 0 -0.27545980130109921 0.1239996051278405 0 -0.27545980130109921 0.1239996051278405 0 -0.29614728665031642 0.1100773929983587 0 -0.29326612220823411 0.13512644163735801 0 -0.27545980130109921 0.1239996051278405 0 -0.29614728665031642 0.1100773929983587 0 -0.27632390472144541 0.10600366135062909 0 -0.27545980130109921 0.1239996051278405 0 -0.29614728665031642 0.1100773929983587 0 -0.27632390472144541 0.10600366135062909 0 -0.29614728665031642 0.1100773929983587 0 -0.28783094919658059 0.096999283795453681 0 -0.29614728665031642 0.1100773929983587 0 -0.28783094919658059 0.096999283795453681 0 -0.29903425758953422 0.090155638130954882 0 -0.29614728665031642 0.1100773929983587 0 -0.29903425758953422 0.090155638130954882 0 -0.31683477199953253 0.096155180868875256 0 -0.29614728665031642 0.1100773929983587 0 -0.31683477199953253 0.096155180868875256 0 -0.29614728665031642 0.1100773929983587 0 -0.31211500736378339 0.1240031522641292 0 -0.31683477199953253 0.096155180868875256 0 -0.29326612220823411 0.13512644163735801 0 -0.29614728665031642 0.1100773929983587 0 -0.31211500736378339 0.1240031522641292 0 -0.30635830999651792 0.07761242167179265 0 -0.30189037325813839 0.060543452134012458 0 -0.32146679815367007 0.068824891797761426 0 -0.30635830999651792 0.07761242167179265 0 -0.29256534898171721 0.072382945427359638 0 -0.30189037325813839 0.060543452134012458 0 -0.30635830999651792 0.07761242167179265 0 -0.29903425758953422 0.090155638130954882 0 -0.29256534898171721 0.072382945427359638 0 -0.30635830999651792 0.07761242167179265 0 -0.29903425758953422 0.090155638130954882 0 -0.31683477199953253 0.096155180868875256 0 -0.29903425758953422 0.090155638130954882 0 -0.28572263353681682 0.08337299634339973 0 -0.29256534898171721 0.072382945427359638 0 -0.28783094919658059 0.096999283795453681 0 -0.29903425758953422 0.090155638130954882 0 -0.28572263353681682 0.08337299634339973 0 -0.28783094919658059 0.096999283795453681 0 -0.28572263353681682 0.08337299634339973 0 -0.27815219556391091 0.091433986845849968 0 -0.28572263353681682 0.08337299634339973 0 -0.29256534898171721 0.072382945427359638 0 -0.28059357561043269 0.073644623599786935 0 -0.29256534898171721 0.072382945427359638 0 -0.29088471103165969 0.062671374321780771 0 -0.30189037325813839 0.060543452134012458 0 -0.29256534898171721 0.072382945427359638 0 -0.29088471103165969 0.062671374321780771 0 -0.28261649390190829 0.064291953838756216 0 -0.29256534898171721 0.072382945427359638 0 -0.28261649390190829 0.064291953838756216 0 -0.28059357561043269 0.073644623599786935 0 -0.28261649390190829 0.064291953838756216 0 -0.27678196032587499 0.069585006034529676 0 -0.27195195811963518 0.06635492754641531 0 -0.26855373331756138 0.063547936276670339 0 -0.27195195811963518 0.06635492754641531 0 -0.25743728825439521 0.07924270920583569 0 -0.28261649390190829 0.064291953838756216 0 -0.27678196032587499 0.069585006034529676 0 -0.28059357561043269 0.073644623599786935 0 -0.27678196032587499 0.069585006034529676 0 -0.27196581367152378 0.074048519153160283 0 -0.27195195811963518 0.06635492754641531 0 -0.27678196032587499 0.069585006034529676 0 -0.28059357561043269 0.073644623599786935 0 -0.27196581367152378 0.074048519153160283 0 -0.28059357561043269 0.073644623599786935 0 -0.27196581367152378 0.074048519153160283 0 -0.27303575277029413 0.081855029780232597 0 -0.27196581367152378 0.074048519153160283 0 -0.27195195811963518 0.06635492754641531 0 -0.25743728825439521 0.07924270920583569 0 -0.28572263353681682 0.08337299634339973 0 -0.27815219556391091 0.091433986845849968 0 -0.27303575277029413 0.081855029780232597 0 -0.28572263353681682 0.08337299634339973 0 -0.28059357561043269 0.073644623599786935 0 -0.27303575277029413 0.081855029780232597 0 -0.27196581367152378 0.074048519153160283 0 -0.27303575277029413 0.081855029780232597 0 -0.25743728825439521 0.07924270920583569 0 -0.27815219556391091 0.091433986845849968 0 -0.27303575277029413 0.081855029780232597 0 -0.26471001572300679 0.091779207982481292 0 -0.26471001572300679 0.091779207982481292 0 -0.25743728825439521 0.07924270920583569 0 -0.25413031243694739 0.089521027236778197 0 -0.27303575277029413 0.081855029780232597 0 -0.26471001572300679 0.091779207982481292 0 -0.25743728825439521 0.07924270920583569 0 -0.25743728825439521 0.07924270920583569 0 -0.25064083865024739 0.073628726666345984 0 -0.24857020570659841 0.081659589420377987 0 -0.25743728825439521 0.07924270920583569 0 -0.25413031243694739 0.089521027236778197 0 -0.24857020570659841 0.081659589420377987 0 -0.26855373331756138 0.063547936276670339 0 -0.25743728825439521 0.07924270920583569 0 -0.25064083865024739 0.073628726666345984 0 -0.26855373331756138 0.063547936276670339 0 -0.25064083865024739 0.073628726666345984 0 -0.2562734301216873 0.062061687155910393 0 -0.26855373331756138 0.063547936276670339 0 -0.25064083865024739 0.073628726666345984 0 -0.27195195811963518 0.06635492754641531 0 -0.25743728825439521 0.07924270920583569 0 -0.25064083865024739 0.073628726666345984 0 -0.2562734301216873 0.062061687155910393 0 -0.24829977196364941 0.065213336215906109 0 -0.2623477931936597 0.053657636987073307 0 -0.25116276906762952 0.054241108780248931 0 -0.26153642505613889 0.036367366133998442 0 -0.2562734301216873 0.062061687155910393 0 -0.2623477931936597 0.053657636987073307 0 -0.25116276906762952 0.054241108780248931 0 -0.2562734301216873 0.062061687155910393 0 -0.25116276906762952 0.054241108780248931 0 -0.24829977196364941 0.065213336215906109 0 -0.26855373331756138 0.063547936276670339 0 -0.2562734301216873 0.062061687155910393 0 -0.2623477931936597 0.053657636987073307 0 -0.25116276906762952 0.054241108780248931 0 -0.26153642505613889 0.036367366133998442 0 -0.239388393447095 0.04766651035075449 0 -0.2623477931936597 0.053657636987073307 0 -0.26153642505613889 0.036367366133998442 0 -0.27323710809808138 0.049716314049096537 0 -0.26153642505613889 0.036367366133998442 0 -0.28732673365434691 0.040933413293477772 0 -0.26153642505613889 0.036367366133998442 0 -0.2825074511423824 0.030310297232740709 0 -0.28732673365434691 0.040933413293477772 0 -0.26153642505613889 0.036367366133998442 0 -0.27323710809808138 0.049716314049096537 0 -0.28732673365434691 0.040933413293477772 0 -0.26855373331756138 0.063547936276670339 0 -0.27195195811963518 0.06635492754641531 0 -0.28646662798487532 0.053467145886994819 0 -0.26855373331756138 0.063547936276670339 0 -0.28646662798487532 0.053467145886994819 0 -0.26855373331756138 0.063547936276670339 0 -0.27323710809808138 0.049716314049096537 0 -0.28646662798487532 0.053467145886994819 0 -0.27195195811963518 0.06635492754641531 0 -0.28646662798487532 0.053467145886994819 0 -0.28261649390190829 0.064291953838756216 0 -0.27195195811963518 0.06635492754641531 0 -0.28646662798487532 0.053467145886994819 0 -0.26855373331756138 0.063547936276670339 0 -0.2623477931936597 0.053657636987073307 0 -0.27323710809808138 0.049716314049096537 0 -0.26176261374782622 0.0098260211376069873 0 -0.24854849079604721 0.020569936005881421 0 -0.24598119983726671 0.0037338506766126851 0 -0.26003022337954462 -0.0038093911555793728 0 -0.26176261374782622 0.0098260211376069873 0 -0.24598119983726671 0.0037338506766126851 0 -0.26003022337954462 -0.0038093911555793728 0 -0.27433688946420332 -0.0007833753365484626 0 -0.26176261374782622 0.0098260211376069873 0 -0.26153642505613889 0.036367366133998442 0 -0.26176261374782622 0.0098260211376069873 0 -0.24854849079604721 0.020569936005881421 0 -0.26153642505613889 0.036367366133998442 0 -0.26176261374782622 0.0098260211376069873 0 -0.27684491432135683 0.017453585025194441 0 -0.26153642505613889 0.036367366133998442 0 -0.27684491432135683 0.017453585025194441 0 -0.2825074511423824 0.030310297232740709 0 -0.27433688946420332 -0.0007833753365484626 0 -0.26176261374782622 0.0098260211376069873 0 -0.27684491432135683 0.017453585025194441 0 -0.27433688946420332 -0.0007833753365484626 0 -0.27684491432135683 0.017453585025194441 0 -0.28842838408131971 0.0076205693905790281 0 -0.28842838408131971 0.0076205693905790281 0 -0.29131927560690712 0.022062190579302341 0 -0.29989828236451899 0.011495108916467369 0 -0.27684491432135683 0.017453585025194441 0 -0.29131927560690712 0.022062190579302341 0 -0.2825074511423824 0.030310297232740709 0 -0.27684491432135683 0.017453585025194441 0 -0.28842838408131971 0.0076205693905790281 0 -0.29131927560690712 0.022062190579302341 0 -0.29131927560690712 0.022062190579302341 0 -0.2825074511423824 0.030310297232740709 0 -0.29550990707316249 0.034734931131730561 0 -0.29131927560690712 0.022062190579302341 0 -0.30587597075389272 0.02137954460474218 0 -0.29550990707316249 0.034734931131730561 0 -0.30587597075389272 0.02137954460474218 0 -0.29550990707316249 0.034734931131730561 0 -0.30859873922341308 0.03381572977126493 0 -0.29131927560690712 0.022062190579302341 0 -0.30587597075389272 0.02137954460474218 0 -0.29989828236451899 0.011495108916467369 0 -0.3025805037907468 -0.0027432771802810229 0 -0.3204068892458079 -0.0014125807301150939 0 -0.31128727758972891 0.0091565171879943417 0 -0.30587597075389272 0.02137954460474218 0 -0.29989828236451899 0.011495108916467369 0 -0.31128727758972891 0.0091565171879943417 0 -0.3025805037907468 -0.0027432771802810229 0 -0.29989828236451899 0.011495108916467369 0 -0.31128727758972891 0.0091565171879943417 0 -0.3025805037907468 -0.0027432771802810229 0 -0.28842838408131971 0.0076205693905790281 0 -0.29989828236451899 0.011495108916467369 0 -0.28646662798487532 0.053467145886994819 0 -0.304010183261538 0.043594207608826187 0 -0.29088471103165969 0.062671374321780771 0 -0.28646662798487532 0.053467145886994819 0 -0.30189037325813839 0.060543452134012458 0 -0.29088471103165969 0.062671374321780771 0 -0.28261649390190829 0.064291953838756216 0 -0.28646662798487532 0.053467145886994819 0 -0.27323710809808138 0.049716314049096537 0 -0.28646662798487532 0.053467145886994819 0 -0.28732673365434691 0.040933413293477772 0 -0.28646662798487532 0.053467145886994819 0 -0.29550990707316249 0.034734931131730561 0 -0.30859873922341308 0.03381572977126493 0 -0.28646662798487532 0.053467145886994819 0 -0.28732673365434691 0.040933413293477772 0 -0.29550990707316249 0.034734931131730561 0 -0.2825074511423824 0.030310297232740709 0 -0.28732673365434691 0.040933413293477772 0 -0.29550990707316249 0.034734931131730561 0 -0.28646662798487532 0.053467145886994819 0 -0.30859873922341308 0.03381572977126493 0 -0.28646662798487532 0.053467145886994819 0 -0.304010183261538 0.043594207608826187 0 -0.30859873922341308 0.03381572977126493 0 -0.304010183261538 0.043594207608826187 0 -0.30859873922341308 0.03381572977126493 0 -0.32155373853820057 0.033721269330657687 0 -0.304010183261538 0.043594207608826187 0 -0.3137915997446068 0.051476736654279882 0 -0.31549181974187701 0.042926529004151233 0 -0.28646662798487532 0.053467145886994819 0 -0.304010183261538 0.043594207608826187 0 -0.30189037325813839 0.060543452134012458 0 -0.30189037325813839 0.060543452134012458 0 -0.3137915997446068 0.051476736654279882 0 -0.32146679815367007 0.068824891797761426 0 -0.304010183261538 0.043594207608826187 0 -0.30189037325813839 0.060543452134012458 0 -0.3137915997446068 0.051476736654279882 0 -0.3137915997446068 0.051476736654279882 0 -0.32609882430781029 0.041494602726648067 0 -0.32146679815367007 0.068824891797761426 0 -0.32609882430781029 0.041494602726648067 0 -0.32146679815367007 0.068824891797761426 0 -0.3137915997446068 0.051476736654279882 0 -0.31549181974187701 0.042926529004151233 0 -0.32609882430781029 0.041494602726648067 0 -0.304010183261538 0.043594207608826187 0 -0.31549181974187701 0.042926529004151233 0 -0.32155373853820057 0.033721269330657687 0 -0.304010183261538 0.043594207608826187 0 -0.32155373853820057 0.033721269330657687 0 -0.31549181974187701 0.042926529004151233 0 -0.32155373853820057 0.033721269330657687 0 -0.32609882430781029 0.041494602726648067 0 -0.32609882430781029 0.041494602726648067 0 -0.34385517732675519 0.031131612817745031 0 -0.35163198926140088 0.046228739452983239 0 -0.32609882430781029 0.041494602726648067 0 -0.338272543408071 0.060603673933957783 0 -0.32146679815367007 0.068824891797761426 0 -0.32609882430781029 0.041494602726648067 0 -0.338272543408071 0.060603673933957783 0 -0.35163198926140088 0.046228739452983239 0 -0.3204068892458079 -0.0014125807301150939 0 -0.31128727758972891 0.0091565171879943417 0 -0.33073085046195078 0.01416431365553468 0 -0.30587597075389272 0.02137954460474218 0 -0.31128727758972891 0.0091565171879943417 0 -0.33073085046195078 0.01416431365553468 0 -0.30859873922341308 0.03381572977126493 0 -0.33073085046195078 0.01416431365553468 0 -0.30587597075389272 0.02137954460474218 0 -0.30859873922341308 0.03381572977126493 0 -0.33073085046195078 0.01416431365553468 0 -0.32155373853820057 0.033721269330657687 0 -0.32609882430781029 0.041494602726648067 0 -0.33073085046195078 0.01416431365553468 0 -0.30859873922341308 0.03381572977126493 0 -0.32155373853820057 0.033721269330657687 0 -0.33073085046195078 0.01416431365553468 0 -0.32609882430781029 0.041494602726648067 0 -0.33073085046195078 0.01416431365553468 0 -0.33073085046195078 0.01416431365553468 0 -0.34385517732675519 0.031131612817745031 0 -0.35381837275022032 0.01853105722209741 0 -0.32609882430781029 0.041494602726648067 0 -0.33073085046195078 0.01416431365553468 0 -0.34385517732675519 0.031131612817745031 0 -0.33540629353460438 -0.01342214774580049 0 -0.33073085046195078 0.01416431365553468 0 -0.35221409618436439 -0.0049109655465913588 0 -0.33073085046195078 0.01416431365553468 0 -0.35221409618436439 -0.0049109655465913588 0 -0.34857824671955512 -0.007874197240844389 0 -0.33073085046195078 0.01416431365553468 0 -0.35221409618436439 -0.0049109655465913588 0 -0.33073085046195078 0.01416431365553468 0 -0.34939877662876639 0.0070576099193848619 0 -0.33073085046195078 0.01416431365553468 0 -0.34939877662876639 0.0070576099193848619 0 -0.35381837275022032 0.01853105722209741 0 -0.35900139338342918 0.0020097317905480609 0 -0.34939877662876639 0.0070576099193848619 0 -0.35834074471334648 0.0096788928264882005 0 -0.35509488683577939 -0.0004162838960613095 0 -0.35900139338342918 0.0020097317905480609 0 -0.34939877662876639 0.0070576099193848619 0 -0.35509488683577939 -0.0004162838960613095 0 -0.35221409618436439 -0.0049109655465913588 0 -0.34939877662876639 0.0070576099193848619 0 -0.34939877662876639 0.0070576099193848619 0 -0.35834074471334648 0.0096788928264882005 0 -0.35381837275022032 0.01853105722209741 0 -0.34385517732675519 0.031131612817745031 0 -0.35381837275022032 0.01853105722209741 0 -0.36551724687399623 0.028318485711261141 0 -0.37937813184432773 0.031366277704107569 0 -0.36551724687399623 0.028318485711261141 0 -0.37479293228070759 0.022502646493578662 0 -0.36551724687399623 0.028318485711261141 0 -0.37479293228070759 0.022502646493578662 0 -0.36730783543836809 0.01519693074799966 0 -0.3778438638662554 0.014761087644765769 0 -0.37479293228070759 0.022502646493578662 0 -0.36730783543836809 0.01519693074799966 0 -0.35381837275022032 0.01853105722209741 0 -0.36551724687399623 0.028318485711261141 0 -0.36730783543836809 0.01519693074799966 0 -0.35834074471334648 0.0096788928264882005 0 -0.36730783543836809 0.01519693074799966 0 -0.36603012090457948 0.0050917054244422654 0 -0.35834074471334648 0.0096788928264882005 0 -0.35381837275022032 0.01853105722209741 0 -0.36730783543836809 0.01519693074799966 0 -0.36730783543836809 0.01519693074799966 0 -0.37464316483836829 0.0066416053135349984 0 -0.36603012090457948 0.0050917054244422654 0 -0.3778438638662554 0.014761087644765769 0 -0.36730783543836809 0.01519693074799966 0 -0.37464316483836829 0.0066416053135349984 0 -0.37126952376897032 -0.00085078512189483576 0 -0.37774077980655368 -0.001289555558904682 0 -0.37464316483836829 0.0066416053135349984 0 -0.37126952376897032 -0.00085078512189483576 0 -0.37464316483836829 0.0066416053135349984 0 -0.36603012090457948 0.0050917054244422654 0 -0.37126952376897032 -0.00085078512189483576 0 -0.36494834593608783 -0.001298186014321303 0 -0.36603012090457948 0.0050917054244422654 0 -0.36494834593608783 -0.001298186014321303 0 -0.35900139338342918 0.0020097317905480609 0 -0.36603012090457948 0.0050917054244422654 0 -0.35900139338342918 0.0020097317905480609 0 -0.35834074471334648 0.0096788928264882005 0 -0.36603012090457948 0.0050917054244422654 0 -0.35163198926140088 0.046228739452983239 0 -0.36891219827968119 0.060077996683558232 0 -0.35298131256760962 0.063034912088641357 0 -0.338272543408071 0.060603673933957783 0 -0.35163198926140088 0.046228739452983239 0 -0.35298131256760962 0.063034912088641357 0 -0.34385517732675519 0.031131612817745031 0 -0.36551724687399623 0.028318485711261141 0 -0.35163198926140088 0.046228739452983239 0 -0.36551724687399623 0.028318485711261141 0 -0.35163198926140088 0.046228739452983239 0 -0.37261014177358448 0.043145835856899219 0 -0.37937813184432773 0.031366277704107569 0 -0.36551724687399623 0.028318485711261141 0 -0.37261014177358448 0.043145835856899219 0 -0.35163198926140088 0.046228739452983239 0 -0.37261014177358448 0.043145835856899219 0 -0.36891219827968119 0.060077996683558232 0 -0.38207463336695202 0.051047668856640811 0 -0.37261014177358448 0.043145835856899219 0 -0.36891219827968119 0.060077996683558232 0 -0.37929074908003868 0.077603726490867345 0 -0.35694138538550352 0.073855345321458488 0 -0.37929074908003868 0.077603726490867345 0 -0.36891219827968119 0.060077996683558232 0 -0.35694138538550352 0.073855345321458488 0 -0.36891219827968119 0.060077996683558232 0 -0.35298131256760962 0.063034912088641357 0 -0.35694138538550352 0.073855345321458488 0 -0.35298131256760962 0.063034912088641357 0 -0.35694138538550352 0.073855345321458488 0 -0.34914844650339177 0.074408805051249083 0 -0.35694138538550352 0.073855345321458488 0 -0.34914844650339177 0.074408805051249083 0 -0.35387282561504041 0.085789381247760657 0 -0.338272543408071 0.060603673933957783 0 -0.35298131256760962 0.063034912088641357 0 -0.34914844650339177 0.074408805051249083 0 -0.34914844650339177 0.074408805051249083 0 -0.35387282561504041 0.085789381247760657 0 -0.33299160925146271 0.085281992960062933 0 -0.35694138538550352 0.073855345321458488 0 -0.35387282561504041 0.085789381247760657 0 -0.36438159895332511 0.085691586513687634 0 -0.35387282561504041 0.085789381247760657 0 -0.36438159895332511 0.085691586513687634 0 -0.35579278546844412 0.098564625017930646 0 -0.37929074908003868 0.077603726490867345 0 -0.35694138538550352 0.073855345321458488 0 -0.36438159895332511 0.085691586513687634 0 -0.37929074908003868 0.077603726490867345 0 -0.36438159895332511 0.085691586513687634 0 -0.37090825683648998 0.098456277756480637 0 -0.37090825683648998 0.098456277756480637 0 -0.36904533532088801 0.1177582563576956 0 -0.35579278546844412 0.098564625017930646 0 -0.36438159895332511 0.085691586513687634 0 -0.37090825683648998 0.098456277756480637 0 -0.35579278546844412 0.098564625017930646 0 -0.35823941519022368 0.13573745574644491 0 -0.36904533532088801 0.1177582563576956 0 -0.35158166360451942 0.11704707172714621 0 -0.36904533532088801 0.1177582563576956 0 -0.35158166360451942 0.11704707172714621 0 -0.35579278546844412 0.098564625017930646 0 -0.35158166360451942 0.11704707172714621 0 -0.35579278546844412 0.098564625017930646 0 -0.34047962299512569 0.099373871294989508 0 -0.35387282561504041 0.085789381247760657 0 -0.35579278546844412 0.098564625017930646 0 -0.34047962299512569 0.099373871294989508 0 -0.34047962299512569 0.099373871294989508 0 -0.33231339904552459 0.1171762944261375 0 -0.31683477199953253 0.096155180868875256 0 -0.34455851703438989 0.13305210298766909 0 -0.35158166360451942 0.11704707172714621 0 -0.33231339904552459 0.1171762944261375 0 -0.35158166360451942 0.11704707172714621 0 -0.34047962299512569 0.099373871294989508 0 -0.33231339904552459 0.1171762944261375 0 -0.31211500736378339 0.1240031522641292 0 -0.31683477199953253 0.096155180868875256 0 -0.31211500736378339 0.1240031522641292 0 -0.33231339904552459 0.1171762944261375 0 -0.31683477199953253 0.096155180868875256 0 -0.30635830999651792 0.07761242167179265 0 -0.31683477199953253 0.096155180868875256 0 -0.32146679815367007 0.068824891797761426 0 -0.31683477199953253 0.096155180868875256 0 -0.32146679815367007 0.068824891797761426 0 -0.33299160925146271 0.085281992960062933 0 -0.31683477199953253 0.096155180868875256 0 -0.32146679815367007 0.068824891797761426 0 -0.31683477199953253 0.096155180868875256 0 -0.33299160925146271 0.085281992960062933 0 -0.338272543408071 0.060603673933957783 0 -0.32146679815367007 0.068824891797761426 0 -0.33576809196089219 0.072507027900731907 0 -0.32146679815367007 0.068824891797761426 0 -0.33576809196089219 0.072507027900731907 0 -0.33299160925146271 0.085281992960062933 0 -0.34914844650339177 0.074408805051249083 0 -0.33576809196089219 0.072507027900731907 0 -0.33299160925146271 0.085281992960062933 0 -0.338272543408071 0.060603673933957783 0 -0.34914844650339177 0.074408805051249083 0 -0.33576809196089219 0.072507027900731907 0 -0.35387282561504041 0.085789381247760657 0 -0.34047962299512569 0.099373871294989508 0 -0.33299160925146271 0.085281992960062933 0 -0.34914844650339177 0.074408805051249083 0 -0.33299160925146271 0.085281992960062933 0 -0.34047962299512569 0.099373871294989508 0 -0.31683477199953253 0.096155180868875256 0 -0.33299160925146271 0.085281992960062933 0 -0.3938434845513461 0.48000301234504228 0 -0.4154786193197833 0.47000451851756458 0 -0.40908183102320411 0.4845696213484928 0 -0.3938434845513461 0.48000301234504228 0 -0.40110135887996978 0.47332954189399812 0 -0.4154786193197833 0.47000451851756458 0 -0.3938434845513461 0.48000301234504228 0 -0.4154786193197833 0.47000451851756458 0 -0.3938434845513461 0.48000301234504228 0 -0.40110135887996978 0.47332954189399812 0 -0.38930270813857232 0.46778113184491188 0 -0.3938434845513461 0.48000301234504228 0 -0.39546946259238258 0.49128185561313598 0 -0.40908183102320411 0.4845696213484928 0 -0.40521342881326272 0.5 0 -0.39546946259238258 0.49128185561313598 0 -0.37789332191386737 0.5 0 -0.40521342881326272 0.5 0 -0.39546946259238258 0.49128185561313598 0 -0.40908183102320411 0.4845696213484928 0 -0.3938434845513461 0.48000301234504228 0 -0.39546946259238258 0.49128185561313598 0 -0.38517353549973538 0.49039659604947999 0 -0.3938434845513461 0.48000301234504228 0 -0.37220834978290879 0.49000150617251997 0 -0.39546946259238258 0.49128185561313598 0 -0.38517353549973538 0.49039659604947999 0 -0.37789332191386737 0.5 0 -0.3938434845513461 0.48000301234504228 0 -0.38517353549973538 0.49039659604947999 0 -0.37220834978290879 0.49000150617251997 0 -0.38517353549973538 0.49039659604947999 0 -0.37789332191386737 0.5 0 -0.37220834978290879 0.49000150617251997 0 -0.3938434845513461 0.48000301234504228 0 -0.37805640255927542 0.47903421333972468 0 -0.3842367001720054 0.47454362448235632 0 -0.3938434845513461 0.48000301234504228 0 -0.37805640255927542 0.47903421333972468 0 -0.37220834978290879 0.49000150617251997 0 -0.3842367001720054 0.47454362448235632 0 -0.37701653082709469 0.46900635458093531 0 -0.38930270813857232 0.46778113184491188 0 -0.3938434845513461 0.48000301234504228 0 -0.3842367001720054 0.47454362448235632 0 -0.38930270813857232 0.46778113184491188 0 -0.37805640255927542 0.47903421333972468 0 -0.3842367001720054 0.47454362448235632 0 -0.37701653082709469 0.46900635458093531 0 -0.37701653082709469 0.46900635458093531 0 -0.38677844954541418 0.45747132953460651 0 -0.37376195539900242 0.45249759326054367 0 -0.37701653082709469 0.46900635458093531 0 -0.38677844954541418 0.45747132953460651 0 -0.38930270813857232 0.46778113184491188 0 -0.38473584783684761 0.44354080077547992 0 -0.36778315087773072 0.43214877602771662 0 -0.37376195539900242 0.45249759326054367 0 -0.38677844954541418 0.45747132953460651 0 -0.38473584783684761 0.44354080077547992 0 -0.37376195539900242 0.45249759326054367 0 -0.38677844954541418 0.45747132953460651 0 -0.38473584783684761 0.44354080077547992 0 -0.39843898125590987 0.45231631840454728 0 -0.39843898125590987 0.45231631840454728 0 -0.4072920944712265 0.44499890251068641 0 -0.39856520721893041 0.43647578570475237 0 -0.38473584783684761 0.44354080077547992 0 -0.39843898125590987 0.45231631840454728 0 -0.39856520721893041 0.43647578570475237 0 -0.39843898125590987 0.45231631840454728 0 -0.39841490533913748 0.46178879282826651 0 -0.41709791082295028 0.45456801136960878 0 -0.40110135887996978 0.47332954189399812 0 -0.39841490533913748 0.46178879282826651 0 -0.41709791082295028 0.45456801136960878 0 -0.38677844954541418 0.45747132953460651 0 -0.38930270813857232 0.46778113184491188 0 -0.39841490533913748 0.46178879282826651 0 -0.40110135887996978 0.47332954189399812 0 -0.38930270813857232 0.46778113184491188 0 -0.39841490533913748 0.46178879282826651 0 -0.38677844954541418 0.45747132953460651 0 -0.39843898125590987 0.45231631840454728 0 -0.39841490533913748 0.46178879282826651 0 -0.40110135887996978 0.47332954189399812 0 -0.41709791082295028 0.45456801136960878 0 -0.4154786193197833 0.47000451851756458 0 -0.40110135887996978 0.47332954189399812 0 -0.41709791082295028 0.45456801136960878 0 -0.41709791082295028 0.45456801136960878 0 -0.42692569345801529 0.46340213249295897 0 -0.4154786193197833 0.47000451851756458 0 -0.41709791082295028 0.45456801136960878 0 -0.43309446276593089 0.43580648084521972 0 -0.41506627858711548 0.4366354945638371 0 -0.39843898125590987 0.45231631840454728 0 -0.41709791082295028 0.45456801136960878 0 -0.4072920944712265 0.44499890251068641 0 -0.4072920944712265 0.44499890251068641 0 -0.41506627858711548 0.4366354945638371 0 -0.39856520721893041 0.43647578570475237 0 -0.41709791082295028 0.45456801136960878 0 -0.4072920944712265 0.44499890251068641 0 -0.41506627858711548 0.4366354945638371 0 -0.41709791082295028 0.45456801136960878 0 -0.43251943231727258 0.45189802077753072 0 -0.43309446276593089 0.43580648084521972 0 -0.41709791082295028 0.45456801136960878 0 -0.43309446276593089 0.43580648084521972 0 -0.43251943231727258 0.45189802077753072 0 -0.44285055445462801 0.44408738363144917 0 -0.43309446276593089 0.43580648084521972 0 -0.43251943231727258 0.45189802077753072 0 -0.42692569345801529 0.46340213249295897 0 -0.44262854008483871 0.46162609554841733 0 -0.42692569345801529 0.46340213249295897 0 -0.43014133963940671 0.47900644757454591 0 -0.44262854008483871 0.46162609554841733 0 -0.41709791082295028 0.45456801136960878 0 -0.43251943231727258 0.45189802077753072 0 -0.42692569345801529 0.46340213249295897 0 -0.42692569345801529 0.46340213249295897 0 -0.43014133963940671 0.47900644757454591 0 -0.4154786193197833 0.47000451851756458 0 -0.43014133963940671 0.47900644757454591 0 -0.4154786193197833 0.47000451851756458 0 -0.40908183102320411 0.4845696213484928 0 -0.40521342881326272 0.5 0 -0.40908183102320411 0.4845696213484928 0 -0.43253353571265801 0.5 0 -0.43014133963940671 0.47900644757454591 0 -0.40908183102320411 0.4845696213484928 0 -0.43253353571265801 0.5 0 -0.43014133963940671 0.47900644757454591 0 -0.43253353571265801 0.5 0 -0.44984012809851409 0.48033494727474779 0 -0.43253353571265801 0.5 0 -0.44984012809851409 0.48033494727474779 0 -0.45985364261205308 0.50000000000000111 0 -0.43014133963940671 0.47900644757454591 0 -0.44984012809851409 0.48033494727474779 0 -0.44262854008483871 0.46162609554841733 0 -0.44984012809851409 0.48033494727474779 0 -0.47312811744354261 0.47395110078869013 0 -0.45820768181792781 0.46325373185340701 0 -0.45985364261205308 0.50000000000000111 0 -0.47312811744354261 0.47395110078869013 0 -0.44984012809851409 0.48033494727474779 0 -0.45985364261205308 0.50000000000000111 0 -0.47312811744354261 0.47395110078869013 0 -0.5 0.5 0 -0.47312811744354261 0.47395110078869013 0 -0.49999999999999972 0.44664233614409321 0 -0.45985364261205308 0.50000000000000111 0 -0.5 0.5 0 -0.47312811744354261 0.47395110078869013 0 -0.48640259227503152 0.44790220157737892 0 -0.49999999999999972 0.44664233614409321 0 -0.47883616718389621 0.43347798499105172 0 -0.49999999999999972 0.44664233614409321 0 -0.47883616718389621 0.43347798499105172 0 -0.47312811744354261 0.47395110078869013 0 -0.48640259227503152 0.44790220157737892 0 -0.49999999999999972 0.44664233614409321 0 -0.47312811744354261 0.47395110078869013 0 -0.48640259227503152 0.44790220157737892 0 -0.47312811744354261 0.47395110078869013 0 -0.48640259227503152 0.44790220157737892 0 -0.46932328621444303 0.45009797021529852 0 -0.46932328621444303 0.45009797021529852 0 -0.46288197751253979 0.435741310408158 0 -0.47883616718389621 0.43347798499105172 0 -0.48640259227503152 0.44790220157737892 0 -0.46932328621444303 0.45009797021529852 0 -0.47883616718389621 0.43347798499105172 0 -0.46932328621444303 0.45009797021529852 0 -0.45653044061400749 0.44574373859450739 0 -0.46288197751253979 0.435741310408158 0 -0.46932328621444303 0.45009797021529852 0 -0.45653044061400749 0.44574373859450739 0 -0.45820768181792781 0.46325373185340701 0 -0.45653044061400749 0.44574373859450739 0 -0.44988321330808601 0.43264183945635343 0 -0.46288197751253979 0.435741310408158 0 -0.47312811744354261 0.47395110078869013 0 -0.46932328621444303 0.45009797021529852 0 -0.45820768181792781 0.46325373185340701 0 -0.45653044061400749 0.44574373859450739 0 -0.45820768181792781 0.46325373185340701 0 -0.44262854008483871 0.46162609554841733 0 -0.44984012809851409 0.48033494727474779 0 -0.45820768181792781 0.46325373185340701 0 -0.44262854008483871 0.46162609554841733 0 -0.43251943231727258 0.45189802077753072 0 -0.44262854008483871 0.46162609554841733 0 -0.44285055445462801 0.44408738363144917 0 -0.45653044061400749 0.44574373859450739 0 -0.44262854008483871 0.46162609554841733 0 -0.44285055445462801 0.44408738363144917 0 -0.44285055445462801 0.44408738363144917 0 -0.44988321330808601 0.43264183945635343 0 -0.43309446276593089 0.43580648084521972 0 -0.45653044061400749 0.44574373859450739 0 -0.44285055445462801 0.44408738363144917 0 -0.44988321330808601 0.43264183945635343 0 -0.44909101470891138 0.41704495032083061 0 -0.43309446276593089 0.43580648084521972 0 -0.44988321330808601 0.43264183945635343 0 -0.44909101470891138 0.41704495032083061 0 -0.43309446276593089 0.43580648084521972 0 -0.44988321330808601 0.43264183945635343 0 -0.44909101470891138 0.41704495032083061 0 -0.45767233436779298 0.42031363383801013 0 -0.44909101470891138 0.41704495032083061 0 -0.43642708593841462 0.41129790334070748 0 -0.43309446276593089 0.43580648084521972 0 -0.44909101470891138 0.41704495032083061 0 -0.44923652684218601 0.40651161443480333 0 -0.43642708593841462 0.41129790334070748 0 -0.44909101470891138 0.41704495032083061 0 -0.46310762304278369 0.4136785712167641 0 -0.46508756665189233 0.39828341979644161 0 -0.44909101470891138 0.41704495032083061 0 -0.46508756665189233 0.39828341979644161 0 -0.44909101470891138 0.41704495032083061 0 -0.44923652684218601 0.40651161443480333 0 -0.46508756665189233 0.39828341979644161 0 -0.44909101470891138 0.41704495032083061 0 -0.45767233436779298 0.42031363383801013 0 -0.46310762304278369 0.4136785712167641 0 -0.45767233436779298 0.42031363383801013 0 -0.46310762304278369 0.4136785712167641 0 -0.4689935185142321 0.42014913325858988 0 -0.46310762304278369 0.4136785712167641 0 -0.47635794946245552 0.41312634298853379 0 -0.46508756665189233 0.39828341979644161 0 -0.45767233436779298 0.42031363383801013 0 -0.47883616718389621 0.43347798499105172 0 -0.4689935185142321 0.42014913325858988 0 -0.45767233436779298 0.42031363383801013 0 -0.46288197751253979 0.435741310408158 0 -0.47883616718389621 0.43347798499105172 0 -0.45767233436779298 0.42031363383801013 0 -0.47883616718389621 0.43347798499105172 0 -0.44988321330808601 0.43264183945635343 0 -0.45767233436779298 0.42031363383801013 0 -0.46288197751253979 0.435741310408158 0 -0.47883616718389621 0.43347798499105172 0 -0.47635794946245552 0.41312634298853379 0 -0.48714440641974271 0.42351608680749347 0 -0.47883616718389621 0.43347798499105172 0 -0.4689935185142321 0.42014913325858988 0 -0.47635794946245552 0.41312634298853379 0 -0.46310762304278369 0.4136785712167641 0 -0.4689935185142321 0.42014913325858988 0 -0.47635794946245552 0.41312634298853379 0 -0.47635794946245552 0.41312634298853379 0 -0.48901457958177968 0.41012265573874179 0 -0.48254378332594611 0.39722493186941499 0 -0.47635794946245552 0.41312634298853379 0 -0.48901457958177968 0.41012265573874179 0 -0.48714440641974271 0.42351608680749347 0 -0.48901457958177968 0.41012265573874179 0 -0.5 0.42140439004324071 0 -0.49999999999999978 0.39616644394238798 0 -0.48901457958177968 0.41012265573874179 0 -0.5 0.42140439004324071 0 -0.48714440641974271 0.42351608680749347 0 -0.49999999999999972 0.44664233614409321 0 -0.47883616718389621 0.43347798499105172 0 -0.48714440641974271 0.42351608680749347 0 -0.49999999999999972 0.44664233614409321 0 -0.5 0.42140439004324071 0 -0.48714440641974271 0.42351608680749347 0 -0.49007778645481631 0.38142997617552599 0 -0.49999999999999978 0.39616644394238798 0 -0.50000000000000311 0.3685517992903854 0 -0.49007778645481631 0.38142997617552599 0 -0.47611467569506138 0.38535029247959018 0 -0.48714178473823078 0.37241716516273898 0 -0.49999999999999978 0.39616644394238798 0 -0.48254378332594611 0.39722493186941499 0 -0.48901457958177968 0.41012265573874179 0 -0.49999999999999978 0.39616644394238798 0 -0.48254378332594611 0.39722493186941499 0 -0.49007778645481631 0.38142997617552599 0 -0.49999999999999978 0.39616644394238798 0 -0.48254378332594611 0.39722493186941499 0 -0.48254378332594611 0.39722493186941499 0 -0.46508756665189233 0.39828341979644161 0 -0.47635794946245552 0.41312634298853379 0 -0.48254378332594611 0.39722493186941499 0 -0.46508756665189233 0.39828341979644161 0 -0.48254378332594611 0.39722493186941499 0 -0.47611467569506138 0.38535029247959018 0 -0.46508756665189233 0.39828341979644161 0 -0.47611467569506138 0.38535029247959018 0 -0.46508756665189233 0.39828341979644161 0 -0.49007778645481631 0.38142997617552599 0 -0.48254378332594611 0.39722493186941499 0 -0.47611467569506138 0.38535029247959018 0 -0.47611467569506138 0.38535029247959018 0 -0.47397397291215421 0.37493689296344251 0 -0.48714178473823078 0.37241716516273898 0 -0.47611467569506138 0.38535029247959018 0 -0.48714178473823078 0.37241716516273898 0 -0.46871814716203669 0.37906981455344119 0 -0.46360543106569913 0.37231654924431878 0 -0.47397397291215421 0.37493689296344251 0 -0.47611467569506138 0.38535029247959018 0 -0.46871814716203669 0.37906981455344119 0 -0.47397397291215421 0.37493689296344251 0 -0.46871814716203669 0.37906981455344119 0 -0.46117850897523233 0.38367552352641338 0 -0.46360543106569913 0.37231654924431878 0 -0.47611467569506138 0.38535029247959018 0 -0.46871814716203669 0.37906981455344119 0 -0.46117850897523233 0.38367552352641338 0 -0.47611467569506138 0.38535029247959018 0 -0.46117850897523233 0.38367552352641338 0 -0.46508756665189233 0.39828341979644161 0 -0.46117850897523233 0.38367552352641338 0 -0.45400385251667602 0.39093091030285698 0 -0.45110956684876158 0.38402681738971201 0 -0.46117850897523233 0.38367552352641338 0 -0.45110956684876158 0.38402681738971201 0 -0.44813402172652672 0.37354371539476261 0 -0.46117850897523233 0.38367552352641338 0 -0.44813402172652672 0.37354371539476261 0 -0.46360543106569913 0.37231654924431878 0 -0.44923652684218601 0.40651161443480333 0 -0.46508756665189233 0.39828341979644161 0 -0.44634044006952572 0.39942018428123321 0 -0.46508756665189233 0.39828341979644161 0 -0.45400385251667602 0.39093091030285698 0 -0.44634044006952572 0.39942018428123321 0 -0.46508756665189233 0.39828341979644161 0 -0.44634044006952572 0.39942018428123321 0 -0.46117850897523233 0.38367552352641338 0 -0.46508756665189233 0.39828341979644161 0 -0.45400385251667602 0.39093091030285698 0 -0.45400385251667602 0.39093091030285698 0 -0.44634044006952572 0.39942018428123321 0 -0.44518347515021223 0.38837251913440451 0 -0.44634044006952572 0.39942018428123321 0 -0.44518347515021223 0.38837251913440451 0 -0.43728617553129168 0.39370672697544878 0 -0.44923652684218601 0.40651161443480333 0 -0.44634044006952572 0.39942018428123321 0 -0.43642708593841462 0.41129790334070748 0 -0.45110956684876158 0.38402681738971201 0 -0.44480856609964842 0.38185924381796288 0 -0.44813402172652672 0.37354371539476261 0 -0.45400385251667602 0.39093091030285698 0 -0.45110956684876158 0.38402681738971201 0 -0.44518347515021223 0.38837251913440451 0 -0.45110956684876158 0.38402681738971201 0 -0.44518347515021223 0.38837251913440451 0 -0.44480856609964842 0.38185924381796288 0 -0.44518347515021223 0.38837251913440451 0 -0.43913693036841173 0.38484964203092692 0 -0.43002747341826991 0.3864772557201327 0 -0.44518347515021223 0.38837251913440451 0 -0.43002747341826991 0.3864772557201327 0 -0.44518347515021223 0.38837251913440451 0 -0.43913693036841173 0.38484964203092692 0 -0.44480856609964842 0.38185924381796288 0 -0.44480856609964842 0.38185924381796288 0 -0.4393591315165738 0.37762743775392832 0 -0.44813402172652672 0.37354371539476261 0 -0.43913693036841173 0.38484964203092692 0 -0.44480856609964842 0.38185924381796288 0 -0.4393591315165738 0.37762743775392832 0 -0.43913693036841173 0.38484964203092692 0 -0.43173797726570751 0.37658334167695551 0 -0.43913693036841173 0.38484964203092692 0 -0.43173797726570751 0.37658334167695551 0 -0.43002747341826991 0.3864772557201327 0 -0.43913693036841173 0.38484964203092692 0 -0.4393591315165738 0.37762743775392832 0 -0.43173797726570751 0.37658334167695551 0 -0.4393591315165738 0.37762743775392832 0 -0.43173797726570751 0.37658334167695551 0 -0.4325639091043616 0.37180597819459837 0 -0.43173797726570751 0.37658334167695551 0 -0.43002747341826991 0.3864772557201327 0 -0.44518347515021223 0.38837251913440451 0 -0.43002747341826991 0.3864772557201327 0 -0.43728617553129168 0.39370672697544878 0 -0.43002747341826991 0.3864772557201327 0 -0.41472776448615789 0.38456402166930481 0 -0.42117367656598032 0.39254991666010941 0 -0.43002747341826991 0.3864772557201327 0 -0.41472776448615789 0.38456402166930481 0 -0.43002747341826991 0.3864772557201327 0 -0.42328890360694349 0.38021744503538613 0 -0.41472776448615789 0.38456402166930481 0 -0.43173797726570751 0.37658334167695551 0 -0.43002747341826991 0.3864772557201327 0 -0.42328890360694349 0.38021744503538613 0 -0.43173797726570751 0.37658334167695551 0 -0.42328890360694349 0.38021744503538613 0 -0.42689564018809201 0.37117335838025439 0 -0.40881671944059661 0.37920357314115732 0 -0.42689564018809201 0.37117335838025439 0 -0.42328890360694349 0.38021744503538613 0 -0.40881671944059661 0.37920357314115732 0 -0.42689564018809201 0.37117335838025439 0 -0.42328890360694349 0.38021744503538613 0 -0.41472776448615789 0.38456402166930481 0 -0.40881671944059661 0.37920357314115732 0 -0.41472776448615789 0.38456402166930481 0 -0.40724106840129259 0.39428871981441299 0 -0.42117367656598032 0.39254991666010941 0 -0.41472776448615789 0.38456402166930481 0 -0.40826438028753348 0.3817067557430866 0 -0.39942805555404642 0.38265078761847338 0 -0.41472776448615789 0.38456402166930481 0 -0.40724106840129259 0.39428871981441299 0 -0.39942805555404642 0.38265078761847338 0 -0.41472776448615789 0.38456402166930481 0 -0.39942805555404642 0.38265078761847338 0 -0.40881671944059661 0.37920357314115732 0 -0.39942805555404642 0.38265078761847338 0 -0.41098055992701871 0.3693971202961519 0 -0.40826438028753348 0.3817067557430866 0 -0.40881671944059661 0.37920357314115732 0 -0.41472776448615789 0.38456402166930481 0 -0.40826438028753348 0.3817067557430866 0 -0.40881671944059661 0.37920357314115732 0 -0.40724106840129259 0.39428871981441299 0 -0.4157685575788832 0.40127396331749671 0 -0.40157856791931718 0.40704460823596672 0 -0.42117367656598032 0.39254991666010941 0 -0.4157685575788832 0.40127396331749671 0 -0.42759331348715912 0.40055694876602499 0 -0.40724106840129259 0.39428871981441299 0 -0.42117367656598032 0.39254991666010941 0 -0.4157685575788832 0.40127396331749671 0 -0.4157685575788832 0.40127396331749671 0 -0.42759331348715912 0.40055694876602499 0 -0.44634044006952572 0.39942018428123321 0 -0.42759331348715912 0.40055694876602499 0 -0.44634044006952572 0.39942018428123321 0 -0.42759331348715912 0.40055694876602499 0 -0.43728617553129168 0.39370672697544878 0 -0.44634044006952572 0.39942018428123321 0 -0.42759331348715912 0.40055694876602499 0 -0.43642708593841462 0.41129790334070748 0 -0.43002747341826991 0.3864772557201327 0 -0.42117367656598032 0.39254991666010941 0 -0.42759331348715912 0.40055694876602499 0 -0.43002747341826991 0.3864772557201327 0 -0.42759331348715912 0.40055694876602499 0 -0.43002747341826991 0.3864772557201327 0 -0.42759331348715912 0.40055694876602499 0 -0.43728617553129168 0.39370672697544878 0 -0.43642708593841462 0.41129790334070748 0 -0.42449994900394461 0.41844961959922572 0 -0.43309446276593089 0.43580648084521972 0 -0.42759331348715912 0.40055694876602499 0 -0.43642708593841462 0.41129790334070748 0 -0.42449994900394461 0.41844961959922572 0 -0.4157685575788832 0.40127396331749671 0 -0.42759331348715912 0.40055694876602499 0 -0.42449994900394461 0.41844961959922572 0 -0.42759331348715912 0.40055694876602499 0 -0.42449994900394461 0.41844961959922572 0 -0.42449994900394461 0.41844961959922572 0 -0.43309446276593089 0.43580648084521972 0 -0.41506627858711548 0.4366354945638371 0 -0.42449994900394461 0.41844961959922572 0 -0.41506627858711548 0.4366354945638371 0 -0.40746949035714619 0.42222882353716701 0 -0.41506627858711548 0.4366354945638371 0 -0.40746949035714619 0.42222882353716701 0 -0.39856520721893041 0.43647578570475237 0 -0.42449994900394461 0.41844961959922572 0 -0.40746949035714619 0.42222882353716701 0 -0.41232914121482278 0.41224925367246401 0 -0.4157685575788832 0.40127396331749671 0 -0.42449994900394461 0.41844961959922572 0 -0.41232914121482278 0.41224925367246401 0 -0.4157685575788832 0.40127396331749671 0 -0.41232914121482278 0.41224925367246401 0 -0.40157856791931718 0.40704460823596672 0 -0.40746949035714619 0.42222882353716701 0 -0.41232914121482278 0.41224925367246401 0 -0.40157856791931718 0.40704460823596672 0 -0.40746949035714619 0.42222882353716701 0 -0.40157856791931718 0.40704460823596672 0 -0.39298749241221759 0.42119507937603923 0 -0.40746949035714619 0.42222882353716701 0 -0.39298749241221759 0.42119507937603923 0 -0.39856520721893041 0.43647578570475237 0 -0.39298749241221759 0.42119507937603923 0 -0.39856520721893041 0.43647578570475237 0 -0.38373994498284608 0.43043669407259588 0 -0.38373994498284608 0.43043669407259588 0 -0.37668454372729859 0.41206883315114529 0 -0.36778315087773072 0.43214877602771662 0 -0.38473584783684761 0.44354080077547992 0 -0.38373994498284608 0.43043669407259588 0 -0.36778315087773072 0.43214877602771662 0 -0.38473584783684761 0.44354080077547992 0 -0.39856520721893041 0.43647578570475237 0 -0.38373994498284608 0.43043669407259588 0 -0.40157856791931718 0.40704460823596672 0 -0.39298749241221759 0.42119507937603923 0 -0.37668454372729859 0.41206883315114529 0 -0.39298749241221759 0.42119507937603923 0 -0.38373994498284608 0.43043669407259588 0 -0.37668454372729859 0.41206883315114529 0 -0.40157856791931718 0.40704460823596672 0 -0.37668454372729859 0.41206883315114529 0 -0.37668454372729859 0.41206883315114529 0 -0.37844474563582792 0.390355182046278 0 -0.39076978830337122 0.39764902138512792 0 -0.40157856791931718 0.40704460823596672 0 -0.37668454372729859 0.41206883315114529 0 -0.39076978830337122 0.39764902138512792 0 -0.38141148745950948 0.38039780936179463 0 -0.39942805555404642 0.38265078761847338 0 -0.37844474563582792 0.390355182046278 0 -0.39942805555404642 0.38265078761847338 0 -0.38141148745950948 0.38039780936179463 0 -0.37844474563582792 0.390355182046278 0 -0.39942805555404642 0.38265078761847338 0 -0.37844474563582792 0.390355182046278 0 -0.39942805555404642 0.38265078761847338 0 -0.39076978830337122 0.39764902138512792 0 -0.38141148745950948 0.38039780936179463 0 -0.39942805555404642 0.38265078761847338 0 -0.39128338495032239 0.36719877308275878 0 -0.40826438028753348 0.3817067557430866 0 -0.40881671944059661 0.37920357314115732 0 -0.39942805555404642 0.38265078761847338 0 -0.40881671944059661 0.37920357314115732 0 -0.39942805555404642 0.38265078761847338 0 -0.40724106840129259 0.39428871981441299 0 -0.40157856791931718 0.40704460823596672 0 -0.39076978830337122 0.39764902138512792 0 -0.40724106840129259 0.39428871981441299 0 -0.39942805555404642 0.38265078761847338 0 -0.39076978830337122 0.39764902138512792 0 -0.39259889148010241 0.34864188780489069 0 -0.39999637464883392 0.35559476271013252 0 -0.38966798311544332 0.35610238881872369 0 -0.39259889148010241 0.34864188780489069 0 -0.39999637464883392 0.35559476271013252 0 -0.40046159691170069 0.34164056661102238 0 -0.39999637464883392 0.35559476271013252 0 -0.40046159691170069 0.34164056661102238 0 -0.41381361947694889 0.35655778899711688 0 -0.39999637464883392 0.35559476271013252 0 -0.40397412088998857 0.3623881668075713 0 -0.41381361947694889 0.35655778899711688 0 -0.39128338495032239 0.36719877308275878 0 -0.41098055992701871 0.3693971202961519 0 -0.40397412088998857 0.3623881668075713 0 -0.39128338495032239 0.36719877308275878 0 -0.41098055992701871 0.3693971202961519 0 -0.39942805555404642 0.38265078761847338 0 -0.39128338495032239 0.36719877308275878 0 -0.41098055992701871 0.3693971202961519 0 -0.39999637464883392 0.35559476271013252 0 -0.39128338495032239 0.36719877308275878 0 -0.38966798311544332 0.35610238881872369 0 -0.39999637464883392 0.35559476271013252 0 -0.40397412088998857 0.3623881668075713 0 -0.39128338495032239 0.36719877308275878 0 -0.39128338495032239 0.36719877308275878 0 -0.38070440212728118 0.35956436367519867 0 -0.38966798311544332 0.35610238881872369 0 -0.39128338495032239 0.36719877308275878 0 -0.38070440212728118 0.35956436367519867 0 -0.37158620997362618 0.36500042586936587 0 -0.39128338495032239 0.36719877308275878 0 -0.37158620997362618 0.36500042586936587 0 -0.38141148745950948 0.38039780936179463 0 -0.39128338495032239 0.36719877308275878 0 -0.37158620997362618 0.36500042586936587 0 -0.38070440212728118 0.35956436367519867 0 -0.38259242285128608 0.34975193996759602 0 -0.36960199921418602 0.35731180584905542 0 -0.38259242285128608 0.34975193996759602 0 -0.37580907906339922 0.33647878059299557 0 -0.36960199921418602 0.35731180584905542 0 -0.38070440212728118 0.35956436367519867 0 -0.38966798311544332 0.35610238881872369 0 -0.38259242285128608 0.34975193996759602 0 -0.39259889148010241 0.34864188780489069 0 -0.38966798311544332 0.35610238881872369 0 -0.38259242285128608 0.34975193996759602 0 -0.39259889148010241 0.34864188780489069 0 -0.38259242285128608 0.34975193996759602 0 -0.38794720083446621 0.34059934721089508 0 -0.38259242285128608 0.34975193996759602 0 -0.37580907906339922 0.33647878059299557 0 -0.38794720083446621 0.34059934721089508 0 -0.37580907906339922 0.33647878059299557 0 -0.38794720083446621 0.34059934721089508 0 -0.38710957434645199 0.32672334422492838 0 -0.37580907906339922 0.33647878059299557 0 -0.38201615891261242 0.31564575533693578 0 -0.38201615891261242 0.31564575533693578 0 -0.38336946241093189 0.30974931290420182 0 -0.36531193472093021 0.32454274932608829 0 -0.37580907906339922 0.33647878059299557 0 -0.38201615891261242 0.31564575533693578 0 -0.38710957434645199 0.32672334422492838 0 -0.38201615891261242 0.31564575533693578 0 -0.39350880394476312 0.31593875705230262 0 -0.38336946241093189 0.30974931290420182 0 -0.38201615891261242 0.31564575533693578 0 -0.38710957434645199 0.32672334422492838 0 -0.39350880394476312 0.31593875705230262 0 -0.38710957434645199 0.32672334422492838 0 -0.39350880394476312 0.31593875705230262 0 -0.39921774374196328 0.327754485124091 0 -0.39350880394476312 0.31593875705230262 0 -0.39921774374196328 0.327754485124091 0 -0.40602554896887638 0.32011992980008452 0 -0.39921774374196328 0.327754485124091 0 -0.40602554896887638 0.32011992980008452 0 -0.40814721749945931 0.33505042297199122 0 -0.38794720083446621 0.34059934721089508 0 -0.38710957434645199 0.32672334422492838 0 -0.40046159691170069 0.34164056661102238 0 -0.39259889148010241 0.34864188780489069 0 -0.38794720083446621 0.34059934721089508 0 -0.40046159691170069 0.34164056661102238 0 -0.38710957434645199 0.32672334422492838 0 -0.39921774374196328 0.327754485124091 0 -0.40046159691170069 0.34164056661102238 0 -0.38710957434645199 0.32672334422492838 0 -0.40046159691170069 0.34164056661102238 0 -0.39921774374196328 0.327754485124091 0 -0.40046159691170069 0.34164056661102238 0 -0.40814721749945931 0.33505042297199122 0 -0.40814721749945931 0.33505042297199122 0 -0.41954562432067788 0.33058053440738988 0 -0.41381361947694889 0.35655778899711688 0 -0.41954562432067788 0.33058053440738988 0 -0.41381361947694889 0.35655778899711688 0 -0.40602554896887638 0.32011992980008452 0 -0.40814721749945931 0.33505042297199122 0 -0.41954562432067788 0.33058053440738988 0 -0.40602554896887638 0.32011992980008452 0 -0.41954562432067788 0.33058053440738988 0 -0.42527762916440792 0.30460327981766322 0 -0.41954562432067788 0.33058053440738988 0 -0.42527762916440792 0.30460327981766322 0 -0.41954562432067788 0.33058053440738988 0 -0.44001701522470671 0.31606260091672289 0 -0.42527762916440792 0.30460327981766322 0 -0.41954562432067788 0.33058053440738988 0 -0.42420657124029282 0.3485159257420361 0 -0.43843079740841773 0.33787066219507811 0 -0.41954562432067788 0.33058053440738988 0 -0.43843079740841773 0.33787066219507811 0 -0.44001701522470671 0.31606260091672289 0 -0.42420657124029282 0.3485159257420361 0 -0.43459164588172849 0.36007712215754689 0 -0.43843079740841773 0.33787066219507811 0 -0.42420657124029282 0.3485159257420361 0 -0.41381361947694889 0.35655778899711688 0 -0.43459164588172849 0.36007712215754689 0 -0.41381361947694889 0.35655778899711688 0 -0.43459164588172849 0.36007712215754689 0 -0.43459164588172849 0.36007712215754689 0 -0.43843079740841773 0.33787066219507811 0 -0.40046159691170069 0.34164056661102238 0 -0.40814721749945931 0.33505042297199122 0 -0.41381361947694889 0.35655778899711688 0 -0.41954562432067788 0.33058053440738988 0 -0.42420657124029282 0.3485159257420361 0 -0.41381361947694889 0.35655778899711688 0 -0.39999637464883392 0.35559476271013252 0 -0.41381361947694889 0.35655778899711688 0 -0.40046159691170069 0.34164056661102238 0 -0.41381361947694889 0.35655778899711688 0 -0.41381361947694889 0.35655778899711688 0 -0.41098055992701871 0.3693971202961519 0 -0.42689564018809201 0.37117335838025439 0 -0.41098055992701871 0.3693971202961519 0 -0.42689564018809201 0.37117335838025439 0 -0.40881671944059661 0.37920357314115732 0 -0.41098055992701871 0.3693971202961519 0 -0.42689564018809201 0.37117335838025439 0 -0.40881671944059661 0.37920357314115732 0 -0.41098055992701871 0.3693971202961519 0 -0.40397412088998857 0.3623881668075713 0 -0.41381361947694889 0.35655778899711688 0 -0.41098055992701871 0.3693971202961519 0 -0.41381361947694889 0.35655778899711688 0 -0.41098055992701871 0.3693971202961519 0 -0.41381361947694889 0.35655778899711688 0 -0.42689564018809201 0.37117335838025439 0 -0.41381361947694889 0.35655778899711688 0 -0.42907199843085347 0.36486274908666949 0 -0.43459164588172849 0.36007712215754689 0 -0.42689564018809201 0.37117335838025439 0 -0.42907199843085347 0.36486274908666949 0 -0.42980351636605002 0.37149789839679431 0 -0.43173797726570751 0.37658334167695551 0 -0.42689564018809201 0.37117335838025439 0 -0.43173797726570751 0.37658334167695551 0 -0.42689564018809201 0.37117335838025439 0 -0.42980351636605002 0.37149789839679431 0 -0.42689564018809201 0.37117335838025439 0 -0.42980351636605002 0.37149789839679431 0 -0.41381361947694889 0.35655778899711688 0 -0.42689564018809201 0.37117335838025439 0 -0.42907199843085347 0.36486274908666949 0 -0.43459164588172849 0.36007712215754689 0 -0.4325639091043616 0.37180597819459837 0 -0.42907199843085347 0.36486274908666949 0 -0.43459164588172849 0.36007712215754689 0 -0.4325639091043616 0.37180597819459837 0 -0.43173797726570751 0.37658334167695551 0 -0.4325639091043616 0.37180597819459837 0 -0.43173797726570751 0.37658334167695551 0 -0.4325639091043616 0.37180597819459837 0 -0.42980351636605002 0.37149789839679431 0 -0.4325639091043616 0.37180597819459837 0 -0.42980351636605002 0.37149789839679431 0 -0.42907199843085347 0.36486274908666949 0 -0.4325639091043616 0.37180597819459837 0 -0.42980351636605002 0.37149789839679431 0 -0.4393591315165738 0.37762743775392832 0 -0.4325639091043616 0.37180597819459837 0 -0.44813402172652672 0.37354371539476261 0 -0.4325639091043616 0.37180597819459837 0 -0.44813402172652672 0.37354371539476261 0 -0.4325639091043616 0.37180597819459837 0 -0.44813402172652672 0.37354371539476261 0 -0.45404419213644692 0.3625975043188554 0 -0.43459164588172849 0.36007712215754689 0 -0.45404419213644692 0.3625975043188554 0 -0.43459164588172849 0.36007712215754689 0 -0.4325639091043616 0.37180597819459837 0 -0.45404419213644692 0.3625975043188554 0 -0.4325639091043616 0.37180597819459837 0 -0.45404419213644692 0.3625975043188554 0 -0.43459164588172849 0.36007712215754689 0 -0.44549025602952702 0.35300777224981977 0 -0.45404419213644692 0.3625975043188554 0 -0.44549025602952702 0.35300777224981977 0 -0.45575207180717081 0.34762579988211101 0 -0.43843079740841773 0.33787066219507811 0 -0.43459164588172849 0.36007712215754689 0 -0.44549025602952702 0.35300777224981977 0 -0.43843079740841773 0.33787066219507811 0 -0.44549025602952702 0.35300777224981977 0 -0.45575207180717081 0.34762579988211101 0 -0.45404419213644692 0.3625975043188554 0 -0.45575207180717081 0.34762579988211101 0 -0.46674234051517471 0.35793515390827568 0 -0.45404419213644692 0.3625975043188554 0 -0.45575207180717081 0.34762579988211101 0 -0.46674234051517471 0.35793515390827568 0 -0.46933267881425472 0.34565439271282838 0 -0.45404419213644692 0.3625975043188554 0 -0.47441064506165659 0.36523629740895902 0 -0.46674234051517471 0.35793515390827568 0 -0.45404419213644692 0.3625975043188554 0 -0.47441064506165659 0.36523629740895902 0 -0.45404419213644692 0.3625975043188554 0 -0.46360543106569913 0.37231654924431878 0 -0.47441064506165659 0.36523629740895902 0 -0.44813402172652672 0.37354371539476261 0 -0.45404419213644692 0.3625975043188554 0 -0.46360543106569913 0.37231654924431878 0 -0.46674234051517471 0.35793515390827568 0 -0.45404419213644692 0.3625975043188554 0 -0.46360543106569913 0.37231654924431878 0 -0.47397397291215421 0.37493689296344251 0 -0.47441064506165659 0.36523629740895902 0 -0.47441064506165659 0.36523629740895902 0 -0.48058358620238051 0.35168401037216412 0 -0.49477709798686631 0.36787509049906381 0 -0.47397397291215421 0.37493689296344251 0 -0.47441064506165659 0.36523629740895902 0 -0.48714178473823078 0.37241716516273898 0 -0.46674234051517471 0.35793515390827568 0 -0.47441064506165659 0.36523629740895902 0 -0.48058358620238051 0.35168401037216412 0 -0.46674234051517471 0.35793515390827568 0 -0.46933267881425472 0.34565439271282838 0 -0.48058358620238051 0.35168401037216412 0 -0.46933267881425472 0.34565439271282838 0 -0.48058358620238051 0.35168401037216412 0 -0.48121002056386808 0.3369363626790518 0 -0.48058358620238051 0.35168401037216412 0 -0.49703354506598713 0.34759711953555122 0 -0.48121002056386808 0.3369363626790518 0 -0.49703354506598713 0.34759711953555122 0 -0.5 0.34812631329607491 0 -0.49477709798686631 0.36787509049906381 0 -0.48058358620238051 0.35168401037216412 0 -0.49703354506598713 0.34759711953555122 0 -0.49477709798686631 0.36787509049906381 0 -0.49703354506598713 0.34759711953555122 0 -0.49477709798686631 0.36787509049906381 0 -0.5 0.34812631329607491 0 -0.50000000000000311 0.3685517992903854 0 -0.49477709798686631 0.36787509049906381 0 -0.47441064506165659 0.36523629740895902 0 -0.49477709798686631 0.36787509049906381 0 -0.48714178473823078 0.37241716516273898 0 -0.47441064506165659 0.36523629740895902 0 -0.49477709798686631 0.36787509049906381 0 -0.49007778645481631 0.38142997617552599 0 -0.50000000000000311 0.3685517992903854 0 -0.49477709798686631 0.36787509049906381 0 -0.50000000000000311 0.3685517992903854 0 -0.49477709798686631 0.36787509049906381 0 -0.49007778645481631 0.38142997617552599 0 -0.49477709798686631 0.36787509049906381 0 -0.48714178473823078 0.37241716516273898 0 -0.4992899921451075 0.32731914857203848 0 -0.47890896772952718 0.31636292681222472 0 -0.4992899921451075 0.32731914857203848 0 -0.48121002056386808 0.3369363626790518 0 -0.47890896772952718 0.31636292681222472 0 -0.49999999999999989 0.32093853419885771 0 -0.47890896772952718 0.31636292681222472 0 -0.48920120729889771 0.30786362236022019 0 -0.49999999999999989 0.32093853419885771 0 -0.4992899921451075 0.32731914857203848 0 -0.47890896772952718 0.31636292681222472 0 -0.49999999999999989 0.32093853419885771 0 -0.4992899921451075 0.32731914857203848 0 -0.49703354506598713 0.34759711953555122 0 -0.4992899921451075 0.32731914857203848 0 -0.49703354506598713 0.34759711953555122 0 -0.4992899921451075 0.32731914857203848 0 -0.48121002056386808 0.3369363626790518 0 -0.49703354506598713 0.34759711953555122 0 -0.5 0.34812631329607491 0 -0.4992899921451075 0.32731914857203848 0 -0.46933267881425472 0.34565439271282838 0 -0.48121002056386808 0.3369363626790518 0 -0.46237537498267961 0.3340906367225393 0 -0.48121002056386808 0.3369363626790518 0 -0.47890896772952718 0.31636292681222472 0 -0.46237537498267961 0.3340906367225393 0 -0.47890896772952718 0.31636292681222472 0 -0.45636509730576869 0.32029680939338251 0 -0.45852794331394758 0.30540670505240958 0 -0.47890896772952718 0.31636292681222472 0 -0.45636509730576869 0.32029680939338251 0 -0.46237537498267961 0.3340906367225393 0 -0.45575207180717081 0.34762579988211101 0 -0.46933267881425472 0.34565439271282838 0 -0.46237537498267961 0.3340906367225393 0 -0.45575207180717081 0.34762579988211101 0 -0.46237537498267961 0.3340906367225393 0 -0.43843079740841773 0.33787066219507811 0 -0.45636509730576869 0.32029680939338251 0 -0.46237537498267961 0.3340906367225393 0 -0.43843079740841773 0.33787066219507811 0 -0.45636509730576869 0.32029680939338251 0 -0.43843079740841773 0.33787066219507811 0 -0.44001701522470671 0.31606260091672289 0 -0.45636509730576869 0.32029680939338251 0 -0.44001701522470671 0.31606260091672289 0 -0.45852794331394758 0.30540670505240958 0 -0.4381469188983681 0.2944504832925946 0 -0.45852794331394758 0.30540670505240958 0 -0.44001701522470671 0.31606260091672289 0 -0.4381469188983681 0.2944504832925946 0 -0.45852794331394758 0.30540670505240958 0 -0.4381469188983681 0.2944504832925946 0 -0.4447805513699985 0.27737231294201392 0 -0.43100963400813791 0.27862602522793672 0 -0.4381469188983681 0.2944504832925946 0 -0.45724976864254441 0.28334965182257721 0 -0.4447805513699985 0.27737231294201392 0 -0.4381469188983681 0.2944504832925946 0 -0.45724976864254441 0.28334965182257721 0 -0.45852794331394758 0.30540670505240958 0 -0.45724976864254441 0.28334965182257721 0 -0.45852794331394758 0.30540670505240958 0 -0.47789586146606378 0.29814868652574811 0 -0.47890896772952718 0.31636292681222472 0 -0.45852794331394758 0.30540670505240958 0 -0.47890896772952718 0.31636292681222472 0 -0.47789586146606378 0.29814868652574811 0 -0.48920120729889771 0.30786362236022019 0 -0.47890896772952718 0.31636292681222472 0 -0.45852794331394758 0.30540670505240958 0 -0.47789586146606378 0.29814868652574811 0 -0.45724976864254441 0.28334965182257721 0 -0.47789586146606378 0.29814868652574811 0 -0.48102565218130672 0.27929705551177292 0 -0.5 0.29600434190405073 0 -0.5 0.27107014960924369 0 -0.48102565218130672 0.27929705551177292 0 -0.47789586146606378 0.29814868652574811 0 -0.5 0.29600434190405073 0 -0.48102565218130672 0.27929705551177292 0 -0.47789586146606378 0.29814868652574811 0 -0.5 0.29600434190405073 0 -0.48920120729889771 0.30786362236022019 0 -0.49999999999999989 0.32093853419885771 0 -0.5 0.29600434190405073 0 -0.48920120729889771 0.30786362236022019 0 -0.48177750529808522 0.24619974485466931 0 -0.5 0.2461359573144368 0 -0.48654709528280549 0.26072196503438649 0 -0.5 0.2461359573144368 0 -0.48654709528280549 0.26072196503438649 0 -0.5 0.27107014960924369 0 -0.48654709528280549 0.26072196503438649 0 -0.5 0.27107014960924369 0 -0.48102565218130672 0.27929705551177292 0 -0.48654709528280549 0.26072196503438649 0 -0.48102565218130672 0.27929705551177292 0 -0.46993231893463527 0.26090691788180947 0 -0.45724976864254441 0.28334965182257721 0 -0.48102565218130672 0.27929705551177292 0 -0.46993231893463527 0.26090691788180947 0 -0.48177750529808522 0.24619974485466931 0 -0.48654709528280549 0.26072196503438649 0 -0.46993231893463527 0.26090691788180947 0 -0.45710504060219709 0.23686107433279269 0 -0.46993231893463527 0.26090691788180947 0 -0.44707755271196942 0.2637365605125353 0 -0.45724976864254441 0.28334965182257721 0 -0.46993231893463527 0.26090691788180947 0 -0.44707755271196942 0.2637365605125353 0 -0.45724976864254441 0.28334965182257721 0 -0.4447805513699985 0.27737231294201392 0 -0.44707755271196942 0.2637365605125353 0 -0.4447805513699985 0.27737231294201392 0 -0.44707755271196942 0.2637365605125353 0 -0.43100963400813791 0.27862602522793672 0 -0.45710504060219709 0.23686107433279269 0 -0.44707755271196942 0.2637365605125353 0 -0.44707755271196942 0.2637365605125353 0 -0.4367416388518679 0.25264877063821017 0 -0.43100963400813791 0.27862602522793672 0 -0.45710504060219709 0.23686107433279269 0 -0.44707755271196942 0.2637365605125353 0 -0.4367416388518679 0.25264877063821017 0 -0.4367416388518679 0.25264877063821017 0 -0.41175872593851298 0.2549478601346914 0 -0.41885046316002428 0.26850948483906401 0 -0.41175872593851298 0.2549478601346914 0 -0.41885046316002428 0.26850948483906401 0 -0.3976364837244763 0.27421361628784369 0 -0.41885046316002428 0.26850948483906401 0 -0.41710583327712653 0.28211115190663788 0 -0.3976364837244763 0.27421361628784369 0 -0.41885046316002428 0.26850948483906401 0 -0.43100963400813791 0.27862602522793672 0 -0.41710583327712653 0.28211115190663788 0 -0.4367416388518679 0.25264877063821017 0 -0.43100963400813791 0.27862602522793672 0 -0.4367416388518679 0.25264877063821017 0 -0.41885046316002428 0.26850948483906401 0 -0.43100963400813791 0.27862602522793672 0 -0.4381469188983681 0.2944504832925946 0 -0.43100963400813791 0.27862602522793672 0 -0.42527762916440792 0.30460327981766322 0 -0.43100963400813791 0.27862602522793672 0 -0.42527762916440792 0.30460327981766322 0 -0.41710583327712653 0.28211115190663788 0 -0.43100963400813791 0.27862602522793672 0 -0.42527762916440792 0.30460327981766322 0 -0.44001701522470671 0.31606260091672289 0 -0.4381469188983681 0.2944504832925946 0 -0.42527762916440792 0.30460327981766322 0 -0.40602554896887638 0.32011992980008452 0 -0.42527762916440792 0.30460327981766322 0 -0.4014269901009333 0.29495587648231503 0 -0.41710583327712653 0.28211115190663788 0 -0.4014269901009333 0.29495587648231503 0 -0.42527762916440792 0.30460327981766322 0 -0.41710583327712653 0.28211115190663788 0 -0.4014269901009333 0.29495587648231503 0 -0.41710583327712653 0.28211115190663788 0 -0.4014269901009333 0.29495587648231503 0 -0.3976364837244763 0.27421361628784369 0 -0.4014269901009333 0.29495587648231503 0 -0.38389766901197209 0.2919764357376447 0 -0.3976364837244763 0.27421361628784369 0 -0.4014269901009333 0.29495587648231503 0 -0.3976364837244763 0.27421361628784369 0 -0.39350880394476312 0.31593875705230262 0 -0.40602554896887638 0.32011992980008452 0 -0.4014269901009333 0.29495587648231503 0 -0.4014269901009333 0.29495587648231503 0 -0.38336946241093189 0.30974931290420182 0 -0.40602554896887638 0.32011992980008452 0 -0.4014269901009333 0.29495587648231503 0 -0.39350880394476312 0.31593875705230262 0 -0.4014269901009333 0.29495587648231503 0 -0.38336946241093189 0.30974931290420182 0 -0.38336946241093189 0.30974931290420182 0 -0.38389766901197209 0.2919764357376447 0 -0.36596935852520629 0.30787018431111951 0 -0.4014269901009333 0.29495587648231503 0 -0.38336946241093189 0.30974931290420182 0 -0.38389766901197209 0.2919764357376447 0 -0.38389766901197209 0.2919764357376447 0 -0.3839238193794226 0.27871888045260418 0 -0.3976364837244763 0.27421361628784369 0 -0.38389766901197209 0.2919764357376447 0 -0.3839238193794226 0.27871888045260418 0 -0.3703732677084236 0.2804332674389724 0 -0.3839238193794226 0.27871888045260418 0 -0.38378785707281859 0.2682522023459562 0 -0.3703732677084236 0.2804332674389724 0 -0.38378785707281859 0.2682522023459562 0 -0.37477717689163992 0.25299635056682518 0 -0.3703732677084236 0.2804332674389724 0 -0.3839238193794226 0.27871888045260418 0 -0.38378785707281859 0.2682522023459562 0 -0.3976364837244763 0.27421361628784369 0 -0.38378785707281859 0.2682522023459562 0 -0.39384597734802013 0.25347135609337229 0 -0.37477717689163992 0.25299635056682518 0 -0.39384597734802013 0.25347135609337229 0 -0.3976364837244763 0.27421361628784369 0 -0.41175872593851298 0.2549478601346914 0 -0.39384597734802013 0.25347135609337229 0 -0.3976364837244763 0.27421361628784369 0 -0.38378785707281859 0.2682522023459562 0 -0.39384597734802013 0.25347135609337229 0 -0.3976364837244763 0.27421361628784369 0 -0.35834524103505527 0.27479395617319979 0 -0.34490227433735798 0.27909378963084902 0 -0.35045174428906722 0.28677843618767362 0 -0.35834524103505527 0.27479395617319979 0 -0.34490227433735798 0.27909378963084902 0 -0.34728570068091402 0.2661688508290645 0 -0.34728570068091402 0.2661688508290645 0 -0.35464358931248319 0.25491115920099722 0 -0.34150965816976359 0.25817059719828012 0 -0.33845336435013867 0.242079554605789 0 -0.35464358931248319 0.25491115920099722 0 -0.34150965816976359 0.25817059719828012 0 -0.35834524103505527 0.27479395617319979 0 -0.34728570068091402 0.2661688508290645 0 -0.35464358931248319 0.25491115920099722 0 -0.35834524103505527 0.27479395617319979 0 -0.37477717689163992 0.25299635056682518 0 -0.35834524103505527 0.27479395617319979 0 -0.35464358931248319 0.25491115920099722 0 -0.37477717689163992 0.25299635056682518 0 -0.37477717689163992 0.25299635056682518 0 -0.3703732677084236 0.2804332674389724 0 -0.35834524103505527 0.27479395617319979 0 -0.37477717689163992 0.25299635056682518 0 -0.3703732677084236 0.2804332674389724 0 -0.3703732677084236 0.2804332674389724 0 -0.36596935852520629 0.30787018431111951 0 -0.38389766901197209 0.2919764357376447 0 -0.3703732677084236 0.2804332674389724 0 -0.36596935852520629 0.30787018431111951 0 -0.35834524103505527 0.27479395617319979 0 -0.3703732677084236 0.2804332674389724 0 -0.35925388220638338 0.290827281626163 0 -0.3703732677084236 0.2804332674389724 0 -0.36596935852520629 0.30787018431111951 0 -0.35925388220638338 0.290827281626163 0 -0.36596935852520629 0.30787018431111951 0 -0.35645499353340299 0.30154574554434233 0 -0.35925388220638338 0.290827281626163 0 -0.36596935852520629 0.30787018431111951 0 -0.35645499353340299 0.30154574554434233 0 -0.35774913989266272 0.31391262040183171 0 -0.35645499353340299 0.30154574554434233 0 -0.35013945535461871 0.3105838988596446 0 -0.35774913989266272 0.31391262040183171 0 -0.35645499353340299 0.30154574554434233 0 -0.34780240298166087 0.30288468022079579 0 -0.35285886900803182 0.29452238055293539 0 -0.34780240298166087 0.30288468022079579 0 -0.34622635383862083 0.29383585221412489 0 -0.33932813284697128 0.29730713825443927 0 -0.34780240298166087 0.30288468022079579 0 -0.35285886900803182 0.29452238055293539 0 -0.34622635383862083 0.29383585221412489 0 -0.34780240298166087 0.30288468022079579 0 -0.34514961405368982 0.30758965292055213 0 -0.33997231501418312 0.30473657218964828 0 -0.35645499353340299 0.30154574554434233 0 -0.34780240298166087 0.30288468022079579 0 -0.35013945535461871 0.3105838988596446 0 -0.34780240298166087 0.30288468022079579 0 -0.34514961405368982 0.30758965292055213 0 -0.35013945535461871 0.3105838988596446 0 -0.34514961405368982 0.30758965292055213 0 -0.35013945535461871 0.3105838988596446 0 -0.34268428286429659 0.31215346041211978 0 -0.35834524103505527 0.27479395617319979 0 -0.35925388220638338 0.290827281626163 0 -0.35045174428906722 0.28677843618767362 0 -0.35645499353340299 0.30154574554434233 0 -0.35925388220638338 0.290827281626163 0 -0.35285886900803182 0.29452238055293539 0 -0.35925388220638338 0.290827281626163 0 -0.35285886900803182 0.29452238055293539 0 -0.35045174428906722 0.28677843618767362 0 -0.35285886900803182 0.29452238055293539 0 -0.34622635383862083 0.29383585221412489 0 -0.35045174428906722 0.28677843618767362 0 -0.34622635383862083 0.29383585221412489 0 -0.35045174428906722 0.28677843618767362 0 -0.34088660642111013 0.2879281286912172 0 -0.34490227433735798 0.27909378963084902 0 -0.35045174428906722 0.28677843618767362 0 -0.34088660642111013 0.2879281286912172 0 -0.34490227433735798 0.27909378963084902 0 -0.34088660642111013 0.2879281286912172 0 -0.33262910378125132 0.278293493462413 0 -0.34088660642111013 0.2879281286912172 0 -0.33227483086849752 0.29261385498347509 0 -0.33932813284697128 0.29730713825443927 0 -0.34622635383862083 0.29383585221412489 0 -0.34088660642111013 0.2879281286912172 0 -0.33932813284697128 0.29730713825443927 0 -0.33227483086849752 0.29261385498347509 0 -0.32398535199451511 0.28524421774589648 0 -0.33262910378125132 0.278293493462413 0 -0.34088660642111013 0.2879281286912172 0 -0.33227483086849752 0.29261385498347509 0 -0.33262910378125132 0.278293493462413 0 -0.33718535734333338 0.30882123026638569 0 -0.34268428286429659 0.31215346041211978 0 -0.33477104767585758 0.31524888829805342 0 -0.33718535734333338 0.30882123026638569 0 -0.34268428286429659 0.31215346041211978 0 -0.33997231501418312 0.30473657218964828 0 -0.34514961405368982 0.30758965292055213 0 -0.34268428286429659 0.31215346041211978 0 -0.33997231501418312 0.30473657218964828 0 -0.33718535734333338 0.30882123026638569 0 -0.33997231501418312 0.30473657218964828 0 -0.33396296217470239 0.30554582684384218 0 -0.33997231501418312 0.30473657218964828 0 -0.33932813284697128 0.29730713825443927 0 -0.33396296217470239 0.30554582684384218 0 -0.34780240298166087 0.30288468022079579 0 -0.33997231501418312 0.30473657218964828 0 -0.33932813284697128 0.29730713825443927 0 -0.33227483086849752 0.29261385498347509 0 -0.33396296217470239 0.30554582684384218 0 -0.32251037119006698 0.3031431883822347 0 -0.33227483086849752 0.29261385498347509 0 -0.33932813284697128 0.29730713825443927 0 -0.33396296217470239 0.30554582684384218 0 -0.33718535734333338 0.30882123026638569 0 -0.33396296217470239 0.30554582684384218 0 -0.33477104767585758 0.31524888829805342 0 -0.33396296217470239 0.30554582684384218 0 -0.32251037119006698 0.3031431883822347 0 -0.33219148171911272 0.31730370811833031 0 -0.32251037119006698 0.3031431883822347 0 -0.31456388983813333 0.31636814557902659 0 -0.33219148171911272 0.31730370811833031 0 -0.32251037119006698 0.3031431883822347 0 -0.31282926066102218 0.28898266864613842 0 -0.30402337591517081 0.3051012194244167 0 -0.32251037119006698 0.3031431883822347 0 -0.30402337591517081 0.3051012194244167 0 -0.31456388983813333 0.31636814557902659 0 -0.32251037119006698 0.3031431883822347 0 -0.33219148171911272 0.31730370811833031 0 -0.33227483086849752 0.29261385498347509 0 -0.32251037119006698 0.3031431883822347 0 -0.32398535199451511 0.28524421774589648 0 -0.32251037119006698 0.3031431883822347 0 -0.32398535199451511 0.28524421774589648 0 -0.31282926066102218 0.28898266864613842 0 -0.32251037119006698 0.3031431883822347 0 -0.31282926066102218 0.28898266864613842 0 -0.31282926066102218 0.28898266864613842 0 -0.32065101258715689 0.274665503564473 0 -0.32398535199451511 0.28524421774589648 0 -0.31282926066102218 0.28898266864613842 0 -0.32065101258715689 0.274665503564473 0 -0.32065101258715689 0.274665503564473 0 -0.32847276451329022 0.26034833848280681 0 -0.31199410965335322 0.26463258327439948 0 -0.32065101258715689 0.274665503564473 0 -0.33262910378125132 0.278293493462413 0 -0.32847276451329022 0.26034833848280681 0 -0.31282926066102218 0.28898266864613842 0 -0.32065101258715689 0.274665503564473 0 -0.30403346053568642 0.27611708872161922 0 -0.32065101258715689 0.274665503564473 0 -0.32847276451329022 0.26034833848280681 0 -0.32398535199451511 0.28524421774589648 0 -0.32065101258715689 0.274665503564473 0 -0.33262910378125132 0.278293493462413 0 -0.33262910378125132 0.278293493462413 0 -0.33869287199199061 0.26734508287274228 0 -0.32847276451329022 0.26034833848280681 0 -0.34490227433735798 0.27909378963084902 0 -0.34728570068091402 0.2661688508290645 0 -0.33869287199199061 0.26734508287274228 0 -0.34490227433735798 0.27909378963084902 0 -0.33262910378125132 0.278293493462413 0 -0.33869287199199061 0.26734508287274228 0 -0.33845336435013867 0.242079554605789 0 -0.34150965816976359 0.25817059719828012 0 -0.32847276451329022 0.26034833848280681 0 -0.33845336435013867 0.242079554605789 0 -0.32847276451329022 0.26034833848280681 0 -0.34728570068091402 0.2661688508290645 0 -0.33869287199199061 0.26734508287274228 0 -0.34150965816976359 0.25817059719828012 0 -0.33869287199199061 0.26734508287274228 0 -0.34150965816976359 0.25817059719828012 0 -0.32847276451329022 0.26034833848280681 0 -0.33869287199199061 0.26734508287274228 0 -0.32847276451329022 0.26034833848280681 0 -0.311575650220281 0.24878047680599949 0 -0.32847276451329022 0.26034833848280681 0 -0.311575650220281 0.24878047680599949 0 -0.32847276451329022 0.26034833848280681 0 -0.31199410965335322 0.26463258327439948 0 -0.32455092720978362 0.24357057421839101 0 -0.311575650220281 0.24878047680599949 0 -0.32847276451329022 0.26034833848280681 0 -0.311575650220281 0.24878047680599949 0 -0.31199410965335322 0.26463258327439948 0 -0.29523766041035199 0.26325150879709891 0 -0.30403346053568642 0.27611708872161922 0 -0.29523766041035199 0.26325150879709891 0 -0.29574151564778611 0.28671646758259889 0 -0.31199410965335322 0.26463258327439948 0 -0.30403346053568642 0.27611708872161922 0 -0.29523766041035199 0.26325150879709891 0 -0.32065101258715689 0.274665503564473 0 -0.31199410965335322 0.26463258327439948 0 -0.30403346053568642 0.27611708872161922 0 -0.30403346053568642 0.27611708872161922 0 -0.29523766041035199 0.26325150879709891 0 -0.28985028671148488 0.25537141990030859 0 -0.26863301980023729 0.26794771562718522 0 -0.28534189936007232 0.28197220440765719 0 -0.29523766041035199 0.26325150879709891 0 -0.29574151564778611 0.28671646758259889 0 -0.29523766041035199 0.26325150879709891 0 -0.29574151564778611 0.28671646758259889 0 -0.28534189936007232 0.28197220440765719 0 -0.28985028671148488 0.25537141990030859 0 -0.29523766041035199 0.26325150879709891 0 -0.28534189936007232 0.28197220440765719 0 -0.28985028671148488 0.25537141990030859 0 -0.28534189936007232 0.28197220440765719 0 -0.29467853592727078 0.23721261512919359 0 -0.29523766041035199 0.26325150879709891 0 -0.29467853592727078 0.23721261512919359 0 -0.28985028671148488 0.25537141990030859 0 -0.29523766041035199 0.26325150879709891 0 -0.28985028671148488 0.25537141990030859 0 -0.29523766041035199 0.26325150879709891 0 -0.28985028671148488 0.25537141990030859 0 -0.2724296921133022 0.25217156250687062 0 -0.26863301980023729 0.26794771562718522 0 -0.2724296921133022 0.25217156250687062 0 -0.26863301980023729 0.26794771562718522 0 -0.25693865295534157 0.25278860643768353 0 -0.26863301980023729 0.26794771562718522 0 -0.26277913973510902 0.29023342414179659 0 -0.28534189936007232 0.28197220440765719 0 -0.26277913973510902 0.29023342414179659 0 -0.2447247674615598 0.2718938593685879 0 -0.26863301980023729 0.26794771562718522 0 -0.26277913973510902 0.29023342414179659 0 -0.2447247674615598 0.2718938593685879 0 -0.26863301980023729 0.26794771562718522 0 -0.25693865295534157 0.25278860643768353 0 -0.2447247674615598 0.2718938593685879 0 -0.26277913973510902 0.29023342414179659 0 -0.25757488899104952 0.31786411623381933 0 -0.2366570207200871 0.30010935915934539 0 -0.26277913973510902 0.29023342414179659 0 -0.28083351200865853 0.30857298891500562 0 -0.28534189936007232 0.28197220440765719 0 -0.26277913973510902 0.29023342414179659 0 -0.28083351200865853 0.30857298891500562 0 -0.26277913973510902 0.29023342414179659 0 -0.28083351200865853 0.30857298891500562 0 -0.25757488899104952 0.31786411623381933 0 -0.28083351200865853 0.30857298891500562 0 -0.29574151564778611 0.28671646758259889 0 -0.30402337591517081 0.3051012194244167 0 -0.28083351200865853 0.30857298891500562 0 -0.29574151564778611 0.28671646758259889 0 -0.28534189936007232 0.28197220440765719 0 -0.28083351200865853 0.30857298891500562 0 -0.28534189936007232 0.28197220440765719 0 -0.31282926066102218 0.28898266864613842 0 -0.29574151564778611 0.28671646758259889 0 -0.30402337591517081 0.3051012194244167 0 -0.31282926066102218 0.28898266864613842 0 -0.30403346053568642 0.27611708872161922 0 -0.29574151564778611 0.28671646758259889 0 -0.31282926066102218 0.28898266864613842 0 -0.30403346053568642 0.27611708872161922 0 -0.31282926066102218 0.28898266864613842 0 -0.30402337591517081 0.3051012194244167 0 -0.30402337591517081 0.3051012194244167 0 -0.29932851783868691 0.32736014762988469 0 -0.31456388983813333 0.31636814557902659 0 -0.29932851783868691 0.32736014762988469 0 -0.31400963374603508 0.33178692824556621 0 -0.31456388983813333 0.31636814557902659 0 -0.29582778577295937 0.3462701483728044 0 -0.31354931950312093 0.34747342072874071 0 -0.31400963374603508 0.33178692824556621 0 -0.29582778577295937 0.3462701483728044 0 -0.31400963374603508 0.33178692824556621 0 -0.29932851783868691 0.32736014762988469 0 -0.29582778577295937 0.3462701483728044 0 -0.31400963374603508 0.33178692824556621 0 -0.29932851783868691 0.32736014762988469 0 -0.27670802547122531 0.33291454828341721 0 -0.29582778577295937 0.3462701483728044 0 -0.27670802547122531 0.33291454828341721 0 -0.29582778577295937 0.3462701483728044 0 -0.28186865011063378 0.34863084123191301 0 -0.28083351200865853 0.30857298891500562 0 -0.30402337591517081 0.3051012194244167 0 -0.29932851783868691 0.32736014762988469 0 -0.28083351200865853 0.30857298891500562 0 -0.29932851783868691 0.32736014762988469 0 -0.28083351200865853 0.30857298891500562 0 -0.29932851783868691 0.32736014762988469 0 -0.27670802547122531 0.33291454828341721 0 -0.28083351200865853 0.30857298891500562 0 -0.27670802547122531 0.33291454828341721 0 -0.25757488899104952 0.31786411623381933 0 -0.28083351200865853 0.30857298891500562 0 -0.27670802547122531 0.33291454828341721 0 -0.27670802547122531 0.33291454828341721 0 -0.25757488899104952 0.31786411623381933 0 -0.25368472498167011 0.34420349485172652 0 -0.2613799420943046 0.36179346951182628 0 -0.25453646971320443 0.37462232419521813 0 -0.26689531734350652 0.36931705260985792 0 -0.2613799420943046 0.36179346951182628 0 -0.25453646971320443 0.37462232419521813 0 -0.24822911175635759 0.36217347122335058 0 -0.25368472498167011 0.34420349485172652 0 -0.27258253893379292 0.35725610765182902 0 -0.2613799420943046 0.36179346951182628 0 -0.25368472498167011 0.34420349485172652 0 -0.24822911175635759 0.36217347122335058 0 -0.2613799420943046 0.36179346951182628 0 -0.25368472498167011 0.34420349485172652 0 -0.27258253893379292 0.35725610765182902 0 -0.27670802547122531 0.33291454828341721 0 -0.27258253893379292 0.35725610765182902 0 -0.27670802547122531 0.33291454828341721 0 -0.27258253893379292 0.35725610765182902 0 -0.28186865011063378 0.34863084123191301 0 -0.27670802547122531 0.33291454828341721 0 -0.25368472498167011 0.34420349485172652 0 -0.27258253893379292 0.35725610765182902 0 -0.27258253893379292 0.35725610765182902 0 -0.27764593779988228 0.36075336850004069 0 -0.28186865011063378 0.34863084123191301 0 -0.27258253893379292 0.35725610765182902 0 -0.27764593779988228 0.36075336850004069 0 -0.27764593779988228 0.36075336850004069 0 -0.27110701654299552 0.36596211494311248 0 -0.28943519450698252 0.3688961411714532 0 -0.27110701654299552 0.36596211494311248 0 -0.28943519450698252 0.3688961411714532 0 -0.27110701654299552 0.36596211494311248 0 -0.28943519450698252 0.3688961411714532 0 -0.28084635904778937 0.37544065550995409 0 -0.27258253893379292 0.35725610765182902 0 -0.27764593779988228 0.36075336850004069 0 -0.27110701654299552 0.36596211494311248 0 -0.27764593779988228 0.36075336850004069 0 -0.27110701654299552 0.36596211494311248 0 -0.2613799420943046 0.36179346951182628 0 -0.27258253893379292 0.35725610765182902 0 -0.27110701654299552 0.36596211494311248 0 -0.2613799420943046 0.36179346951182628 0 -0.27110701654299552 0.36596211494311248 0 -0.26689531734350652 0.36931705260985792 0 -0.27258253893379292 0.35725610765182902 0 -0.27110701654299552 0.36596211494311248 0 -0.27110701654299552 0.36596211494311248 0 -0.26689531734350652 0.36931705260985792 0 -0.27110701654299552 0.36596211494311248 0 -0.28084635904778937 0.37544065550995409 0 -0.27663284499009211 0.37939207802828528 0 -0.28943519450698252 0.3688961411714532 0 -0.28685204816290072 0.37621819500323123 0 -0.28084635904778937 0.37544065550995409 0 -0.27764593779988228 0.36075336850004069 0 -0.28943519450698252 0.3688961411714532 0 -0.29551252006441958 0.37309371542857861 0 -0.28943519450698252 0.3688961411714532 0 -0.28685204816290072 0.37621819500323123 0 -0.29551252006441958 0.37309371542857861 0 -0.28943519450698252 0.3688961411714532 0 -0.27764593779988228 0.36075336850004069 0 -0.29582778577295937 0.3462701483728044 0 -0.27764593779988228 0.36075336850004069 0 -0.29582778577295937 0.3462701483728044 0 -0.28186865011063378 0.34863084123191301 0 -0.28943519450698252 0.3688961411714532 0 -0.29582778577295937 0.3462701483728044 0 -0.30300283950081008 0.36051339397403093 0 -0.27764593779988228 0.36075336850004069 0 -0.28943519450698252 0.3688961411714532 0 -0.29582778577295937 0.3462701483728044 0 -0.29582778577295937 0.3462701483728044 0 -0.30300283950081008 0.36051339397403093 0 -0.31354931950312093 0.34747342072874071 0 -0.28943519450698252 0.3688961411714532 0 -0.31408843612631249 0.37197903781600761 0 -0.28943519450698252 0.3688961411714532 0 -0.30300283950081008 0.36051339397403093 0 -0.31408843612631249 0.37197903781600761 0 -0.29551252006441958 0.37309371542857861 0 -0.28943519450698252 0.3688961411714532 0 -0.31408843612631249 0.37197903781600761 0 -0.30300283950081008 0.36051339397403093 0 -0.31408843612631249 0.37197903781600761 0 -0.32472866683278162 0.35786931268145811 0 -0.31408843612631249 0.37197903781600761 0 -0.32472866683278162 0.35786931268145811 0 -0.33874167774564268 0.3750619344605613 0 -0.31408843612631249 0.37197903781600761 0 -0.33874167774564268 0.3750619344605613 0 -0.33942470910854639 0.36092010030626542 0 -0.32472866683278162 0.35786931268145811 0 -0.33874167774564268 0.3750619344605613 0 -0.33942470910854639 0.36092010030626542 0 -0.3497530714632448 0.36534695126967459 0 -0.33874167774564268 0.3750619344605613 0 -0.33815763529499693 0.35089104021064632 0 -0.32472866683278162 0.35786931268145811 0 -0.33017767166301859 0.34092732036984391 0 -0.33815763529499693 0.35089104021064632 0 -0.33017767166301859 0.34092732036984391 0 -0.34251680356524339 0.34321741671518669 0 -0.33815763529499693 0.35089104021064632 0 -0.3460879504978186 0.35511096805544279 0 -0.34556584107983002 0.34849125976349993 0 -0.33815763529499693 0.35089104021064632 0 -0.34251680356524339 0.34321741671518669 0 -0.34556584107983002 0.34849125976349993 0 -0.33942470910854639 0.36092010030626542 0 -0.33815763529499693 0.35089104021064632 0 -0.3460879504978186 0.35511096805544279 0 -0.33942470910854639 0.36092010030626542 0 -0.33815763529499693 0.35089104021064632 0 -0.32472866683278162 0.35786931268145811 0 -0.31354931950312093 0.34747342072874071 0 -0.32472866683278162 0.35786931268145811 0 -0.33017767166301859 0.34092732036984391 0 -0.30300283950081008 0.36051339397403093 0 -0.31354931950312093 0.34747342072874071 0 -0.32472866683278162 0.35786931268145811 0 -0.31400963374603508 0.33178692824556621 0 -0.33219148171911272 0.31730370811833031 0 -0.33017767166301859 0.34092732036984391 0 -0.31354931950312093 0.34747342072874071 0 -0.31400963374603508 0.33178692824556621 0 -0.33017767166301859 0.34092732036984391 0 -0.31400963374603508 0.33178692824556621 0 -0.33219148171911272 0.31730370811833031 0 -0.31400963374603508 0.33178692824556621 0 -0.31456388983813333 0.31636814557902659 0 -0.33219148171911272 0.31730370811833031 0 -0.33477104767585758 0.31524888829805342 0 -0.33219148171911272 0.31730370811833031 0 -0.34795343649956839 0.3209401758966518 0 -0.33219148171911272 0.31730370811833031 0 -0.34725440703092858 0.33933618574797492 0 -0.34795343649956839 0.3209401758966518 0 -0.33396296217470239 0.30554582684384218 0 -0.33477104767585758 0.31524888829805342 0 -0.33219148171911272 0.31730370811833031 0 -0.33477104767585758 0.31524888829805342 0 -0.33219148171911272 0.31730370811833031 0 -0.34268428286429659 0.31215346041211978 0 -0.33477104767585758 0.31524888829805342 0 -0.34795343649956839 0.3209401758966518 0 -0.33219148171911272 0.31730370811833031 0 -0.34725440703092858 0.33933618574797492 0 -0.33219148171911272 0.31730370811833031 0 -0.33017767166301859 0.34092732036984391 0 -0.34725440703092858 0.33933618574797492 0 -0.33017767166301859 0.34092732036984391 0 -0.34251680356524339 0.34321741671518669 0 -0.34725440703092858 0.33933618574797492 0 -0.34725440703092858 0.33933618574797492 0 -0.34795343649956839 0.3209401758966518 0 -0.36531193472093021 0.32454274932608829 0 -0.34251680356524339 0.34321741671518669 0 -0.35002774160894051 0.34339273059465159 0 -0.34725440703092858 0.33933618574797492 0 -0.34725440703092858 0.33933618574797492 0 -0.35848812135385522 0.33902175933596412 0 -0.36531193472093021 0.32454274932608829 0 -0.34725440703092858 0.33933618574797492 0 -0.36531193472093021 0.32454274932608829 0 -0.34251680356524339 0.34321741671518669 0 -0.34725440703092858 0.33933618574797492 0 -0.35002774160894051 0.34339273059465159 0 -0.34725440703092858 0.33933618574797492 0 -0.35002774160894051 0.34339273059465159 0 -0.35848812135385522 0.33902175933596412 0 -0.35712059876301439 0.34740413424876382 0 -0.35002774160894051 0.34339273059465159 0 -0.34725440703092858 0.33933618574797492 0 -0.35848812135385522 0.33902175933596412 0 -0.34795343649956839 0.3209401758966518 0 -0.35774913989266272 0.31391262040183171 0 -0.36531193472093021 0.32454274932608829 0 -0.35013945535461871 0.3105838988596446 0 -0.34268428286429659 0.31215346041211978 0 -0.34795343649956839 0.3209401758966518 0 -0.35013945535461871 0.3105838988596446 0 -0.34795343649956839 0.3209401758966518 0 -0.35774913989266272 0.31391262040183171 0 -0.38336946241093189 0.30974931290420182 0 -0.36596935852520629 0.30787018431111951 0 -0.36531193472093021 0.32454274932608829 0 -0.36596935852520629 0.30787018431111951 0 -0.35774913989266272 0.31391262040183171 0 -0.36531193472093021 0.32454274932608829 0 -0.37580907906339922 0.33647878059299557 0 -0.38201615891261242 0.31564575533693578 0 -0.36531193472093021 0.32454274932608829 0 -0.38336946241093189 0.30974931290420182 0 -0.36531193472093021 0.32454274932608829 0 -0.35848812135385522 0.33902175933596412 0 -0.36629538785756799 0.33494858662202331 0 -0.36491865814174967 0.34450616947628299 0 -0.35848812135385522 0.33902175933596412 0 -0.36491865814174967 0.34450616947628299 0 -0.35712059876301439 0.34740413424876382 0 -0.35848812135385522 0.33902175933596412 0 -0.36531193472093021 0.32454274932608829 0 -0.36629538785756799 0.33494858662202331 0 -0.37580907906339922 0.33647878059299557 0 -0.36531193472093021 0.32454274932608829 0 -0.36629538785756799 0.33494858662202331 0 -0.37580907906339922 0.33647878059299557 0 -0.36629538785756799 0.33494858662202331 0 -0.36491865814174967 0.34450616947628299 0 -0.37580907906339922 0.33647878059299557 0 -0.36491865814174967 0.34450616947628299 0 -0.36960199921418602 0.35731180584905542 0 -0.37580907906339922 0.33647878059299557 0 -0.36960199921418602 0.35731180584905542 0 -0.36491865814174967 0.34450616947628299 0 -0.36204010283369881 0.35293053614415609 0 -0.35712059876301439 0.34740413424876382 0 -0.36491865814174967 0.34450616947628299 0 -0.36204010283369881 0.35293053614415609 0 -0.36960199921418602 0.35731180584905542 0 -0.36231373349064938 0.3583368008115923 0 -0.36204010283369881 0.35293053614415609 0 -0.35577634304253192 0.35617190760009498 0 -0.36231373349064938 0.3583368008115923 0 -0.36204010283369881 0.35293053614415609 0 -0.36960199921418602 0.35731180584905542 0 -0.36960199921418602 0.35731180584905542 0 -0.36339491936497281 0.37814483110511521 0 -0.36960199921418602 0.35731180584905542 0 -0.37158620997362618 0.36500042586936587 0 -0.36339491936497281 0.37814483110511521 0 -0.36960199921418602 0.35731180584905542 0 -0.36108579844600058 0.36545797327707619 0 -0.36339491936497281 0.37814483110511521 0 -0.38141148745950948 0.38039780936179463 0 -0.37158620997362618 0.36500042586936587 0 -0.36339491936497281 0.37814483110511521 0 -0.38070440212728118 0.35956436367519867 0 -0.36960199921418602 0.35731180584905542 0 -0.37158620997362618 0.36500042586936587 0 -0.36231373349064938 0.3583368008115923 0 -0.36108579844600058 0.36545797327707619 0 -0.35577634304253192 0.35617190760009498 0 -0.36231373349064938 0.3583368008115923 0 -0.36960199921418602 0.35731180584905542 0 -0.36108579844600058 0.36545797327707619 0 -0.36108579844600058 0.36545797327707619 0 -0.3497530714632448 0.36534695126967459 0 -0.35577634304253192 0.35617190760009498 0 -0.3497530714632448 0.36534695126967459 0 -0.36339491936497281 0.37814483110511521 0 -0.33874167774564268 0.3750619344605613 0 -0.36108579844600058 0.36545797327707619 0 -0.3497530714632448 0.36534695126967459 0 -0.36339491936497281 0.37814483110511521 0 -0.33942470910854639 0.36092010030626542 0 -0.3497530714632448 0.36534695126967459 0 -0.3460879504978186 0.35511096805544279 0 -0.3497530714632448 0.36534695126967459 0 -0.3460879504978186 0.35511096805544279 0 -0.35577634304253192 0.35617190760009498 0 -0.3460879504978186 0.35511096805544279 0 -0.35103907443215082 0.34984414324157243 0 -0.35577634304253192 0.35617190760009498 0 -0.3460879504978186 0.35511096805544279 0 -0.34556584107983002 0.34849125976349993 0 -0.35103907443215082 0.34984414324157243 0 -0.34251680356524339 0.34321741671518669 0 -0.35002774160894051 0.34339273059465159 0 -0.34556584107983002 0.34849125976349993 0 -0.35002774160894051 0.34339273059465159 0 -0.34556584107983002 0.34849125976349993 0 -0.35103907443215082 0.34984414324157243 0 -0.35103907443215082 0.34984414324157243 0 -0.35712059876301439 0.34740413424876382 0 -0.35577634304253192 0.35617190760009498 0 -0.35002774160894051 0.34339273059465159 0 -0.35103907443215082 0.34984414324157243 0 -0.35712059876301439 0.34740413424876382 0 -0.36204010283369881 0.35293053614415609 0 -0.35712059876301439 0.34740413424876382 0 -0.35577634304253192 0.35617190760009498 0 -0.35746143571760969 0.39805957647408341 0 -0.33700984602307921 0.4055687403903776 0 -0.35746143571760969 0.39805957647408341 0 -0.36339491936497281 0.37814483110511521 0 -0.33874167774564268 0.3750619344605613 0 -0.36339491936497281 0.37814483110511521 0 -0.33874167774564268 0.3750619344605613 0 -0.38141148745950948 0.38039780936179463 0 -0.37844474563582792 0.390355182046278 0 -0.36339491936497281 0.37814483110511521 0 -0.37844474563582792 0.390355182046278 0 -0.35746143571760969 0.39805957647408341 0 -0.36339491936497281 0.37814483110511521 0 -0.35746143571760969 0.39805957647408341 0 -0.36339491936497281 0.37814483110511521 0 -0.38141148745950948 0.38039780936179463 0 -0.36339491936497281 0.37814483110511521 0 -0.37668454372729859 0.41206883315114529 0 -0.37844474563582792 0.390355182046278 0 -0.35746143571760969 0.39805957647408341 0 -0.37844474563582792 0.390355182046278 0 -0.35746143571760969 0.39805957647408341 0 -0.37668454372729859 0.41206883315114529 0 -0.36778315087773072 0.43214877602771662 0 -0.35179051953527918 0.41709305806631919 0 -0.37668454372729859 0.41206883315114529 0 -0.35746143571760969 0.39805957647408341 0 -0.35179051953527918 0.41709305806631919 0 -0.37668454372729859 0.41206883315114529 0 -0.35179051953527918 0.41709305806631919 0 -0.36778315087773072 0.43214877602771662 0 -0.35179051953527918 0.41709305806631919 0 -0.34355933144160938 0.44471966407244162 0 -0.35179051953527918 0.41709305806631919 0 -0.34355933144160938 0.44471966407244162 0 -0.35746143571760969 0.39805957647408341 0 -0.35179051953527918 0.41709305806631919 0 -0.33700984602307921 0.4055687403903776 0 -0.35746143571760969 0.39805957647408341 0 -0.35179051953527918 0.41709305806631919 0 -0.35179051953527918 0.41709305806631919 0 -0.33092261172728182 0.42130471390500562 0 -0.33700984602307921 0.4055687403903776 0 -0.35179051953527918 0.41709305806631919 0 -0.33092261172728182 0.42130471390500562 0 -0.33092261172728182 0.42130471390500562 0 -0.31655825632854873 0.41307790430667191 0 -0.33700984602307921 0.4055687403903776 0 -0.35179051953527918 0.41709305806631919 0 -0.33092261172728182 0.42130471390500562 0 -0.34355933144160938 0.44471966407244162 0 -0.33092261172728182 0.42130471390500562 0 -0.32304151796324199 0.43794530689545591 0 -0.34355933144160938 0.44471966407244162 0 -0.33092261172728182 0.42130471390500562 0 -0.31005470391928353 0.42551636974368717 0 -0.32304151796324199 0.43794530689545591 0 -0.33092261172728182 0.42130471390500562 0 -0.31005470391928353 0.42551636974368717 0 -0.31005470391928353 0.42551636974368717 0 -0.30636015846579262 0.44081646755455739 0 -0.32304151796324199 0.43794530689545591 0 -0.31655825632854873 0.41307790430667191 0 -0.32178824989383492 0.40044082628072353 0 -0.33700984602307921 0.4055687403903776 0 -0.33092261172728182 0.42130471390500562 0 -0.31655825632854873 0.41307790430667191 0 -0.31005470391928353 0.42551636974368717 0 -0.31655825632854873 0.41307790430667191 0 -0.33700984602307921 0.4055687403903776 0 -0.31655825632854873 0.41307790430667191 0 -0.32178824989383492 0.40044082628072353 0 -0.30820761894760612 0.40180007281058999 0 -0.31589124725359768 0.39098578459502642 0 -0.32178824989383492 0.40044082628072353 0 -0.30820761894760612 0.40180007281058999 0 -0.31589124725359768 0.39098578459502642 0 -0.32178824989383492 0.40044082628072353 0 -0.33127428091634248 0.39077162930095188 0 -0.35746143571760969 0.39805957647408341 0 -0.33127428091634248 0.39077162930095188 0 -0.33700984602307921 0.4055687403903776 0 -0.32178824989383492 0.40044082628072353 0 -0.33127428091634248 0.39077162930095188 0 -0.33700984602307921 0.4055687403903776 0 -0.35746143571760969 0.39805957647408341 0 -0.33127428091634248 0.39077162930095188 0 -0.33874167774564268 0.3750619344605613 0 -0.31408843612631249 0.37197903781600761 0 -0.33127428091634248 0.39077162930095188 0 -0.33874167774564268 0.3750619344605613 0 -0.31408843612631249 0.37197903781600761 0 -0.31589124725359768 0.39098578459502642 0 -0.33127428091634248 0.39077162930095188 0 -0.29551252006441958 0.37309371542857861 0 -0.31408843612631249 0.37197903781600761 0 -0.30568017353146049 0.38157918508743732 0 -0.31408843612631249 0.37197903781600761 0 -0.31589124725359768 0.39098578459502642 0 -0.30568017353146049 0.38157918508743732 0 -0.31589124725359768 0.39098578459502642 0 -0.30568017353146049 0.38157918508743732 0 -0.30603649680964828 0.39194203915736708 0 -0.30568017353146049 0.38157918508743732 0 -0.29743858983336929 0.38628170497916159 0 -0.30603649680964828 0.39194203915736708 0 -0.29551252006441958 0.37309371542857861 0 -0.30568017353146049 0.38157918508743732 0 -0.29743858983336929 0.38628170497916159 0 -0.31589124725359768 0.39098578459502642 0 -0.30820761894760612 0.40180007281058999 0 -0.30603649680964828 0.39194203915736708 0 -0.30820761894760612 0.40180007281058999 0 -0.30603649680964828 0.39194203915736708 0 -0.29604813782321171 0.40003827384795049 0 -0.29743858983336929 0.38628170497916159 0 -0.30603649680964828 0.39194203915736708 0 -0.29604813782321171 0.40003827384795049 0 -0.30820761894760612 0.40180007281058999 0 -0.29604813782321171 0.40003827384795049 0 -0.2987408814332651 0.40933989620534528 0 -0.29604813782321171 0.40003827384795049 0 -0.28905057763704689 0.40562835892549581 0 -0.28392778011776681 0.39892722844600809 0 -0.29604813782321171 0.40003827384795049 0 -0.28905057763704689 0.40562835892549581 0 -0.2987408814332651 0.40933989620534528 0 -0.29604813782321171 0.40003827384795049 0 -0.28980128107673031 0.39400368344191522 0 -0.28392778011776681 0.39892722844600809 0 -0.29743858983336929 0.38628170497916159 0 -0.29604813782321171 0.40003827384795049 0 -0.28980128107673031 0.39400368344191522 0 -0.28980128107673031 0.39400368344191522 0 -0.28179061653257348 0.3907675264945405 0 -0.28392778011776681 0.39892722844600809 0 -0.28905057763704689 0.40562835892549581 0 -0.28392778011776681 0.39892722844600809 0 -0.27817781655911977 0.40726136879628272 0 -0.29743858983336929 0.38628170497916159 0 -0.28980128107673031 0.39400368344191522 0 -0.28179061653257348 0.3907675264945405 0 -0.29743858983336929 0.38628170497916159 0 -0.28179061653257348 0.3907675264945405 0 -0.28819376848868639 0.38228739672622841 0 -0.29743858983336929 0.38628170497916159 0 -0.28179061653257348 0.3907675264945405 0 -0.29551252006441958 0.37309371542857861 0 -0.29743858983336929 0.38628170497916159 0 -0.28819376848868639 0.38228739672622841 0 -0.29551252006441958 0.37309371542857861 0 -0.28819376848868639 0.38228739672622841 0 -0.28685204816290072 0.37621819500323123 0 -0.28179061653257348 0.3907675264945405 0 -0.28158428542699082 0.38279668863870758 0 -0.28819376848868639 0.38228739672622841 0 -0.28158428542699082 0.38279668863870758 0 -0.28819376848868639 0.38228739672622841 0 -0.28685204816290072 0.37621819500323123 0 -0.28158428542699082 0.38279668863870758 0 -0.28685204816290072 0.37621819500323123 0 -0.28084635904778937 0.37544065550995409 0 -0.27110701654299552 0.36596211494311248 0 -0.26614264323177789 0.39525334800991979 0 -0.27110701654299552 0.36596211494311248 0 -0.27663284499009211 0.37939207802828528 0 -0.27229768174870289 0.38438446135480281 0 -0.27110701654299552 0.36596211494311248 0 -0.27229768174870289 0.38438446135480281 0 -0.26614264323177789 0.39525334800991979 0 -0.27110701654299552 0.36596211494311248 0 -0.26689531734350652 0.36931705260985792 0 -0.26614264323177789 0.39525334800991979 0 -0.28158428542699082 0.38279668863870758 0 -0.28084635904778937 0.37544065550995409 0 -0.27663284499009211 0.37939207802828528 0 -0.27229768174870289 0.38438446135480281 0 -0.27641046434025379 0.38710393959788297 0 -0.26614264323177789 0.39525334800991979 0 -0.28179061653257348 0.3907675264945405 0 -0.28158428542699082 0.38279668863870758 0 -0.27641046434025379 0.38710393959788297 0 -0.27663284499009211 0.37939207802828528 0 -0.27229768174870289 0.38438446135480281 0 -0.27641046434025379 0.38710393959788297 0 -0.28158428542699082 0.38279668863870758 0 -0.27663284499009211 0.37939207802828528 0 -0.27641046434025379 0.38710393959788297 0 -0.28179061653257348 0.3907675264945405 0 -0.27641046434025379 0.38710393959788297 0 -0.26614264323177789 0.39525334800991979 0 -0.28179061653257348 0.3907675264945405 0 -0.27661435207820328 0.39472461325581981 0 -0.26614264323177789 0.39525334800991979 0 -0.28179061653257348 0.3907675264945405 0 -0.28392778011776681 0.39892722844600809 0 -0.27661435207820328 0.39472461325581981 0 -0.28179061653257348 0.3907675264945405 0 -0.26614264323177789 0.39525334800991979 0 -0.28392778011776681 0.39892722844600809 0 -0.27661435207820328 0.39472461325581981 0 -0.27572094251528112 0.40196054452149499 0 -0.28392778011776681 0.39892722844600809 0 -0.27572094251528112 0.40196054452149499 0 -0.27817781655911977 0.40726136879628272 0 -0.27572094251528112 0.40196054452149499 0 -0.26416382130603389 0.40692896758786917 0 -0.27817781655911977 0.40726136879628272 0 -0.27661435207820328 0.39472461325581981 0 -0.27572094251528112 0.40196054452149499 0 -0.26416382130603389 0.40692896758786917 0 -0.27661435207820328 0.39472461325581981 0 -0.26614264323177789 0.39525334800991979 0 -0.26416382130603389 0.40692896758786917 0 -0.27661435207820328 0.39472461325581981 0 -0.26416382130603389 0.40692896758786917 0 -0.26614264323177789 0.39525334800991979 0 -0.24781733580734391 0.38604582424895789 0 -0.24388213391773941 0.40163479241199579 0 -0.26614264323177789 0.39525334800991979 0 -0.25157066981256843 0.40894445920752592 0 -0.24388213391773941 0.40163479241199579 0 -0.26614264323177789 0.39525334800991979 0 -0.24388213391773941 0.40163479241199579 0 -0.26614264323177789 0.39525334800991979 0 -0.26416382130603389 0.40692896758786917 0 -0.26614264323177789 0.39525334800991979 0 -0.25157066981256843 0.40894445920752592 0 -0.26416382130603389 0.40692896758786917 0 -0.25453646971320443 0.37462232419521813 0 -0.26614264323177789 0.39525334800991979 0 -0.24781733580734391 0.38604582424895789 0 -0.25453646971320443 0.37462232419521813 0 -0.26689531734350652 0.36931705260985792 0 -0.26614264323177789 0.39525334800991979 0 -0.26107936510946472 0.42512814796255138 0 -0.25799490891289278 0.4433273283372331 0 -0.26107936510946472 0.42512814796255138 0 -0.27138668263498972 0.43431468825499642 0 -0.25799490891289278 0.4433273283372331 0 -0.26107936510946472 0.42512814796255138 0 -0.25799490891289278 0.4433273283372331 0 -0.24263019791012411 0.42803682032005991 0 -0.25799490891289278 0.4433273283372331 0 -0.24263019791012411 0.42803682032005991 0 -0.26107936510946472 0.42512814796255138 0 -0.26416382130603389 0.40692896758786917 0 -0.26107936510946472 0.42512814796255138 0 -0.26416382130603389 0.40692896758786917 0 -0.24263019791012411 0.42803682032005991 0 -0.26416382130603389 0.40692896758786917 0 -0.24263019791012411 0.42803682032005991 0 -0.25157066981256843 0.40894445920752592 0 -0.26416382130603389 0.40692896758786917 0 -0.24263019791012411 0.42803682032005991 0 -0.26107936510946472 0.42512814796255138 0 -0.26416382130603389 0.40692896758786917 0 -0.27370875903762831 0.41905129137381081 0 -0.26416382130603389 0.40692896758786917 0 -0.27817781655911977 0.40726136879628272 0 -0.27370875903762831 0.41905129137381081 0 -0.27817781655911977 0.40726136879628272 0 -0.27370875903762831 0.41905129137381081 0 -0.28647403122915938 0.41490769911839809 0 -0.27370875903762831 0.41905129137381081 0 -0.27138668263498972 0.43431468825499642 0 -0.28359142860916292 0.42646623900898489 0 -0.26107936510946472 0.42512814796255138 0 -0.27370875903762831 0.41905129137381081 0 -0.27138668263498972 0.43431468825499642 0 -0.27138668263498972 0.43431468825499642 0 -0.28359142860916292 0.42646623900898489 0 -0.28426041238301858 0.43930471826406531 0 -0.28359142860916292 0.42646623900898489 0 -0.29576073289665422 0.43347565529899762 0 -0.28426041238301858 0.43930471826406531 0 -0.28359142860916292 0.42646623900898489 0 -0.29576073289665422 0.43347565529899762 0 -0.29610666663401819 0.4205870682229661 0 -0.28905057763704689 0.40562835892549581 0 -0.27817781655911977 0.40726136879628272 0 -0.28647403122915938 0.41490769911839809 0 -0.27370875903762831 0.41905129137381081 0 -0.28359142860916292 0.42646623900898489 0 -0.28647403122915938 0.41490769911839809 0 -0.28359142860916292 0.42646623900898489 0 -0.28647403122915938 0.41490769911839809 0 -0.29610666663401819 0.4205870682229661 0 -0.28647403122915938 0.41490769911839809 0 -0.29610666663401819 0.4205870682229661 0 -0.2987408814332651 0.40933989620534528 0 -0.28905057763704689 0.40562835892549581 0 -0.28647403122915938 0.41490769911839809 0 -0.2987408814332651 0.40933989620534528 0 -0.31655825632854873 0.41307790430667191 0 -0.29610666663401819 0.4205870682229661 0 -0.2987408814332651 0.40933989620534528 0 -0.31655825632854873 0.41307790430667191 0 -0.29610666663401819 0.4205870682229661 0 -0.31005470391928353 0.42551636974368717 0 -0.31655825632854873 0.41307790430667191 0 -0.29610666663401819 0.4205870682229661 0 -0.31655825632854873 0.41307790430667191 0 -0.30820761894760612 0.40180007281058999 0 -0.2987408814332651 0.40933989620534528 0 -0.29576073289665422 0.43347565529899762 0 -0.31005470391928353 0.42551636974368717 0 -0.30636015846579262 0.44081646755455739 0 -0.29576073289665422 0.43347565529899762 0 -0.29610666663401819 0.4205870682229661 0 -0.31005470391928353 0.42551636974368717 0 -0.29576073289665422 0.43347565529899762 0 -0.30636015846579262 0.44081646755455739 0 -0.2944743431310044 0.45228094752776682 0 -0.30636015846579262 0.44081646755455739 0 -0.30512100021830008 0.46490456032657962 0 -0.30636015846579262 0.44081646755455739 0 -0.30512100021830008 0.46490456032657962 0 -0.2944743431310044 0.45228094752776682 0 -0.30636015846579262 0.44081646755455739 0 -0.30512100021830008 0.46490456032657962 0 -0.32381548421637429 0.45642326981327008 0 -0.30512100021830008 0.46490456032657962 0 -0.2944743431310044 0.45228094752776682 0 -0.28858619761816889 0.47377087817814589 0 -0.2944743431310044 0.45228094752776682 0 -0.27329055326553048 0.45854910325768988 0 -0.28858619761816889 0.47377087817814589 0 -0.2944743431310044 0.45228094752776682 0 -0.28426041238301858 0.43930471826406531 0 -0.27329055326553048 0.45854910325768988 0 -0.29576073289665422 0.43347565529899762 0 -0.2944743431310044 0.45228094752776682 0 -0.28426041238301858 0.43930471826406531 0 -0.27138668263498972 0.43431468825499642 0 -0.28426041238301858 0.43930471826406531 0 -0.27329055326553048 0.45854910325768988 0 -0.27138668263498972 0.43431468825499642 0 -0.27329055326553048 0.45854910325768988 0 -0.25799490891289278 0.4433273283372331 0 -0.27329055326553048 0.45854910325768988 0 -0.25799490891289278 0.4433273283372331 0 -0.27329055326553048 0.45854910325768988 0 -0.28858619761816889 0.47377087817814589 0 -0.27329055326553048 0.45854910325768988 0 -0.25438198006151169 0.46464464965965441 0 -0.25799490891289278 0.4433273283372331 0 -0.27329055326553048 0.45854910325768988 0 -0.25438198006151169 0.46464464965965441 0 -0.26859377699614329 0.4811575177290362 0 -0.25438198006151169 0.46464464965965441 0 -0.25799490891289278 0.4433273283372331 0 -0.25438198006151169 0.46464464965965441 0 -0.25799490891289278 0.4433273283372331 0 -0.24356894722331929 0.44821508210096461 0 -0.25080144613104921 0.5 0 -0.26859377699614329 0.4811575177290362 0 -0.2467553297522557 0.48147402383551691 0 -0.25080144613104921 0.5 0 -0.26859377699614329 0.4811575177290362 0 -0.27705851983630159 0.5 0 -0.25438198006151169 0.46464464965965441 0 -0.26859377699614329 0.4811575177290362 0 -0.2467553297522557 0.48147402383551691 0 -0.27329055326553048 0.45854910325768988 0 -0.26859377699614329 0.4811575177290362 0 -0.28858619761816889 0.47377087817814589 0 -0.26859377699614329 0.4811575177290362 0 -0.27705851983630159 0.5 0 -0.28830299895955541 0.48893487857068268 0 -0.27705851983630159 0.5 0 -0.28830299895955541 0.48893487857068268 0 -0.30331559354155391 0.49999999999999939 0 -0.26859377699614329 0.4811575177290362 0 -0.28830299895955541 0.48893487857068268 0 -0.28858619761816889 0.47377087817814589 0 -0.28830299895955541 0.48893487857068268 0 -0.28858619761816889 0.47377087817814589 0 -0.30388184197080759 0.48899265309860168 0 -0.28858619761816889 0.47377087817814589 0 -0.30388184197080759 0.48899265309860168 0 -0.30512100021830008 0.46490456032657962 0 -0.30388184197080759 0.48899265309860168 0 -0.30512100021830008 0.46490456032657962 0 -0.30388184197080759 0.48899265309860168 0 -0.31654611508668351 0.48621885406126381 0 -0.30512100021830008 0.46490456032657962 0 -0.28858619761816889 0.47377087817814589 0 -0.30388184197080759 0.48899265309860168 0 -0.30331559354155391 0.49999999999999939 0 -0.30388184197080759 0.48899265309860168 0 -0.28830299895955541 0.48893487857068268 0 -0.30331559354155391 0.49999999999999939 0 -0.30388184197080759 0.48899265309860168 0 -0.30388184197080759 0.48899265309860168 0 -0.31494260619507058 0.500000000000002 0 -0.31654611508668351 0.48621885406126381 0 -0.30331559354155391 0.49999999999999939 0 -0.30388184197080759 0.48899265309860168 0 -0.31494260619507058 0.500000000000002 0 -0.30388184197080759 0.48899265309860168 0 -0.31494260619507058 0.500000000000002 0 -0.31654611508668351 0.48621885406126381 0 -0.33275791060477139 0.5 0 -0.32602721644446891 0.47719705688113462 0 -0.31494260619507058 0.500000000000002 0 -0.31654611508668351 0.48621885406126381 0 -0.33275791060477139 0.5 0 -0.33275791060477139 0.5 0 -0.34200011506365208 0.48331572161184322 0 -0.32602721644446891 0.47719705688113462 0 -0.33275791060477139 0.5 0 -0.34200011506365208 0.48331572161184322 0 -0.35057321501447208 0.49999999999999872 0 -0.34200011506365208 0.48331572161184322 0 -0.32602721644446891 0.47719705688113462 0 -0.33593075250063148 0.46750731867274542 0 -0.34200011506365208 0.48331572161184322 0 -0.33593075250063148 0.46750731867274542 0 -0.35201810675435108 0.4676562019538536 0 -0.30512100021830008 0.46490456032657962 0 -0.31654611508668351 0.48621885406126381 0 -0.32602721644446891 0.47719705688113462 0 -0.30512100021830008 0.46490456032657962 0 -0.32602721644446891 0.47719705688113462 0 -0.32381548421637429 0.45642326981327008 0 -0.30636015846579262 0.44081646755455739 0 -0.32381548421637429 0.45642326981327008 0 -0.32304151796324199 0.43794530689545591 0 -0.32381548421637429 0.45642326981327008 0 -0.32304151796324199 0.43794530689545591 0 -0.34355933144160938 0.44471966407244162 0 -0.32381548421637429 0.45642326981327008 0 -0.34355933144160938 0.44471966407244162 0 -0.33593075250063148 0.46750731867274542 0 -0.32602721644446891 0.47719705688113462 0 -0.32381548421637429 0.45642326981327008 0 -0.33593075250063148 0.46750731867274542 0 -0.35201810675435108 0.4676562019538536 0 -0.36028404822733179 0.44939908513577981 0 -0.36566353784044697 0.46257036423753561 0 -0.34355933144160938 0.44471966407244162 0 -0.35201810675435108 0.4676562019538536 0 -0.36028404822733179 0.44939908513577981 0 -0.34355933144160938 0.44471966407244162 0 -0.33593075250063148 0.46750731867274542 0 -0.35201810675435108 0.4676562019538536 0 -0.36778315087773072 0.43214877602771662 0 -0.34355933144160938 0.44471966407244162 0 -0.36028404822733179 0.44939908513577981 0 -0.36778315087773072 0.43214877602771662 0 -0.36028404822733179 0.44939908513577981 0 -0.37376195539900242 0.45249759326054367 0 -0.37701653082709469 0.46900635458093531 0 -0.37376195539900242 0.45249759326054367 0 -0.36566353784044697 0.46257036423753561 0 -0.36028404822733179 0.44939908513577981 0 -0.37376195539900242 0.45249759326054367 0 -0.36566353784044697 0.46257036423753561 0 -0.36552159823955549 0.47691699748014749 0 -0.37220834978290879 0.49000150617251997 0 -0.35595833756876799 0.48470827593500232 0 -0.37701653082709469 0.46900635458093531 0 -0.36566353784044697 0.46257036423753561 0 -0.36552159823955549 0.47691699748014749 0 -0.37805640255927542 0.47903421333972468 0 -0.37701653082709469 0.46900635458093531 0 -0.36552159823955549 0.47691699748014749 0 -0.35201810675435108 0.4676562019538536 0 -0.36566353784044697 0.46257036423753561 0 -0.36552159823955549 0.47691699748014749 0 -0.37805640255927542 0.47903421333972468 0 -0.36552159823955549 0.47691699748014749 0 -0.37220834978290879 0.49000150617251997 0 -0.37220834978290879 0.49000150617251997 0 -0.35057321501447208 0.49999999999999872 0 -0.35595833756876799 0.48470827593500232 0 -0.37789332191386737 0.5 0 -0.37220834978290879 0.49000150617251997 0 -0.35057321501447208 0.49999999999999872 0 -0.37220834978290879 0.49000150617251997 0 -0.35057321501447208 0.49999999999999872 0 -0.34200011506365208 0.48331572161184322 0 -0.35057321501447208 0.49999999999999872 0 -0.35595833756876799 0.48470827593500232 0 -0.34200011506365208 0.48331572161184322 0 -0.35201810675435108 0.4676562019538536 0 -0.35595833756876799 0.48470827593500232 0 -0.35201810675435108 0.4676562019538536 0 -0.36552159823955549 0.47691699748014749 0 -0.35595833756876799 0.48470827593500232 0 -0.142080771754234 0.48212662116497451 0 -0.14744519938683801 0.47523243684594829 0 -0.1380962150490555 0.47248515407185221 0 -0.142080771754234 0.48212662116497451 0 -0.14744519938683801 0.47523243684594829 0 -0.15313912830386001 0.48632871978955722 0 -0.14744519938683801 0.47523243684594829 0 -0.1380962150490555 0.47248515407185221 0 -0.1446941887002707 0.46454185114692792 0 -0.14744519938683801 0.47523243684594829 0 -0.1446941887002707 0.46454185114692792 0 -0.15815775643206659 0.473198332503178 0 -0.14744519938683801 0.47523243684594829 0 -0.15313912830386001 0.48632871978955722 0 -0.15815775643206659 0.473198332503178 0 -0.142080771754234 0.48212662116497451 0 -0.15313912830386001 0.48632871978955722 0 -0.13803845513632401 0.5 0 -0.15313912830386001 0.48632871978955722 0 -0.13803845513632401 0.5 0 -0.1663114266205577 0.50000000000000011 0 -0.142080771754234 0.48212662116497451 0 -0.13803845513632401 0.5 0 -0.12908554574303099 0.47755934496718438 0 -0.13803845513632401 0.5 0 -0.12908554574303099 0.47755934496718438 0 -0.1160402402672886 0.48503019582547341 0 -0.142080771754234 0.48212662116497451 0 -0.12908554574303099 0.47755934496718438 0 -0.1380962150490555 0.47248515407185221 0 -0.12908554574303099 0.47755934496718438 0 -0.1380962150490555 0.47248515407185221 0 -0.13097929143795109 0.46459511115351071 0 -0.12908554574303099 0.47755934496718438 0 -0.13097929143795109 0.46459511115351071 0 -0.1176294132596279 0.46872710166108278 0 -0.13097929143795109 0.46459511115351071 0 -0.1351896940807357 0.45304119368279389 0 -0.1204057133641486 0.45504160574272429 0 -0.13097929143795109 0.46459511115351071 0 -0.1351896940807357 0.45304119368279389 0 -0.1446941887002707 0.46454185114692792 0 -0.1380962150490555 0.47248515407185221 0 -0.13097929143795109 0.46459511115351071 0 -0.1446941887002707 0.46454185114692792 0 -0.1351896940807357 0.45304119368279389 0 -0.13889501351409689 0.43598263237980822 0 -0.1242648033483075 0.43981492828754482 0 -0.1351896940807357 0.45304119368279389 0 -0.1242648033483075 0.43981492828754482 0 -0.1204057133641486 0.45504160574272429 0 -0.15017718620881049 0.45777983735391498 0 -0.13889501351409689 0.43598263237980822 0 -0.1351896940807357 0.45304119368279389 0 -0.15017718620881049 0.45777983735391498 0 -0.13889501351409689 0.43598263237980822 0 -0.15995177900170021 0.44572512983606088 0 -0.15376963845050121 0.4328235067909087 0 -0.13889501351409689 0.43598263237980822 0 -0.15017718620881049 0.45777983735391498 0 -0.15995177900170021 0.44572512983606088 0 -0.13889501351409689 0.43598263237980822 0 -0.15017718620881049 0.45777983735391498 0 -0.15995177900170021 0.44572512983606088 0 -0.1446941887002707 0.46454185114692792 0 -0.15017718620881049 0.45777983735391498 0 -0.1351896940807357 0.45304119368279389 0 -0.1446941887002707 0.46454185114692792 0 -0.15017718620881049 0.45777983735391498 0 -0.1446941887002707 0.46454185114692792 0 -0.15017718620881049 0.45777983735391498 0 -0.15815775643206659 0.473198332503178 0 -0.15017718620881049 0.45777983735391498 0 -0.15868634814382429 0.46531473325554851 0 -0.15815775643206659 0.473198332503178 0 -0.15017718620881049 0.45777983735391498 0 -0.15815775643206659 0.473198332503178 0 -0.160558198289461 0.46047642425523388 0 -0.1655661766345953 0.45099185016729298 0 -0.16585225164495951 0.46980433890986678 0 -0.1655661766345953 0.45099185016729298 0 -0.17867327812258871 0.46114583139567922 0 -0.16585225164495951 0.46980433890986678 0 -0.1655661766345953 0.45099185016729298 0 -0.16585225164495951 0.46980433890986678 0 -0.15868634814382429 0.46531473325554851 0 -0.160558198289461 0.46047642425523388 0 -0.16585225164495951 0.46980433890986678 0 -0.15017718620881049 0.45777983735391498 0 -0.15868634814382429 0.46531473325554851 0 -0.160558198289461 0.46047642425523388 0 -0.15017718620881049 0.45777983735391498 0 -0.160558198289461 0.46047642425523388 0 -0.15995177900170021 0.44572512983606088 0 -0.15995177900170021 0.44572512983606088 0 -0.1655661766345953 0.45099185016729298 0 -0.1697263717945888 0.43367042231820602 0 -0.160558198289461 0.46047642425523388 0 -0.15995177900170021 0.44572512983606088 0 -0.1655661766345953 0.45099185016729298 0 -0.15995177900170021 0.44572512983606088 0 -0.1697263717945888 0.43367042231820602 0 -0.1655661766345953 0.45099185016729298 0 -0.1926513277646352 0.45119866261047992 0 -0.1697263717945888 0.43367042231820602 0 -0.1926513277646352 0.45119866261047992 0 -0.1697263717945888 0.43367042231820602 0 -0.1926513277646352 0.45119866261047992 0 -0.18693863061853061 0.43491447939059907 0 -0.1697263717945888 0.43367042231820602 0 -0.1655661766345953 0.45099185016729298 0 -0.17867327812258871 0.46114583139567922 0 -0.1926513277646352 0.45119866261047992 0 -0.17867327812258871 0.46114583139567922 0 -0.17876854714149509 0.47093865696285842 0 -0.16585225164495951 0.46980433890986678 0 -0.17867327812258871 0.46114583139567922 0 -0.1899884502156329 0.46461586120334353 0 -0.1926513277646352 0.45119866261047992 0 -0.17867327812258871 0.46114583139567922 0 -0.17876854714149509 0.47093865696285842 0 -0.1899884502156329 0.46461586120334353 0 -0.17876854714149509 0.47093865696285842 0 -0.19138341924764241 0.47827032896460842 0 -0.1899884502156329 0.46461586120334353 0 -0.1757986315986971 0.48088398659212228 0 -0.17876854714149509 0.47093865696285842 0 -0.19138341924764241 0.47827032896460842 0 -0.1757986315986971 0.48088398659212228 0 -0.17876854714149509 0.47093865696285842 0 -0.16585225164495951 0.46980433890986678 0 -0.16585225164495951 0.46980433890986678 0 -0.16613832665532341 0.48861682765244069 0 -0.16585225164495951 0.46980433890986678 0 -0.15815775643206659 0.473198332503178 0 -0.16613832665532341 0.48861682765244069 0 -0.1757986315986971 0.48088398659212228 0 -0.16585225164495951 0.46980433890986678 0 -0.16613832665532341 0.48861682765244069 0 -0.15313912830386001 0.48632871978955722 0 -0.15815775643206659 0.473198332503178 0 -0.16613832665532341 0.48861682765244069 0 -0.15815775643206659 0.473198332503178 0 -0.16613832665532341 0.48861682765244069 0 -0.15868634814382429 0.46531473325554851 0 -0.16585225164495951 0.46980433890986678 0 -0.15815775643206659 0.473198332503178 0 -0.15313912830386001 0.48632871978955722 0 -0.16613832665532341 0.48861682765244069 0 -0.1663114266205577 0.50000000000000011 0 -0.16613832665532341 0.48861682765244069 0 -0.1720302250152923 0.50000000000000022 0 -0.16613832665532341 0.48861682765244069 0 -0.1663114266205577 0.50000000000000011 0 -0.1720302250152923 0.50000000000000022 0 -0.16613832665532341 0.48861682765244069 0 -0.1663114266205577 0.50000000000000011 0 -0.16613832665532341 0.48861682765244069 0 -0.17430115969348189 0.49501483184612438 0 -0.1720302250152923 0.50000000000000022 0 -0.17430115969348189 0.49501483184612438 0 -0.1720302250152923 0.50000000000000022 0 -0.1982872987205446 0.5 0 -0.1757986315986971 0.48088398659212228 0 -0.17430115969348189 0.49501483184612438 0 -0.19138341924764241 0.47827032896460842 0 -0.17430115969348189 0.49501483184612438 0 -0.19138341924764241 0.47827032896460842 0 -0.1757986315986971 0.48088398659212228 0 -0.16613832665532341 0.48861682765244069 0 -0.17430115969348189 0.49501483184612438 0 -0.17430115969348189 0.49501483184612438 0 -0.1982872987205446 0.5 0 -0.19138341924764241 0.47827032896460842 0 -0.1982872987205446 0.5 0 -0.19138341924764241 0.47827032896460842 0 -0.21217809917650449 0.48030286392854288 0 -0.19138341924764241 0.47827032896460842 0 -0.208465678801803 0.46152582608309223 0 -0.19138341924764241 0.47827032896460842 0 -0.21217809917650449 0.48030286392854288 0 -0.208465678801803 0.46152582608309223 0 -0.1982872987205446 0.5 0 -0.21217809917650449 0.48030286392854288 0 -0.22454437242579681 0.5 0 -0.22454437242579681 0.5 0 -0.2288960980978284 0.47674808914996208 0 -0.2467553297522557 0.48147402383551691 0 -0.21217809917650449 0.48030286392854288 0 -0.22454437242579681 0.5 0 -0.2288960980978284 0.47674808914996208 0 -0.21217809917650449 0.48030286392854288 0 -0.2288960980978284 0.47674808914996208 0 -0.22325063631842021 0.46203708915627778 0 -0.25438198006151169 0.46464464965965441 0 -0.2467553297522557 0.48147402383551691 0 -0.2372897108761052 0.46028528898629889 0 -0.2288960980978284 0.47674808914996208 0 -0.2467553297522557 0.48147402383551691 0 -0.2372897108761052 0.46028528898629889 0 -0.25080144613104921 0.5 0 -0.22454437242579681 0.5 0 -0.2467553297522557 0.48147402383551691 0 -0.24356894722331929 0.44821508210096461 0 -0.22554793835596351 0.44478132320157598 0 -0.24263019791012411 0.42803682032005991 0 -0.24356894722331929 0.44821508210096461 0 -0.2372897108761052 0.46028528898629889 0 -0.22554793835596351 0.44478132320157598 0 -0.25799490891289278 0.4433273283372331 0 -0.24356894722331929 0.44821508210096461 0 -0.24263019791012411 0.42803682032005991 0 -0.25438198006151169 0.46464464965965441 0 -0.24356894722331929 0.44821508210096461 0 -0.2372897108761052 0.46028528898629889 0 -0.2288960980978284 0.47674808914996208 0 -0.2372897108761052 0.46028528898629889 0 -0.22325063631842021 0.46203708915627778 0 -0.2372897108761052 0.46028528898629889 0 -0.22325063631842021 0.46203708915627778 0 -0.22554793835596351 0.44478132320157598 0 -0.22325063631842021 0.46203708915627778 0 -0.22554793835596351 0.44478132320157598 0 -0.208465678801803 0.46152582608309223 0 -0.22554793835596351 0.44478132320157598 0 -0.20785557032720109 0.44518798724498809 0 -0.21437917226951189 0.43588067273166847 0 -0.22554793835596351 0.44478132320157598 0 -0.20785557032720109 0.44518798724498809 0 -0.208465678801803 0.46152582608309223 0 -0.22554793835596351 0.44478132320157598 0 -0.208465678801803 0.46152582608309223 0 -0.21217809917650449 0.48030286392854288 0 -0.22325063631842021 0.46203708915627778 0 -0.208465678801803 0.46152582608309223 0 -0.19138341924764241 0.47827032896460842 0 -0.208465678801803 0.46152582608309223 0 -0.1899884502156329 0.46461586120334353 0 -0.208465678801803 0.46152582608309223 0 -0.1899884502156329 0.46461586120334353 0 -0.1926513277646352 0.45119866261047992 0 -0.20785557032720109 0.44518798724498809 0 -0.1926513277646352 0.45119866261047992 0 -0.18693863061853061 0.43491447939059907 0 -0.20785557032720109 0.44518798724498809 0 -0.208465678801803 0.46152582608309223 0 -0.1926513277646352 0.45119866261047992 0 -0.19176926968858449 0.42488004754311998 0 -0.20430089696141959 0.42856004989685992 0 -0.18693863061853061 0.43491447939059907 0 -0.20785557032720109 0.44518798724498809 0 -0.20430089696141959 0.42856004989685992 0 -0.18693863061853061 0.43491447939059907 0 -0.19176926968858449 0.42488004754311998 0 -0.19667758679306771 0.41738623802377928 0 -0.20430089696141959 0.42856004989685992 0 -0.19667758679306771 0.41738623802377928 0 -0.19460267291041519 0.40299123798476227 0 -0.182164522352502 0.41833083015148409 0 -0.19460267291041519 0.40299123798476227 0 -0.182164522352502 0.41833083015148409 0 -0.19176926968858449 0.42488004754311998 0 -0.19667758679306771 0.41738623802377928 0 -0.182164522352502 0.41833083015148409 0 -0.19667758679306771 0.41738623802377928 0 -0.2074030129404133 0.4163894186605448 0 -0.20430089696141959 0.42856004989685992 0 -0.19667758679306771 0.41738623802377928 0 -0.2074030129404133 0.4163894186605448 0 -0.19460267291041519 0.40299123798476227 0 -0.2074030129404133 0.4163894186605448 0 -0.21981228343346321 0.42499333058324978 0 -0.22162162460370111 0.40801623681407218 0 -0.2074030129404133 0.4163894186605448 0 -0.22162162460370111 0.40801623681407218 0 -0.19460267291041519 0.40299123798476227 0 -0.20785557032720109 0.44518798724498809 0 -0.20430089696141959 0.42856004989685992 0 -0.21437917226951189 0.43588067273166847 0 -0.2074030129404133 0.4163894186605448 0 -0.20430089696141959 0.42856004989685992 0 -0.21981228343346321 0.42499333058324978 0 -0.20430089696141959 0.42856004989685992 0 -0.21437917226951189 0.43588067273166847 0 -0.21981228343346321 0.42499333058324978 0 -0.22554793835596351 0.44478132320157598 0 -0.24263019791012411 0.42803682032005991 0 -0.22554793835596351 0.44478132320157598 0 -0.2313941741476824 0.42795323546389102 0 -0.24263019791012411 0.42803682032005991 0 -0.22554793835596351 0.44478132320157598 0 -0.21437917226951189 0.43588067273166847 0 -0.21981228343346321 0.42499333058324978 0 -0.22554793835596351 0.44478132320157598 0 -0.2313941741476824 0.42795323546389102 0 -0.21981228343346321 0.42499333058324978 0 -0.2313941741476824 0.42795323546389102 0 -0.21981228343346321 0.42499333058324978 0 -0.2301621318308705 0.41771135234831969 0 -0.2313941741476824 0.42795323546389102 0 -0.2301621318308705 0.41771135234831969 0 -0.23881831920799079 0.42424335086624981 0 -0.21981228343346321 0.42499333058324978 0 -0.22162162460370111 0.40801623681407218 0 -0.2301621318308705 0.41771135234831969 0 -0.22162162460370111 0.40801623681407218 0 -0.2301621318308705 0.41771135234831969 0 -0.241034552697166 0.41286836770778501 0 -0.25157066981256843 0.40894445920752592 0 -0.241034552697166 0.41286836770778501 0 -0.24263019791012411 0.42803682032005991 0 -0.241034552697166 0.41286836770778501 0 -0.24263019791012411 0.42803682032005991 0 -0.23881831920799079 0.42424335086624981 0 -0.22162162460370111 0.40801623681407218 0 -0.241034552697166 0.41286836770778501 0 -0.24388213391773941 0.40163479241199579 0 -0.2301621318308705 0.41771135234831969 0 -0.241034552697166 0.41286836770778501 0 -0.23881831920799079 0.42424335086624981 0 -0.25157066981256843 0.40894445920752592 0 -0.241034552697166 0.41286836770778501 0 -0.24388213391773941 0.40163479241199579 0 -0.2313941741476824 0.42795323546389102 0 -0.24263019791012411 0.42803682032005991 0 -0.23881831920799079 0.42424335086624981 0 -0.24263019791012411 0.42803682032005991 0 -0.23881831920799079 0.42424335086624981 0 -0.25453646971320443 0.37462232419521813 0 -0.24781733580734391 0.38604582424895789 0 -0.23735930512057779 0.37349779701461089 0 -0.2365264908337599 0.38834162546439549 0 -0.24781733580734391 0.38604582424895789 0 -0.23735930512057779 0.37349779701461089 0 -0.2365264908337599 0.38834162546439549 0 -0.24781733580734391 0.38604582424895789 0 -0.24388213391773941 0.40163479241199579 0 -0.22162162460370111 0.40801623681407218 0 -0.24388213391773941 0.40163479241199579 0 -0.22162162460370111 0.40801623681407218 0 -0.2365264908337599 0.38834162546439549 0 -0.2225569648072106 0.38059728391652659 0 -0.22162162460370111 0.40801623681407218 0 -0.2365264908337599 0.38834162546439549 0 -0.24388213391773941 0.40163479241199579 0 -0.2365264908337599 0.38834162546439549 0 -0.2225569648072106 0.38059728391652659 0 -0.23735930512057779 0.37349779701461089 0 -0.2225569648072106 0.38059728391652659 0 -0.20545957084956781 0.38789926664213359 0 -0.1994770785436861 0.36691897370504389 0 -0.22162162460370111 0.40801623681407218 0 -0.2225569648072106 0.38059728391652659 0 -0.20545957084956781 0.38789926664213359 0 -0.22162162460370111 0.40801623681407218 0 -0.20545957084956781 0.38789926664213359 0 -0.19460267291041519 0.40299123798476227 0 -0.20545957084956781 0.38789926664213359 0 -0.19460267291041519 0.40299123798476227 0 -0.18736095772118591 0.3836472042370111 0 -0.20545957084956781 0.38789926664213359 0 -0.18736095772118591 0.3836472042370111 0 -0.1994770785436861 0.36691897370504389 0 -0.18736095772118591 0.3836472042370111 0 -0.16248792359233191 0.38534127627451031 0 -0.17644948136236779 0.3976803029940168 0 -0.18736095772118591 0.3836472042370111 0 -0.16248792359233191 0.38534127627451031 0 -0.1741500565645078 0.37123080613525078 0 -0.16248792359233191 0.38534127627451031 0 -0.16330635783110381 0.4038062271485704 0 -0.14438589058212131 0.3948348353259919 0 -0.16248792359233191 0.38534127627451031 0 -0.16330635783110381 0.4038062271485704 0 -0.17644948136236779 0.3976803029940168 0 -0.19460267291041519 0.40299123798476227 0 -0.17644948136236779 0.3976803029940168 0 -0.17778078602166139 0.40821888849324761 0 -0.19460267291041519 0.40299123798476227 0 -0.18736095772118591 0.3836472042370111 0 -0.17644948136236779 0.3976803029940168 0 -0.16330635783110381 0.4038062271485704 0 -0.17644948136236779 0.3976803029940168 0 -0.17778078602166139 0.40821888849324761 0 -0.19460267291041519 0.40299123798476227 0 -0.182164522352502 0.41833083015148409 0 -0.17778078602166139 0.40821888849324761 0 -0.182164522352502 0.41833083015148409 0 -0.1723808956519178 0.41828584418740389 0 -0.17778078602166139 0.40821888849324761 0 -0.19176926968858449 0.42488004754311998 0 -0.182164522352502 0.41833083015148409 0 -0.18693863061853061 0.43491447939059907 0 -0.182164522352502 0.41833083015148409 0 -0.18693863061853061 0.43491447939059907 0 -0.1697263717945888 0.43367042231820602 0 -0.182164522352502 0.41833083015148409 0 -0.1697263717945888 0.43367042231820602 0 -0.182164522352502 0.41833083015148409 0 -0.1723808956519178 0.41828584418740389 0 -0.1697263717945888 0.43367042231820602 0 -0.15995177900170021 0.44572512983606088 0 -0.1697263717945888 0.43367042231820602 0 -0.15376963845050121 0.4328235067909087 0 -0.1697263717945888 0.43367042231820602 0 -0.14650538949161929 0.41591584262955861 0 -0.15376963845050121 0.4328235067909087 0 -0.1697263717945888 0.43367042231820602 0 -0.14650538949161929 0.41591584262955861 0 -0.1723808956519178 0.41828584418740389 0 -0.1697263717945888 0.43367042231820602 0 -0.14650538949161929 0.41591584262955861 0 -0.1723808956519178 0.41828584418740389 0 -0.14650538949161929 0.41591584262955861 0 -0.16330635783110381 0.4038062271485704 0 -0.1723808956519178 0.41828584418740389 0 -0.14650538949161929 0.41591584262955861 0 -0.16330635783110381 0.4038062271485704 0 -0.1723808956519178 0.41828584418740389 0 -0.17778078602166139 0.40821888849324761 0 -0.14650538949161929 0.41591584262955861 0 -0.15376963845050121 0.4328235067909087 0 -0.13889501351409689 0.43598263237980822 0 -0.13889501351409689 0.43598263237980822 0 -0.12761284081938409 0.41418542740570108 0 -0.14650538949161929 0.41591584262955861 0 -0.13889501351409689 0.43598263237980822 0 -0.12761284081938409 0.41418542740570108 0 -0.13889501351409689 0.43598263237980822 0 -0.12761284081938409 0.41418542740570108 0 -0.1242648033483075 0.43981492828754482 0 -0.14650538949161929 0.41591584262955861 0 -0.12761284081938409 0.41418542740570108 0 -0.12644786621320531 0.40058001872868543 0 -0.14650538949161929 0.41591584262955861 0 -0.12644786621320531 0.40058001872868543 0 -0.14650538949161929 0.41591584262955861 0 -0.12761284081938409 0.41418542740570108 0 -0.14650538949161929 0.41591584262955861 0 -0.12644786621320531 0.40058001872868543 0 -0.14438589058212131 0.3948348353259919 0 -0.12644786621320531 0.40058001872868543 0 -0.12826940643264259 0.38638828685515292 0 -0.14438589058212131 0.3948348353259919 0 -0.1399268433138337 0.37661104245066729 0 -0.12826940643264259 0.38638828685515292 0 -0.1198206075896991 0.37069234566290138 0 -0.1399268433138337 0.37661104245066729 0 -0.12826940643264259 0.38638828685515292 0 -0.14438589058212131 0.3948348353259919 0 -0.16248792359233191 0.38534127627451031 0 -0.1399268433138337 0.37661104245066729 0 -0.1571746455416145 0.36408416689185819 0 -0.16248792359233191 0.38534127627451031 0 -0.1399268433138337 0.37661104245066729 0 -0.14438589058212131 0.3948348353259919 0 -0.16330635783110381 0.4038062271485704 0 -0.14650538949161929 0.41591584262955861 0 -0.14438589058212131 0.3948348353259919 0 -0.1367685514822152 0.35851885971508118 0 -0.13367478836053351 0.33932016938713638 0 -0.15331730601663701 0.3395623532820784 0 -0.1367685514822152 0.35851885971508118 0 -0.15331730601663701 0.3395623532820784 0 -0.1571746455416145 0.36408416689185819 0 -0.1399268433138337 0.37661104245066729 0 -0.1367685514822152 0.35851885971508118 0 -0.1571746455416145 0.36408416689185819 0 -0.1399268433138337 0.37661104245066729 0 -0.1367685514822152 0.35851885971508118 0 -0.1198206075896991 0.37069234566290138 0 -0.1367685514822152 0.35851885971508118 0 -0.13367478836053351 0.33932016938713638 0 -0.1173066256070304 0.35104950557859033 0 -0.13367478836053351 0.33932016938713638 0 -0.1262409447270301 0.3211703831111522 0 -0.1175879007316586 0.33497855513245622 0 -0.13367478836053351 0.33932016938713638 0 -0.1262409447270301 0.3211703831111522 0 -0.14995133854557879 0.31573290008088639 0 -0.1262409447270301 0.3211703831111522 0 -0.14995133854557879 0.31573290008088639 0 -0.13170636281121431 0.30540396541675668 0 -0.13367478836053351 0.33932016938713638 0 -0.14995133854557879 0.31573290008088639 0 -0.15331730601663701 0.3395623532820784 0 -0.15331730601663701 0.3395623532820784 0 -0.17079439025487569 0.32494122108339912 0 -0.1763971922801616 0.3532406634935612 0 -0.14995133854557879 0.31573290008088639 0 -0.17079439025487569 0.32494122108339912 0 -0.167164841548782 0.29891422322321631 0 -0.14995133854557879 0.31573290008088639 0 -0.15331730601663701 0.3395623532820784 0 -0.17079439025487569 0.32494122108339912 0 -0.17079439025487569 0.32494122108339912 0 -0.19256976679114979 0.33165381796875049 0 -0.19699128312530151 0.30504565645142051 0 -0.17079439025487569 0.32494122108339912 0 -0.1763971922801616 0.3532406634935612 0 -0.19256976679114979 0.33165381796875049 0 -0.15331730601663701 0.3395623532820784 0 -0.1763971922801616 0.3532406634935612 0 -0.1571746455416145 0.36408416689185819 0 -0.15331730601663701 0.3395623532820784 0 -0.1763971922801616 0.3532406634935612 0 -0.1763971922801616 0.3532406634935612 0 -0.1571746455416145 0.36408416689185819 0 -0.1741500565645078 0.37123080613525078 0 -0.16248792359233191 0.38534127627451031 0 -0.1571746455416145 0.36408416689185819 0 -0.1741500565645078 0.37123080613525078 0 -0.18736095772118591 0.3836472042370111 0 -0.1741500565645078 0.37123080613525078 0 -0.1994770785436861 0.36691897370504389 0 -0.1763971922801616 0.3532406634935612 0 -0.1741500565645078 0.37123080613525078 0 -0.1994770785436861 0.36691897370504389 0 -0.1763971922801616 0.3532406634935612 0 -0.1994770785436861 0.36691897370504389 0 -0.1763971922801616 0.3532406634935612 0 -0.20127160642404629 0.34878804965207372 0 -0.19256976679114979 0.33165381796875049 0 -0.1763971922801616 0.3532406634935612 0 -0.1994770785436861 0.36691897370504389 0 -0.20127160642404629 0.34878804965207372 0 -0.1994770785436861 0.36691897370504389 0 -0.20127160642404629 0.34878804965207372 0 -0.22480168799342179 0.35512276170724633 0 -0.20127160642404629 0.34878804965207372 0 -0.22480168799342179 0.35512276170724633 0 -0.2131123065118124 0.33700403138576668 0 -0.2225569648072106 0.38059728391652659 0 -0.1994770785436861 0.36691897370504389 0 -0.2225569648072106 0.38059728391652659 0 -0.1994770785436861 0.36691897370504389 0 -0.22480168799342179 0.35512276170724633 0 -0.2225569648072106 0.38059728391652659 0 -0.22480168799342179 0.35512276170724633 0 -0.23735930512057779 0.37349779701461089 0 -0.25368472498167011 0.34420349485172652 0 -0.22480168799342179 0.35512276170724633 0 -0.24822911175635759 0.36217347122335058 0 -0.22480168799342179 0.35512276170724633 0 -0.24822911175635759 0.36217347122335058 0 -0.23735930512057779 0.37349779701461089 0 -0.25453646971320443 0.37462232419521813 0 -0.24822911175635759 0.36217347122335058 0 -0.23735930512057779 0.37349779701461089 0 -0.25757488899104952 0.31786411623381933 0 -0.23478691102954721 0.33115088205162452 0 -0.2366570207200871 0.30010935915934539 0 -0.25368472498167011 0.34420349485172652 0 -0.22480168799342179 0.35512276170724633 0 -0.23478691102954721 0.33115088205162452 0 -0.25368472498167011 0.34420349485172652 0 -0.23478691102954721 0.33115088205162452 0 -0.25757488899104952 0.31786411623381933 0 -0.25368472498167011 0.34420349485172652 0 -0.23478691102954721 0.33115088205162452 0 -0.23478691102954721 0.33115088205162452 0 -0.2158890970774244 0.31809826925152251 0 -0.2131123065118124 0.33700403138576668 0 -0.22480168799342179 0.35512276170724633 0 -0.23478691102954721 0.33115088205162452 0 -0.2131123065118124 0.33700403138576668 0 -0.23478691102954721 0.33115088205162452 0 -0.2158890970774244 0.31809826925152251 0 -0.2366570207200871 0.30010935915934539 0 -0.23478691102954721 0.33115088205162452 0 -0.2158890970774244 0.31809826925152251 0 -0.2158890970774244 0.31809826925152251 0 -0.2131123065118124 0.33700403138576668 0 -0.19256976679114979 0.33165381796875049 0 -0.20127160642404629 0.34878804965207372 0 -0.2131123065118124 0.33700403138576668 0 -0.19256976679114979 0.33165381796875049 0 -0.2158890970774244 0.31809826925152251 0 -0.19256976679114979 0.33165381796875049 0 -0.19699128312530151 0.30504565645142051 0 -0.19699128312530151 0.30504565645142051 0 -0.2044220976180971 0.2747921468301005 0 -0.18537993383704029 0.28397978744787411 0 -0.19699128312530151 0.30504565645142051 0 -0.21636901433909059 0.29447561219915308 0 -0.2044220976180971 0.2747921468301005 0 -0.2158890970774244 0.31809826925152251 0 -0.19699128312530151 0.30504565645142051 0 -0.21636901433909059 0.29447561219915308 0 -0.2158890970774244 0.31809826925152251 0 -0.19699128312530151 0.30504565645142051 0 -0.2158890970774244 0.31809826925152251 0 -0.21636901433909059 0.29447561219915308 0 -0.2366570207200871 0.30010935915934539 0 -0.21636901433909059 0.29447561219915308 0 -0.2366570207200871 0.30010935915934539 0 -0.2235041758045673 0.27405874977876837 0 -0.26277913973510902 0.29023342414179659 0 -0.2366570207200871 0.30010935915934539 0 -0.2447247674615598 0.2718938593685879 0 -0.2366570207200871 0.30010935915934539 0 -0.2447247674615598 0.2718938593685879 0 -0.2235041758045673 0.27405874977876837 0 -0.25693865295534157 0.25278860643768353 0 -0.2416444700809012 0.25186566196455601 0 -0.2447247674615598 0.2718938593685879 0 -0.2416444700809012 0.25186566196455601 0 -0.2447247674615598 0.2718938593685879 0 -0.22667039518801041 0.25355429459537898 0 -0.2447247674615598 0.2718938593685879 0 -0.22667039518801041 0.25355429459537898 0 -0.2447247674615598 0.2718938593685879 0 -0.2235041758045673 0.27405874977876837 0 -0.22667039518801041 0.25355429459537898 0 -0.2235041758045673 0.27405874977876837 0 -0.22667039518801041 0.25355429459537898 0 -0.21218175950055909 0.24952722652004439 0 -0.2044220976180971 0.2747921468301005 0 -0.1929026130837673 0.25762258695206858 0 -0.21218175950055909 0.24952722652004439 0 -0.2044220976180971 0.2747921468301005 0 -0.21218175950055909 0.24952722652004439 0 -0.2235041758045673 0.27405874977876837 0 -0.2044220976180971 0.2747921468301005 0 -0.21218175950055909 0.24952722652004439 0 -0.21636901433909059 0.29447561219915308 0 -0.2235041758045673 0.27405874977876837 0 -0.2044220976180971 0.2747921468301005 0 -0.2044220976180971 0.2747921468301005 0 -0.1929026130837673 0.25762258695206858 0 -0.18537993383704029 0.28397978744787411 0 -0.1929026130837673 0.25762258695206858 0 -0.16582228118094081 0.26466105519565358 0 -0.18651378479530609 0.23505073182760211 0 -0.1929026130837673 0.25762258695206858 0 -0.16582228118094081 0.26466105519565358 0 -0.18537993383704029 0.28397978744787411 0 -0.16582228118094081 0.26466105519565358 0 -0.167164841548782 0.29891422322321631 0 -0.14136362158270599 0.28508793949713551 0 -0.16582228118094081 0.26466105519565358 0 -0.18537993383704029 0.28397978744787411 0 -0.167164841548782 0.29891422322321631 0 -0.19699128312530151 0.30504565645142051 0 -0.18537993383704029 0.28397978744787411 0 -0.167164841548782 0.29891422322321631 0 -0.17079439025487569 0.32494122108339912 0 -0.19699128312530151 0.30504565645142051 0 -0.167164841548782 0.29891422322321631 0 -0.167164841548782 0.29891422322321631 0 -0.14136362158270599 0.28508793949713551 0 -0.14995133854557879 0.31573290008088639 0 -0.167164841548782 0.29891422322321631 0 -0.14136362158270599 0.28508793949713551 0 -0.14995133854557879 0.31573290008088639 0 -0.14136362158270599 0.28508793949713551 0 -0.13170636281121431 0.30540396541675668 0 -0.1262409447270301 0.3211703831111522 0 -0.13170636281121431 0.30540396541675668 0 -0.1173504618646501 0.30916380798395637 0 -0.14136362158270599 0.28508793949713551 0 -0.13170636281121431 0.30540396541675668 0 -0.1202787732923796 0.29457691953651272 0 -0.14136362158270599 0.28508793949713551 0 -0.1196693143642453 0.28329908912575552 0 -0.1202787732923796 0.29457691953651272 0 -0.14136362158270599 0.28508793949713551 0 -0.1155624016166297 0.27126165577105521 0 -0.1196693143642453 0.28329908912575552 0 -0.14136362158270599 0.28508793949713551 0 -0.1155624016166297 0.27126165577105521 0 -0.12872708527658799 0.25991420809329241 0 -0.1416417428525672 0.26777243923482702 0 -0.1155624016166297 0.27126165577105521 0 -0.14136362158270599 0.28508793949713551 0 -0.1416417428525672 0.26777243923482702 0 -0.1155624016166297 0.27126165577105521 0 -0.12872708527658799 0.25991420809329241 0 -0.14534546737678511 0.25129379472131641 0 -0.1416417428525672 0.26777243923482702 0 -0.12872708527658799 0.25991420809329241 0 -0.14534546737678511 0.25129379472131641 0 -0.12470300375741469 0.2457033751303839 0 -0.16582228118094081 0.26466105519565358 0 -0.14534546737678511 0.25129379472131641 0 -0.1416417428525672 0.26777243923482702 0 -0.16582228118094081 0.26466105519565358 0 -0.14136362158270599 0.28508793949713551 0 -0.1416417428525672 0.26777243923482702 0 -0.1083690905562489 0.27746201143443072 0 -0.10470287070229969 0.27376422074294909 0 -0.09206590757372593 0.27740472432850488 0 -0.099741497972773749 0.27068482051400677 0 -0.1098053558875477 0.27272524579145851 0 -0.092391857727521592 0.25884509119311472 0 -0.1155624016166297 0.27126165577105521 0 -0.1098053558875477 0.27272524579145851 0 -0.092391857727521592 0.25884509119311472 0 -0.099741497972773749 0.27068482051400677 0 -0.09206590757372593 0.27740472432850488 0 -0.092391857727521592 0.25884509119311472 0 -0.10470287070229969 0.27376422074294909 0 -0.099741497972773749 0.27068482051400677 0 -0.1098053558875477 0.27272524579145851 0 -0.1083690905562489 0.27746201143443072 0 -0.1098053558875477 0.27272524579145851 0 -0.1083690905562489 0.27746201143443072 0 -0.10470287070229969 0.27376422074294909 0 -0.1098053558875477 0.27272524579145851 0 -0.10470287070229969 0.27376422074294909 0 -0.099741497972773749 0.27068482051400677 0 -0.09206590757372593 0.27740472432850488 0 -0.1155624016166297 0.27126165577105521 0 -0.092391857727521592 0.25884509119311472 0 -0.11076524853809321 0.25238606884059173 0 -0.1155624016166297 0.27126165577105521 0 -0.092391857727521592 0.25884509119311472 0 -0.11076524853809321 0.25238606884059173 0 -0.1199394347971814 0.25731632695883078 0 -0.1155624016166297 0.27126165577105521 0 -0.12872708527658799 0.25991420809329241 0 -0.1199394347971814 0.25731632695883078 0 -0.12470300375741469 0.2457033751303839 0 -0.11076524853809321 0.25238606884059173 0 -0.1199394347971814 0.25731632695883078 0 -0.12470300375741469 0.2457033751303839 0 -0.12872708527658799 0.25991420809329241 0 -0.1199394347971814 0.25731632695883078 0 -0.1155624016166297 0.27126165577105521 0 -0.12872708527658799 0.25991420809329241 0 -0.1155624016166297 0.27126165577105521 0 -0.1083690905562489 0.27746201143443072 0 -0.1155624016166297 0.27126165577105521 0 -0.1196693143642453 0.28329908912575552 0 -0.1083690905562489 0.27746201143443072 0 -0.1155624016166297 0.27126165577105521 0 -0.1098053558875477 0.27272524579145851 0 -0.1083690905562489 0.27746201143443072 0 -0.1155624016166297 0.27126165577105521 0 -0.1083690905562489 0.27746201143443072 0 -0.1202787732923796 0.29457691953651272 0 -0.1003457715998239 0.30392270831765028 0 -0.1083690905562489 0.27746201143443072 0 -0.1196693143642453 0.28329908912575552 0 -0.1202787732923796 0.29457691953651272 0 -0.1202787732923796 0.29457691953651272 0 -0.1173504618646501 0.30916380798395637 0 -0.1003457715998239 0.30392270831765028 0 -0.13170636281121431 0.30540396541675668 0 -0.1202787732923796 0.29457691953651272 0 -0.1173504618646501 0.30916380798395637 0 -0.1173504618646501 0.30916380798395637 0 -0.1003457715998239 0.30392270831765028 0 -0.1081804568928026 0.32074506353771021 0 -0.1083690905562489 0.27746201143443072 0 -0.08834593029567378 0.29472120043351602 0 -0.09206590757372593 0.27740472432850488 0 -0.1083690905562489 0.27746201143443072 0 -0.1003457715998239 0.30392270831765028 0 -0.08834593029567378 0.29472120043351602 0 -0.1083690905562489 0.27746201143443072 0 -0.1003457715998239 0.30392270831765028 0 -0.1083690905562489 0.27746201143443072 0 -0.08834593029567378 0.29472120043351602 0 -0.08834593029567378 0.29472120043351602 0 -0.079344374197139078 0.28508182268507098 0 -0.09206590757372593 0.27740472432850488 0 -0.08834593029567378 0.29472120043351602 0 -0.072463929930227558 0.29930610977545041 0 -0.077617967212061698 0.29366907382828078 0 -0.08834593029567378 0.29472120043351602 0 -0.079344374197139078 0.28508182268507098 0 -0.077617967212061698 0.29366907382828078 0 -0.08834593029567378 0.29472120043351602 0 -0.087527931766016032 0.31235393694025021 0 -0.08121949171140587 0.31012908581564408 0 -0.08834593029567378 0.29472120043351602 0 -0.068322770035098762 0.31198038943260148 0 -0.1003457715998239 0.30392270831765028 0 -0.08834593029567378 0.29472120043351602 0 -0.087527931766016032 0.31235393694025021 0 -0.08834593029567378 0.29472120043351602 0 -0.08121949171140587 0.31012908581564408 0 -0.069852456288818351 0.31207980665071 0 -0.08834593029567378 0.29472120043351602 0 -0.068322770035098762 0.31198038943260148 0 -0.069852456288818351 0.31207980665071 0 -0.08834593029567378 0.29472120043351602 0 -0.072463929930227558 0.29930610977545041 0 -0.068322770035098762 0.31198038943260148 0 -0.072463929930227558 0.29930610977545041 0 -0.064179569528432873 0.29754197169583518 0 -0.063962500348327456 0.30379626580195229 0 -0.072463929930227558 0.29930610977545041 0 -0.063962500348327456 0.30379626580195229 0 -0.068322770035098762 0.31198038943260148 0 -0.068322770035098762 0.31198038943260148 0 -0.069852456288818351 0.31207980665071 0 -0.079344374197139078 0.28508182268507098 0 -0.070510141993048517 0.29225124769799787 0 -0.067485792004003509 0.28106498521306011 0 -0.079344374197139078 0.28508182268507098 0 -0.077617967212061698 0.29366907382828078 0 -0.070510141993048517 0.29225124769799787 0 -0.072463929930227558 0.29930610977545041 0 -0.077617967212061698 0.29366907382828078 0 -0.070510141993048517 0.29225124769799787 0 -0.064179569528432873 0.29754197169583518 0 -0.070510141993048517 0.29225124769799787 0 -0.059799020663136082 0.29068729405280619 0 -0.072463929930227558 0.29930610977545041 0 -0.064179569528432873 0.29754197169583518 0 -0.070510141993048517 0.29225124769799787 0 -0.070510141993048517 0.29225124769799787 0 -0.067485792004003509 0.28106498521306011 0 -0.059799020663136082 0.29068729405280619 0 -0.079344374197139078 0.28508182268507098 0 -0.077112635008727601 0.26938653581869981 0 -0.067485792004003509 0.28106498521306011 0 -0.077112635008727601 0.26938653581869981 0 -0.067485792004003509 0.28106498521306011 0 -0.060296114269721542 0.26705395206363342 0 -0.079344374197139078 0.28508182268507098 0 -0.077112635008727601 0.26938653581869981 0 -0.09206590757372593 0.27740472432850488 0 -0.077112635008727601 0.26938653581869981 0 -0.09206590757372593 0.27740472432850488 0 -0.092391857727521592 0.25884509119311472 0 -0.092391857727521592 0.25884509119311472 0 -0.069221313838413207 0.24642852661517459 0 -0.077112635008727601 0.26938653581869981 0 -0.092391857727521592 0.25884509119311472 0 -0.069221313838413207 0.24642852661517459 0 -0.077112635008727601 0.26938653581869981 0 -0.060296114269721542 0.26705395206363342 0 -0.069221313838413207 0.24642852661517459 0 -0.048126263350958612 0.25465777805589501 0 -0.060296114269721542 0.26705395206363342 0 -0.069221313838413207 0.24642852661517459 0 -0.048126263350958612 0.25465777805589501 0 -0.060296114269721542 0.26705395206363342 0 -0.041784573477856593 0.2719242686623195 0 -0.055384127889045079 0.27986410773994991 0 -0.060296114269721542 0.26705395206363342 0 -0.041784573477856593 0.2719242686623195 0 -0.055384127889045079 0.27986410773994991 0 -0.041784573477856593 0.2719242686623195 0 -0.044370237993260717 0.29032640624232281 0 -0.067485792004003509 0.28106498521306011 0 -0.055384127889045079 0.27986410773994991 0 -0.060296114269721542 0.26705395206363342 0 -0.041784573477856593 0.2719242686623195 0 -0.028053557715267439 0.25838243531431121 0 -0.02550209953536561 0.27186686885002359 0 -0.041784573477856593 0.2719242686623195 0 -0.02550209953536561 0.27186686885002359 0 -0.031040102747703489 0.28267752730564011 0 -0.048126263350958612 0.25465777805589501 0 -0.041784573477856593 0.2719242686623195 0 -0.028053557715267439 0.25838243531431121 0 -0.048126263350958612 0.25465777805589501 0 -0.028053557715267439 0.25838243531431121 0 -0.033382390283993792 0.24359412621706661 0 -0.028053557715267439 0.25838243531431121 0 -0.01504563196256534 0.26333196488375049 0 -0.01778818590069102 0.2421293126167848 0 -0.01504563196256534 0.26333196488375049 0 -0.01778818590069102 0.2421293126167848 0 -0.028053557715267439 0.25838243531431121 0 -0.02550209953536561 0.27186686885002359 0 -0.01504563196256534 0.26333196488375049 0 -0.028053557715267439 0.25838243531431121 0 -0.01504563196256534 0.26333196488375049 0 -0.02550209953536561 0.27186686885002359 0 -0.01214761008608776 0.28573653795517551 0 -0.031040102747703489 0.28267752730564011 0 -0.02550209953536561 0.27186686885002359 0 -0.01504563196256534 0.26333196488375049 0 -0.01214761008608776 0.28573653795517551 0 -0.001267499687089951 0.2776013217203892 0 -0.01504563196256534 0.26333196488375049 0 -0.01214761008608776 0.28573653795517551 0 -0.01504563196256534 0.26333196488375049 0 -0.01214761008608776 0.28573653795517551 0 -0.00067809962666212902 0.26216505597133072 0 -0.01504563196256534 0.26333196488375049 0 0.010965700908337589 0.27322930467739909 0 -0.001267499687089951 0.2776013217203892 0 -0.01504563196256534 0.26333196488375049 0 0.010965700908337589 0.27322930467739909 0 -0.01504563196256534 0.26333196488375049 0 0.010965700908337589 0.27322930467739909 0 -0.0087132352456033638 0.25173417187717928 0 -0.01504563196256534 0.26333196488375049 0 -0.01778818590069102 0.2421293126167848 0 -0.00067809962666212902 0.26216505597133072 0 -0.0087132352456033638 0.25173417187717928 0 0.0027594708259384838 0.25829047161104352 0 -0.00067809962666212902 0.26216505597133072 0 -0.0087132352456033638 0.25173417187717928 0 -0.01504563196256534 0.26333196488375049 0 -0.009249588209606344 0.30814111102660002 0 -0.01214761008608776 0.28573653795517551 0 0.0038021096493471361 0.29689124930627131 0 -0.009249588209606344 0.30814111102660002 0 -0.01214761008608776 0.28573653795517551 0 -0.01214761008608776 0.28573653795517551 0 0.002380999114604244 0.28599596302517022 0 0.0038021096493471361 0.29689124930627131 0 -0.001267499687089951 0.2776013217203892 0 -0.01214761008608776 0.28573653795517551 0 0.002380999114604244 0.28599596302517022 0 -0.009249588209606344 0.30814111102660002 0 -0.01214761008608776 0.28573653795517551 0 -0.02711874363180217 0.2953884665518679 0 -0.01214761008608776 0.28573653795517551 0 -0.031040102747703489 0.28267752730564011 0 -0.02711874363180217 0.2953884665518679 0 -0.009249588209606344 0.30814111102660002 0 -0.02711874363180217 0.2953884665518679 0 -0.038786179122352507 0.31006075022960111 0 -0.009249588209606344 0.30814111102660002 0 -0.038786179122352507 0.31006075022960111 0 -0.02711874363180217 0.2953884665518679 0 -0.038786179122352507 0.31006075022960111 0 -0.044370237993260717 0.29032640624232281 0 -0.038786179122352507 0.31006075022960111 0 -0.044370237993260717 0.29032640624232281 0 -0.054162254707424723 0.30166894115096898 0 -0.031040102747703489 0.28267752730564011 0 -0.02711874363180217 0.2953884665518679 0 -0.044370237993260717 0.29032640624232281 0 -0.041784573477856593 0.2719242686623195 0 -0.031040102747703489 0.28267752730564011 0 -0.044370237993260717 0.29032640624232281 0 -0.055384127889045079 0.27986410773994991 0 -0.044370237993260717 0.29032640624232281 0 -0.059799020663136082 0.29068729405280619 0 -0.044370237993260717 0.29032640624232281 0 -0.059799020663136082 0.29068729405280619 0 -0.054162254707424723 0.30166894115096898 0 -0.064179569528432873 0.29754197169583518 0 -0.059799020663136082 0.29068729405280619 0 -0.054162254707424723 0.30166894115096898 0 -0.067485792004003509 0.28106498521306011 0 -0.055384127889045079 0.27986410773994991 0 -0.059799020663136082 0.29068729405280619 0 -0.068322770035098762 0.31198038943260148 0 -0.038786179122352507 0.31006075022960111 0 -0.068322770035098762 0.31198038943260148 0 -0.038786179122352507 0.31006075022960111 0 -0.054162254707424723 0.30166894115096898 0 -0.064179569528432873 0.29754197169583518 0 -0.063962500348327456 0.30379626580195229 0 -0.054162254707424723 0.30166894115096898 0 -0.063962500348327456 0.30379626580195229 0 -0.068322770035098762 0.31198038943260148 0 -0.054162254707424723 0.30166894115096898 0 -0.068322770035098762 0.31198038943260148 0 -0.038786179122352507 0.31006075022960111 0 -0.053879496619987192 0.32442993198196868 0 -0.068322770035098762 0.31198038943260148 0 -0.053879496619987192 0.32442993198196868 0 -0.059045099567240703 0.33862263320968672 0 -0.059976501396798443 0.34640013057040159 0 -0.068046633572776155 0.34513696516333192 0 -0.053879496619987192 0.32442993198196868 0 -0.059045099567240703 0.33862263320968672 0 -0.06815446288386498 0.3263880450875648 0 -0.053879496619987192 0.32442993198196868 0 -0.059045099567240703 0.33862263320968672 0 -0.049717572699208172 0.33977374392884352 0 -0.053879496619987192 0.32442993198196868 0 -0.049717572699208172 0.33977374392884352 0 -0.039436223204876379 0.33687947453133682 0 -0.059045099567240703 0.33862263320968672 0 -0.049717572699208172 0.33977374392884352 0 -0.052933118771744558 0.34753778728834739 0 -0.049717572699208172 0.33977374392884352 0 -0.039436223204876379 0.33687947453133682 0 -0.045752302425533672 0.34929255203680049 0 -0.053879496619987192 0.32442993198196868 0 -0.039436223204876379 0.33687947453133682 0 -0.039359444206513459 0.32419621080282812 0 -0.053879496619987192 0.32442993198196868 0 -0.039436223204876379 0.33687947453133682 0 -0.039436223204876379 0.33687947453133682 0 -0.039359444206513459 0.32419621080282812 0 -0.02531264429424256 0.33765677836634578 0 -0.039436223204876379 0.33687947453133682 0 -0.02531264429424256 0.33765677836634578 0 -0.034795741464765127 0.3466441775467104 0 -0.038786179122352507 0.31006075022960111 0 -0.053879496619987192 0.32442993198196868 0 -0.039359444206513459 0.32419621080282812 0 -0.038786179122352507 0.31006075022960111 0 -0.039359444206513459 0.32419621080282812 0 -0.024068293084679539 0.32272721199300619 0 -0.009249588209606344 0.30814111102660002 0 -0.038786179122352507 0.31006075022960111 0 -0.024068293084679539 0.32272721199300619 0 -0.024068293084679539 0.32272721199300619 0 -0.02531264429424256 0.33765677836634578 0 -0.005758602284471958 0.33512988219008361 0 -0.039359444206513459 0.32419621080282812 0 -0.024068293084679539 0.32272721199300619 0 -0.02531264429424256 0.33765677836634578 0 -0.005758602284471958 0.33512988219008361 0 -0.0077202170519437719 0.34710906184019069 0 0.0082446038140756572 0.34376242611402219 0 -0.02531264429424256 0.33765677836634578 0 -0.005758602284471958 0.33512988219008361 0 -0.0077202170519437719 0.34710906184019069 0 -0.009249588209606344 0.30814111102660002 0 -0.005758602284471958 0.33512988219008361 0 0.0094307060340404689 0.32376070079746733 0 -0.009249588209606344 0.30814111102660002 0 -0.005758602284471958 0.33512988219008361 0 -0.009249588209606344 0.30814111102660002 0 -0.024068293084679539 0.32272721199300619 0 -0.005758602284471958 0.33512988219008361 0 -0.0045677851665312944 0.36532665559408428 0 -0.0087141207398781558 0.37710904293520409 0 0.0077169544749549623 0.36306791211952738 0 -0.0045677851665312944 0.36532665559408428 0 -0.019623601183504629 0.35541479533684739 0 -0.0087141207398781558 0.37710904293520409 0 -0.0087141207398781558 0.37710904293520409 0 0.0077169544749549623 0.36306791211952738 0 -0.0077202170519437719 0.34710906184019069 0 -0.019623601183504629 0.35541479533684739 0 0.0038095970876644218 0.35606187191015221 0 -0.019623601183504629 0.35541479533684739 0 0.0038095970876644218 0.35606187191015221 0 -0.0045677851665312944 0.36532665559408428 0 -0.019623601183504629 0.35541479533684739 0 0.0038095970876644218 0.35606187191015221 0 -0.02531264429424256 0.33765677836634578 0 -0.019623601183504629 0.35541479533684739 0 -0.034795741464765127 0.3466441775467104 0 -0.02531264429424256 0.33765677836634578 0 -0.0077202170519437719 0.34710906184019069 0 -0.019623601183504629 0.35541479533684739 0 -0.019623601183504629 0.35541479533684739 0 -0.034100997704691827 0.37295894625721099 0 -0.0087141207398781558 0.37710904293520409 0 -0.019623601183504629 0.35541479533684739 0 -0.034100997704691827 0.37295894625721099 0 -0.043056799454673583 0.35476771876354157 0 -0.034100997704691827 0.37295894625721099 0 -0.047131069669461997 0.36807368878450081 0 -0.054593457040109393 0.3822816536988497 0 -0.034100997704691827 0.37295894625721099 0 -0.043056799454673583 0.35476771876354157 0 -0.034100997704691827 0.37295894625721099 0 -0.043056799454673583 0.35476771876354157 0 -0.047131069669461997 0.36807368878450081 0 -0.019623601183504629 0.35541479533684739 0 -0.043056799454673583 0.35476771876354157 0 -0.019623601183504629 0.35541479533684739 0 -0.034795741464765127 0.3466441775467104 0 -0.043056799454673583 0.35476771876354157 0 -0.043056799454673583 0.35476771876354157 0 -0.045752302425533672 0.34929255203680049 0 -0.039436223204876379 0.33687947453133682 0 -0.034795741464765127 0.3466441775467104 0 -0.045752302425533672 0.34929255203680049 0 -0.034795741464765127 0.3466441775467104 0 -0.043056799454673583 0.35476771876354157 0 -0.045752302425533672 0.34929255203680049 0 -0.043056799454673583 0.35476771876354157 0 -0.052933118771744558 0.34753778728834739 0 -0.059881153675432383 0.35430313662024071 0 -0.043056799454673583 0.35476771876354157 0 -0.059881153675432383 0.35430313662024071 0 -0.051828064233363932 0.36038047858465339 0 -0.043056799454673583 0.35476771876354157 0 -0.059881153675432383 0.35430313662024071 0 -0.043056799454673583 0.35476771876354157 0 -0.045752302425533672 0.34929255203680049 0 -0.052933118771744558 0.34753778728834739 0 -0.049717572699208172 0.33977374392884352 0 -0.045752302425533672 0.34929255203680049 0 -0.052933118771744558 0.34753778728834739 0 -0.059881153675432383 0.35430313662024071 0 -0.051828064233363932 0.36038047858465339 0 -0.058626870601395778 0.36023180910453118 0 -0.059045099567240703 0.33862263320968672 0 -0.052933118771744558 0.34753778728834739 0 -0.059976501396798443 0.34640013057040159 0 -0.052933118771744558 0.34753778728834739 0 -0.059881153675432383 0.35430313662024071 0 -0.059976501396798443 0.34640013057040159 0 -0.047131069669461997 0.36807368878450081 0 -0.054116187566776573 0.36544526432200969 0 -0.058148679921659119 0.37186744297544022 0 -0.047131069669461997 0.36807368878450081 0 -0.058148679921659119 0.37186744297544022 0 -0.054593457040109393 0.3822816536988497 0 -0.043056799454673583 0.35476771876354157 0 -0.047131069669461997 0.36807368878450081 0 -0.051828064233363932 0.36038047858465339 0 -0.047131069669461997 0.36807368878450081 0 -0.051828064233363932 0.36038047858465339 0 -0.054116187566776573 0.36544526432200969 0 -0.054116187566776573 0.36544526432200969 0 -0.058626870601395778 0.36023180910453118 0 -0.058148679921659119 0.37186744297544022 0 -0.051828064233363932 0.36038047858465339 0 -0.054116187566776573 0.36544526432200969 0 -0.058626870601395778 0.36023180910453118 0 -0.058626870601395778 0.36023180910453118 0 -0.058148679921659119 0.37186744297544022 0 -0.076275814730551866 0.38330479896731001 0 -0.058626870601395778 0.36023180910453118 0 -0.071157696118109362 0.36170448025062218 0 -0.076275814730551866 0.38330479896731001 0 -0.071157696118109362 0.36170448025062218 0 -0.084299133686975572 0.35684410208409001 0 -0.076275814730551866 0.38330479896731001 0 -0.058626870601395778 0.36023180910453118 0 -0.076275814730551866 0.38330479896731001 0 -0.084299133686975572 0.35684410208409001 0 -0.089436666146690338 0.3774527594588406 0 -0.076275814730551866 0.38330479896731001 0 -0.084299133686975572 0.35684410208409001 0 -0.076275814730551866 0.38330479896731001 0 -0.093494049974744503 0.36523362229143391 0 -0.084299133686975572 0.35684410208409001 0 -0.089436666146690338 0.3774527594588406 0 -0.084299133686975572 0.35684410208409001 0 -0.076705507896191183 0.35383855447693902 0 -0.080753986599573127 0.33990497651870988 0 -0.084299133686975572 0.35684410208409001 0 -0.092322452643399749 0.33038340520087017 0 -0.095141502753968779 0.35097174187852381 0 -0.093494049974744503 0.36523362229143391 0 -0.084299133686975572 0.35684410208409001 0 -0.095141502753968779 0.35097174187852381 0 -0.059881153675432383 0.35430313662024071 0 -0.071157696118109362 0.36170448025062218 0 -0.076705507896191183 0.35383855447693902 0 -0.076705507896191183 0.35383855447693902 0 -0.068046633572776155 0.34513696516333192 0 -0.080753986599573127 0.33990497651870988 0 -0.059881153675432383 0.35430313662024071 0 -0.076705507896191183 0.35383855447693902 0 -0.068046633572776155 0.34513696516333192 0 -0.059881153675432383 0.35430313662024071 0 -0.076705507896191183 0.35383855447693902 0 -0.071157696118109362 0.36170448025062218 0 -0.084299133686975572 0.35684410208409001 0 -0.076705507896191183 0.35383855447693902 0 -0.059881153675432383 0.35430313662024071 0 -0.058626870601395778 0.36023180910453118 0 -0.071157696118109362 0.36170448025062218 0 -0.059881153675432383 0.35430313662024071 0 -0.059976501396798443 0.34640013057040159 0 -0.068046633572776155 0.34513696516333192 0 -0.06815446288386498 0.3263880450875648 0 -0.079151648495115301 0.32136139923810009 0 -0.080753986599573127 0.33990497651870988 0 -0.068046633572776155 0.34513696516333192 0 -0.06815446288386498 0.3263880450875648 0 -0.080753986599573127 0.33990497651870988 0 -0.059045099567240703 0.33862263320968672 0 -0.068046633572776155 0.34513696516333192 0 -0.06815446288386498 0.3263880450875648 0 -0.068322770035098762 0.31198038943260148 0 -0.069852456288818351 0.31207980665071 0 -0.06815446288386498 0.3263880450875648 0 -0.068322770035098762 0.31198038943260148 0 -0.053879496619987192 0.32442993198196868 0 -0.06815446288386498 0.3263880450875648 0 -0.08121949171140587 0.31012908581564408 0 -0.069852456288818351 0.31207980665071 0 -0.079151648495115301 0.32136139923810009 0 -0.069852456288818351 0.31207980665071 0 -0.06815446288386498 0.3263880450875648 0 -0.079151648495115301 0.32136139923810009 0 -0.087527931766016032 0.31235393694025021 0 -0.079151648495115301 0.32136139923810009 0 -0.092322452643399749 0.33038340520087017 0 -0.1003457715998239 0.30392270831765028 0 -0.087527931766016032 0.31235393694025021 0 -0.092322452643399749 0.33038340520087017 0 -0.087527931766016032 0.31235393694025021 0 -0.08121949171140587 0.31012908581564408 0 -0.079151648495115301 0.32136139923810009 0 -0.084299133686975572 0.35684410208409001 0 -0.092322452643399749 0.33038340520087017 0 -0.079151648495115301 0.32136139923810009 0 -0.092322452643399749 0.33038340520087017 0 -0.080753986599573127 0.33990497651870988 0 -0.084299133686975572 0.35684410208409001 0 -0.092322452643399749 0.33038340520087017 0 -0.080753986599573127 0.33990497651870988 0 -0.092322452643399749 0.33038340520087017 0 -0.10472406897533799 0.34168768652513631 0 -0.095141502753968779 0.35097174187852381 0 -0.092322452643399749 0.33038340520087017 0 -0.10472406897533799 0.34168768652513631 0 -0.1081804568928026 0.32074506353771021 0 -0.1003457715998239 0.30392270831765028 0 -0.092322452643399749 0.33038340520087017 0 -0.1003457715998239 0.30392270831765028 0 -0.092322452643399749 0.33038340520087017 0 -0.1081804568928026 0.32074506353771021 0 -0.1262409447270301 0.3211703831111522 0 -0.1173504618646501 0.30916380798395637 0 -0.1081804568928026 0.32074506353771021 0 -0.1262409447270301 0.3211703831111522 0 -0.1081804568928026 0.32074506353771021 0 -0.1175879007316586 0.33497855513245622 0 -0.13367478836053351 0.33932016938713638 0 -0.1175879007316586 0.33497855513245622 0 -0.1173066256070304 0.35104950557859033 0 -0.10472406897533799 0.34168768652513631 0 -0.1081804568928026 0.32074506353771021 0 -0.1175879007316586 0.33497855513245622 0 -0.10472406897533799 0.34168768652513631 0 -0.1175879007316586 0.33497855513245622 0 -0.1173066256070304 0.35104950557859033 0 -0.1173066256070304 0.35104950557859033 0 -0.1198206075896991 0.37069234566290138 0 -0.1030551893938276 0.35978992576853291 0 -0.1367685514822152 0.35851885971508118 0 -0.1173066256070304 0.35104950557859033 0 -0.1198206075896991 0.37069234566290138 0 -0.1198206075896991 0.37069234566290138 0 -0.1030551893938276 0.35978992576853291 0 -0.10026372758235801 0.37465761506622741 0 -0.093494049974744503 0.36523362229143391 0 -0.10026372758235801 0.37465761506622741 0 -0.089436666146690338 0.3774527594588406 0 -0.093494049974744503 0.36523362229143391 0 -0.1030551893938276 0.35978992576853291 0 -0.10026372758235801 0.37465761506622741 0 -0.10472406897533799 0.34168768652513631 0 -0.1030551893938276 0.35978992576853291 0 -0.095141502753968779 0.35097174187852381 0 -0.093494049974744503 0.36523362229143391 0 -0.1030551893938276 0.35978992576853291 0 -0.095141502753968779 0.35097174187852381 0 -0.10472406897533799 0.34168768652513631 0 -0.1173066256070304 0.35104950557859033 0 -0.1030551893938276 0.35978992576853291 0 -0.101128536279416 0.3977608810528192 0 -0.11378235269799521 0.38746486633725291 0 -0.11258596611237601 0.40408595479252452 0 -0.101128536279416 0.3977608810528192 0 -0.095244926421122186 0.38729621463576269 0 -0.11378235269799521 0.38746486633725291 0 -0.101128536279416 0.3977608810528192 0 -0.11258596611237601 0.40408595479252452 0 -0.097808874238227678 0.41145560844912898 0 -0.101128536279416 0.3977608810528192 0 -0.097808874238227678 0.41145560844912898 0 -0.087042344484389883 0.39738020370821953 0 -0.101128536279416 0.3977608810528192 0 -0.095244926421122186 0.38729621463576269 0 -0.087042344484389883 0.39738020370821953 0 -0.10026372758235801 0.37465761506622741 0 -0.095244926421122186 0.38729621463576269 0 -0.11378235269799521 0.38746486633725291 0 -0.10026372758235801 0.37465761506622741 0 -0.095244926421122186 0.38729621463576269 0 -0.089436666146690338 0.3774527594588406 0 -0.1198206075896991 0.37069234566290138 0 -0.10026372758235801 0.37465761506622741 0 -0.11378235269799521 0.38746486633725291 0 -0.12826940643264259 0.38638828685515292 0 -0.1198206075896991 0.37069234566290138 0 -0.11378235269799521 0.38746486633725291 0 -0.12644786621320531 0.40058001872868543 0 -0.12826940643264259 0.38638828685515292 0 -0.11378235269799521 0.38746486633725291 0 -0.12761284081938409 0.41418542740570108 0 -0.11378235269799521 0.38746486633725291 0 -0.12761284081938409 0.41418542740570108 0 -0.12644786621320531 0.40058001872868543 0 -0.11378235269799521 0.38746486633725291 0 -0.12761284081938409 0.41418542740570108 0 -0.11378235269799521 0.38746486633725291 0 -0.11258596611237601 0.40408595479252452 0 -0.12761284081938409 0.41418542740570108 0 -0.11258596611237601 0.40408595479252452 0 -0.097808874238227678 0.41145560844912898 0 -0.12761284081938409 0.41418542740570108 0 -0.1126245701039178 0.4308246085444013 0 -0.097808874238227678 0.41145560844912898 0 -0.12761284081938409 0.41418542740570108 0 -0.097808874238227678 0.41145560844912898 0 -0.12761284081938409 0.41418542740570108 0 -0.1126245701039178 0.4308246085444013 0 -0.1242648033483075 0.43981492828754482 0 -0.1126245701039178 0.4308246085444013 0 -0.096605527178418776 0.42311346390882398 0 -0.097170403390676049 0.43571281837191522 0 -0.1126245701039178 0.4308246085444013 0 -0.097170403390676049 0.43571281837191522 0 -0.10338783084247161 0.44098956532991213 0 -0.1126245701039178 0.4308246085444013 0 -0.097808874238227678 0.41145560844912898 0 -0.1126245701039178 0.4308246085444013 0 -0.096605527178418776 0.42311346390882398 0 -0.097808874238227678 0.41145560844912898 0 -0.096605527178418776 0.42311346390882398 0 -0.097808874238227678 0.41145560844912898 0 -0.090623427087895073 0.41079747558654428 0 -0.097808874238227678 0.41145560844912898 0 -0.090623427087895073 0.41079747558654428 0 -0.096605527178418776 0.42311346390882398 0 -0.090623427087895073 0.41079747558654428 0 -0.084800361071377284 0.4267768085921303 0 -0.090623427087895073 0.41079747558654428 0 -0.084347825254610875 0.40943513047528779 0 -0.084800361071377284 0.4267768085921303 0 -0.084800361071377284 0.4267768085921303 0 -0.074925168374781331 0.40278603401425761 0 -0.084347825254610875 0.40943513047528779 0 -0.084800361071377284 0.4267768085921303 0 -0.074925168374781331 0.40278603401425761 0 -0.097808874238227678 0.41145560844912898 0 -0.090623427087895073 0.41079747558654428 0 -0.087042344484389883 0.39738020370821953 0 -0.096605527178418776 0.42311346390882398 0 -0.097170403390676049 0.43571281837191522 0 -0.084800361071377284 0.4267768085921303 0 -0.084800361071377284 0.4267768085921303 0 -0.077689053426030094 0.43734830183904833 0 -0.073740177733494089 0.43015549729097768 0 -0.084800361071377284 0.4267768085921303 0 -0.077689053426030094 0.43734830183904833 0 -0.085627028266785254 0.44117175463919189 0 -0.077689053426030094 0.43734830183904833 0 -0.073740177733494089 0.43015549729097768 0 -0.069373851585076945 0.43677151010665521 0 -0.084800361071377284 0.4267768085921303 0 -0.073740177733494089 0.43015549729097768 0 -0.074963529381557356 0.42372471124402672 0 -0.084800361071377284 0.4267768085921303 0 -0.074963529381557356 0.42372471124402672 0 -0.074207610301873977 0.415826985147286 0 -0.073740177733494089 0.43015549729097768 0 -0.07134827269677288 0.42521816639912852 0 -0.067010261651664849 0.42692585223643509 0 -0.073740177733494089 0.43015549729097768 0 -0.074963529381557356 0.42372471124402672 0 -0.07134827269677288 0.42521816639912852 0 -0.074963529381557356 0.42372471124402672 0 -0.07134827269677288 0.42521816639912852 0 -0.069903249343569923 0.42035209495099629 0 -0.06803153127557314 0.42418340705062968 0 -0.063864341410284964 0.42423751461595932 0 -0.069903249343569923 0.42035209495099629 0 -0.07134827269677288 0.42521816639912852 0 -0.06803153127557314 0.42418340705062968 0 -0.067010261651664849 0.42692585223643509 0 -0.07134827269677288 0.42521816639912852 0 -0.06803153127557314 0.42418340705062968 0 -0.069903249343569923 0.42035209495099629 0 -0.06803153127557314 0.42418340705062968 0 -0.063864341410284964 0.42423751461595932 0 -0.067010261651664849 0.42692585223643509 0 -0.063864341410284964 0.42423751461595932 0 -0.067010261651664849 0.42692585223643509 0 -0.067010261651664849 0.42692585223643509 0 -0.06657591115514655 0.43192586875325267 0 -0.062357688865182517 0.42920641545622512 0 -0.063864341410284964 0.42423751461595932 0 -0.067010261651664849 0.42692585223643509 0 -0.062357688865182517 0.42920641545622512 0 -0.063864341410284964 0.42423751461595932 0 -0.062357688865182517 0.42920641545622512 0 -0.073740177733494089 0.43015549729097768 0 -0.067010261651664849 0.42692585223643509 0 -0.06657591115514655 0.43192586875325267 0 -0.073740177733494089 0.43015549729097768 0 -0.06657591115514655 0.43192586875325267 0 -0.069373851585076945 0.43677151010665521 0 -0.06657591115514655 0.43192586875325267 0 -0.062750456602468974 0.43554137489064498 0 -0.062357688865182517 0.42920641545622512 0 -0.06657591115514655 0.43192586875325267 0 -0.062750456602468974 0.43554137489064498 0 -0.069373851585076945 0.43677151010665521 0 -0.063864341410284964 0.42423751461595932 0 -0.069903249343569923 0.42035209495099629 0 -0.070070078070418332 0.40377115679163461 0 -0.074207610301873977 0.415826985147286 0 -0.069903249343569923 0.42035209495099629 0 -0.070070078070418332 0.40377115679163461 0 -0.063864341410284964 0.42423751461595932 0 -0.070070078070418332 0.40377115679163461 0 -0.058881304157308093 0.40804381518971672 0 -0.063864341410284964 0.42423751461595932 0 -0.070070078070418332 0.40377115679163461 0 -0.084800361071377284 0.4267768085921303 0 -0.074207610301873977 0.415826985147286 0 -0.074925168374781331 0.40278603401425761 0 -0.074207610301873977 0.415826985147286 0 -0.070070078070418332 0.40377115679163461 0 -0.074925168374781331 0.40278603401425761 0 -0.074963529381557356 0.42372471124402672 0 -0.074207610301873977 0.415826985147286 0 -0.069903249343569923 0.42035209495099629 0 -0.070070078070418332 0.40377115679163461 0 -0.064506344576777661 0.39145758865641178 0 -0.076275814730551866 0.38330479896731001 0 -0.070070078070418332 0.40377115679163461 0 -0.074925168374781331 0.40278603401425761 0 -0.076275814730551866 0.38330479896731001 0 -0.070070078070418332 0.40377115679163461 0 -0.076275814730551866 0.38330479896731001 0 -0.070070078070418332 0.40377115679163461 0 -0.064506344576777661 0.39145758865641178 0 -0.057086028466031037 0.39647274516785291 0 -0.074925168374781331 0.40278603401425761 0 -0.087042344484389883 0.39738020370821953 0 -0.076275814730551866 0.38330479896731001 0 -0.084347825254610875 0.40943513047528779 0 -0.074925168374781331 0.40278603401425761 0 -0.087042344484389883 0.39738020370821953 0 -0.097808874238227678 0.41145560844912898 0 -0.087042344484389883 0.39738020370821953 0 -0.090623427087895073 0.41079747558654428 0 -0.084347825254610875 0.40943513047528779 0 -0.087042344484389883 0.39738020370821953 0 -0.087042344484389883 0.39738020370821953 0 -0.089436666146690338 0.3774527594588406 0 -0.076275814730551866 0.38330479896731001 0 -0.095244926421122186 0.38729621463576269 0 -0.087042344484389883 0.39738020370821953 0 -0.089436666146690338 0.3774527594588406 0 -0.087042344484389883 0.39738020370821953 0 -0.076275814730551866 0.38330479896731001 0 -0.064506344576777661 0.39145758865641178 0 -0.076275814730551866 0.38330479896731001 0 -0.054593457040109393 0.3822816536988497 0 -0.058148679921659119 0.37186744297544022 0 -0.076275814730551866 0.38330479896731001 0 -0.054593457040109393 0.3822816536988497 0 -0.064506344576777661 0.39145758865641178 0 -0.054593457040109393 0.3822816536988497 0 -0.057086028466031037 0.39647274516785291 0 -0.054593457040109393 0.3822816536988497 0 -0.057086028466031037 0.39647274516785291 0 -0.042391572779214973 0.39096282696345341 0 -0.057086028466031037 0.39647274516785291 0 -0.042391572779214973 0.39096282696345341 0 -0.044504768682498037 0.40769384418342008 0 -0.070070078070418332 0.40377115679163461 0 -0.057086028466031037 0.39647274516785291 0 -0.058881304157308093 0.40804381518971672 0 -0.057086028466031037 0.39647274516785291 0 -0.044504768682498037 0.40769384418342008 0 -0.058881304157308093 0.40804381518971672 0 -0.02514519595471108 0.39115017375088101 0 -0.044504768682498037 0.40769384418342008 0 -0.042391572779214973 0.39096282696345341 0 -0.02514519595471108 0.39115017375088101 0 -0.044504768682498037 0.40769384418342008 0 -0.034100997704691827 0.37295894625721099 0 -0.054593457040109393 0.3822816536988497 0 -0.042391572779214973 0.39096282696345341 0 -0.034100997704691827 0.37295894625721099 0 -0.042391572779214973 0.39096282696345341 0 -0.02514519595471108 0.39115017375088101 0 -0.034100997704691827 0.37295894625721099 0 -0.02514519595471108 0.39115017375088101 0 -0.034100997704691827 0.37295894625721099 0 -0.02514519595471108 0.39115017375088101 0 -0.0087141207398781558 0.37710904293520409 0 -0.02514519595471108 0.39115017375088101 0 -0.0087141207398781558 0.37710904293520409 0 -0.02514519595471108 0.39115017375088101 0 -0.014810785045769751 0.41214166341376801 0 -0.02514519595471108 0.39115017375088101 0 -0.014810785045769751 0.41214166341376801 0 -0.044504768682498037 0.40769384418342008 0 -0.0068648610501423502 0.39382000907293813 0 -0.014810785045769751 0.41214166341376801 0 0.0046995574085186929 0.41194005205042061 0 -0.02514519595471108 0.39115017375088101 0 -0.0068648610501423502 0.39382000907293813 0 -0.014810785045769751 0.41214166341376801 0 -0.02514519595471108 0.39115017375088101 0 -0.0068648610501423502 0.39382000907293813 0 -0.0087141207398781558 0.37710904293520409 0 -0.0068648610501423502 0.39382000907293813 0 -0.0087141207398781558 0.37710904293520409 0 0.0053185270157129726 0.37689571945341471 0 -0.0044763741368290672 0.43313315307665529 0 -0.014810785045769751 0.41214166341376801 0 -0.0044763741368290672 0.43313315307665529 0 -0.014810785045769751 0.41214166341376801 0 -0.026116443713473419 0.4246575807879529 0 -0.0044763741368290672 0.43313315307665529 0 -0.014810785045769751 0.41214166341376801 0 0.0046995574085186929 0.41194005205042061 0 -0.014810785045769751 0.41214166341376801 0 -0.026116443713473419 0.4246575807879529 0 -0.044504768682498037 0.40769384418342008 0 -0.0044763741368290672 0.43313315307665529 0 -0.026116443713473419 0.4246575807879529 0 -0.02623027688729573 0.44118750916919391 0 -0.026116443713473419 0.4246575807879529 0 -0.040560013814974517 0.42913173409672722 0 -0.02623027688729573 0.44118750916919391 0 -0.040560013814974517 0.42913173409672722 0 -0.048293098329248912 0.43867666423002288 0 -0.039090066940739521 0.44352471403713711 0 -0.026116443713473419 0.4246575807879529 0 -0.040560013814974517 0.42913173409672722 0 -0.044504768682498037 0.40769384418342008 0 -0.040560013814974517 0.42913173409672722 0 -0.044504768682498037 0.40769384418342008 0 -0.051886787429848112 0.42350176277299723 0 -0.063864341410284964 0.42423751461595932 0 -0.044504768682498037 0.40769384418342008 0 -0.058881304157308093 0.40804381518971672 0 -0.063864341410284964 0.42423751461595932 0 -0.044504768682498037 0.40769384418342008 0 -0.051886787429848112 0.42350176277299723 0 -0.063864341410284964 0.42423751461595932 0 -0.044504768682498037 0.40769384418342008 0 -0.053936434918908913 0.43159717611494758 0 -0.057641003333182179 0.44086754716312743 0 -0.048293098329248912 0.43867666423002288 0 -0.040560013814974517 0.42913173409672722 0 -0.053936434918908913 0.43159717611494758 0 -0.048293098329248912 0.43867666423002288 0 -0.040560013814974517 0.42913173409672722 0 -0.053936434918908913 0.43159717611494758 0 -0.051886787429848112 0.42350176277299723 0 -0.053936434918908913 0.43159717611494758 0 -0.051886787429848112 0.42350176277299723 0 -0.062357688865182517 0.42920641545622512 0 -0.063864341410284964 0.42423751461595932 0 -0.051886787429848112 0.42350176277299723 0 -0.062357688865182517 0.42920641545622512 0 -0.062750456602468974 0.43554137489064498 0 -0.053936434918908913 0.43159717611494758 0 -0.062357688865182517 0.42920641545622512 0 -0.062750456602468974 0.43554137489064498 0 -0.053936434918908913 0.43159717611494758 0 -0.057641003333182179 0.44086754716312743 0 -0.062750456602468974 0.43554137489064498 0 -0.057641003333182179 0.44086754716312743 0 -0.065491549478626135 0.44200233464982802 0 -0.057641003333182179 0.44086754716312743 0 -0.062398417199954148 0.4499603094023914 0 -0.065491549478626135 0.44200233464982802 0 -0.057641003333182179 0.44086754716312743 0 -0.062398417199954148 0.4499603094023914 0 -0.050237972638439453 0.44826214973817502 0 -0.057641003333182179 0.44086754716312743 0 -0.050237972638439453 0.44826214973817502 0 -0.048293098329248912 0.43867666423002288 0 -0.062398417199954148 0.4499603094023914 0 -0.050230730183752688 0.46259696058471089 0 -0.064501224992871267 0.46542691543905351 0 -0.062398417199954148 0.4499603094023914 0 -0.050237972638439453 0.44826214973817502 0 -0.050230730183752688 0.46259696058471089 0 -0.050230730183752688 0.46259696058471089 0 -0.035748626011326709 0.45858167758110602 0 -0.046040344352481867 0.47841272498986082 0 -0.050237972638439453 0.44826214973817502 0 -0.050230730183752688 0.46259696058471089 0 -0.035748626011326709 0.45858167758110602 0 -0.035748626011326709 0.45858167758110602 0 -0.039090066940739521 0.44352471403713711 0 -0.02623027688729573 0.44118750916919391 0 -0.050237972638439453 0.44826214973817502 0 -0.048293098329248912 0.43867666423002288 0 -0.039090066940739521 0.44352471403713711 0 -0.050237972638439453 0.44826214973817502 0 -0.035748626011326709 0.45858167758110602 0 -0.039090066940739521 0.44352471403713711 0 -0.040560013814974517 0.42913173409672722 0 -0.039090066940739521 0.44352471403713711 0 -0.02623027688729573 0.44118750916919391 0 -0.035748626011326709 0.45858167758110602 0 -0.02623027688729573 0.44118750916919391 0 -0.01728298942402769 0.45556140426229003 0 -0.0044763741368290672 0.43313315307665529 0 -0.02623027688729573 0.44118750916919391 0 -0.01728298942402769 0.45556140426229003 0 -0.035748626011326709 0.45858167758110602 0 -0.01728298942402769 0.45556140426229003 0 -0.022784747477638551 0.4775754860453762 0 -0.01728298942402769 0.45556140426229003 0 -0.0062093312902834459 0.46527566221073008 0 0.006403582431216831 0.45126676372832991 0 -0.01728298942402769 0.45556140426229003 0 -0.0062093312902834459 0.46527566221073008 0 -0.022784747477638551 0.4775754860453762 0 -0.0044763741368290672 0.43313315307665529 0 -0.01728298942402769 0.45556140426229003 0 0.006403582431216831 0.45126676372832991 0 -0.0062093312902834459 0.46527566221073008 0 -0.022784747477638551 0.4775754860453762 0 0.0095498935665802413 0.47810272379952351 0 -0.022784747477638551 0.4775754860453762 0 -0.021427984417146221 0.5 0 0.0095498935665802413 0.47810272379952351 0 -0.021427984417146221 0.5 0 0.0095498935665802413 0.47810272379952351 0 0.0086042794582089632 0.5 0 -0.022784747477638551 0.4775754860453762 0 -0.021427984417146221 0.5 0 -0.046040344352481867 0.47841272498986082 0 -0.021427984417146221 0.5 0 -0.046040344352481867 0.47841272498986082 0 -0.051460248292501398 0.5 0 -0.035748626011326709 0.45858167758110602 0 -0.022784747477638551 0.4775754860453762 0 -0.046040344352481867 0.47841272498986082 0 -0.046040344352481867 0.47841272498986082 0 -0.067939054777113927 0.48291587414950521 0 -0.064501224992871267 0.46542691543905351 0 -0.050230730183752688 0.46259696058471089 0 -0.046040344352481867 0.47841272498986082 0 -0.064501224992871267 0.46542691543905351 0 -0.046040344352481867 0.47841272498986082 0 -0.051460248292501398 0.5 0 -0.067939054777113927 0.48291587414950521 0 -0.051460248292501398 0.5 0 -0.081492512167856565 0.50000000000000011 0 -0.067939054777113927 0.48291587414950521 0 -0.081492512167856565 0.50000000000000011 0 -0.085878896958769185 0.47675925450649242 0 -0.067939054777113927 0.48291587414950521 0 -0.081492512167856565 0.50000000000000011 0 -0.085878896958769185 0.47675925450649242 0 -0.099362977551805121 0.48745008538217821 0 -0.081492512167856565 0.50000000000000011 0 -0.085878896958769185 0.47675925450649242 0 -0.085878896958769185 0.47675925450649242 0 -0.075452149305044958 0.46933040044586682 0 -0.067939054777113927 0.48291587414950521 0 -0.075452149305044958 0.46933040044586682 0 -0.067939054777113927 0.48291587414950521 0 -0.064501224992871267 0.46542691543905351 0 -0.064501224992871267 0.46542691543905351 0 -0.075214053997903707 0.45912990264989012 0 -0.070315415620740368 0.45334812155980347 0 -0.062398417199954148 0.4499603094023914 0 -0.064501224992871267 0.46542691543905351 0 -0.070315415620740368 0.45334812155980347 0 -0.075214053997903707 0.45912990264989012 0 -0.070315415620740368 0.45334812155980347 0 -0.081419329692844739 0.44979703694502599 0 -0.075452149305044958 0.46933040044586682 0 -0.064501224992871267 0.46542691543905351 0 -0.075214053997903707 0.45912990264989012 0 -0.075452149305044958 0.46933040044586682 0 -0.075214053997903707 0.45912990264989012 0 -0.082509194984251868 0.46007906520350089 0 -0.069373851585076945 0.43677151010665521 0 -0.065491549478626135 0.44200233464982802 0 -0.073041418115067244 0.44511613748665291 0 -0.062750456602468974 0.43554137489064498 0 -0.069373851585076945 0.43677151010665521 0 -0.065491549478626135 0.44200233464982802 0 -0.062398417199954148 0.4499603094023914 0 -0.065491549478626135 0.44200233464982802 0 -0.073041418115067244 0.44511613748665291 0 -0.062398417199954148 0.4499603094023914 0 -0.070315415620740368 0.45334812155980347 0 -0.073041418115067244 0.44511613748665291 0 -0.070315415620740368 0.45334812155980347 0 -0.073041418115067244 0.44511613748665291 0 -0.081419329692844739 0.44979703694502599 0 -0.073041418115067244 0.44511613748665291 0 -0.07941018481149445 0.44345804230003222 0 -0.081419329692844739 0.44979703694502599 0 -0.077689053426030094 0.43734830183904833 0 -0.069373851585076945 0.43677151010665521 0 -0.073041418115067244 0.44511613748665291 0 -0.077689053426030094 0.43734830183904833 0 -0.073041418115067244 0.44511613748665291 0 -0.07941018481149445 0.44345804230003222 0 -0.097170403390676049 0.43571281837191522 0 -0.084800361071377284 0.4267768085921303 0 -0.094675553767973264 0.45076758317000298 0 -0.084800361071377284 0.4267768085921303 0 -0.094675553767973264 0.45076758317000298 0 -0.084800361071377284 0.4267768085921303 0 -0.085627028266785254 0.44117175463919189 0 -0.094675553767973264 0.45076758317000298 0 -0.085627028266785254 0.44117175463919189 0 -0.07941018481149445 0.44345804230003222 0 -0.081419329692844739 0.44979703694502599 0 -0.077689053426030094 0.43734830183904833 0 -0.085627028266785254 0.44117175463919189 0 -0.07941018481149445 0.44345804230003222 0 -0.085627028266785254 0.44117175463919189 0 -0.081419329692844739 0.44979703694502599 0 -0.088082484801868088 0.44854024150695748 0 -0.081419329692844739 0.44979703694502599 0 -0.086047819819581178 0.45134535453790131 0 -0.088082484801868088 0.44854024150695748 0 -0.085627028266785254 0.44117175463919189 0 -0.088082484801868088 0.44854024150695748 0 -0.094675553767973264 0.45076758317000298 0 -0.086047819819581178 0.45134535453790131 0 -0.088082484801868088 0.44854024150695748 0 -0.090265281749681819 0.45351850901298468 0 -0.088082484801868088 0.44854024150695748 0 -0.090265281749681819 0.45351850901298468 0 -0.094675553767973264 0.45076758317000298 0 -0.085878896958769185 0.47675925450649242 0 -0.075452149305044958 0.46933040044586682 0 -0.082509194984251868 0.46007906520350089 0 -0.085878896958769185 0.47675925450649242 0 -0.090265281749681819 0.45351850901298468 0 -0.085878896958769185 0.47675925450649242 0 -0.090265281749681819 0.45351850901298468 0 -0.093944937474792503 0.46462082789344678 0 -0.085878896958769185 0.47675925450649242 0 -0.082509194984251868 0.46007906520350089 0 -0.090265281749681819 0.45351850901298468 0 -0.081419329692844739 0.44979703694502599 0 -0.086047819819581178 0.45134535453790131 0 -0.082509194984251868 0.46007906520350089 0 -0.075214053997903707 0.45912990264989012 0 -0.081419329692844739 0.44979703694502599 0 -0.082509194984251868 0.46007906520350089 0 -0.090265281749681819 0.45351850901298468 0 -0.093944937474792503 0.46462082789344678 0 -0.094675553767973264 0.45076758317000298 0 -0.086047819819581178 0.45134535453790131 0 -0.082509194984251868 0.46007906520350089 0 -0.090265281749681819 0.45351850901298468 0 -0.093944937474792503 0.46462082789344678 0 -0.094675553767973264 0.45076758317000298 0 -0.1045507464645692 0.47475835774787573 0 -0.094675553767973264 0.45076758317000298 0 -0.1045507464645692 0.47475835774787573 0 -0.1087715055698807 0.4588247561088431 0 -0.094675553767973264 0.45076758317000298 0 -0.1045507464645692 0.47475835774787573 0 -0.1126245701039178 0.4308246085444013 0 -0.1090807961073193 0.44665325123332839 0 -0.10338783084247161 0.44098956532991213 0 -0.097170403390676049 0.43571281837191522 0 -0.094675553767973264 0.45076758317000298 0 -0.10338783084247161 0.44098956532991213 0 -0.1087715055698807 0.4588247561088431 0 -0.094675553767973264 0.45076758317000298 0 -0.1090807961073193 0.44665325123332839 0 -0.094675553767973264 0.45076758317000298 0 -0.1090807961073193 0.44665325123332839 0 -0.10338783084247161 0.44098956532991213 0 -0.1126245701039178 0.4308246085444013 0 -0.1090807961073193 0.44665325123332839 0 -0.1242648033483075 0.43981492828754482 0 -0.1090807961073193 0.44665325123332839 0 -0.1242648033483075 0.43981492828754482 0 -0.1204057133641486 0.45504160574272429 0 -0.1087715055698807 0.4588247561088431 0 -0.1176294132596279 0.46872710166108278 0 -0.1045507464645692 0.47475835774787573 0 -0.1087715055698807 0.4588247561088431 0 -0.1204057133641486 0.45504160574272429 0 -0.1176294132596279 0.46872710166108278 0 -0.1087715055698807 0.4588247561088431 0 -0.1090807961073193 0.44665325123332839 0 -0.1204057133641486 0.45504160574272429 0 -0.13097929143795109 0.46459511115351071 0 -0.1204057133641486 0.45504160574272429 0 -0.1176294132596279 0.46872710166108278 0 -0.12908554574303099 0.47755934496718438 0 -0.1176294132596279 0.46872710166108278 0 -0.1160402402672886 0.48503019582547341 0 -0.1176294132596279 0.46872710166108278 0 -0.1160402402672886 0.48503019582547341 0 -0.1045507464645692 0.47475835774787573 0 -0.13803845513632401 0.5 0 -0.1097654836520903 0.5 0 -0.1160402402672886 0.48503019582547341 0 -0.1097654836520903 0.5 0 -0.1160402402672886 0.48503019582547341 0 -0.099362977551805121 0.48745008538217821 0 -0.081492512167856565 0.50000000000000011 0 -0.1097654836520903 0.5 0 -0.099362977551805121 0.48745008538217821 0 -0.085878896958769185 0.47675925450649242 0 -0.093944937474792503 0.46462082789344678 0 -0.1045507464645692 0.47475835774787573 0 -0.085878896958769185 0.47675925450649242 0 -0.099362977551805121 0.48745008538217821 0 -0.1045507464645692 0.47475835774787573 0 -0.1160402402672886 0.48503019582547341 0 -0.099362977551805121 0.48745008538217821 0 -0.1045507464645692 0.47475835774787573 0 -0.15850742705232401 0.077073165420907211 0 -0.17832815471062741 0.080370175701138483 0 -0.15596223049933161 0.089669487892629185 0 -0.17128916945913089 0.092189477241546317 0 -0.17832815471062741 0.080370175701138483 0 -0.15596223049933161 0.089669487892629185 0 -0.17832815471062741 0.080370175701138483 0 -0.15596223049933161 0.089669487892629185 0 -0.15850742705232401 0.077073165420907211 0 -0.16907692184479731 0.071953328836937142 0 -0.17832815471062741 0.080370175701138483 0 -0.15850742705232401 0.077073165420907211 0 -0.15722519427174569 0.065058312825911402 0 -0.16907692184479731 0.071953328836937142 0 -0.16907692184479731 0.071953328836937142 0 -0.1809864334298861 0.069780609401686525 0 -0.17832815471062741 0.080370175701138483 0 -0.16907692184479731 0.071953328836937142 0 -0.1809864334298861 0.069780609401686525 0 -0.18167022033174851 0.056262687610226528 0 -0.1809864334298861 0.069780609401686525 0 -0.17832815471062741 0.080370175701138483 0 -0.20069407892192309 0.071070863509647808 0 -0.1809864334298861 0.069780609401686525 0 -0.18167022033174851 0.056262687610226528 0 -0.1876556690991136 0.063313821709693935 0 -0.17128916945913089 0.092189477241546317 0 -0.18444466814129201 0.081023499242751457 0 -0.17631468167186989 0.1066384650542631 0 -0.17128916945913089 0.092189477241546317 0 -0.18444466814129201 0.081023499242751457 0 -0.17832815471062741 0.080370175701138483 0 -0.18444466814129201 0.081023499242751457 0 -0.17631468167186989 0.1066384650542631 0 -0.19937405773042491 0.1071019237599893 0 -0.17631468167186989 0.1066384650542631 0 -0.16393492635195239 0.1245978723337525 0 -0.1795193575176991 0.1294692331289829 0 -0.17631468167186989 0.1066384650542631 0 -0.19937405773042491 0.1071019237599893 0 -0.1795193575176991 0.1294692331289829 0 -0.16393492635195239 0.1245978723337525 0 -0.16139611227253359 0.1032457583169494 0 -0.15311233888185891 0.1152965378839053 0 -0.17631468167186989 0.1066384650542631 0 -0.16393492635195239 0.1245978723337525 0 -0.16139611227253359 0.1032457583169494 0 -0.17128916945913089 0.092189477241546317 0 -0.17631468167186989 0.1066384650542631 0 -0.16139611227253359 0.1032457583169494 0 -0.17128916945913089 0.092189477241546317 0 -0.16139611227253359 0.1032457583169494 0 -0.15596223049933161 0.089669487892629185 0 -0.16139611227253359 0.1032457583169494 0 -0.13359630628803579 0.098968800084119873 0 -0.15596223049933161 0.089669487892629185 0 -0.16139611227253359 0.1032457583169494 0 -0.15311233888185891 0.1152965378839053 0 -0.13359630628803579 0.098968800084119873 0 -0.13359630628803579 0.098968800084119873 0 -0.15596223049933161 0.089669487892629185 0 -0.15311233888185891 0.1152965378839053 0 -0.13930859898956699 0.1145050369687237 0 -0.153752621985453 0.14073392350839439 0 -0.15311233888185891 0.1152965378839053 0 -0.13930859898956699 0.1145050369687237 0 -0.13359630628803579 0.098968800084119873 0 -0.13930859898956699 0.1145050369687237 0 -0.12607259725238279 0.11330641960449821 0 -0.12916618827146031 0.12390190950899049 0 -0.13930859898956699 0.1145050369687237 0 -0.12607259725238279 0.11330641960449821 0 -0.13359630628803579 0.098968800084119873 0 -0.13359630628803579 0.098968800084119873 0 -0.12697672020224329 0.087309090757334687 0 -0.14089006822782121 0.082531143958766096 0 -0.12697672020224329 0.087309090757334687 0 -0.14089006822782121 0.082531143958766096 0 -0.12697985749263241 0.07630636069427757 0 -0.15850742705232401 0.077073165420907211 0 -0.14089006822782121 0.082531143958766096 0 -0.15596223049933161 0.089669487892629185 0 -0.13359630628803579 0.098968800084119873 0 -0.14089006822782121 0.082531143958766096 0 -0.15596223049933161 0.089669487892629185 0 -0.15850742705232401 0.077073165420907211 0 -0.14089006822782121 0.082531143958766096 0 -0.14764327064684279 0.071644858797684771 0 -0.15722519427174569 0.065058312825911402 0 -0.14764327064684279 0.071644858797684771 0 -0.1471722955607111 0.059591957907519158 0 -0.15850742705232401 0.077073165420907211 0 -0.15722519427174569 0.065058312825911402 0 -0.14764327064684279 0.071644858797684771 0 -0.14089006822782121 0.082531143958766096 0 -0.14764327064684279 0.071644858797684771 0 -0.13666502121529681 0.069478967649866344 0 -0.14764327064684279 0.071644858797684771 0 -0.13666502121529681 0.069478967649866344 0 -0.1471722955607111 0.059591957907519158 0 -0.14089006822782121 0.082531143958766096 0 -0.13666502121529681 0.069478967649866344 0 -0.12697985749263241 0.07630636069427757 0 -0.13666502121529681 0.069478967649866344 0 -0.12697985749263241 0.07630636069427757 0 -0.12509646681095879 0.065597408261105467 0 -0.13666502121529681 0.069478967649866344 0 -0.12509646681095879 0.065597408261105467 0 -0.13233523162579211 0.057527865090889828 0 -0.13233523162579211 0.057527865090889828 0 -0.1197320338084647 0.057760070231756527 0 -0.1244920148619628 0.050381604022983993 0 -0.12509646681095879 0.065597408261105467 0 -0.13233523162579211 0.057527865090889828 0 -0.1197320338084647 0.057760070231756527 0 -0.13666502121529681 0.069478967649866344 0 -0.13233523162579211 0.057527865090889828 0 -0.1471722955607111 0.059591957907519158 0 -0.13233523162579211 0.057527865090889828 0 -0.131277092146349 0.043237905602295942 0 -0.1435202772377579 0.047601805401877667 0 -0.13233523162579211 0.057527865090889828 0 -0.131277092146349 0.043237905602295942 0 -0.1244920148619628 0.050381604022983993 0 -0.131277092146349 0.043237905602295942 0 -0.14194951185496399 0.035172378083737049 0 -0.12424451236807239 0.027069144312366941 0 -0.131277092146349 0.043237905602295942 0 -0.12424451236807239 0.027069144312366941 0 -0.12075472355362291 0.04122338309529356 0 -0.131277092146349 0.043237905602295942 0 -0.12075472355362291 0.04122338309529356 0 -0.1244920148619628 0.050381604022983993 0 -0.131277092146349 0.043237905602295942 0 -0.14194951185496399 0.035172378083737049 0 -0.1435202772377579 0.047601805401877667 0 -0.14194951185496399 0.035172378083737049 0 -0.15126073753592009 0.02487777788828089 0 -0.1637260562540532 0.045028253166508762 0 -0.14194951185496399 0.035172378083737049 0 -0.1435202772377579 0.047601805401877667 0 -0.1637260562540532 0.045028253166508762 0 -0.15722519427174569 0.065058312825911402 0 -0.1471722955607111 0.059591957907519158 0 -0.1637260562540532 0.045028253166508762 0 -0.1471722955607111 0.059591957907519158 0 -0.1435202772377579 0.047601805401877667 0 -0.1637260562540532 0.045028253166508762 0 -0.13233523162579211 0.057527865090889828 0 -0.1471722955607111 0.059591957907519158 0 -0.1435202772377579 0.047601805401877667 0 -0.1244522405185825 -0.00038769298458709092 0 -0.1310798501921922 0.016754836893075501 0 -0.12424451236807239 0.027069144312366941 0 -0.1244522405185825 -0.00038769298458709092 0 -0.13302987177733741 0.0072862060594841918 0 -0.1310798501921922 0.016754836893075501 0 -0.13796817939809339 -7.5853332940862265e-05 0 -0.13302987177733741 0.0072862060594841918 0 -0.13861921700048169 0.01285353366238922 0 -0.1244522405185825 -0.00038769298458709092 0 -0.13796817939809339 -7.5853332940862265e-05 0 -0.13302987177733741 0.0072862060594841918 0 -0.13302987177733741 0.0072862060594841918 0 -0.13861921700048169 0.01285353366238922 0 -0.1310798501921922 0.016754836893075501 0 -0.14194951185496399 0.035172378083737049 0 -0.1395360945068517 0.023372288850015029 0 -0.12424451236807239 0.027069144312366941 0 -0.13861921700048169 0.01285353366238922 0 -0.1395360945068517 0.023372288850015029 0 -0.1310798501921922 0.016754836893075501 0 -0.1395360945068517 0.023372288850015029 0 -0.1310798501921922 0.016754836893075501 0 -0.12424451236807239 0.027069144312366941 0 -0.14194951185496399 0.035172378083737049 0 -0.1395360945068517 0.023372288850015029 0 -0.15126073753592009 0.02487777788828089 0 -0.15126073753592009 0.02487777788828089 0 -0.15188271994169991 0.01786916074884114 0 -0.14657132146084931 0.01677767438903701 0 -0.15126073753592009 0.02487777788828089 0 -0.15837519066330749 0.018103177496080571 0 -0.1567842680697151 0.017821512483746641 0 -0.15126073753592009 0.02487777788828089 0 -0.15188271994169991 0.01786916074884114 0 -0.1567842680697151 0.017821512483746641 0 -0.1543123506052223 0.01567032783345056 0 -0.15188271994169991 0.01786916074884114 0 -0.1567842680697151 0.017821512483746641 0 -0.13861921700048169 0.01285353366238922 0 -0.1395360945068517 0.023372288850015029 0 -0.14657132146084931 0.01677767438903701 0 -0.1395360945068517 0.023372288850015029 0 -0.15126073753592009 0.02487777788828089 0 -0.14657132146084931 0.01677767438903701 0 -0.15381676672243971 -0.0048344028756085976 0 -0.13796817939809339 -7.5853332940862265e-05 0 -0.14598604308907309 0.0075397954886723484 0 -0.15381676672243971 -0.0048344028756085976 0 -0.15837519066330749 0.018103177496080571 0 -0.15381676672243971 -0.0048344028756085976 0 -0.15182406541376531 0.011854288846745499 0 -0.15837519066330749 0.018103177496080571 0 -0.15381676672243971 -0.0048344028756085976 0 -0.15182406541376531 0.011854288846745499 0 -0.14598604308907309 0.0075397954886723484 0 -0.13861921700048169 0.01285353366238922 0 -0.14657132146084931 0.01677767438903701 0 -0.14598604308907309 0.0075397954886723484 0 -0.14657132146084931 0.01677767438903701 0 -0.15182406541376531 0.011854288846745499 0 -0.14598604308907309 0.0075397954886723484 0 -0.15188271994169991 0.01786916074884114 0 -0.14657132146084931 0.01677767438903701 0 -0.15182406541376531 0.011854288846745499 0 -0.1543123506052223 0.01567032783345056 0 -0.15182406541376531 0.011854288846745499 0 -0.15837519066330749 0.018103177496080571 0 -0.1543123506052223 0.01567032783345056 0 -0.15188271994169991 0.01786916074884114 0 -0.15182406541376531 0.011854288846745499 0 -0.13796817939809339 -7.5853332940862265e-05 0 -0.13861921700048169 0.01285353366238922 0 -0.14598604308907309 0.0075397954886723484 0 -0.15381676672243971 -0.0048344028756085976 0 -0.16872927738725291 0.0066655648670224509 0 -0.15837519066330749 0.018103177496080571 0 -0.16872927738725291 0.0066655648670224509 0 -0.15837519066330749 0.018103177496080571 0 -0.17312315274812851 0.016956976572924821 0 -0.15837519066330749 0.018103177496080571 0 -0.17088268452158301 0.030303691123205939 0 -0.18416549926151529 0.022669224655560441 0 -0.15837519066330749 0.018103177496080571 0 -0.17088268452158301 0.030303691123205939 0 -0.1637260562540532 0.045028253166508762 0 -0.15126073753592009 0.02487777788828089 0 -0.15837519066330749 0.018103177496080571 0 -0.1637260562540532 0.045028253166508762 0 -0.15837519066330749 0.018103177496080571 0 -0.18416549926151529 0.022669224655560441 0 -0.1543123506052223 0.01567032783345056 0 -0.15837519066330749 0.018103177496080571 0 -0.1567842680697151 0.017821512483746641 0 -0.15837519066330749 0.018103177496080571 0 -0.1567842680697151 0.017821512483746641 0 -0.15837519066330749 0.018103177496080571 0 -0.18416549926151529 0.022669224655560441 0 -0.17312315274812851 0.016956976572924821 0 -0.17088268452158301 0.030303691123205939 0 -0.18416549926151529 0.022669224655560441 0 -0.1815242396402782 0.037713578252632912 0 -0.18416549926151529 0.022669224655560441 0 -0.17919408738426101 0.017592611389363012 0 -0.18518118592807509 0.0154377595936586 0 -0.18416549926151529 0.022669224655560441 0 -0.17312315274812851 0.016956976572924821 0 -0.17919408738426101 0.017592611389363012 0 -0.1785064095432054 -0.0066611219507198768 0 -0.16872927738725291 0.0066655648670224509 0 -0.193034969706537 0.00064734206737222756 0 -0.16872927738725291 0.0066655648670224509 0 -0.193034969706537 0.00064734206737222756 0 -0.16872927738725291 0.0066655648670224509 0 -0.18518118592807509 0.0154377595936586 0 -0.193034969706537 0.00064734206737222756 0 -0.16872927738725291 0.0066655648670224509 0 -0.17919408738426101 0.017592611389363012 0 -0.18518118592807509 0.0154377595936586 0 -0.16872927738725291 0.0066655648670224509 0 -0.17312315274812851 0.016956976572924821 0 -0.17919408738426101 0.017592611389363012 0 -0.16907692184479731 0.071953328836937142 0 -0.1637260562540532 0.045028253166508762 0 -0.18167022033174851 0.056262687610226528 0 -0.15722519427174569 0.065058312825911402 0 -0.16907692184479731 0.071953328836937142 0 -0.1637260562540532 0.045028253166508762 0 -0.16907692184479731 0.071953328836937142 0 -0.1637260562540532 0.045028253166508762 0 -0.15837519066330749 0.018103177496080571 0 -0.1637260562540532 0.045028253166508762 0 -0.17088268452158301 0.030303691123205939 0 -0.1637260562540532 0.045028253166508762 0 -0.1815242396402782 0.037713578252632912 0 -0.1815242396402782 0.037713578252632912 0 -0.18167022033174851 0.056262687610226528 0 -0.1948999673891425 0.045815662425189529 0 -0.1637260562540532 0.045028253166508762 0 -0.1815242396402782 0.037713578252632912 0 -0.18167022033174851 0.056262687610226528 0 -0.18416549926151529 0.022669224655560441 0 -0.1815242396402782 0.037713578252632912 0 -0.19539241544158811 0.034915353149486399 0 -0.19598386328254799 0.058823167906541372 0 -0.20873259774339259 0.055173182954087172 0 -0.20069407892192309 0.071070863509647808 0 -0.18167022033174851 0.056262687610226528 0 -0.19598386328254799 0.058823167906541372 0 -0.1876556690991136 0.063313821709693935 0 -0.19598386328254799 0.058823167906541372 0 -0.1948999673891425 0.045815662425189529 0 -0.20873259774339259 0.055173182954087172 0 -0.18167022033174851 0.056262687610226528 0 -0.19598386328254799 0.058823167906541372 0 -0.1948999673891425 0.045815662425189529 0 -0.1815242396402782 0.037713578252632912 0 -0.1948999673891425 0.045815662425189529 0 -0.19539241544158811 0.034915353149486399 0 -0.1948999673891425 0.045815662425189529 0 -0.19539241544158811 0.034915353149486399 0 -0.20641656305728129 0.041143028599009299 0 -0.20641656305728129 0.041143028599009299 0 -0.20995580785972329 0.027235271815039791 0 -0.22080882119384479 0.043900986742667819 0 -0.19539241544158811 0.034915353149486399 0 -0.20641656305728129 0.041143028599009299 0 -0.20995580785972329 0.027235271815039791 0 -0.20641656305728129 0.041143028599009299 0 -0.20873259774339259 0.055173182954087172 0 -0.22080882119384479 0.043900986742667819 0 -0.20873259774339259 0.055173182954087172 0 -0.2267202713125637 0.058975611642501508 0 -0.2176358721649875 0.072186860311035453 0 -0.1948999673891425 0.045815662425189529 0 -0.20641656305728129 0.041143028599009299 0 -0.20873259774339259 0.055173182954087172 0 -0.20993853639106591 -0.0035380738047605968 0 -0.2009137908539024 0.01431144198083124 0 -0.193034969706537 0.00064734206737222756 0 -0.18518118592807509 0.0154377595936586 0 -0.2009137908539024 0.01431144198083124 0 -0.193034969706537 0.00064734206737222756 0 -0.18518118592807509 0.0154377595936586 0 -0.193034969706537 0.00064734206737222756 0 -0.18416549926151529 0.022669224655560441 0 -0.20995580785972329 0.027235271815039791 0 -0.18416549926151529 0.022669224655560441 0 -0.18518118592807509 0.0154377595936586 0 -0.2009137908539024 0.01431144198083124 0 -0.18416549926151529 0.022669224655560441 0 -0.2009137908539024 0.01431144198083124 0 -0.20995580785972329 0.027235271815039791 0 -0.18416549926151529 0.022669224655560441 0 -0.19539241544158811 0.034915353149486399 0 -0.20995580785972329 0.027235271815039791 0 -0.2009137908539024 0.01431144198083124 0 -0.20995580785972329 0.027235271815039791 0 -0.21568563774484731 0.0082874278720449449 0 -0.20993853639106591 -0.0035380738047605968 0 -0.2009137908539024 0.01431144198083124 0 -0.21568563774484731 0.0082874278720449449 0 -0.22684210307559549 -0.0077234896768903086 0 -0.21568563774484731 0.0082874278720449449 0 -0.23077795054394901 0.01115198904600462 0 -0.22684210307559549 -0.0077234896768903086 0 -0.23077795054394901 0.01115198904600462 0 -0.20995580785972329 0.027235271815039791 0 -0.21568563774484731 0.0082874278720449449 0 -0.23077795054394901 0.01115198904600462 0 -0.20995580785972329 0.027235271815039791 0 -0.2357461164579312 0.03180131897451912 0 -0.20995580785972329 0.027235271815039791 0 -0.23077795054394901 0.01115198904600462 0 -0.2357461164579312 0.03180131897451912 0 -0.23077795054394901 0.01115198904600462 0 -0.24854849079604721 0.020569936005881421 0 -0.2357461164579312 0.03180131897451912 0 -0.26153642505613889 0.036367366133998442 0 -0.24854849079604721 0.020569936005881421 0 -0.2357461164579312 0.03180131897451912 0 -0.23077795054394901 0.01115198904600462 0 -0.24854849079604721 0.020569936005881421 0 -0.24598119983726671 0.0037338506766126851 0 -0.22684210307559549 -0.0077234896768903086 0 -0.23077795054394901 0.01115198904600462 0 -0.24598119983726671 0.0037338506766126851 0 -0.20873259774339259 0.055173182954087172 0 -0.2267202713125637 0.058975611642501508 0 -0.22080882119384479 0.043900986742667819 0 -0.2267202713125637 0.058975611642501508 0 -0.22080882119384479 0.043900986742667819 0 -0.239388393447095 0.04766651035075449 0 -0.22080882119384479 0.043900986742667819 0 -0.2357461164579312 0.03180131897451912 0 -0.239388393447095 0.04766651035075449 0 -0.20995580785972329 0.027235271815039791 0 -0.22080882119384479 0.043900986742667819 0 -0.2357461164579312 0.03180131897451912 0 -0.26153642505613889 0.036367366133998442 0 -0.2357461164579312 0.03180131897451912 0 -0.26153642505613889 0.036367366133998442 0 -0.2357461164579312 0.03180131897451912 0 -0.239388393447095 0.04766651035075449 0 -0.25116276906762952 0.054241108780248931 0 -0.239388393447095 0.04766651035075449 0 -0.24035595759446179 0.060712669830591162 0 -0.2267202713125637 0.058975611642501508 0 -0.239388393447095 0.04766651035075449 0 -0.24035595759446179 0.060712669830591162 0 -0.25116276906762952 0.054241108780248931 0 -0.24035595759446179 0.060712669830591162 0 -0.24829977196364941 0.065213336215906109 0 -0.2267202713125637 0.058975611642501508 0 -0.24035595759446179 0.060712669830591162 0 -0.23791909572611269 0.075142721002645518 0 -0.24035595759446179 0.060712669830591162 0 -0.24829977196364941 0.065213336215906109 0 -0.23791909572611269 0.075142721002645518 0 -0.25064083865024739 0.073628726666345984 0 -0.23791909572611269 0.075142721002645518 0 -0.24857020570659841 0.081659589420377987 0 -0.25064083865024739 0.073628726666345984 0 -0.24829977196364941 0.065213336215906109 0 -0.23791909572611269 0.075142721002645518 0 -0.23791909572611269 0.075142721002645518 0 -0.2427234934652894 0.090762762990284518 0 -0.22646138453880821 0.085461994072224837 0 -0.25413031243694739 0.089521027236778197 0 -0.2427234934652894 0.090762762990284518 0 -0.24857020570659841 0.081659589420377987 0 -0.23791909572611269 0.075142721002645518 0 -0.2427234934652894 0.090762762990284518 0 -0.24857020570659841 0.081659589420377987 0 -0.2267202713125637 0.058975611642501508 0 -0.23791909572611269 0.075142721002645518 0 -0.2176358721649875 0.072186860311035453 0 -0.23791909572611269 0.075142721002645518 0 -0.22646138453880821 0.085461994072224837 0 -0.2176358721649875 0.072186860311035453 0 -0.20873259774339259 0.055173182954087172 0 -0.2176358721649875 0.072186860311035453 0 -0.20069407892192309 0.071070863509647808 0 -0.2176358721649875 0.072186860311035453 0 -0.20525373999263671 0.08640341449760941 0 -0.20069407892192309 0.071070863509647808 0 -0.22646138453880821 0.085461994072224837 0 -0.2176358721649875 0.072186860311035453 0 -0.20525373999263671 0.08640341449760941 0 -0.22646138453880821 0.085461994072224837 0 -0.20525373999263671 0.08640341449760941 0 -0.2161514522581473 0.1006972439961434 0 -0.18444466814129201 0.081023499242751457 0 -0.20525373999263671 0.08640341449760941 0 -0.20069407892192309 0.071070863509647808 0 -0.18444466814129201 0.081023499242751457 0 -0.20525373999263671 0.08640341449760941 0 -0.19937405773042491 0.1071019237599893 0 -0.17832815471062741 0.080370175701138483 0 -0.20069407892192309 0.071070863509647808 0 -0.18444466814129201 0.081023499242751457 0 -0.17832815471062741 0.080370175701138483 0 -0.20069407892192309 0.071070863509647808 0 -0.1809864334298861 0.069780609401686525 0 -0.1876556690991136 0.063313821709693935 0 -0.20069407892192309 0.071070863509647808 0 -0.19598386328254799 0.058823167906541372 0 -0.1876556690991136 0.063313821709693935 0 -0.20069407892192309 0.071070863509647808 0 -0.19937405773042491 0.1071019237599893 0 -0.2161514522581473 0.1006972439961434 0 -0.21430344731955769 0.133180348277227 0 -0.19937405773042491 0.1071019237599893 0 -0.19727411993202021 0.1275714443648302 0 -0.1795193575176991 0.1294692331289829 0 -0.18444466814129201 0.081023499242751457 0 -0.19937405773042491 0.1071019237599893 0 -0.20525373999263671 0.08640341449760941 0 -0.19937405773042491 0.1071019237599893 0 -0.2161514522581473 0.1006972439961434 0 -0.19937405773042491 0.1071019237599893 0 -0.21430344731955769 0.133180348277227 0 -0.19937405773042491 0.1071019237599893 0 -0.19727411993202021 0.1275714443648302 0 -0.21430344731955769 0.133180348277227 0 -0.2161514522581473 0.1006972439961434 0 -0.23231730930006211 0.10853516007106349 0 -0.21430344731955769 0.133180348277227 0 -0.2427234934652894 0.090762762990284518 0 -0.22646138453880821 0.085461994072224837 0 -0.23231730930006211 0.10853516007106349 0 -0.22646138453880821 0.085461994072224837 0 -0.2161514522581473 0.1006972439961434 0 -0.23231730930006211 0.10853516007106349 0 -0.25610310449345419 0.1041046972302731 0 -0.2427234934652894 0.090762762990284518 0 -0.23231730930006211 0.10853516007106349 0 -0.25610310449345419 0.1041046972302731 0 -0.23231730930006211 0.10853516007106349 0 -0.2495823492922267 0.12121763785839371 0 -0.23231730930006211 0.10853516007106349 0 -0.2495823492922267 0.12121763785839371 0 -0.23849568892714909 0.13696143350773771 0 -0.23231730930006211 0.10853516007106349 0 -0.23849568892714909 0.13696143350773771 0 -0.25477231595188199 0.13792181725732239 0 -0.2495823492922267 0.12121763785839371 0 -0.23849568892714909 0.13696143350773771 0 -0.23231730930006211 0.10853516007106349 0 -0.23849568892714909 0.13696143350773771 0 -0.21430344731955769 0.133180348277227 0 -0.23849568892714909 0.13696143350773771 0 -0.22923283690869051 0.15925877279446471 0 -0.21430344731955769 0.133180348277227 0 -0.22923283690869051 0.15925877279446471 0 -0.21430344731955769 0.133180348277227 0 -0.2543915534089356 0.15018751405662761 0 -0.23849568892714909 0.13696143350773771 0 -0.24467406855423091 0.1653877069444131 0 -0.23849568892714909 0.13696143350773771 0 -0.24467406855423091 0.1653877069444131 0 -0.22923283690869051 0.15925877279446471 0 -0.2543915534089356 0.15018751405662761 0 -0.25477231595188199 0.13792181725732239 0 -0.23849568892714909 0.13696143350773771 0 -0.23849568892714909 0.13696143350773771 0 -0.24467406855423091 0.1653877069444131 0 -0.24467406855423091 0.1653877069444131 0 -0.2350219134637796 0.18103954803765679 0 -0.22379977898383499 0.16989282922580509 0 -0.24467406855423091 0.1653877069444131 0 -0.24947341468037071 0.1874691479585941 0 -0.2350219134637796 0.18103954803765679 0 -0.24467406855423091 0.1653877069444131 0 -0.24947341468037071 0.1874691479585941 0 -0.2350219134637796 0.18103954803765679 0 -0.22004124654446131 0.18611549732905991 0 -0.22379977898383499 0.16989282922580509 0 -0.24467406855423091 0.1653877069444131 0 -0.22379977898383499 0.16989282922580509 0 -0.22923283690869051 0.15925877279446471 0 -0.22379977898383499 0.16989282922580509 0 -0.22923283690869051 0.15925877279446471 0 -0.20989634202023699 0.1560844752241346 0 -0.24467406855423091 0.1653877069444131 0 -0.22379977898383499 0.16989282922580509 0 -0.22379977898383499 0.16989282922580509 0 -0.20292548941343971 0.17439795150720031 0 -0.20989634202023699 0.1560844752241346 0 -0.20292548941343971 0.17439795150720031 0 -0.20989634202023699 0.1560844752241346 0 -0.17833905569944569 0.15756593750779829 0 -0.22379977898383499 0.16989282922580509 0 -0.20292548941343971 0.17439795150720031 0 -0.22004124654446131 0.18611549732905991 0 -0.22379977898383499 0.16989282922580509 0 -0.20292548941343971 0.17439795150720031 0 -0.22004124654446131 0.18611549732905991 0 -0.20292548941343971 0.17439795150720031 0 -0.22004124654446131 0.18611549732905991 0 -0.20292548941343971 0.17439795150720031 0 -0.20568385543668641 0.19260324117033031 0 -0.20292548941343971 0.17439795150720031 0 -0.1757122088887666 0.1802711648698879 0 -0.20292548941343971 0.17439795150720031 0 -0.1897130520823497 0.19444680225630501 0 -0.1757122088887666 0.1802711648698879 0 -0.20292548941343971 0.17439795150720031 0 -0.20568385543668641 0.19260324117033031 0 -0.1897130520823497 0.19444680225630501 0 -0.20292548941343971 0.17439795150720031 0 -0.17833905569944569 0.15756593750779829 0 -0.19589961716039911 0.1405342722931214 0 -0.20989634202023699 0.1560844752241346 0 -0.17833905569944569 0.15756593750779829 0 -0.19727411993202021 0.1275714443648302 0 -0.19589961716039911 0.1405342722931214 0 -0.1795193575176991 0.1294692331289829 0 -0.19727411993202021 0.1275714443648302 0 -0.19589961716039911 0.1405342722931214 0 -0.21430344731955769 0.133180348277227 0 -0.22923283690869051 0.15925877279446471 0 -0.21430344731955769 0.133180348277227 0 -0.20989634202023699 0.1560844752241346 0 -0.19589961716039911 0.1405342722931214 0 -0.21430344731955769 0.133180348277227 0 -0.20989634202023699 0.1560844752241346 0 -0.23288038931281729 0.23888496135878451 0 -0.21994142138302111 0.22426230620998819 0 -0.21218175950055909 0.24952722652004439 0 -0.22667039518801041 0.25355429459537898 0 -0.23288038931281729 0.23888496135878451 0 -0.21218175950055909 0.24952722652004439 0 -0.2416444700809012 0.25186566196455601 0 -0.22667039518801041 0.25355429459537898 0 -0.23288038931281729 0.23888496135878451 0 -0.2416444700809012 0.25186566196455601 0 -0.23288038931281729 0.23888496135878451 0 -0.2470081454867771 0.2422065880623451 0 -0.25693865295534157 0.25278860643768353 0 -0.2416444700809012 0.25186566196455601 0 -0.2470081454867771 0.2422065880623451 0 -0.25109603964961891 0.234366577265785 0 -0.2470081454867771 0.2422065880623451 0 -0.24424918889796191 0.23342051569475999 0 -0.23288038931281729 0.23888496135878451 0 -0.2470081454867771 0.2422065880623451 0 -0.24424918889796191 0.23342051569475999 0 -0.23288038931281729 0.23888496135878451 0 -0.24424918889796191 0.23342051569475999 0 -0.2396805993576108 0.22455316273993289 0 -0.24424918889796191 0.23342051569475999 0 -0.249817319625419 0.2274340479663062 0 -0.2396805993576108 0.22455316273993289 0 -0.25109603964961891 0.234366577265785 0 -0.24424918889796191 0.23342051569475999 0 -0.249817319625419 0.2274340479663062 0 -0.249817319625419 0.2274340479663062 0 -0.24904636230289101 0.22050689045355901 0 -0.2396805993576108 0.22455316273993289 0 -0.24904636230289101 0.22050689045355901 0 -0.2396805993576108 0.22455316273993289 0 -0.24333230173327219 0.21221501244476959 0 -0.2396805993576108 0.22455316273993289 0 -0.21994142138302111 0.22426230620998819 0 -0.23304733008138001 0.21339205942673259 0 -0.23288038931281729 0.23888496135878451 0 -0.2396805993576108 0.22455316273993289 0 -0.21994142138302111 0.22426230620998819 0 -0.21994142138302111 0.22426230620998819 0 -0.22770108326548311 0.19899738589993199 0 -0.210353022999335 0.20567537760669019 0 -0.21994142138302111 0.22426230620998819 0 -0.23304733008138001 0.21339205942673259 0 -0.22770108326548311 0.19899738589993199 0 -0.21994142138302111 0.22426230620998819 0 -0.22770108326548311 0.19899738589993199 0 -0.23304733008138001 0.21339205942673259 0 -0.2346933251094325 0.20523388649383931 0 -0.22770108326548311 0.19899738589993199 0 -0.25427276080650663 0.20955058897277601 0 -0.23715700367548431 0.1978330431509176 0 -0.2396805993576108 0.22455316273993289 0 -0.23304733008138001 0.21339205942673259 0 -0.24333230173327219 0.21221501244476959 0 -0.25427276080650663 0.20955058897277601 0 -0.24333230173327219 0.21221501244476959 0 -0.23715700367548431 0.1978330431509176 0 -0.25561524088587501 0.21572724177218369 0 -0.24904636230289101 0.22050689045355901 0 -0.24333230173327219 0.21221501244476959 0 -0.24333230173327219 0.21221501244476959 0 -0.2346933251094325 0.20523388649383931 0 -0.23715700367548431 0.1978330431509176 0 -0.23304733008138001 0.21339205942673259 0 -0.24333230173327219 0.21221501244476959 0 -0.2346933251094325 0.20523388649383931 0 -0.25427276080650663 0.20955058897277601 0 -0.24947341468037071 0.1874691479585941 0 -0.23715700367548431 0.1978330431509176 0 -0.24947341468037071 0.1874691479585941 0 -0.2350219134637796 0.18103954803765679 0 -0.23715700367548431 0.1978330431509176 0 -0.22004124654446131 0.18611549732905991 0 -0.23715700367548431 0.1978330431509176 0 -0.22004124654446131 0.18611549732905991 0 -0.23715700367548431 0.1978330431509176 0 -0.22770108326548311 0.19899738589993199 0 -0.2350219134637796 0.18103954803765679 0 -0.22004124654446131 0.18611549732905991 0 -0.23715700367548431 0.1978330431509176 0 -0.2346933251094325 0.20523388649383931 0 -0.23715700367548431 0.1978330431509176 0 -0.22770108326548311 0.19899738589993199 0 -0.22004124654446131 0.18611549732905991 0 -0.22770108326548311 0.19899738589993199 0 -0.21594480206149139 0.19584787550150309 0 -0.22770108326548311 0.19899738589993199 0 -0.21594480206149139 0.19584787550150309 0 -0.210353022999335 0.20567537760669019 0 -0.22004124654446131 0.18611549732905991 0 -0.21594480206149139 0.19584787550150309 0 -0.20568385543668641 0.19260324117033031 0 -0.21594480206149139 0.19584787550150309 0 -0.20568385543668641 0.19260324117033031 0 -0.210353022999335 0.20567537760669019 0 -0.20568385543668641 0.19260324117033031 0 -0.19800517532583911 0.2033181044808495 0 -0.210353022999335 0.20567537760669019 0 -0.20568385543668641 0.19260324117033031 0 -0.1897130520823497 0.19444680225630501 0 -0.19800517532583911 0.2033181044808495 0 -0.1897130520823497 0.19444680225630501 0 -0.19800517532583911 0.2033181044808495 0 -0.1863200837324982 0.20555600776477401 0 -0.19800517532583911 0.2033181044808495 0 -0.19795586237832599 0.21830909360614789 0 -0.210353022999335 0.20567537760669019 0 -0.19800517532583911 0.2033181044808495 0 -0.19795586237832599 0.21830909360614789 0 -0.1863200837324982 0.20555600776477401 0 -0.19795586237832599 0.21830909360614789 0 -0.18240126852579899 0.21930684119835961 0 -0.1863200837324982 0.20555600776477401 0 -0.21994142138302111 0.22426230620998819 0 -0.19795586237832599 0.21830909360614789 0 -0.210353022999335 0.20567537760669019 0 -0.21994142138302111 0.22426230620998819 0 -0.19795586237832599 0.21830909360614789 0 -0.20314208847108339 0.23556135501649109 0 -0.19795586237832599 0.21830909360614789 0 -0.18651378479530609 0.23505073182760211 0 -0.18240126852579899 0.21930684119835961 0 -0.19795586237832599 0.21830909360614789 0 -0.20314208847108339 0.23556135501649109 0 -0.18651378479530609 0.23505073182760211 0 -0.1929026130837673 0.25762258695206858 0 -0.20314208847108339 0.23556135501649109 0 -0.18651378479530609 0.23505073182760211 0 -0.1929026130837673 0.25762258695206858 0 -0.20314208847108339 0.23556135501649109 0 -0.21218175950055909 0.24952722652004439 0 -0.21994142138302111 0.22426230620998819 0 -0.21218175950055909 0.24952722652004439 0 -0.21994142138302111 0.22426230620998819 0 -0.20314208847108339 0.23556135501649109 0 -0.21218175950055909 0.24952722652004439 0 -0.16582228118094081 0.26466105519565358 0 -0.18651378479530609 0.23505073182760211 0 -0.1608218935138386 0.23306973899941771 0 -0.16582228118094081 0.26466105519565358 0 -0.14534546737678511 0.25129379472131641 0 -0.1608218935138386 0.23306973899941771 0 -0.18651378479530609 0.23505073182760211 0 -0.1608218935138386 0.23306973899941771 0 -0.18651378479530609 0.23505073182760211 0 -0.18240126852579899 0.21930684119835961 0 -0.1608218935138386 0.23306973899941771 0 -0.1608218935138386 0.23306973899941771 0 -0.16716432822862029 0.21469463307327219 0 -0.14537567171977789 0.21373021027012479 0 -0.18240126852579899 0.21930684119835961 0 -0.1608218935138386 0.23306973899941771 0 -0.16716432822862029 0.21469463307327219 0 -0.16716432822862029 0.21469463307327219 0 -0.15728284033457929 0.19872471446884221 0 -0.14537567171977789 0.21373021027012479 0 -0.16716432822862029 0.21469463307327219 0 -0.1863200837324982 0.20555600776477401 0 -0.15728284033457929 0.19872471446884221 0 -0.18240126852579899 0.21930684119835961 0 -0.16716432822862029 0.21469463307327219 0 -0.1863200837324982 0.20555600776477401 0 -0.1863200837324982 0.20555600776477401 0 -0.1747365466553682 0.1940095109997643 0 -0.15728284033457929 0.19872471446884221 0 -0.1897130520823497 0.19444680225630501 0 -0.1863200837324982 0.20555600776477401 0 -0.1747365466553682 0.1940095109997643 0 -0.1897130520823497 0.19444680225630501 0 -0.1747365466553682 0.1940095109997643 0 -0.1757122088887666 0.1802711648698879 0 -0.1747365466553682 0.1940095109997643 0 -0.16534449221108169 0.19019064904669619 0 -0.1757122088887666 0.1802711648698879 0 -0.1863200837324982 0.20555600776477401 0 -0.15728284033457929 0.19872471446884221 0 -0.1747365466553682 0.1940095109997643 0 -0.16534449221108169 0.19019064904669619 0 -0.15728284033457929 0.19872471446884221 0 -0.16534449221108169 0.19019064904669619 0 -0.15728284033457929 0.19872471446884221 0 -0.15629575781976141 0.184461654133797 0 -0.15728284033457929 0.19872471446884221 0 -0.12824559693666041 0.19189342117291039 0 -0.15629575781976141 0.184461654133797 0 -0.15728284033457929 0.19872471446884221 0 -0.12824559693666041 0.19189342117291039 0 -0.14537567171977789 0.21373021027012479 0 -0.15728284033457929 0.19872471446884221 0 -0.12824559693666041 0.19189342117291039 0 -0.12824559693666041 0.19189342117291039 0 -0.14537567171977789 0.21373021027012479 0 -0.1242544958201173 0.21504107598638081 0 -0.1608218935138386 0.23306973899941771 0 -0.14537567171977789 0.21373021027012479 0 -0.13513000223237101 0.23108874617123329 0 -0.1608218935138386 0.23306973899941771 0 -0.13513000223237101 0.23108874617123329 0 -0.14537567171977789 0.21373021027012479 0 -0.13513000223237101 0.23108874617123329 0 -0.1242544958201173 0.21504107598638081 0 -0.14534546737678511 0.25129379472131641 0 -0.13513000223237101 0.23108874617123329 0 -0.12470300375741469 0.2457033751303839 0 -0.14534546737678511 0.25129379472131641 0 -0.1608218935138386 0.23306973899941771 0 -0.13513000223237101 0.23108874617123329 0 -0.17833905569944569 0.15756593750779829 0 -0.1561619761378806 0.16047685630827471 0 -0.153752621985453 0.14073392350839439 0 -0.1795193575176991 0.1294692331289829 0 -0.17833905569944569 0.15756593750779829 0 -0.153752621985453 0.14073392350839439 0 -0.17833905569944569 0.15756593750779829 0 -0.153752621985453 0.14073392350839439 0 -0.16393492635195239 0.1245978723337525 0 -0.15311233888185891 0.1152965378839053 0 -0.153752621985453 0.14073392350839439 0 -0.16393492635195239 0.1245978723337525 0 -0.1795193575176991 0.1294692331289829 0 -0.153752621985453 0.14073392350839439 0 -0.19589961716039911 0.1405342722931214 0 -0.1795193575176991 0.1294692331289829 0 -0.17833905569944569 0.15756593750779829 0 -0.20292548941343971 0.17439795150720031 0 -0.17833905569944569 0.15756593750779829 0 -0.1757122088887666 0.1802711648698879 0 -0.1897130520823497 0.19444680225630501 0 -0.1757122088887666 0.1802711648698879 0 -0.16534449221108169 0.19019064904669619 0 -0.1757122088887666 0.1802711648698879 0 -0.15629575781976141 0.184461654133797 0 -0.1757122088887666 0.1802711648698879 0 -0.15629575781976141 0.184461654133797 0 -0.1757122088887666 0.1802711648698879 0 -0.15629575781976141 0.184461654133797 0 -0.1561619761378806 0.16047685630827471 0 -0.17833905569944569 0.15756593750779829 0 -0.1757122088887666 0.1802711648698879 0 -0.1561619761378806 0.16047685630827471 0 -0.1757122088887666 0.1802711648698879 0 -0.1561619761378806 0.16047685630827471 0 -0.1561619761378806 0.16047685630827471 0 -0.14126926821389521 0.17232478353634881 0 -0.1371080151487378 0.15864895140394189 0 -0.15629575781976141 0.184461654133797 0 -0.1561619761378806 0.16047685630827471 0 -0.14126926821389521 0.17232478353634881 0 -0.12824559693666041 0.19189342117291039 0 -0.15629575781976141 0.184461654133797 0 -0.14126926821389521 0.17232478353634881 0 -0.12824559693666041 0.19189342117291039 0 -0.14126926821389521 0.17232478353634881 0 -0.1248941403316576 0.1686438139500778 0 -0.14126926821389521 0.17232478353634881 0 -0.1371080151487378 0.15864895140394189 0 -0.1248941403316576 0.1686438139500778 0 -0.1371080151487378 0.15864895140394189 0 -0.1239269324459726 0.1539154783358255 0 -0.1248941403316576 0.1686438139500778 0 -0.1371080151487378 0.15864895140394189 0 -0.13661174338699569 0.1406825477466605 0 -0.1239269324459726 0.1539154783358255 0 -0.1561619761378806 0.16047685630827471 0 -0.13661174338699569 0.1406825477466605 0 -0.1561619761378806 0.16047685630827471 0 -0.13661174338699569 0.1406825477466605 0 -0.153752621985453 0.14073392350839439 0 -0.1561619761378806 0.16047685630827471 0 -0.1371080151487378 0.15864895140394189 0 -0.13661174338699569 0.1406825477466605 0 -0.12916618827146031 0.12390190950899049 0 -0.153752621985453 0.14073392350839439 0 -0.13930859898956699 0.1145050369687237 0 -0.12916618827146031 0.12390190950899049 0 -0.153752621985453 0.14073392350839439 0 -0.13661174338699569 0.1406825477466605 0 -0.11706151063611089 0.1208882391850464 0 -0.12916618827146031 0.12390190950899049 0 -0.13661174338699569 0.1406825477466605 0 -0.11706151063611089 0.1208882391850464 0 -0.12916618827146031 0.12390190950899049 0 -0.13661174338699569 0.1406825477466605 0 -0.153752621985453 0.14073392350839439 0 -0.13661174338699569 0.1406825477466605 0 -0.11473911200363 0.13153944404780621 0 -0.1132109842275667 0.1430328284895945 0 -0.13661174338699569 0.1406825477466605 0 -0.11473911200363 0.13153944404780621 0 -0.11706151063611089 0.1208882391850464 0 -0.11473911200363 0.13153944404780621 0 -0.1039338124667491 0.13009472872812991 0 -0.1132109842275667 0.1430328284895945 0 -0.11473911200363 0.13153944404780621 0 -0.1039338124667491 0.13009472872812991 0 -0.10601879130899509 0.12208205668825579 0 -0.1039338124667491 0.13009472872812991 0 -0.093398168270057425 0.14218175111966569 0 -0.093946486761182085 0.1175508364221631 0 -0.1039338124667491 0.13009472872812991 0 -0.1132109842275667 0.1430328284895945 0 -0.093398168270057425 0.14218175111966569 0 -0.1078097791349048 0.15856925008885259 0 -0.089544080768145809 0.16137822361845131 0 -0.093398168270057425 0.14218175111966569 0 -0.1132109842275667 0.1430328284895945 0 -0.1078097791349048 0.15856925008885259 0 -0.093398168270057425 0.14218175111966569 0 -0.13661174338699569 0.1406825477466605 0 -0.1132109842275667 0.1430328284895945 0 -0.1239269324459726 0.1539154783358255 0 -0.1132109842275667 0.1430328284895945 0 -0.1239269324459726 0.1539154783358255 0 -0.1078097791349048 0.15856925008885259 0 -0.1248941403316576 0.1686438139500778 0 -0.099208353538741523 0.18506212787697859 0 -0.1078097791349048 0.15856925008885259 0 -0.1239269324459726 0.1539154783358255 0 -0.1248941403316576 0.1686438139500778 0 -0.1078097791349048 0.15856925008885259 0 -0.12824559693666041 0.19189342117291039 0 -0.1248941403316576 0.1686438139500778 0 -0.099208353538741523 0.18506212787697859 0 -0.099208353538741523 0.18506212787697859 0 -0.1078097791349048 0.15856925008885259 0 -0.089544080768145809 0.16137822361845131 0 -0.089544080768145809 0.16137822361845131 0 -0.070171110140822543 0.1782308345810468 0 -0.074669823138777097 0.15727584041375819 0 -0.099208353538741523 0.18506212787697859 0 -0.089544080768145809 0.16137822361845131 0 -0.070171110140822543 0.1782308345810468 0 -0.099208353538741523 0.18506212787697859 0 -0.070171110140822543 0.1782308345810468 0 -0.070171110140822543 0.1782308345810468 0 -0.074669823138777097 0.15727584041375819 0 -0.057722578482997257 0.16273086802879619 0 -0.074669823138777097 0.15727584041375819 0 -0.066369438716585821 0.14892706699039879 0 -0.057722578482997257 0.16273086802879619 0 -0.074669823138777097 0.15727584041375819 0 -0.066369438716585821 0.14892706699039879 0 -0.074733199104357148 0.14603812585323231 0 -0.074669823138777097 0.15727584041375819 0 -0.074733199104357148 0.14603812585323231 0 -0.082756465015383474 0.1492386270883771 0 -0.074733199104357148 0.14603812585323231 0 -0.067315024607703278 0.13662092079142449 0 -0.081437053795579945 0.1393191944367777 0 -0.066369438716585821 0.14892706699039879 0 -0.074733199104357148 0.14603812585323231 0 -0.067315024607703278 0.13662092079142449 0 -0.066369438716585821 0.14892706699039879 0 -0.067315024607703278 0.13662092079142449 0 -0.054361576129613079 0.15178129246158931 0 -0.067315024607703278 0.13662092079142449 0 -0.088852304720190942 0.12644129241805541 0 -0.067315024607703278 0.13662092079142449 0 -0.088852304720190942 0.12644129241805541 0 -0.075786521408142987 0.12443322189858901 0 -0.067315024607703278 0.13662092079142449 0 -0.062016764747578973 0.12884034001808189 0 -0.075786521408142987 0.12443322189858901 0 -0.088852304720190942 0.12644129241805541 0 -0.093398168270057425 0.14218175111966569 0 -0.093946486761182085 0.1175508364221631 0 -0.067315024607703278 0.13662092079142449 0 -0.081437053795579945 0.1393191944367777 0 -0.088852304720190942 0.12644129241805541 0 -0.093398168270057425 0.14218175111966569 0 -0.093946486761182085 0.1175508364221631 0 -0.081437053795579945 0.1393191944367777 0 -0.088852304720190942 0.12644129241805541 0 -0.093398168270057425 0.14218175111966569 0 -0.089544080768145809 0.16137822361845131 0 -0.093398168270057425 0.14218175111966569 0 -0.082756465015383474 0.1492386270883771 0 -0.089544080768145809 0.16137822361845131 0 -0.074669823138777097 0.15727584041375819 0 -0.082756465015383474 0.1492386270883771 0 -0.074733199104357148 0.14603812585323231 0 -0.081437053795579945 0.1393191944367777 0 -0.082756465015383474 0.1492386270883771 0 -0.081437053795579945 0.1393191944367777 0 -0.093398168270057425 0.14218175111966569 0 -0.082756465015383474 0.1492386270883771 0 -0.11076524853809321 0.25238606884059173 0 -0.1094381109509034 0.22910775334304889 0 -0.091345724210048884 0.23566487628332011 0 -0.11076524853809321 0.25238606884059173 0 -0.092391857727521592 0.25884509119311472 0 -0.091345724210048884 0.23566487628332011 0 -0.13513000223237101 0.23108874617123329 0 -0.12470300375741469 0.2457033751303839 0 -0.1094381109509034 0.22910775334304889 0 -0.11076524853809321 0.25238606884059173 0 -0.12470300375741469 0.2457033751303839 0 -0.1094381109509034 0.22910775334304889 0 -0.13513000223237101 0.23108874617123329 0 -0.1094381109509034 0.22910775334304889 0 -0.13513000223237101 0.23108874617123329 0 -0.1094381109509034 0.22910775334304889 0 -0.1242544958201173 0.21504107598638081 0 -0.1094381109509034 0.22910775334304889 0 -0.10308309726087379 0.20938524897458621 0 -0.091345724210048884 0.23566487628332011 0 -0.1094381109509034 0.22910775334304889 0 -0.10308309726087379 0.20938524897458621 0 -0.1242544958201173 0.21504107598638081 0 -0.12824559693666041 0.19189342117291039 0 -0.10308309726087379 0.20938524897458621 0 -0.1242544958201173 0.21504107598638081 0 -0.12824559693666041 0.19189342117291039 0 -0.099208353538741523 0.18506212787697859 0 -0.12824559693666041 0.19189342117291039 0 -0.099208353538741523 0.18506212787697859 0 -0.10308309726087379 0.20938524897458621 0 -0.099208353538741523 0.18506212787697859 0 -0.070171110140822543 0.1782308345810468 0 -0.078220861930521898 0.21057701145176541 0 -0.070171110140822543 0.1782308345810468 0 -0.078220861930521898 0.21057701145176541 0 -0.056949983849450658 0.19269083667038239 0 -0.099208353538741523 0.18506212787697859 0 -0.10308309726087379 0.20938524897458621 0 -0.078220861930521898 0.21057701145176541 0 -0.078220861930521898 0.21057701145176541 0 -0.056178602179823331 0.21732906463454121 0 -0.056949983849450658 0.19269083667038239 0 -0.10308309726087379 0.20938524897458621 0 -0.078220861930521898 0.21057701145176541 0 -0.091345724210048884 0.23566487628332011 0 -0.078220861930521898 0.21057701145176541 0 -0.069221313838413207 0.24642852661517459 0 -0.091345724210048884 0.23566487628332011 0 -0.078220861930521898 0.21057701145176541 0 -0.069221313838413207 0.24642852661517459 0 -0.056178602179823331 0.21732906463454121 0 -0.092391857727521592 0.25884509119311472 0 -0.069221313838413207 0.24642852661517459 0 -0.091345724210048884 0.23566487628332011 0 -0.033382390283993792 0.24359412621706661 0 -0.046050769949304807 0.23401196203723451 0 -0.025866468353912139 0.2289639569827632 0 -0.048126263350958612 0.25465777805589501 0 -0.033382390283993792 0.24359412621706661 0 -0.046050769949304807 0.23401196203723451 0 -0.048126263350958612 0.25465777805589501 0 -0.069221313838413207 0.24642852661517459 0 -0.046050769949304807 0.23401196203723451 0 -0.069221313838413207 0.24642852661517459 0 -0.046050769949304807 0.23401196203723451 0 -0.069221313838413207 0.24642852661517459 0 -0.046050769949304807 0.23401196203723451 0 -0.056178602179823331 0.21732906463454121 0 -0.046050769949304807 0.23401196203723451 0 -0.03692704292774221 0.2147422921961073 0 -0.025866468353912139 0.2289639569827632 0 -0.046050769949304807 0.23401196203723451 0 -0.03692704292774221 0.2147422921961073 0 -0.056178602179823331 0.21732906463454121 0 -0.03692704292774221 0.2147422921961073 0 -0.056178602179823331 0.21732906463454121 0 -0.044221089124866657 0.20193605474889509 0 -0.03692704292774221 0.2147422921961073 0 -0.044221089124866657 0.20193605474889509 0 -0.032331133115066808 0.19858524020914661 0 -0.056178602179823331 0.21732906463454121 0 -0.056949983849450658 0.19269083667038239 0 -0.044221089124866657 0.20193605474889509 0 -0.056949983849450658 0.19269083667038239 0 -0.040360849617421202 0.18777351164107661 0 -0.044221089124866657 0.20193605474889509 0 -0.040360849617421202 0.18777351164107661 0 -0.032331133115066808 0.19858524020914661 0 -0.026751027678188599 0.18229597604057349 0 -0.040360849617421202 0.18777351164107661 0 -0.044221089124866657 0.20193605474889509 0 -0.032331133115066808 0.19858524020914661 0 -0.016914194843479571 0.2076274745640635 0 -0.026751027678188599 0.18229597604057349 0 -0.032331133115066808 0.19858524020914661 0 -0.016914194843479571 0.2076274745640635 0 -0.026751027678188599 0.18229597604057349 0 -0.01405220631290922 0.19352016069679451 0 -0.016914194843479571 0.2076274745640635 0 -0.026751027678188599 0.18229597604057349 0 -0.01405220631290922 0.19352016069679451 0 -0.0012364494800765971 0.1960628175593882 0 -0.01891215499648707 0.1765136475382359 0 -0.01405220631290922 0.19352016069679451 0 -0.0012364494800765971 0.1960628175593882 0 -0.0064787008301582438 0.20475797647738719 0 -0.0012364494800765971 0.1960628175593882 0 -0.0064787008301582438 0.20475797647738719 0 0.003893562275735573 0.2064819102401671 0 -0.01405220631290922 0.19352016069679451 0 -0.0064787008301582438 0.20475797647738719 0 -0.016914194843479571 0.2076274745640635 0 -0.0045317147067566524 0.21522543551468479 0 -0.016914194843479571 0.2076274745640635 0 -0.0070773620087705444 0.23295897308755351 0 -0.0064787008301582438 0.20475797647738719 0 -0.0045317147067566524 0.21522543551468479 0 -0.016914194843479571 0.2076274745640635 0 -0.0064787008301582438 0.20475797647738719 0 -0.0045317147067566524 0.21522543551468479 0 0.003893562275735573 0.2064819102401671 0 -0.03692704292774221 0.2147422921961073 0 -0.016914194843479571 0.2076274745640635 0 -0.025866468353912139 0.2289639569827632 0 -0.03692704292774221 0.2147422921961073 0 -0.032331133115066808 0.19858524020914661 0 -0.016914194843479571 0.2076274745640635 0 -0.016914194843479571 0.2076274745640635 0 -0.025866468353912139 0.2289639569827632 0 -0.0070773620087705444 0.23295897308755351 0 -0.016914194843479571 0.2076274745640635 0 -0.0070773620087705444 0.23295897308755351 0 -0.0045317147067566524 0.21522543551468479 0 -0.0070773620087705444 0.23295897308755351 0 0.0038866256090455522 0.2239579318999283 0 -0.0070773620087705444 0.23295897308755351 0 0.001894876929373096 0.24743045501984201 0 0.0027594708259384838 0.25829047161104352 0 -0.0070773620087705444 0.23295897308755351 0 0.0027594708259384838 0.25829047161104352 0 -0.0087132352456033638 0.25173417187717928 0 -0.0070773620087705444 0.23295897308755351 0 -0.01778818590069102 0.2421293126167848 0 -0.0087132352456033638 0.25173417187717928 0 -0.0070773620087705444 0.23295897308755351 0 0.0027594708259384838 0.25829047161104352 0 -0.025866468353912139 0.2289639569827632 0 -0.0070773620087705444 0.23295897308755351 0 -0.01778818590069102 0.2421293126167848 0 -0.028053557715267439 0.25838243531431121 0 -0.033382390283993792 0.24359412621706661 0 -0.01778818590069102 0.2421293126167848 0 -0.033382390283993792 0.24359412621706661 0 -0.025866468353912139 0.2289639569827632 0 -0.01778818590069102 0.2421293126167848 0 -0.044416936009294992 0.14744373737619401 0 -0.030319635528424791 0.14770209815471691 0 -0.021396469969749188 0.1374028974533886 0 -0.044416936009294992 0.14744373737619401 0 -0.030319635528424791 0.14770209815471691 0 -0.027639103276038759 0.15537380566908321 0 -0.044416936009294992 0.14744373737619401 0 -0.038116788675066252 0.15302723042411279 0 -0.027639103276038759 0.15537380566908321 0 -0.044416936009294992 0.14744373737619401 0 -0.041458398192443832 0.13942314763129199 0 -0.021396469969749188 0.1374028974533886 0 -0.044416936009294992 0.14744373737619401 0 -0.027639103276038759 0.15537380566908321 0 -0.044416936009294992 0.14744373737619401 0 -0.021396469969749188 0.1374028974533886 0 -0.044416936009294992 0.14744373737619401 0 -0.036587860512897558 0.15696447751708351 0 -0.044416936009294992 0.14744373737619401 0 -0.047012455662473793 0.15786975055381819 0 -0.036587860512897558 0.15696447751708351 0 -0.044416936009294992 0.14744373737619401 0 -0.038116788675066252 0.15302723042411279 0 -0.036587860512897558 0.15696447751708351 0 -0.038116788675066252 0.15302723042411279 0 -0.036587860512897558 0.15696447751708351 0 -0.027639103276038759 0.15537380566908321 0 -0.038116788675066252 0.15302723042411279 0 -0.036587860512897558 0.15696447751708351 0 -0.037500573576258918 0.13069979942664511 0 -0.041458398192443832 0.13942314763129199 0 -0.021396469969749188 0.1374028974533886 0 -0.037500573576258918 0.13069979942664511 0 -0.028643554108799551 0.12806760582925611 0 -0.034668926388748328 0.1237436995229996 0 -0.037500573576258918 0.13069979942664511 0 -0.047589673205635397 0.1324549890601831 0 -0.046884900963607742 0.11986348336078891 0 -0.037500573576258918 0.13069979942664511 0 -0.041458398192443832 0.13942314763129199 0 -0.047589673205635397 0.1324549890601831 0 -0.044416936009294992 0.14744373737619401 0 -0.041458398192443832 0.13942314763129199 0 -0.047589673205635397 0.1324549890601831 0 -0.067315024607703278 0.13662092079142449 0 -0.044416936009294992 0.14744373737619401 0 -0.062016764747578973 0.12884034001808189 0 -0.044416936009294992 0.14744373737619401 0 -0.062016764747578973 0.12884034001808189 0 -0.044416936009294992 0.14744373737619401 0 -0.047589673205635397 0.1324549890601831 0 -0.062016764747578973 0.12884034001808189 0 -0.047589673205635397 0.1324549890601831 0 -0.062016764747578973 0.12884034001808189 0 -0.046884900963607742 0.11986348336078891 0 -0.067315024607703278 0.13662092079142449 0 -0.044416936009294992 0.14744373737619401 0 -0.054361576129613079 0.15178129246158931 0 -0.067315024607703278 0.13662092079142449 0 -0.044416936009294992 0.14744373737619401 0 -0.044416936009294992 0.14744373737619401 0 -0.054361576129613079 0.15178129246158931 0 -0.044416936009294992 0.14744373737619401 0 -0.054361576129613079 0.15178129246158931 0 -0.047012455662473793 0.15786975055381819 0 -0.066369438716585821 0.14892706699039879 0 -0.054361576129613079 0.15178129246158931 0 -0.057722578482997257 0.16273086802879619 0 -0.057722578482997257 0.16273086802879619 0 -0.050411583818504503 0.1777900037548745 0 -0.045636115300606919 0.16650756778262649 0 -0.054361576129613079 0.15178129246158931 0 -0.057722578482997257 0.16273086802879619 0 -0.047012455662473793 0.15786975055381819 0 -0.057722578482997257 0.16273086802879619 0 -0.047012455662473793 0.15786975055381819 0 -0.045636115300606919 0.16650756778262649 0 -0.070171110140822543 0.1782308345810468 0 -0.056949983849450658 0.19269083667038239 0 -0.050411583818504503 0.1777900037548745 0 -0.070171110140822543 0.1782308345810468 0 -0.057722578482997257 0.16273086802879619 0 -0.050411583818504503 0.1777900037548745 0 -0.056949983849450658 0.19269083667038239 0 -0.040360849617421202 0.18777351164107661 0 -0.050411583818504503 0.1777900037548745 0 -0.040360849617421202 0.18777351164107661 0 -0.050411583818504503 0.1777900037548745 0 -0.039949487385523758 0.17426630734724691 0 -0.050411583818504503 0.1777900037548745 0 -0.039949487385523758 0.17426630734724691 0 -0.045636115300606919 0.16650756778262649 0 -0.040360849617421202 0.18777351164107661 0 -0.039949487385523758 0.17426630734724691 0 -0.026751027678188599 0.18229597604057349 0 -0.039949487385523758 0.17426630734724691 0 -0.036587860512897558 0.15696447751708351 0 -0.026751027678188599 0.18229597604057349 0 -0.036587860512897558 0.15696447751708351 0 -0.026751027678188599 0.18229597604057349 0 -0.039949487385523758 0.17426630734724691 0 -0.045636115300606919 0.16650756778262649 0 -0.036587860512897558 0.15696447751708351 0 -0.047012455662473793 0.15786975055381819 0 -0.045636115300606919 0.16650756778262649 0 -0.036587860512897558 0.15696447751708351 0 -0.01891215499648707 0.1765136475382359 0 -0.010861270542782259 0.1633038739619718 0 -0.027639103276038759 0.15537380566908321 0 -0.010861270542782259 0.1633038739619718 0 -0.027639103276038759 0.15537380566908321 0 -0.036587860512897558 0.15696447751708351 0 -0.01891215499648707 0.1765136475382359 0 -0.036587860512897558 0.15696447751708351 0 -0.01891215499648707 0.1765136475382359 0 -0.027639103276038759 0.15537380566908321 0 -0.01405220631290922 0.19352016069679451 0 -0.01891215499648707 0.1765136475382359 0 -0.026751027678188599 0.18229597604057349 0 -0.036587860512897558 0.15696447751708351 0 -0.01891215499648707 0.1765136475382359 0 -0.026751027678188599 0.18229597604057349 0 -0.01891215499648707 0.1765136475382359 0 -0.010861270542782259 0.1633038739619718 0 0.00061104658230836653 0.17769045695541219 0 -0.0012364494800765971 0.1960628175593882 0 -0.01891215499648707 0.1765136475382359 0 0.00061104658230836653 0.17769045695541219 0 -0.0012364494800765971 0.1960628175593882 0 -0.01891215499648707 0.1765136475382359 0 -0.010861270542782259 0.1633038739619718 0 0.001788155555331062 0.1557637096651584 0 0.00061104658230836653 0.17769045695541219 0 -0.01542264584752753 0.14956457798035719 0 -0.015783289274076458 0.13495459563681389 0 0.001788155555331062 0.1557637096651584 0 -0.015783289274076458 0.13495459563681389 0 0.001788155555331062 0.1557637096651584 0 0.01185912902997375 0.14130758542593569 0 -0.010861270542782259 0.1633038739619718 0 -0.01542264584752753 0.14956457798035719 0 0.001788155555331062 0.1557637096651584 0 -0.015783289274076458 0.13495459563681389 0 0.001788155555331062 0.1557637096651584 0 -0.01542264584752753 0.14956457798035719 0 -0.023159931299824549 0.14839209377580129 0 -0.027639103276038759 0.15537380566908321 0 -0.010861270542782259 0.1633038739619718 0 -0.01542264584752753 0.14956457798035719 0 -0.027639103276038759 0.15537380566908321 0 -0.01542264584752753 0.14956457798035719 0 -0.023159931299824549 0.14839209377580129 0 -0.021396469969749188 0.1374028974533886 0 -0.01542264584752753 0.14956457798035719 0 -0.021396469969749188 0.1374028974533886 0 -0.015783289274076458 0.13495459563681389 0 -0.030319635528424791 0.14770209815471691 0 -0.021396469969749188 0.1374028974533886 0 -0.023159931299824549 0.14839209377580129 0 -0.030319635528424791 0.14770209815471691 0 -0.021396469969749188 0.1374028974533886 0 -0.023159931299824549 0.14839209377580129 0 -0.030319635528424791 0.14770209815471691 0 -0.027639103276038759 0.15537380566908321 0 -0.028643554108799551 0.12806760582925611 0 -0.017506847497941139 0.13291345901070739 0 -0.032144953111298558 0.1155781737325411 0 -0.037500573576258918 0.13069979942664511 0 -0.028643554108799551 0.12806760582925611 0 -0.021396469969749188 0.1374028974533886 0 -0.021396469969749188 0.1374028974533886 0 -0.015783289274076458 0.13495459563681389 0 -0.017506847497941139 0.13291345901070739 0 -0.021396469969749188 0.1374028974533886 0 -0.015783289274076458 0.13495459563681389 0 -0.021396469969749188 0.1374028974533886 0 -0.017506847497941139 0.13291345901070739 0 -0.015783289274076458 0.13495459563681389 0 -0.017506847497941139 0.13291345901070739 0 -0.028643554108799551 0.12806760582925611 0 -0.021396469969749188 0.1374028974533886 0 -0.017506847497941139 0.13291345901070739 0 -0.015783289274076458 0.13495459563681389 0 -0.017506847497941139 0.13291345901070739 0 -0.0052228475358298988 0.1187351519746004 0 -0.015783289274076458 0.13495459563681389 0 -0.0052228475358298988 0.1187351519746004 0 0.0081407562022233586 0.1245196413435004 0 -0.017506847497941139 0.13291345901070739 0 -0.0052228475358298988 0.1187351519746004 0 -0.015783289274076458 0.13495459563681389 0 0.0081407562022233586 0.1245196413435004 0 -0.0052228475358298988 0.1187351519746004 0 -0.0040597014752050652 0.1051126182356364 0 -0.02761291541641378 0.1090435214711212 0 -0.017506847497941139 0.13291345901070739 0 -0.0052228475358298988 0.1187351519746004 0 -0.019344259015361451 0.119617058157429 0 -0.0040597014752050652 0.1051126182356364 0 -0.01533391803445322 0.09737838425916874 0 0.0051087594610210148 0.080527692295617709 0 -0.0052228475358298988 0.1187351519746004 0 -0.0040597014752050652 0.1051126182356364 0 0.0092582498306486675 0.1020209346744549 0 -0.0040597014752050652 0.1051126182356364 0 -0.01533391803445322 0.09737838425916874 0 -0.02761291541641378 0.1090435214711212 0 -0.01533391803445322 0.09737838425916874 0 -0.027797722535604891 0.095528124355643507 0 -0.02761291541641378 0.1090435214711212 0 -0.0052228475358298988 0.1187351519746004 0 -0.02761291541641378 0.1090435214711212 0 -0.019344259015361451 0.119617058157429 0 -0.017506847497941139 0.13291345901070739 0 -0.019344259015361451 0.119617058157429 0 -0.032144953111298558 0.1155781737325411 0 -0.02761291541641378 0.1090435214711212 0 -0.019344259015361451 0.119617058157429 0 -0.032144953111298558 0.1155781737325411 0 -0.0052228475358298988 0.1187351519746004 0 -0.02761291541641378 0.1090435214711212 0 -0.017506847497941139 0.13291345901070739 0 -0.032144953111298558 0.1155781737325411 0 -0.0012292332505543029 0.06378464068123596 0 -0.011084303888442551 0.081696622097620714 0 -0.018620569400409771 0.06708533464306303 0 -0.0012292332505543029 0.06378464068123596 0 -0.011084303888442551 0.081696622097620714 0 0.0051087594610210148 0.080527692295617709 0 -0.01533391803445322 0.09737838425916874 0 -0.011084303888442551 0.081696622097620714 0 0.0051087594610210148 0.080527692295617709 0 -0.01533391803445322 0.09737838425916874 0 0.0051087594610210148 0.080527692295617709 0 -0.011084303888442551 0.081696622097620714 0 0.0051087594610210148 0.080527692295617709 0 -0.027797722535604891 0.095528124355643507 0 -0.011084303888442551 0.081696622097620714 0 -0.032921925083363349 0.0833654898886593 0 -0.01533391803445322 0.09737838425916874 0 -0.027797722535604891 0.095528124355643507 0 -0.011084303888442551 0.081696622097620714 0 -0.018620569400409771 0.06708533464306303 0 -0.031868141831282552 0.069818555696904067 0 -0.028283535649973771 0.053358049395037133 0 -0.018620569400409771 0.06708533464306303 0 -0.031868141831282552 0.069818555696904067 0 -0.032921925083363349 0.0833654898886593 0 -0.011084303888442551 0.081696622097620714 0 -0.018620569400409771 0.06708533464306303 0 -0.032921925083363349 0.0833654898886593 0 -0.046276495737503101 0.06795068115397529 0 -0.032921925083363349 0.0833654898886593 0 -0.055882409073029139 0.082732437330199013 0 -0.046276495737503101 0.06795068115397529 0 -0.031868141831282552 0.069818555696904067 0 -0.028283535649973771 0.053358049395037133 0 -0.046276495737503101 0.06795068115397529 0 -0.031868141831282552 0.069818555696904067 0 -0.032921925083363349 0.0833654898886593 0 -0.027797722535604891 0.095528124355643507 0 -0.032921925083363349 0.0833654898886593 0 -0.050002983296997462 0.099351890967641507 0 -0.032921925083363349 0.0833654898886593 0 -0.055882409073029139 0.082732437330199013 0 -0.050002983296997462 0.099351890967641507 0 -0.055882409073029139 0.082732437330199013 0 -0.050002983296997462 0.099351890967641507 0 -0.072393051177581158 0.089660260464161839 0 -0.046276495737503101 0.06795068115397529 0 -0.055882409073029139 0.082732437330199013 0 -0.062589921296568873 0.06642957971461419 0 -0.032144953111298558 0.1155781737325411 0 -0.050002983296997462 0.099351890967641507 0 -0.046884900963607742 0.11986348336078891 0 -0.037500573576258918 0.13069979942664511 0 -0.034668926388748328 0.1237436995229996 0 -0.046884900963607742 0.11986348336078891 0 -0.028643554108799551 0.12806760582925611 0 -0.034668926388748328 0.1237436995229996 0 -0.032144953111298558 0.1155781737325411 0 -0.034668926388748328 0.1237436995229996 0 -0.032144953111298558 0.1155781737325411 0 -0.046884900963607742 0.11986348336078891 0 -0.027797722535604891 0.095528124355643507 0 -0.02761291541641378 0.1090435214711212 0 -0.050002983296997462 0.099351890967641507 0 -0.02761291541641378 0.1090435214711212 0 -0.050002983296997462 0.099351890967641507 0 -0.02761291541641378 0.1090435214711212 0 -0.032144953111298558 0.1155781737325411 0 -0.050002983296997462 0.099351890967641507 0 -0.050002983296997462 0.099351890967641507 0 -0.072393051177581158 0.089660260464161839 0 -0.050002983296997462 0.099351890967641507 0 -0.062115440392200259 0.1100516779477724 0 -0.072393051177581158 0.089660260464161839 0 -0.062016764747578973 0.12884034001808189 0 -0.062115440392200259 0.1100516779477724 0 -0.046884900963607742 0.11986348336078891 0 -0.050002983296997462 0.099351890967641507 0 -0.062115440392200259 0.1100516779477724 0 -0.046884900963607742 0.11986348336078891 0 -0.062016764747578973 0.12884034001808189 0 -0.062115440392200259 0.1100516779477724 0 -0.07825578499994286 0.1108801308713713 0 -0.062016764747578973 0.12884034001808189 0 -0.07825578499994286 0.1108801308713713 0 -0.062016764747578973 0.12884034001808189 0 -0.075786521408142987 0.12443322189858901 0 -0.07825578499994286 0.1108801308713713 0 -0.088852304720190942 0.12644129241805541 0 -0.075786521408142987 0.12443322189858901 0 -0.083719546898917335 0.119699814685821 0 -0.083719546898917335 0.119699814685821 0 -0.07825578499994286 0.1108801308713713 0 -0.093946486761182085 0.1175508364221631 0 -0.075786521408142987 0.12443322189858901 0 -0.083719546898917335 0.119699814685821 0 -0.07825578499994286 0.1108801308713713 0 -0.088852304720190942 0.12644129241805541 0 -0.083719546898917335 0.119699814685821 0 -0.093946486761182085 0.1175508364221631 0 -0.07825578499994286 0.1108801308713713 0 -0.072393051177581158 0.089660260464161839 0 -0.094494805252306774 0.092919921724660626 0 -0.07825578499994286 0.1108801308713713 0 -0.094494805252306774 0.092919921724660626 0 -0.093946486761182085 0.1175508364221631 0 -0.07825578499994286 0.1108801308713713 0 -0.094494805252306774 0.092919921724660626 0 -0.062115440392200259 0.1100516779477724 0 -0.07825578499994286 0.1108801308713713 0 -0.072393051177581158 0.089660260464161839 0 -0.055882409073029139 0.082732437330199013 0 -0.072393051177581158 0.089660260464161839 0 -0.062589921296568873 0.06642957971461419 0 -0.072393051177581158 0.089660260464161839 0 -0.062589921296568873 0.06642957971461419 0 -0.079461892795990779 0.070449194571112136 0 -0.062589921296568873 0.06642957971461419 0 -0.079461892795990779 0.070449194571112136 0 -0.072380178782229632 0.053292134703331731 0 -0.079461892795990779 0.070449194571112136 0 -0.094783119058163612 0.079968629960679383 0 -0.095163193665411511 0.062895368012773595 0 -0.072393051177581158 0.089660260464161839 0 -0.079461892795990779 0.070449194571112136 0 -0.094783119058163612 0.079968629960679383 0 -0.072393051177581158 0.089660260464161839 0 -0.094494805252306774 0.092919921724660626 0 -0.094783119058163612 0.079968629960679383 0 -0.072393051177581158 0.089660260464161839 0 -0.094783119058163612 0.079968629960679383 0 -0.094494805252306774 0.092919921724660626 0 -0.1072570836689255 0.074569224449017327 0 -0.1143352617609841 0.070976556735617355 0 -0.094494805252306774 0.092919921724660626 0 -0.094783119058163612 0.079968629960679383 0 -0.1072570836689255 0.074569224449017327 0 -0.094494805252306774 0.092919921724660626 0 -0.094783119058163612 0.079968629960679383 0 -0.094494805252306774 0.092919921724660626 0 -0.1143352617609841 0.070976556735617355 0 -0.11134444788944529 0.091345452974062963 0 -0.094494805252306774 0.092919921724660626 0 -0.1143352617609841 0.070976556735617355 0 -0.094783119058163612 0.079968629960679383 0 -0.095163193665411511 0.062895368012773595 0 -0.094783119058163612 0.079968629960679383 0 -0.095163193665411511 0.062895368012773595 0 -0.1072570836689255 0.074569224449017327 0 -0.095163193665411511 0.062895368012773595 0 -0.1143352617609841 0.070976556735617355 0 -0.1079186055395126 0.059947093390224047 0 -0.095163193665411511 0.062895368012773595 0 -0.1072570836689255 0.074569224449017327 0 -0.1143352617609841 0.070976556735617355 0 -0.095163193665411511 0.062895368012773595 0 -0.1143352617609841 0.070976556735617355 0 -0.094783119058163612 0.079968629960679383 0 -0.1072570836689255 0.074569224449017327 0 -0.1131683311422218 0.062814464837820119 0 -0.1163519950294771 0.068746068028026575 0 -0.1143352617609841 0.070976556735617355 0 -0.1131683311422218 0.062814464837820119 0 -0.1143352617609841 0.070976556735617355 0 -0.1079186055395126 0.059947093390224047 0 -0.1131683311422218 0.062814464837820119 0 -0.1163519950294771 0.068746068028026575 0 -0.1185872066977806 0.063729502839677182 0 -0.1163519950294771 0.068746068028026575 0 -0.1143352617609841 0.070976556735617355 0 -0.12697985749263241 0.07630636069427757 0 -0.1143352617609841 0.070976556735617355 0 -0.12697985749263241 0.07630636069427757 0 -0.1143352617609841 0.070976556735617355 0 -0.1200161930876608 0.081776906418299489 0 -0.12697985749263241 0.07630636069427757 0 -0.1163519950294771 0.068746068028026575 0 -0.1143352617609841 0.070976556735617355 0 -0.12697985749263241 0.07630636069427757 0 -0.12509646681095879 0.065597408261105467 0 -0.1163519950294771 0.068746068028026575 0 -0.12509646681095879 0.065597408261105467 0 -0.1163519950294771 0.068746068028026575 0 -0.1185872066977806 0.063729502839677182 0 -0.13359630628803579 0.098968800084119873 0 -0.12697672020224329 0.087309090757334687 0 -0.11134444788944529 0.091345452974062963 0 -0.1143352617609841 0.070976556735617355 0 -0.11134444788944529 0.091345452974062963 0 -0.1200161930876608 0.081776906418299489 0 -0.12697672020224329 0.087309090757334687 0 -0.11134444788944529 0.091345452974062963 0 -0.1200161930876608 0.081776906418299489 0 -0.12697672020224329 0.087309090757334687 0 -0.12697985749263241 0.07630636069427757 0 -0.1200161930876608 0.081776906418299489 0 -0.12607259725238279 0.11330641960449821 0 -0.13359630628803579 0.098968800084119873 0 -0.11123038207674001 0.1082681122756106 0 -0.13359630628803579 0.098968800084119873 0 -0.11134444788944529 0.091345452974062963 0 -0.11123038207674001 0.1082681122756106 0 -0.13359630628803579 0.098968800084119873 0 -0.11123038207674001 0.1082681122756106 0 -0.11134444788944529 0.091345452974062963 0 -0.11123038207674001 0.1082681122756106 0 -0.1057361510920251 0.099277959283072717 0 -0.12607259725238279 0.11330641960449821 0 -0.11123038207674001 0.1082681122756106 0 -0.11706151063611089 0.1208882391850464 0 -0.12607259725238279 0.11330641960449821 0 -0.12916618827146031 0.12390190950899049 0 -0.11706151063611089 0.1208882391850464 0 -0.11473911200363 0.13153944404780621 0 -0.11706151063611089 0.1208882391850464 0 -0.10601879130899509 0.12208205668825579 0 -0.1036345166478785 0.1154037657297244 0 -0.093946486761182085 0.1175508364221631 0 -0.097511277885226108 0.1010939306234323 0 -0.11123038207674001 0.1082681122756106 0 -0.11706151063611089 0.1208882391850464 0 -0.097511277885226108 0.1010939306234323 0 -0.11706151063611089 0.1208882391850464 0 -0.1036345166478785 0.1154037657297244 0 -0.097511277885226108 0.1010939306234323 0 -0.11706151063611089 0.1208882391850464 0 -0.097511277885226108 0.1010939306234323 0 -0.11706151063611089 0.1208882391850464 0 -0.1036345166478785 0.1154037657297244 0 -0.10601879130899509 0.12208205668825579 0 -0.1039338124667491 0.13009472872812991 0 -0.10601879130899509 0.12208205668825579 0 -0.093946486761182085 0.1175508364221631 0 -0.1036345166478785 0.1154037657297244 0 -0.10601879130899509 0.12208205668825579 0 -0.093946486761182085 0.1175508364221631 0 -0.094494805252306774 0.092919921724660626 0 -0.11134444788944529 0.091345452974062963 0 -0.1057361510920251 0.099277959283072717 0 -0.094494805252306774 0.092919921724660626 0 -0.093946486761182085 0.1175508364221631 0 -0.094494805252306774 0.092919921724660626 0 -0.093946486761182085 0.1175508364221631 0 -0.097511277885226108 0.1010939306234323 0 -0.094494805252306774 0.092919921724660626 0 -0.097511277885226108 0.1010939306234323 0 -0.1057361510920251 0.099277959283072717 0 -0.11123038207674001 0.1082681122756106 0 -0.097511277885226108 0.1010939306234323 0 -0.1057361510920251 0.099277959283072717 0 -0.1001339578063882 0.022436777626384768 0 -0.09536928659882779 0.01424719335382847 0 -0.1128440433065038 0.01636018592503535 0 -0.1001339578063882 0.022436777626384768 0 -0.1128440433065038 0.01636018592503535 0 -0.1012358460944251 0.033108064834657697 0 -0.1128440433065038 0.01636018592503535 0 -0.11393466639619521 0.035004472642448957 0 -0.1012358460944251 0.033108064834657697 0 -0.1128440433065038 0.01636018592503535 0 -0.1012358460944251 0.033108064834657697 0 -0.1001339578063882 0.022436777626384768 0 -0.1012358460944251 0.033108064834657697 0 -0.091086655225796079 0.026031666392017531 0 -0.1001339578063882 0.022436777626384768 0 -0.09536928659882779 0.01424719335382847 0 -0.091086655225796079 0.026031666392017531 0 -0.10394313851700079 0.0020556251079679459 0 -0.09536928659882779 0.01424719335382847 0 -0.085958893623968774 0.001514634656162053 0 -0.10394313851700079 0.0020556251079679459 0 -0.09536928659882779 0.01424719335382847 0 -0.1128440433065038 0.01636018592503535 0 -0.1244522405185825 -0.00038769298458709092 0 -0.12424451236807239 0.027069144312366941 0 -0.1244522405185825 -0.00038769298458709092 0 -0.1128440433065038 0.01636018592503535 0 -0.12424451236807239 0.027069144312366941 0 -0.1244522405185825 -0.00038769298458709092 0 -0.1128440433065038 0.01636018592503535 0 -0.1244522405185825 -0.00038769298458709092 0 -0.10394313851700079 0.0020556251079679459 0 -0.1128440433065038 0.01636018592503535 0 -0.1128440433065038 0.01636018592503535 0 -0.12424451236807239 0.027069144312366941 0 -0.11393466639619521 0.035004472642448957 0 -0.12424451236807239 0.027069144312366941 0 -0.12075472355362291 0.04122338309529356 0 -0.11393466639619521 0.035004472642448957 0 -0.12075472355362291 0.04122338309529356 0 -0.1244920148619628 0.050381604022983993 0 -0.1151670195775447 0.0482238646449 0 -0.11393466639619521 0.035004472642448957 0 -0.1151670195775447 0.0482238646449 0 -0.10635909785250069 0.04125385698526951 0 -0.12075472355362291 0.04122338309529356 0 -0.11393466639619521 0.035004472642448957 0 -0.1151670195775447 0.0482238646449 0 -0.12509646681095879 0.065597408261105467 0 -0.1185872066977806 0.063729502839677182 0 -0.1197320338084647 0.057760070231756527 0 -0.1197320338084647 0.057760070231756527 0 -0.1244920148619628 0.050381604022983993 0 -0.1151670195775447 0.0482238646449 0 -0.1151670195775447 0.0482238646449 0 -0.1125210466915524 0.054978807834542787 0 -0.1051700993263314 0.050476507920077678 0 -0.1197320338084647 0.057760070231756527 0 -0.1151670195775447 0.0482238646449 0 -0.1125210466915524 0.054978807834542787 0 -0.1131683311422218 0.062814464837820119 0 -0.1197320338084647 0.057760070231756527 0 -0.1125210466915524 0.054978807834542787 0 -0.1131683311422218 0.062814464837820119 0 -0.1125210466915524 0.054978807834542787 0 -0.1079186055395126 0.059947093390224047 0 -0.1131683311422218 0.062814464837820119 0 -0.1185872066977806 0.063729502839677182 0 -0.1197320338084647 0.057760070231756527 0 -0.095163193665411511 0.062895368012773595 0 -0.1051700993263314 0.050476507920077678 0 -0.095336714328198874 0.041619114628837717 0 -0.095163193665411511 0.062895368012773595 0 -0.095336714328198874 0.041619114628837717 0 -0.1125210466915524 0.054978807834542787 0 -0.1079186055395126 0.059947093390224047 0 -0.1051700993263314 0.050476507920077678 0 -0.095163193665411511 0.062895368012773595 0 -0.1079186055395126 0.059947093390224047 0 -0.1051700993263314 0.050476507920077678 0 -0.11393466639619521 0.035004472642448957 0 -0.10635909785250069 0.04125385698526951 0 -0.1012358460944251 0.033108064834657697 0 -0.1051700993263314 0.050476507920077678 0 -0.10635909785250069 0.04125385698526951 0 -0.095336714328198874 0.041619114628837717 0 -0.1151670195775447 0.0482238646449 0 -0.1051700993263314 0.050476507920077678 0 -0.10635909785250069 0.04125385698526951 0 -0.095336714328198874 0.041619114628837717 0 -0.1012358460944251 0.033108064834657697 0 -0.08853862327275358 0.036894035852943478 0 -0.10635909785250069 0.04125385698526951 0 -0.095336714328198874 0.041619114628837717 0 -0.1012358460944251 0.033108064834657697 0 -0.095336714328198874 0.041619114628837717 0 -0.1012358460944251 0.033108064834657697 0 -0.1012358460944251 0.033108064834657697 0 -0.08853862327275358 0.036894035852943478 0 -0.091086655225796079 0.026031666392017531 0 -0.08853862327275358 0.036894035852943478 0 -0.081088353484909961 0.032020518526829703 0 -0.091086655225796079 0.026031666392017531 0 -0.08853862327275358 0.036894035852943478 0 -0.079654612676290371 0.043453985766932421 0 -0.089627648882346422 0.049855943744280047 0 -0.095336714328198874 0.041619114628837717 0 -0.08853862327275358 0.036894035852943478 0 -0.089627648882346422 0.049855943744280047 0 -0.095336714328198874 0.041619114628837717 0 -0.089627648882346422 0.049855943744280047 0 -0.08853862327275358 0.036894035852943478 0 -0.079654612676290371 0.043453985766932421 0 -0.081088353484909961 0.032020518526829703 0 -0.095163193665411511 0.062895368012773595 0 -0.089627648882346422 0.049855943744280047 0 -0.072380178782229632 0.053292134703331731 0 -0.095163193665411511 0.062895368012773595 0 -0.095336714328198874 0.041619114628837717 0 -0.089627648882346422 0.049855943744280047 0 -0.095163193665411511 0.062895368012773595 0 -0.072380178782229632 0.053292134703331731 0 -0.079461892795990779 0.070449194571112136 0 -0.095163193665411511 0.062895368012773595 0 -0.072380178782229632 0.053292134703331731 0 -0.079654612676290371 0.043453985766932421 0 -0.089627648882346422 0.049855943744280047 0 -0.072380178782229632 0.053292134703331731 0 -0.079654612676290371 0.043453985766932421 0 -0.072380178782229632 0.053292134703331731 0 -0.065785112224924183 0.037111289768743512 0 -0.072380178782229632 0.053292134703331731 0 -0.065785112224924183 0.037111289768743512 0 -0.049597163899048183 0.043688901393888827 0 -0.079654612676290371 0.043453985766932421 0 -0.081088353484909961 0.032020518526829703 0 -0.065785112224924183 0.037111289768743512 0 -0.081088353484909961 0.032020518526829703 0 -0.065785112224924183 0.037111289768743512 0 -0.069646162847898541 0.026335067629459381 0 -0.069646162847898541 0.026335067629459381 0 -0.076118231742993758 0.01527396050979404 0 -0.05559295393876626 0.02093450171247024 0 -0.065785112224924183 0.037111289768743512 0 -0.069646162847898541 0.026335067629459381 0 -0.05559295393876626 0.02093450171247024 0 -0.081088353484909961 0.032020518526829703 0 -0.069646162847898541 0.026335067629459381 0 -0.076118231742993758 0.01527396050979404 0 -0.081088353484909961 0.032020518526829703 0 -0.091086655225796079 0.026031666392017531 0 -0.076118231742993758 0.01527396050979404 0 -0.09536928659882779 0.01424719335382847 0 -0.091086655225796079 0.026031666392017531 0 -0.076118231742993758 0.01527396050979404 0 -0.09536928659882779 0.01424719335382847 0 -0.085958893623968774 0.001514634656162053 0 -0.076118231742993758 0.01527396050979404 0 -0.076118231742993758 0.01527396050979404 0 -0.065648076432031049 0.00090955339710942099 0 -0.05559295393876626 0.02093450171247024 0 -0.085958893623968774 0.001514634656162053 0 -0.076118231742993758 0.01527396050979404 0 -0.065648076432031049 0.00090955339710942099 0 -0.045118160941850949 -0.00049033847668307538 0 -0.065648076432031049 0.00090955339710942099 0 -0.05559295393876626 0.02093450171247024 0 -0.05559295393876626 0.02093450171247024 0 -0.041197297059898302 0.028587588038626519 0 -0.049597163899048183 0.043688901393888827 0 -0.05559295393876626 0.02093450171247024 0 -0.032784921385912158 0.01564128096370114 0 -0.041197297059898302 0.028587588038626519 0 -0.032784921385912158 0.01564128096370114 0 -0.041197297059898302 0.028587588038626519 0 -0.02681414901586664 0.034085668084445887 0 -0.045118160941850949 -0.00049033847668307538 0 -0.05559295393876626 0.02093450171247024 0 -0.032784921385912158 0.01564128096370114 0 -0.045118160941850949 -0.00049033847668307538 0 -0.027025641752002061 -0.0079319500279313396 0 -0.032784921385912158 0.01564128096370114 0 -0.062589921296568873 0.06642957971461419 0 -0.072380178782229632 0.053292134703331731 0 -0.049597163899048183 0.043688901393888827 0 -0.046276495737503101 0.06795068115397529 0 -0.062589921296568873 0.06642957971461419 0 -0.049597163899048183 0.043688901393888827 0 -0.072380178782229632 0.053292134703331731 0 -0.049597163899048183 0.043688901393888827 0 -0.065785112224924183 0.037111289768743512 0 -0.05559295393876626 0.02093450171247024 0 -0.049597163899048183 0.043688901393888827 0 -0.049597163899048183 0.043688901393888827 0 -0.02681414901586664 0.034085668084445887 0 -0.041197297059898302 0.028587588038626519 0 -0.049597163899048183 0.043688901393888827 0 -0.02681414901586664 0.034085668084445887 0 -0.049597163899048183 0.043688901393888827 0 -0.028283535649973771 0.053358049395037133 0 -0.02681414901586664 0.034085668084445887 0 -0.046276495737503101 0.06795068115397529 0 -0.028283535649973771 0.053358049395037133 0 -0.046276495737503101 0.06795068115397529 0 -0.049597163899048183 0.043688901393888827 0 -0.028283535649973771 0.053358049395037133 0 -0.028283535649973771 0.053358049395037133 0 -0.010290575562444429 0.038765417636098962 0 -0.0097640400442320502 0.053032197103308337 0 -0.018620569400409771 0.06708533464306303 0 -0.028283535649973771 0.053358049395037133 0 -0.0097640400442320502 0.053032197103308337 0 -0.028283535649973771 0.053358049395037133 0 -0.010290575562444429 0.038765417636098962 0 -0.02681414901586664 0.034085668084445887 0 -0.010290575562444429 0.038765417636098962 0 -0.020835528804160591 0.022374223573919171 0 -0.028283535649973771 0.053358049395037133 0 -0.02681414901586664 0.034085668084445887 0 -0.010290575562444429 0.038765417636098962 0 -0.010290575562444429 0.038765417636098962 0 0.0077023845250848884 0.024172785877160811 0 -0.010290575562444429 0.038765417636098962 0 -0.0034349793211087142 0.044893397967285961 0 0.0047272217829380687 0.036246676438490527 0 -0.010290575562444429 0.038765417636098962 0 -0.0034349793211087142 0.044893397967285961 0 -0.0097640400442320502 0.053032197103308337 0 -0.0012292332505543029 0.06378464068123596 0 -0.018620569400409771 0.06708533464306303 0 -0.0097640400442320502 0.053032197103308337 0 -0.0034349793211087142 0.044893397967285961 0 -0.0097640400442320502 0.053032197103308337 0 0.0015874765393035599 0.051529300691246019 0 -0.0012292332505543029 0.06378464068123596 0 -0.0097640400442320502 0.053032197103308337 0 0.0015874765393035599 0.051529300691246019 0 -0.027025641752002061 -0.0079319500279313396 0 -0.032784921385912158 0.01564128096370114 0 -0.01566814095190756 0.010235570601176981 0 -0.032784921385912158 0.01564128096370114 0 -0.02681414901586664 0.034085668084445887 0 -0.020835528804160591 0.022374223573919171 0 -0.032784921385912158 0.01564128096370114 0 -0.01566814095190756 0.010235570601176981 0 -0.020835528804160591 0.022374223573919171 0 -0.010290575562444429 0.038765417636098962 0 -0.020835528804160591 0.022374223573919171 0 -0.0077262750329500059 0.02266504195052366 0 -0.01566814095190756 0.010235570601176981 0 -0.020835528804160591 0.022374223573919171 0 -0.0077262750329500059 0.02266504195052366 0 -0.010290575562444429 0.038765417636098962 0 -0.0077262750329500059 0.02266504195052366 0 0.0077023845250848884 0.024172785877160811 0 -0.0091716063734174208 -0.003332990253060792 0 -0.01566814095190756 0.010235570601176981 0 0.001118487675879971 0.0096665619175221752 0 -0.0091716063734174208 -0.003332990253060792 0 0.001118487675879971 0.0096665619175221752 0 0.006935528729737548 -0.0054826371559186567 0 -0.01566814095190756 0.010235570601176981 0 -0.0077262750329500059 0.02266504195052366 0 0.001118487675879971 0.0096665619175221752 0 0.001118487675879971 0.0096665619175221752 0 0.0077023845250848884 0.024172785877160811 0 0.025695344612614111 0.0095801541182225364 0 0.001118487675879971 0.0096665619175221752 0 0.025695344612614111 0.0095801541182225364 0 0.006935528729737548 -0.0054826371559186567 0 -0.0077262750329500059 0.02266504195052366 0 0.001118487675879971 0.0096665619175221752 0 0.0077023845250848884 0.024172785877160811 0 0.0077023845250848884 0.024172785877160811 0 0.024648998497944961 0.02642224341189468 0 0.015911730558903318 0.034762274935307848 0 0.024648998497944961 0.02642224341189468 0 0.025695344612614111 0.0095801541182225364 0 0.038363400138324961 0.019751697241263279 0 0.0077023845250848884 0.024172785877160811 0 0.024648998497944961 0.02642224341189468 0 0.025695344612614111 0.0095801541182225364 0 0.0077023845250848884 0.024172785877160811 0 0.025695344612614111 0.0095801541182225364 0 0.025695344612614111 0.0095801541182225364 0 0.006935528729737548 -0.0054826371559186567 0 0.01459521235494949 0.061710637509134872 0 0.0047272217829380687 0.036246676438490527 0 -0.0012292332505543029 0.06378464068123596 0 0.01459521235494949 0.061710637509134872 0 0.0015874765393035599 0.051529300691246019 0 0.01459521235494949 0.061710637509134872 0 0.0015874765393035599 0.051529300691246019 0 0.0047272217829380687 0.036246676438490527 0 0.01459521235494949 0.061710637509134872 0 0.0047272217829380687 0.036246676438490527 0 0.016570281580619739 0.045526930476817662 0 -0.010290575562444429 0.038765417636098962 0 0.0077023845250848884 0.024172785877160811 0 0.0047272217829380687 0.036246676438490527 0 -0.0034349793211087142 0.044893397967285961 0 0.0015874765393035599 0.051529300691246019 0 0.0047272217829380687 0.036246676438490527 0 0.0047272217829380687 0.036246676438490527 0 0.015911730558903318 0.034762274935307848 0 0.016570281580619739 0.045526930476817662 0 0.0077023845250848884 0.024172785877160811 0 0.0047272217829380687 0.036246676438490527 0 0.015911730558903318 0.034762274935307848 0 0.024648998497944961 0.02642224341189468 0 0.015911730558903318 0.034762274935307848 0 0.025892041879535671 0.039420421904702428 0 0.024648998497944961 0.02642224341189468 0 0.025892041879535671 0.039420421904702428 0 0.038236142792751733 0.035111405712831077 0 0.015911730558903318 0.034762274935307848 0 0.025892041879535671 0.039420421904702428 0 0.016570281580619739 0.045526930476817662 0 0.025892041879535671 0.039420421904702428 0 0.016570281580619739 0.045526930476817662 0 0.021716339062575678 0.05448348331271597 0 0.01459521235494949 0.061710637509134872 0 0.016570281580619739 0.045526930476817662 0 0.021716339062575678 0.05448348331271597 0 0.01459521235494949 0.061710637509134872 0 0.021716339062575678 0.05448348331271597 0 0.030459386295035529 0.05963142741263059 0 0.01459521235494949 0.061710637509134872 0 0.030459386295035529 0.05963142741263059 0 0.021716339062575678 0.05448348331271597 0 0.030459386295035529 0.05963142741263059 0 0.032703710623893968 0.046893395464013943 0 0.025892041879535671 0.039420421904702428 0 0.021716339062575678 0.05448348331271597 0 0.032703710623893968 0.046893395464013943 0 0.030459386295035529 0.05963142741263059 0 0.032703710623893968 0.046893395464013943 0 0.047214643089571059 0.045820238977188371 0 0.030459386295035529 0.05963142741263059 0 0.04797297407010033 0.057336039788577382 0 0.030459386295035529 0.05963142741263059 0 0.04797297407010033 0.057336039788577382 0 0.027635028654909001 0.06907575978797427 0 0.030459386295035529 0.05963142741263059 0 0.047214643089571059 0.045820238977188371 0 0.04797297407010033 0.057336039788577382 0 0.030459386295035529 0.05963142741263059 0 0.047214643089571059 0.045820238977188371 0 0.038236142792751733 0.035111405712831077 0 0.047214643089571059 0.045820238977188371 0 0.051031455664035288 0.029923240364304559 0 0.032703710623893968 0.046893395464013943 0 0.038236142792751733 0.035111405712831077 0 0.047214643089571059 0.045820238977188371 0 0.025892041879535671 0.039420421904702428 0 0.032703710623893968 0.046893395464013943 0 0.038236142792751733 0.035111405712831077 0 0.062359133547200143 0.040731400683572692 0 0.047214643089571059 0.045820238977188371 0 0.063969899884107562 0.032009050541747332 0 0.047214643089571059 0.045820238977188371 0 0.063969899884107562 0.032009050541747332 0 0.047214643089571059 0.045820238977188371 0 0.051031455664035288 0.029923240364304559 0 0.063969899884107562 0.032009050541747332 0 0.062359133547200143 0.040731400683572692 0 0.04797297407010033 0.057336039788577382 0 0.072379857481358154 0.054137194478101919 0 0.04797297407010033 0.057336039788577382 0 0.072379857481358154 0.054137194478101919 0 0.062359133547200143 0.040731400683572692 0 0.04797297407010033 0.057336039788577382 0 0.062359133547200143 0.040731400683572692 0 0.047214643089571059 0.045820238977188371 0 0.04797297407010033 0.057336039788577382 0 0.04797297407010033 0.057336039788577382 0 0.072379857481358154 0.054137194478101919 0 0.06072113176624426 0.066105246874810966 0 0.040835927619124697 0.0088703260301804514 0 0.038363400138324961 0.019751697241263279 0 0.051939500327619889 0.017318508583630769 0 0.040835927619124697 0.0088703260301804514 0 0.046640351189982193 0.001482106492276504 0 0.040314465242246092 -0.002276229875846851 0 0.025695344612614111 0.0095801541182225364 0 0.040314465242246092 -0.002276229875846851 0 0.025695344612614111 0.0095801541182225364 0 0.040835927619124697 0.0088703260301804514 0 0.040314465242246092 -0.002276229875846851 0 0.025695344612614111 0.0095801541182225364 0 0.040835927619124697 0.0088703260301804514 0 0.038363400138324961 0.019751697241263279 0 0.025695344612614111 0.0095801541182225364 0 0.038363400138324961 0.019751697241263279 0 0.024648998497944961 0.02642224341189468 0 0.038236142792751733 0.035111405712831077 0 0.038363400138324961 0.019751697241263279 0 0.038363400138324961 0.019751697241263279 0 0.051031455664035288 0.029923240364304559 0 0.038236142792751733 0.035111405712831077 0 0.038363400138324961 0.019751697241263279 0 0.051031455664035288 0.029923240364304559 0 0.038363400138324961 0.019751697241263279 0 0.051939500327619889 0.017318508583630769 0 0.051031455664035288 0.029923240364304559 0 0.051031455664035288 0.029923240364304559 0 0.062107590562420073 0.0228568457980407 0 0.063969899884107562 0.032009050541747332 0 0.051939500327619889 0.017318508583630769 0 0.062107590562420073 0.0228568457980407 0 0.064696567818308529 0.01472149906873369 0 0.051939500327619889 0.017318508583630769 0 0.051031455664035288 0.029923240364304559 0 0.062107590562420073 0.0228568457980407 0 0.055514373943813228 0.0067304088365214816 0 0.075461568133428525 0.0044331687040122013 0 0.049896637954744763 -0.0073960790217490677 0 0.051939500327619889 0.017318508583630769 0 0.055514373943813228 0.0067304088365214816 0 0.064696567818308529 0.01472149906873369 0 0.040835927619124697 0.0088703260301804514 0 0.051939500327619889 0.017318508583630769 0 0.055514373943813228 0.0067304088365214816 0 0.046640351189982193 0.001482106492276504 0 0.055514373943813228 0.0067304088365214816 0 0.049896637954744763 -0.0073960790217490677 0 0.040835927619124697 0.0088703260301804514 0 0.046640351189982193 0.001482106492276504 0 0.055514373943813228 0.0067304088365214816 0 0.075461568133428525 0.0044331687040122013 0 0.064696567818308529 0.01472149906873369 0 0.08072515667864405 0.018197862106306289 0 0.055514373943813228 0.0067304088365214816 0 0.075461568133428525 0.0044331687040122013 0 0.064696567818308529 0.01472149906873369 0 0.075461568133428525 0.0044331687040122013 0 0.1010264983121123 0.016262416429773479 0 0.075461568133428525 0.0044331687040122013 0 0.1010264983121123 0.016262416429773479 0 0.098011391193308373 -0.0056982583262641584 0 0.075461568133428525 0.0044331687040122013 0 0.08072515667864405 0.018197862106306289 0 0.1010264983121123 0.016262416429773479 0 0.088041666307225416 0.02743399724937181 0 0.08072515667864405 0.018197862106306289 0 0.1010264983121123 0.016262416429773479 0 0.088041666307225416 0.02743399724937181 0 0.08072515667864405 0.018197862106306289 0 0.076745293024301803 0.02412676157856956 0 0.088041666307225416 0.02743399724937181 0 0.076745293024301803 0.02412676157856956 0 0.082258845210710349 0.03253561428057717 0 0.08072515667864405 0.018197862106306289 0 0.076745293024301803 0.02412676157856956 0 0.063969899884107562 0.032009050541747332 0 0.062107590562420073 0.0228568457980407 0 0.064696567818308529 0.01472149906873369 0 0.08072515667864405 0.018197862106306289 0 0.08072515667864405 0.018197862106306289 0 0.063969899884107562 0.032009050541747332 0 0.062107590562420073 0.0228568457980407 0 0.08072515667864405 0.018197862106306289 0 0.063969899884107562 0.032009050541747332 0 0.062359133547200143 0.040731400683572692 0 0.076745293024301803 0.02412676157856956 0 0.062359133547200143 0.040731400683572692 0 0.076745293024301803 0.02412676157856956 0 0.076375628159171968 0.038405412939545532 0 0.062359133547200143 0.040731400683572692 0 0.076745293024301803 0.02412676157856956 0 0.063969899884107562 0.032009050541747332 0 0.062359133547200143 0.040731400683572692 0 0.076375628159171968 0.038405412939545532 0 0.072379857481358154 0.054137194478101919 0 0.072379857481358154 0.054137194478101919 0 0.087872793352142223 0.040176285354821803 0 0.096786740892615686 0.050938349167624693 0 0.072379857481358154 0.054137194478101919 0 0.096786740892615686 0.050938349167624693 0 0.072379857481358154 0.054137194478101919 0 0.096786740892615686 0.050938349167624693 0 0.089592915186254174 0.067390154600646832 0 0.076375628159171968 0.038405412939545532 0 0.072379857481358154 0.054137194478101919 0 0.087872793352142223 0.040176285354821803 0 0.076375628159171968 0.038405412939545532 0 0.082258845210710349 0.03253561428057717 0 0.087872793352142223 0.040176285354821803 0 0.076745293024301803 0.02412676157856956 0 0.076375628159171968 0.038405412939545532 0 0.082258845210710349 0.03253561428057717 0 0.088041666307225416 0.02743399724937181 0 0.087872793352142223 0.040176285354821803 0 0.098246025398924644 0.032379674771496843 0 0.088041666307225416 0.02743399724937181 0 0.082258845210710349 0.03253561428057717 0 0.087872793352142223 0.040176285354821803 0 0.098246025398924644 0.032379674771496843 0 0.09859813872304253 0.041737690340159041 0 0.1063796333462841 0.038668109643535398 0 0.087872793352142223 0.040176285354821803 0 0.098246025398924644 0.032379674771496843 0 0.09859813872304253 0.041737690340159041 0 0.087872793352142223 0.040176285354821803 0 0.09859813872304253 0.041737690340159041 0 0.096786740892615686 0.050938349167624693 0 0.09859813872304253 0.041737690340159041 0 0.1037055006252459 0.04652603276331644 0 0.096786740892615686 0.050938349167624693 0 0.1037055006252459 0.04652603276331644 0 0.1091701701315707 0.045405346223324289 0 0.1063796333462841 0.038668109643535398 0 0.09859813872304253 0.041737690340159041 0 0.1037055006252459 0.04652603276331644 0 0.1063796333462841 0.038668109643535398 0 0.098246025398924644 0.032379674771496843 0 0.1063796333462841 0.038668109643535398 0 0.1080469394596527 0.029312409717345649 0 0.1063796333462841 0.038668109643535398 0 0.11369005285381351 0.036564640387925021 0 0.1080469394596527 0.029312409717345649 0 0.10140855114010359 0.056741753968867333 0 0.1082136550722141 0.059696613986540442 0 0.089592915186254174 0.067390154600646832 0 0.10140855114010359 0.056741753968867333 0 0.096786740892615686 0.050938349167624693 0 0.089592915186254174 0.067390154600646832 0 0.10140855114010359 0.056741753968867333 0 0.096786740892615686 0.050938349167624693 0 0.1040187002827474 0.052009313231975308 0 0.1037055006252459 0.04652603276331644 0 0.096786740892615686 0.050938349167624693 0 0.1040187002827474 0.052009313231975308 0 0.1037055006252459 0.04652603276331644 0 0.10828434687670541 0.049049973369521209 0 0.1040187002827474 0.052009313231975308 0 0.1037055006252459 0.04652603276331644 0 0.1091701701315707 0.045405346223324289 0 0.10828434687670541 0.049049973369521209 0 0.10828434687670541 0.049049973369521209 0 0.1040187002827474 0.052009313231975308 0 0.1085923347430168 0.054888678040205661 0 0.10140855114010359 0.056741753968867333 0 0.1040187002827474 0.052009313231975308 0 0.1085923347430168 0.054888678040205661 0 0.10140855114010359 0.056741753968867333 0 0.1085923347430168 0.054888678040205661 0 0.1082136550722141 0.059696613986540442 0 0.1082136550722141 0.059696613986540442 0 0.12683439495817461 0.052003073372435288 0 0.1085923347430168 0.054888678040205661 0 0.1082136550722141 0.059696613986540442 0 0.12683439495817461 0.052003073372435288 0 0.1082136550722141 0.059696613986540442 0 0.1213053233293625 0.063977455960140386 0 0.12683439495817461 0.052003073372435288 0 0.1085923347430168 0.054888678040205661 0 0.11545296983014219 0.044674578582556468 0 0.12683439495817461 0.052003073372435288 0 0.1085923347430168 0.054888678040205661 0 0.11545296983014219 0.044674578582556468 0 0.10828434687670541 0.049049973369521209 0 0.1085923347430168 0.054888678040205661 0 0.11545296983014219 0.044674578582556468 0 0.11545296983014219 0.044674578582556468 0 0.12683439495817461 0.052003073372435288 0 0.11545296983014219 0.044674578582556468 0 0.12659142849079691 0.028091664155532971 0 0.13015300311198849 0.040381385354086502 0 0.11369005285381351 0.036564640387925021 0 0.11545296983014219 0.044674578582556468 0 0.12659142849079691 0.028091664155532971 0 0.11369005285381351 0.036564640387925021 0 0.1080469394596527 0.029312409717345649 0 0.12659142849079691 0.028091664155532971 0 0.11545296983014219 0.044674578582556468 0 0.12659142849079691 0.028091664155532971 0 0.1091701701315707 0.045405346223324289 0 0.1063796333462841 0.038668109643535398 0 0.11316657253878901 0.043202368340974628 0 0.11369005285381351 0.036564640387925021 0 0.11316657253878901 0.043202368340974628 0 0.11545296983014219 0.044674578582556468 0 0.1063796333462841 0.038668109643535398 0 0.11369005285381351 0.036564640387925021 0 0.11316657253878901 0.043202368340974628 0 0.1091701701315707 0.045405346223324289 0 0.10828434687670541 0.049049973369521209 0 0.11545296983014219 0.044674578582556468 0 0.1091701701315707 0.045405346223324289 0 0.11316657253878901 0.043202368340974628 0 0.11545296983014219 0.044674578582556468 0 0.11316657253878901 0.043202368340974628 0 0.11545296983014219 0.044674578582556468 0 0.11545296983014219 0.044674578582556468 0 0.13015300311198849 0.040381385354086502 0 0.12683439495817461 0.052003073372435288 0 0.11882011836095251 0.0065886106746579649 0 0.1010264983121123 0.016262416429773479 0 0.12659142849079691 0.028091664155532971 0 0.1010264983121123 0.016262416429773479 0 0.12659142849079691 0.028091664155532971 0 0.1010264983121123 0.016262416429773479 0 0.1080469394596527 0.029312409717345649 0 0.12659142849079691 0.028091664155532971 0 0.11882011836095251 0.0065886106746579649 0 0.1010264983121123 0.016262416429773479 0 0.098011391193308373 -0.0056982583262641584 0 0.088041666307225416 0.02743399724937181 0 0.098246025398924644 0.032379674771496843 0 0.1010264983121123 0.016262416429773479 0 0.098246025398924644 0.032379674771496843 0 0.1010264983121123 0.016262416429773479 0 0.1080469394596527 0.029312409717345649 0 0.102028599401492 0.1079210482782756 0 0.1185648575779607 0.095458187827811403 0 0.097454497296707604 0.093489332089851121 0 0.102028599401492 0.1079210482782756 0 0.094862282777670462 0.1196438628042634 0 0.1117522404438802 0.12667258555115829 0 0.123281054128593 0.11724462113534739 0 0.1117522404438802 0.12667258555115829 0 0.13947052033133081 0.1245003570974072 0 0.102028599401492 0.1079210482782756 0 0.123281054128593 0.11724462113534739 0 0.1117522404438802 0.12667258555115829 0 0.102028599401492 0.1079210482782756 0 0.123281054128593 0.11724462113534739 0 0.102028599401492 0.1079210482782756 0 0.123281054128593 0.11724462113534739 0 0.1185648575779607 0.095458187827811403 0 0.1185648575779607 0.095458187827811403 0 0.10766661625946521 0.081617344394697103 0 0.12679961534922851 0.075073796793526271 0 0.1127439035567581 0.069567645006608142 0 0.10766661625946521 0.081617344394697103 0 0.12679961534922851 0.075073796793526271 0 0.1213053233293625 0.063977455960140386 0 0.1127439035567581 0.069567645006608142 0 0.12679961534922851 0.075073796793526271 0 0.1082136550722141 0.059696613986540442 0 0.1213053233293625 0.063977455960140386 0 0.1127439035567581 0.069567645006608142 0 0.1082136550722141 0.059696613986540442 0 0.089592915186254174 0.067390154600646832 0 0.1014387622560044 0.070574023901201433 0 0.10766661625946521 0.081617344394697103 0 0.08998097741878798 0.081820185866337797 0 0.1082136550722141 0.059696613986540442 0 0.1014387622560044 0.070574023901201433 0 0.089592915186254174 0.067390154600646832 0 0.1082136550722141 0.059696613986540442 0 0.1127439035567581 0.069567645006608142 0 0.1014387622560044 0.070574023901201433 0 0.1127439035567581 0.069567645006608142 0 0.1014387622560044 0.070574023901201433 0 0.10766661625946521 0.081617344394697103 0 0.1185648575779607 0.095458187827811403 0 0.097454497296707604 0.093489332089851121 0 0.10766661625946521 0.081617344394697103 0 0.097454497296707604 0.093489332089851121 0 0.10766661625946521 0.081617344394697103 0 0.08998097741878798 0.081820185866337797 0 0.097454497296707604 0.093489332089851121 0 0.08998097741878798 0.081820185866337797 0 0.080776144674391009 0.098597475421203867 0 0.08998097741878798 0.081820185866337797 0 0.071888117261322881 0.075707086101057836 0 0.080776144674391009 0.098597475421203867 0 0.08998097741878798 0.081820185866337797 0 0.089592915186254174 0.067390154600646832 0 0.071888117261322881 0.075707086101057836 0 0.1014387622560044 0.070574023901201433 0 0.08998097741878798 0.081820185866337797 0 0.089592915186254174 0.067390154600646832 0 0.072379857481358154 0.054137194478101919 0 0.089592915186254174 0.067390154600646832 0 0.071888117261322881 0.075707086101057836 0 0.072379857481358154 0.054137194478101919 0 0.071888117261322881 0.075707086101057836 0 0.06072113176624426 0.066105246874810966 0 0.071888117261322881 0.075707086101057836 0 0.080776144674391009 0.098597475421203867 0 0.059523689947290133 0.089273902564132146 0 0.069834633883481517 0.1065625652268001 0 0.059315065316452309 0.1025539410383776 0 0.059523689947290133 0.089273902564132146 0 0.080776144674391009 0.098597475421203867 0 0.059523689947290133 0.089273902564132146 0 0.069834633883481517 0.1065625652268001 0 0.080776144674391009 0.098597475421203867 0 0.081634330708880196 0.1151370033827101 0 0.069834633883481517 0.1065625652268001 0 0.080776144674391009 0.098597475421203867 0 0.059523689947290133 0.089273902564132146 0 0.069834633883481517 0.1065625652268001 0 0.064307476710745728 0.1098785041095611 0 0.059315065316452309 0.1025539410383776 0 0.102028599401492 0.1079210482782756 0 0.080776144674391009 0.098597475421203867 0 0.081634330708880196 0.1151370033827101 0 0.102028599401492 0.1079210482782756 0 0.080776144674391009 0.098597475421203867 0 0.102028599401492 0.1079210482782756 0 0.097454497296707604 0.093489332089851121 0 0.080776144674391009 0.098597475421203867 0 0.102028599401492 0.1079210482782756 0 0.094862282777670462 0.1196438628042634 0 0.081634330708880196 0.1151370033827101 0 0.094862282777670462 0.1196438628042634 0 0.081634330708880196 0.1151370033827101 0 0.084033960556429532 0.12884481400490949 0 0.081634330708880196 0.1151370033827101 0 0.071861500007931359 0.1232467005620789 0 0.084033960556429532 0.12884481400490949 0 0.081634330708880196 0.1151370033827101 0 0.071861500007931359 0.1232467005620789 0 0.068543873750645412 0.1149277749384955 0 0.069834633883481517 0.1065625652268001 0 0.081634330708880196 0.1151370033827101 0 0.068543873750645412 0.1149277749384955 0 0.068543873750645412 0.1149277749384955 0 0.064307476710745728 0.1098785041095611 0 0.059536333892403683 0.1154697352345713 0 0.069834633883481517 0.1065625652268001 0 0.068543873750645412 0.1149277749384955 0 0.064307476710745728 0.1098785041095611 0 0.071861500007931359 0.1232467005620789 0 0.068543873750645412 0.1149277749384955 0 0.059536333892403683 0.1154697352345713 0 0.056458373241313059 0.1220229844831647 0 0.046980594318971967 0.103944553472415 0 0.044984286063853948 0.1144984098979744 0 0.056458373241313059 0.1220229844831647 0 0.059536333892403683 0.1154697352345713 0 0.047111977694586651 0.095143209078012936 0 0.056458373241313059 0.1220229844831647 0 0.047823074661834691 0.1229743903388081 0 0.044984286063853948 0.1144984098979744 0 0.056458373241313059 0.1220229844831647 0 0.047111977694586651 0.095143209078012936 0 0.056458373241313059 0.1220229844831647 0 0.047111977694586651 0.095143209078012936 0 0.046980594318971967 0.103944553472415 0 0.059536333892403683 0.1154697352345713 0 0.059315065316452309 0.1025539410383776 0 0.048250118395506067 0.092934788779969885 0 0.064307476710745728 0.1098785041095611 0 0.059536333892403683 0.1154697352345713 0 0.059315065316452309 0.1025539410383776 0 0.059536333892403683 0.1154697352345713 0 0.047111977694586651 0.095143209078012936 0 0.048250118395506067 0.092934788779969885 0 0.059536333892403683 0.1154697352345713 0 0.048250118395506067 0.092934788779969885 0 0.059315065316452309 0.1025539410383776 0 0.059523689947290133 0.089273902564132146 0 0.048250118395506067 0.092934788779969885 0 0.046980594318971967 0.103944553472415 0 0.031997015267580219 0.10661530464401089 0 0.044984286063853948 0.1144984098979744 0 0.046980594318971967 0.103944553472415 0 0.039592722901722707 0.099159129702000026 0 0.031997015267580219 0.10661530464401089 0 0.047111977694586651 0.095143209078012936 0 0.046980594318971967 0.103944553472415 0 0.044236279529428407 0.098362398272746204 0 0.043259823202432338 0.095202700838556822 0 0.039592722901722707 0.099159129702000026 0 0.040006298791842428 0.091064350555588536 0 0.047111977694586651 0.095143209078012936 0 0.043259823202432338 0.095202700838556822 0 0.043326765309194368 0.091114650811160686 0 0.047111977694586651 0.095143209078012936 0 0.043259823202432338 0.095202700838556822 0 0.044236279529428407 0.098362398272746204 0 0.046980594318971967 0.103944553472415 0 0.044236279529428407 0.098362398272746204 0 0.039592722901722707 0.099159129702000026 0 0.043259823202432338 0.095202700838556822 0 0.044236279529428407 0.098362398272746204 0 0.039592722901722707 0.099159129702000026 0 0.039592722901722707 0.099159129702000026 0 0.040006298791842428 0.091064350555588536 0 0.033999193661208522 0.092549709374426317 0 0.039592722901722707 0.099159129702000026 0 0.031997015267580219 0.10661530464401089 0 0.033999193661208522 0.092549709374426317 0 0.031997015267580219 0.10661530464401089 0 0.044984286063853948 0.1144984098979744 0 0.040254683338031831 0.12792389191371131 0 0.031997015267580219 0.10661530464401089 0 0.027418588341799281 0.11951208787462859 0 0.040254683338031831 0.12792389191371131 0 0.031997015267580219 0.10661530464401089 0 0.040254683338031831 0.12792389191371131 0 0.047823074661834691 0.1229743903388081 0 0.044984286063853948 0.1144984098979744 0 0.040254683338031831 0.12792389191371131 0 0.071888117261322881 0.075707086101057836 0 0.050643578252195447 0.077240667131504986 0 0.06072113176624426 0.066105246874810966 0 0.071888117261322881 0.075707086101057836 0 0.050643578252195447 0.077240667131504986 0 0.04797297407010033 0.057336039788577382 0 0.050643578252195447 0.077240667131504986 0 0.06072113176624426 0.066105246874810966 0 0.059523689947290133 0.089273902564132146 0 0.048250118395506067 0.092934788779969885 0 0.038271235220189187 0.079950329707060411 0 0.050643578252195447 0.077240667131504986 0 0.059523689947290133 0.089273902564132146 0 0.038271235220189187 0.079950329707060411 0 0.059523689947290133 0.089273902564132146 0 0.038271235220189187 0.079950329707060411 0 0.071888117261322881 0.075707086101057836 0 0.050643578252195447 0.077240667131504986 0 0.059523689947290133 0.089273902564132146 0 0.050643578252195447 0.077240667131504986 0 0.038271235220189187 0.079950329707060411 0 0.029399039243067929 0.078774248161950916 0 0.043326765309194368 0.091114650811160686 0 0.040006298791842428 0.091064350555588536 0 0.038271235220189187 0.079950329707060411 0 0.048250118395506067 0.092934788779969885 0 0.043326765309194368 0.091114650811160686 0 0.038271235220189187 0.079950329707060411 0 0.047111977694586651 0.095143209078012936 0 0.048250118395506067 0.092934788779969885 0 0.043326765309194368 0.091114650811160686 0 0.043259823202432338 0.095202700838556822 0 0.043326765309194368 0.091114650811160686 0 0.040006298791842428 0.091064350555588536 0 0.040006298791842428 0.091064350555588536 0 0.033999193661208522 0.092549709374426317 0 0.035112272261912547 0.085996705185296951 0 0.033999193661208522 0.092549709374426317 0 0.035112272261912547 0.085996705185296951 0 0.030562463090829231 0.085656845023995995 0 0.040006298791842428 0.091064350555588536 0 0.035112272261912547 0.085996705185296951 0 0.038271235220189187 0.079950329707060411 0 0.035112272261912547 0.085996705185296951 0 0.038271235220189187 0.079950329707060411 0 0.029399039243067929 0.078774248161950916 0 0.035112272261912547 0.085996705185296951 0 0.029399039243067929 0.078774248161950916 0 0.030562463090829231 0.085656845023995995 0 0.04797297407010033 0.057336039788577382 0 0.027635028654909001 0.06907575978797427 0 0.029399039243067929 0.078774248161950916 0 0.04797297407010033 0.057336039788577382 0 0.050643578252195447 0.077240667131504986 0 0.029399039243067929 0.078774248161950916 0 0.050643578252195447 0.077240667131504986 0 0.029399039243067929 0.078774248161950916 0 0.04797297407010033 0.057336039788577382 0 0.029399039243067929 0.078774248161950916 0 0.01459521235494949 0.061710637509134872 0 0.030459386295035529 0.05963142741263059 0 0.017825248683011649 0.070045619055208203 0 0.01459521235494949 0.061710637509134872 0 0.017825248683011649 0.070045619055208203 0 0.030459386295035529 0.05963142741263059 0 0.017825248683011649 0.070045619055208203 0 0.030459386295035529 0.05963142741263059 0 0.017825248683011649 0.070045619055208203 0 0.027635028654909001 0.06907575978797427 0 0.027635028654909001 0.06907575978797427 0 0.021430743364398389 0.07934945609652827 0 0.029399039243067929 0.078774248161950916 0 0.017825248683011649 0.070045619055208203 0 0.027635028654909001 0.06907575978797427 0 0.021430743364398389 0.07934945609652827 0 0.017825248683011649 0.070045619055208203 0 0.021430743364398389 0.07934945609652827 0 0.023739347197128589 0.085306717374310406 0 0.0092582498306486675 0.1020209346744549 0 0.021430743364398389 0.07934945609652827 0 0.023739347197128589 0.085306717374310406 0 0.01369104835205702 0.085774757015682671 0 0.021430743364398389 0.07934945609652827 0 0.023739347197128589 0.085306717374310406 0 0.021430743364398389 0.07934945609652827 0 0.029399039243067929 0.078774248161950916 0 0.023739347197128589 0.085306717374310406 0 0.021430743364398389 0.07934945609652827 0 0.029399039243067929 0.078774248161950916 0 0.029399039243067929 0.078774248161950916 0 0.030562463090829231 0.085656845023995995 0 0.023739347197128589 0.085306717374310406 0 0.029399039243067929 0.078774248161950916 0 0.023739347197128589 0.085306717374310406 0 0.033999193661208522 0.092549709374426317 0 0.030562463090829231 0.085656845023995995 0 0.023739347197128589 0.085306717374310406 0 0.023739347197128589 0.085306717374310406 0 0.01369104835205702 0.085774757015682671 0 0.0092582498306486675 0.1020209346744549 0 0.0051087594610210148 0.080527692295617709 0 0.01369104835205702 0.085774757015682671 0 0.0092582498306486675 0.1020209346744549 0 0.021430743364398389 0.07934945609652827 0 0.0051087594610210148 0.080527692295617709 0 0.021430743364398389 0.07934945609652827 0 0.0051087594610210148 0.080527692295617709 0 0.01369104835205702 0.085774757015682671 0 -0.0012292332505543029 0.06378464068123596 0 0.01459521235494949 0.061710637509134872 0 -0.0012292332505543029 0.06378464068123596 0 0.01459521235494949 0.061710637509134872 0 0.0080955592782806732 0.069159055867407046 0 0.017825248683011649 0.070045619055208203 0 0.021430743364398389 0.07934945609652827 0 0.0051087594610210148 0.080527692295617709 0 -0.0012292332505543029 0.06378464068123596 0 0.0051087594610210148 0.080527692295617709 0 0.0080955592782806732 0.069159055867407046 0 0.017825248683011649 0.070045619055208203 0 0.0051087594610210148 0.080527692295617709 0 0.0080955592782806732 0.069159055867407046 0 0.017825248683011649 0.070045619055208203 0 0.0051087594610210148 0.080527692295617709 0 0.01459521235494949 0.061710637509134872 0 0.017825248683011649 0.070045619055208203 0 0.0080955592782806732 0.069159055867407046 0 0.019482067178466251 0.1107491432724047 0 0.017356945103072018 0.1204998149293544 0 0.027418588341799281 0.11951208787462859 0 0.017356945103072018 0.1204998149293544 0 0.027418588341799281 0.11951208787462859 0 0.028136896369567631 0.1331750506540591 0 0.031997015267580219 0.10661530464401089 0 0.019482067178466251 0.1107491432724047 0 0.027418588341799281 0.11951208787462859 0 0.031997015267580219 0.10661530464401089 0 0.033999193661208522 0.092549709374426317 0 0.023739347197128589 0.085306717374310406 0 0.023739347197128589 0.085306717374310406 0 0.02108550348152554 0.10082233348119581 0 0.0092582498306486675 0.1020209346744549 0 0.031997015267580219 0.10661530464401089 0 0.023739347197128589 0.085306717374310406 0 0.031997015267580219 0.10661530464401089 0 0.023739347197128589 0.085306717374310406 0 0.02108550348152554 0.10082233348119581 0 0.031997015267580219 0.10661530464401089 0 0.019482067178466251 0.1107491432724047 0 0.02108550348152554 0.10082233348119581 0 0.019482067178466251 0.1107491432724047 0 0.02108550348152554 0.10082233348119581 0 0.0092582498306486675 0.1020209346744549 0 -0.0040597014752050652 0.1051126182356364 0 0.0051087594610210148 0.080527692295617709 0 0.0092582498306486675 0.1020209346744549 0 0.019482067178466251 0.1107491432724047 0 0.0092582498306486675 0.1020209346744549 0 0.0097761010461718117 0.1150243840307837 0 -0.0052228475358298988 0.1187351519746004 0 0.0092582498306486675 0.1020209346744549 0 -0.0052228475358298988 0.1187351519746004 0 0.0092582498306486675 0.1020209346744549 0 0.0097761010461718117 0.1150243840307837 0 0.019482067178466251 0.1107491432724047 0 0.017356945103072018 0.1204998149293544 0 0.0097761010461718117 0.1150243840307837 0 0.017356945103072018 0.1204998149293544 0 0.0081407562022233586 0.1245196413435004 0 0.017356945103072018 0.1204998149293544 0 0.0097761010461718117 0.1150243840307837 0 0.0081407562022233586 0.1245196413435004 0 -0.0052228475358298988 0.1187351519746004 0 0.0097761010461718117 0.1150243840307837 0 0.0081407562022233586 0.1245196413435004 0 -0.0052228475358298988 0.1187351519746004 0 0.0081407562022233586 0.1245196413435004 0 -0.015783289274076458 0.13495459563681389 0 0.0081407562022233586 0.1245196413435004 0 0.01185912902997375 0.14130758542593569 0 0.017356945103072018 0.1204998149293544 0 0.0081407562022233586 0.1245196413435004 0 0.028136896369567631 0.1331750506540591 0 0.0081407562022233586 0.1245196413435004 0 0.028136896369567631 0.1331750506540591 0 0.0081407562022233586 0.1245196413435004 0 0.028136896369567631 0.1331750506540591 0 0.01185912902997375 0.14130758542593569 0 0.028136896369567631 0.1331750506540591 0 0.0267736462585265 0.15269096182544131 0 0.035919394343652343 0.14075559589415579 0 0.028136896369567631 0.1331750506540591 0 0.0267736462585265 0.15269096182544131 0 0.01185912902997375 0.14130758542593569 0 0.0267736462585265 0.15269096182544131 0 0.001788155555331062 0.1557637096651584 0 0.01185912902997375 0.14130758542593569 0 0.001788155555331062 0.1557637096651584 0 0.00061104658230836653 0.17769045695541219 0 0.019359600384737739 0.17657282369350361 0 0.001788155555331062 0.1557637096651584 0 0.019359600384737739 0.17657282369350361 0 0.00061104658230836653 0.17769045695541219 0 0.019359600384737739 0.17657282369350361 0 0.017852612557627559 0.19656860209324539 0 0.019359600384737739 0.17657282369350361 0 0.036931045214144441 0.19738193772184889 0 0.0267736462585265 0.15269096182544131 0 0.001788155555331062 0.1557637096651584 0 0.019359600384737739 0.17657282369350361 0 0.0267736462585265 0.15269096182544131 0 0.019359600384737739 0.17657282369350361 0 0.038399134829123632 0.17159850230738899 0 0.0267736462585265 0.15269096182544131 0 0.038399134829123632 0.17159850230738899 0 0.048512351408483409 0.1492324791834117 0 0.019359600384737739 0.17657282369350361 0 0.038399134829123632 0.17159850230738899 0 0.036931045214144441 0.19738193772184889 0 0.038399134829123632 0.17159850230738899 0 0.053915020648589329 0.181809847856817 0 0.036931045214144441 0.19738193772184889 0 0.053915020648589329 0.181809847856817 0 0.056298621576963533 0.16595151756685289 0 0.075151164334765874 0.17578253529346821 0 0.038399134829123632 0.17159850230738899 0 0.053915020648589329 0.181809847856817 0 0.056298621576963533 0.16595151756685289 0 0.038399134829123632 0.17159850230738899 0 0.056298621576963533 0.16595151756685289 0 0.048512351408483409 0.1492324791834117 0 0.048512351408483409 0.1492324791834117 0 0.055211699142625699 0.13746009370018761 0 0.065804768788039439 0.14890275988831639 0 0.056298621576963533 0.16595151756685289 0 0.048512351408483409 0.1492324791834117 0 0.065804768788039439 0.14890275988831639 0 0.048512351408483409 0.1492324791834117 0 0.055211699142625699 0.13746009370018761 0 0.049904412172306151 0.13036597214331841 0 0.056458373241313059 0.1220229844831647 0 0.059536333892403683 0.1154697352345713 0 0.070822549389301243 0.1380046816891726 0 0.056458373241313059 0.1220229844831647 0 0.055211699142625699 0.13746009370018761 0 0.065804768788039439 0.14890275988831639 0 0.056458373241313059 0.1220229844831647 0 0.065804768788039439 0.14890275988831639 0 0.056458373241313059 0.1220229844831647 0 0.047823074661834691 0.1229743903388081 0 0.049904412172306151 0.13036597214331841 0 0.056458373241313059 0.1220229844831647 0 0.055211699142625699 0.13746009370018761 0 0.049904412172306151 0.13036597214331841 0 0.048512351408483409 0.1492324791834117 0 0.040254683338031831 0.12792389191371131 0 0.048512351408483409 0.1492324791834117 0 0.040254683338031831 0.12792389191371131 0 0.035919394343652343 0.14075559589415579 0 0.048512351408483409 0.1492324791834117 0 0.049904412172306151 0.13036597214331841 0 0.040254683338031831 0.12792389191371131 0 0.047823074661834691 0.1229743903388081 0 0.049904412172306151 0.13036597214331841 0 0.040254683338031831 0.12792389191371131 0 0.027418588341799281 0.11951208787462859 0 0.028136896369567631 0.1331750506540591 0 0.040254683338031831 0.12792389191371131 0 0.028136896369567631 0.1331750506540591 0 0.040254683338031831 0.12792389191371131 0 0.035919394343652343 0.14075559589415579 0 0.0267736462585265 0.15269096182544131 0 0.048512351408483409 0.1492324791834117 0 0.035919394343652343 0.14075559589415579 0 0.020197736684044801 0.2291273398277828 0 0.034114961552744377 0.23516115760169301 0 0.036501911092354018 0.25177276941539839 0 0.018629400856135309 0.24429501886194191 0 0.020197736684044801 0.2291273398277828 0 0.02692674034290404 0.25134916217479408 0 0.020197736684044801 0.2291273398277828 0 0.02692674034290404 0.25134916217479408 0 0.036501911092354018 0.25177276941539839 0 0.020197736684044801 0.2291273398277828 0 0.036501911092354018 0.25177276941539839 0 0.018629400856135309 0.24429501886194191 0 0.0082785766384091443 0.23618007315607359 0 0.020197736684044801 0.2291273398277828 0 0.018629400856135309 0.24429501886194191 0 0.012944211518790589 0.24639919126045251 0 0.0082785766384091443 0.23618007315607359 0 0.012944211518790589 0.24639919126045251 0 0.001894876929373096 0.24743045501984201 0 0.0082785766384091443 0.23618007315607359 0 -0.0070773620087705444 0.23295897308755351 0 0.001894876929373096 0.24743045501984201 0 0.0082785766384091443 0.23618007315607359 0 0.0082785766384091443 0.23618007315607359 0 0.0038866256090455522 0.2239579318999283 0 0.020197736684044801 0.2291273398277828 0 0.0038866256090455522 0.2239579318999283 0 0.020197736684044801 0.2291273398277828 0 0.003893562275735573 0.2064819102401671 0 -0.0070773620087705444 0.23295897308755351 0 0.0082785766384091443 0.23618007315607359 0 0.0038866256090455522 0.2239579318999283 0 0.01643925603633389 0.21561198758054059 0 0.035370792182188207 0.216260201755786 0 0.034114961552744377 0.23516115760169301 0 0.020197736684044801 0.2291273398277828 0 0.01643925603633389 0.21561198758054059 0 0.034114961552744377 0.23516115760169301 0 0.01643925603633389 0.21561198758054059 0 0.034114961552744377 0.23516115760169301 0 0.017852612557627559 0.19656860209324539 0 0.036931045214144441 0.19738193772184889 0 0.035370792182188207 0.216260201755786 0 0.01643925603633389 0.21561198758054059 0 0.017852612557627559 0.19656860209324539 0 0.035370792182188207 0.216260201755786 0 0.020197736684044801 0.2291273398277828 0 0.003893562275735573 0.2064819102401671 0 -0.0045317147067566524 0.21522543551468479 0 0.0038866256090455522 0.2239579318999283 0 0.003893562275735573 0.2064819102401671 0 -0.0012364494800765971 0.1960628175593882 0 0.01643925603633389 0.21561198758054059 0 -0.0012364494800765971 0.1960628175593882 0 0.01643925603633389 0.21561198758054059 0 0.003893562275735573 0.2064819102401671 0 0.020197736684044801 0.2291273398277828 0 0.01643925603633389 0.21561198758054059 0 0.003893562275735573 0.2064819102401671 0 -0.0012364494800765971 0.1960628175593882 0 0.01643925603633389 0.21561198758054059 0 0.017852612557627559 0.19656860209324539 0 -0.0012364494800765971 0.1960628175593882 0 0.00061104658230836653 0.17769045695541219 0 0.017852612557627559 0.19656860209324539 0 0.019359600384737739 0.17657282369350361 0 0.017852612557627559 0.19656860209324539 0 0.036931045214144441 0.19738193772184889 0 0.053915020648589329 0.181809847856817 0 0.036931045214144441 0.19738193772184889 0 0.062795137287949193 0.19833474639452611 0 0.036931045214144441 0.19738193772184889 0 0.054502490043551163 0.2181910517501941 0 0.062795137287949193 0.19833474639452611 0 0.036931045214144441 0.19738193772184889 0 0.054502490043551163 0.2181910517501941 0 0.036931045214144441 0.19738193772184889 0 0.054502490043551163 0.2181910517501941 0 0.035370792182188207 0.216260201755786 0 0.054502490043551163 0.2181910517501941 0 0.035370792182188207 0.216260201755786 0 0.034114961552744377 0.23516115760169301 0 0.054502490043551163 0.2181910517501941 0 0.055174909047777811 0.2396291133956362 0 0.034114961552744377 0.23516115760169301 0 0.054502490043551163 0.2181910517501941 0 0.055174909047777811 0.2396291133956362 0 0.072073934872957782 0.23900016577853919 0 0.055174909047777811 0.2396291133956362 0 0.034114961552744377 0.23516115760169301 0 0.051790667069154861 0.2547103276228454 0 0.055174909047777811 0.2396291133956362 0 0.051790667069154861 0.2547103276228454 0 0.063392491700480919 0.2510828642249095 0 0.034114961552744377 0.23516115760169301 0 0.036501911092354018 0.25177276941539839 0 0.051790667069154861 0.2547103276228454 0 0.034114961552744377 0.23516115760169301 0 0.051790667069154861 0.2547103276228454 0 0.072073934872957782 0.23900016577853919 0 0.093843955428218759 0.229542086103772 0 0.089645379702363526 0.25980927980688501 0 0.072073934872957782 0.23900016577853919 0 0.089645379702363526 0.25980927980688501 0 0.055174909047777811 0.2396291133956362 0 0.072073934872957782 0.23900016577853919 0 0.063392491700480919 0.2510828642249095 0 0.072073934872957782 0.23900016577853919 0 0.063392491700480919 0.2510828642249095 0 0.074261774750864804 0.25289133929391111 0 0.054502490043551163 0.2181910517501941 0 0.072073934872957782 0.23900016577853919 0 0.054502490043551163 0.2181910517501941 0 0.072073934872957782 0.23900016577853919 0 0.07691655231929137 0.22036312128655 0 0.072073934872957782 0.23900016577853919 0 0.07691655231929137 0.22036312128655 0 0.093843955428218759 0.229542086103772 0 0.084497559881492323 0.20266231069862009 0 0.1011551627426199 0.2154511434485995 0 0.093843955428218759 0.229542086103772 0 0.084497559881492323 0.20266231069862009 0 0.093843955428218759 0.229542086103772 0 0.07691655231929137 0.22036312128655 0 0.084497559881492323 0.20266231069862009 0 0.093843955428218759 0.229542086103772 0 0.07691655231929137 0.22036312128655 0 0.062795137287949193 0.19833474639452611 0 0.084497559881492323 0.20266231069862009 0 0.054502490043551163 0.2181910517501941 0 0.07691655231929137 0.22036312128655 0 0.062795137287949193 0.19833474639452611 0 0.062795137287949193 0.19833474639452611 0 0.084497559881492323 0.20266231069862009 0 0.075151164334765874 0.17578253529346821 0 0.084497559881492323 0.20266231069862009 0 0.075151164334765874 0.17578253529346821 0 0.084497559881492323 0.20266231069862009 0 0.10184565838461331 0.1924014028594688 0 0.093394980383096363 0.18307457459837531 0 0.084497559881492323 0.20266231069862009 0 0.10184565838461331 0.1924014028594688 0 0.10260278643249959 0.20376756124449391 0 0.10184565838461331 0.1924014028594688 0 0.1105875138732399 0.1994169567440035 0 0.10260278643249959 0.20376756124449391 0 0.10184565838461331 0.1924014028594688 0 0.1131184160342838 0.18994185980391479 0 0.1105875138732399 0.1994169567440035 0 0.10184565838461331 0.1924014028594688 0 0.1131184160342838 0.18994185980391479 0 0.1054525685194168 0.18020148819897211 0 0.1131184160342838 0.18994185980391479 0 0.1210814068145178 0.19423580856195369 0 0.1131184160342838 0.18994185980391479 0 0.1210814068145178 0.19423580856195369 0 0.1196286990311512 0.18236386641526309 0 0.1210814068145178 0.19423580856195369 0 0.11958782189190099 0.20227867846385961 0 0.13241563583181001 0.2003476577346209 0 0.1131184160342838 0.18994185980391479 0 0.1210814068145178 0.19423580856195369 0 0.11958782189190099 0.20227867846385961 0 0.1131184160342838 0.18994185980391479 0 0.11958782189190099 0.20227867846385961 0 0.1105875138732399 0.1994169567440035 0 0.11958782189190099 0.20227867846385961 0 0.1105875138732399 0.1994169567440035 0 0.11467542950451071 0.21015036581969679 0 0.11958782189190099 0.20227867846385961 0 0.11467542950451071 0.21015036581969679 0 0.12714211421566091 0.2115365522170618 0 0.11467542950451071 0.21015036581969679 0 0.1287590091161889 0.22454109023782651 0 0.12714211421566091 0.2115365522170618 0 0.11467542950451071 0.21015036581969679 0 0.1011551627426199 0.2154511434485995 0 0.1117838155087727 0.22779371718329239 0 0.084497559881492323 0.20266231069862009 0 0.10260278643249959 0.20376756124449391 0 0.1011551627426199 0.2154511434485995 0 0.1105875138732399 0.1994169567440035 0 0.11467542950451071 0.21015036581969679 0 0.10260278643249959 0.20376756124449391 0 0.11467542950451071 0.21015036581969679 0 0.10260278643249959 0.20376756124449391 0 0.1011551627426199 0.2154511434485995 0 0.1011551627426199 0.2154511434485995 0 0.093843955428218759 0.229542086103772 0 0.1117838155087727 0.22779371718329239 0 0.11467542950451071 0.21015036581969679 0 0.1117838155087727 0.22779371718329239 0 0.1287590091161889 0.22454109023782651 0 0.1117838155087727 0.22779371718329239 0 0.1287590091161889 0.22454109023782651 0 0.116065923487036 0.25155424759680489 0 0.093843955428218759 0.229542086103772 0 0.089645379702363526 0.25980927980688501 0 0.116065923487036 0.25155424759680489 0 0.093843955428218759 0.229542086103772 0 0.1117838155087727 0.22779371718329239 0 0.116065923487036 0.25155424759680489 0 0.085867858697711436 0.14453522140638461 0 0.070822549389301243 0.1380046816891726 0 0.082108764886198796 0.1605396281437739 0 0.085867858697711436 0.14453522140638461 0 0.082108764886198796 0.1605396281437739 0 0.098061838006449922 0.1524476624703702 0 0.085867858697711436 0.14453522140638461 0 0.084033960556429532 0.12884481400490949 0 0.098019367542785563 0.1407790739484335 0 0.085867858697711436 0.14453522140638461 0 0.084033960556429532 0.12884481400490949 0 0.070822549389301243 0.1380046816891726 0 0.071861500007931359 0.1232467005620789 0 0.059536333892403683 0.1154697352345713 0 0.070822549389301243 0.1380046816891726 0 0.059536333892403683 0.1154697352345713 0 0.070822549389301243 0.1380046816891726 0 0.056458373241313059 0.1220229844831647 0 0.070822549389301243 0.1380046816891726 0 0.065804768788039439 0.14890275988831639 0 0.071861500007931359 0.1232467005620789 0 0.084033960556429532 0.12884481400490949 0 0.070822549389301243 0.1380046816891726 0 0.070822549389301243 0.1380046816891726 0 0.082108764886198796 0.1605396281437739 0 0.070822549389301243 0.1380046816891726 0 0.065804768788039439 0.14890275988831639 0 0.082108764886198796 0.1605396281437739 0 0.056298621576963533 0.16595151756685289 0 0.065804768788039439 0.14890275988831639 0 0.075151164334765874 0.17578253529346821 0 0.065804768788039439 0.14890275988831639 0 0.075151164334765874 0.17578253529346821 0 0.082108764886198796 0.1605396281437739 0 0.065804768788039439 0.14890275988831639 0 0.075151164334765874 0.17578253529346821 0 0.053915020648589329 0.181809847856817 0 0.062795137287949193 0.19833474639452611 0 0.075151164334765874 0.17578253529346821 0 0.075151164334765874 0.17578253529346821 0 0.093394980383096363 0.18307457459837531 0 0.082108764886198796 0.1605396281437739 0 0.084497559881492323 0.20266231069862009 0 0.075151164334765874 0.17578253529346821 0 0.093394980383096363 0.18307457459837531 0 0.093394980383096363 0.18307457459837531 0 0.082108764886198796 0.1605396281437739 0 0.1017810834163356 0.16778327145988009 0 0.093394980383096363 0.18307457459837531 0 0.082108764886198796 0.1605396281437739 0 0.082108764886198796 0.1605396281437739 0 0.1017810834163356 0.16778327145988009 0 0.098061838006449922 0.1524476624703702 0 0.1017810834163356 0.16778327145988009 0 0.1094413004412432 0.1568441156191657 0 0.098061838006449922 0.1524476624703702 0 0.10184565838461331 0.1924014028594688 0 0.093394980383096363 0.18307457459837531 0 0.1054525685194168 0.18020148819897211 0 0.093394980383096363 0.18307457459837531 0 0.1017810834163356 0.16778327145988009 0 0.1054525685194168 0.18020148819897211 0 0.1017810834163356 0.16778327145988009 0 0.1054525685194168 0.18020148819897211 0 0.1143103312636523 0.17467474260035151 0 0.1131184160342838 0.18994185980391479 0 0.1132877880089454 0.18182979361660931 0 0.1196286990311512 0.18236386641526309 0 0.1131184160342838 0.18994185980391479 0 0.1054525685194168 0.18020148819897211 0 0.1132877880089454 0.18182979361660931 0 0.1054525685194168 0.18020148819897211 0 0.1132877880089454 0.18182979361660931 0 0.1143103312636523 0.17467474260035151 0 0.1132877880089454 0.18182979361660931 0 0.1143103312636523 0.17467474260035151 0 0.1196286990311512 0.18236386641526309 0 0.1143103312636523 0.17467474260035151 0 0.1229466648353691 0.17360959233997481 0 0.1196286990311512 0.18236386641526309 0 0.1229466648353691 0.17360959233997481 0 0.1196286990311512 0.18236386641526309 0 0.1315359285025598 0.17914174819028489 0 0.1210814068145178 0.19423580856195369 0 0.1196286990311512 0.18236386641526309 0 0.1315359285025598 0.17914174819028489 0 0.1017810834163356 0.16778327145988009 0 0.1143103312636523 0.17467474260035151 0 0.11826309888899959 0.1638296446882945 0 0.1017810834163356 0.16778327145988009 0 0.1094413004412432 0.1568441156191657 0 0.11826309888899959 0.1638296446882945 0 0.1094413004412432 0.1568441156191657 0 0.11826309888899959 0.1638296446882945 0 0.12116198843957229 0.15461983439099389 0 0.1143103312636523 0.17467474260035151 0 0.1229466648353691 0.17360959233997481 0 0.11826309888899959 0.1638296446882945 0 0.1229466648353691 0.17360959233997481 0 0.11826309888899959 0.1638296446882945 0 0.1286748755814317 0.16568949079043779 0 0.11826309888899959 0.1638296446882945 0 0.12116198843957229 0.15461983439099389 0 0.1286748755814317 0.16568949079043779 0 0.12116198843957229 0.15461983439099389 0 0.1235319134973574 0.14279740261083959 0 0.11069945258584669 0.14552439304262721 0 0.1094413004412432 0.1568441156191657 0 0.12116198843957229 0.15461983439099389 0 0.11069945258584669 0.14552439304262721 0 0.1094413004412432 0.1568441156191657 0 0.11069945258584669 0.14552439304262721 0 0.098061838006449922 0.1524476624703702 0 0.11069945258584669 0.14552439304262721 0 0.098019367542785563 0.1407790739484335 0 0.098061838006449922 0.1524476624703702 0 0.085867858697711436 0.14453522140638461 0 0.098019367542785563 0.1407790739484335 0 0.098061838006449922 0.1524476624703702 0 0.084033960556429532 0.12884481400490949 0 0.1117522404438802 0.12667258555115829 0 0.094862282777670462 0.1196438628042634 0 0.084033960556429532 0.12884481400490949 0 0.1117522404438802 0.12667258555115829 0 0.084033960556429532 0.12884481400490949 0 0.098019367542785563 0.1407790739484335 0 0.1117522404438802 0.12667258555115829 0 0.11069945258584669 0.14552439304262721 0 0.098019367542785563 0.1407790739484335 0 0.1117522404438802 0.12667258555115829 0 0.1235319134973574 0.14279740261083959 0 0.11069945258584669 0.14552439304262721 0 0.1117522404438802 0.12667258555115829 0 0.1235319134973574 0.14279740261083959 0 0.1117522404438802 0.12667258555115829 0 0.1338250830151082 0.13680555700437169 0 0.1117522404438802 0.12667258555115829 0 0.1338250830151082 0.13680555700437169 0 0.13947052033133081 0.1245003570974072 0 0.1117522404438802 0.12667258555115829 0 0.13947052033133081 0.1245003570974072 0 0.1338250830151082 0.13680555700437169 0 0.14773514824261011 0.13994704674368119 0 0.13947052033133081 0.1245003570974072 0 0.14773514824261011 0.13994704674368119 0 0.13947052033133081 0.1245003570974072 0 0.16718880021878149 0.12232812864365609 0 0.14773514824261011 0.13994704674368119 0 0.1492794596183103 0.15557552201751701 0 0.16307655427518189 0.1461583771030025 0 0.14773514824261011 0.13994704674368119 0 0.1492794596183103 0.15557552201751701 0 0.13636128964255501 0.15303395959459851 0 0.1235319134973574 0.14279740261083959 0 0.1338250830151082 0.13680555700437169 0 0.13636128964255501 0.15303395959459851 0 0.1338250830151082 0.13680555700437169 0 0.14773514824261011 0.13994704674368119 0 0.13636128964255501 0.15303395959459851 0 0.12116198843957229 0.15461983439099389 0 0.1235319134973574 0.14279740261083959 0 0.13636128964255501 0.15303395959459851 0 0.12116198843957229 0.15461983439099389 0 0.13636128964255501 0.15303395959459851 0 0.1286748755814317 0.16568949079043779 0 0.13636128964255501 0.15303395959459851 0 0.1286748755814317 0.16568949079043779 0 0.1402599975996246 0.1687496010839549 0 0.1286748755814317 0.16568949079043779 0 0.1402599975996246 0.1687496010839549 0 0.1315359285025598 0.17914174819028489 0 0.1210814068145178 0.19423580856195369 0 0.1315359285025598 0.17914174819028489 0 0.14172685770208041 0.18088834424850889 0 0.1229466648353691 0.17360959233997481 0 0.1286748755814317 0.16568949079043779 0 0.1315359285025598 0.17914174819028489 0 0.1402599975996246 0.1687496010839549 0 0.1315359285025598 0.17914174819028489 0 0.14172685770208041 0.18088834424850889 0 0.1315359285025598 0.17914174819028489 0 0.14172685770208041 0.18088834424850889 0 0.14172685770208041 0.18088834424850889 0 0.1589643083315804 0.1699886255623487 0 0.15664227980061579 0.1834446584897341 0 0.14172685770208041 0.18088834424850889 0 0.1589643083315804 0.1699886255623487 0 0.1402599975996246 0.1687496010839549 0 0.14172685770208041 0.18088834424850889 0 0.1589643083315804 0.1699886255623487 0 0.14172685770208041 0.18088834424850889 0 0.15664227980061579 0.1834446584897341 0 0.14735069213281321 0.19092796682168489 0 0.14172685770208041 0.18088834424850889 0 0.15664227980061579 0.1834446584897341 0 0.1492794596183103 0.15557552201751701 0 0.1402599975996246 0.1687496010839549 0 0.1589643083315804 0.1699886255623487 0 0.1492794596183103 0.15557552201751701 0 0.13636128964255501 0.15303395959459851 0 0.1402599975996246 0.1687496010839549 0 0.1492794596183103 0.15557552201751701 0 0.1589643083315804 0.1699886255623487 0 0.16307655427518189 0.1461583771030025 0 0.1589643083315804 0.1699886255623487 0 0.1832181015668064 0.15465227861531949 0 0.16307655427518189 0.1461583771030025 0 0.1589643083315804 0.1699886255623487 0 0.16307655427518189 0.1461583771030025 0 0.1589643083315804 0.1699886255623487 0 0.1832181015668064 0.15465227861531949 0 0.1589643083315804 0.1699886255623487 0 0.15664227980061579 0.1834446584897341 0 0.17367876449497299 0.17356388092826039 0 0.15664227980061579 0.1834446584897341 0 0.17803712215301101 0.18711146321258301 0 0.15664227980061579 0.1834446584897341 0 0.17367876449497299 0.17356388092826039 0 0.17803712215301101 0.18711146321258301 0 0.1589643083315804 0.1699886255623487 0 0.15664227980061579 0.1834446584897341 0 0.17367876449497299 0.17356388092826039 0 0.17803712215301101 0.18711146321258301 0 0.1915320106228488 0.17262237876131631 0 0.1589643083315804 0.1699886255623487 0 0.17367876449497299 0.17356388092826039 0 0.1832181015668064 0.15465227861531949 0 0.17367876449497299 0.17356388092826039 0 0.1832181015668064 0.15465227861531949 0 0.1915320106228488 0.17262237876131631 0 0.1832181015668064 0.15465227861531949 0 0.18154761934540289 0.13534417850528041 0 0.16307655427518189 0.1461583771030025 0 0.18154761934540289 0.13534417850528041 0 0.19370351113240411 0.1202502215829211 0 0.16718880021878149 0.12232812864365609 0 0.16307655427518189 0.1461583771030025 0 0.16718880021878149 0.12232812864365609 0 0.14773514824261011 0.13994704674368119 0 0.16307655427518189 0.1461583771030025 0 0.16718880021878149 0.12232812864365609 0 0.18154761934540289 0.13534417850528041 0 0.16307655427518189 0.1461583771030025 0 0.16718880021878149 0.12232812864365609 0 0.14248646727170791 0.24329921538672239 0 0.16890701105638031 0.23504418317664161 0 0.14248646727170791 0.24329921538672239 0 0.116065923487036 0.25155424759680489 0 0.14248646727170791 0.24329921538672239 0 0.1287590091161889 0.22454109023782651 0 0.116065923487036 0.25155424759680489 0 0.14248646727170791 0.24329921538672239 0 0.1287590091161889 0.22454109023782651 0 0.14216045677169509 0.2226427774354276 0 0.1287590091161889 0.22454109023782651 0 0.14216045677169509 0.2226427774354276 0 0.13903299807830019 0.21154409335764149 0 0.14248646727170791 0.24329921538672239 0 0.14216045677169509 0.2226427774354276 0 0.16890701105638031 0.23504418317664161 0 0.14216045677169509 0.2226427774354276 0 0.1513137794066001 0.21432303737238931 0 0.16890701105638031 0.23504418317664161 0 0.15183105921464751 0.210852851725322 0 0.13241563583181001 0.2003476577346209 0 0.15183105921464751 0.210852851725322 0 0.13903299807830019 0.21154409335764149 0 0.13241563583181001 0.2003476577346209 0 0.1513137794066001 0.21432303737238931 0 0.15183105921464751 0.210852851725322 0 0.14522842943996589 0.21534193400985699 0 0.1513137794066001 0.21432303737238931 0 0.15183105921464751 0.210852851725322 0 0.15183105921464751 0.210852851725322 0 0.14522842943996589 0.21534193400985699 0 0.13903299807830019 0.21154409335764149 0 0.14216045677169509 0.2226427774354276 0 0.1513137794066001 0.21432303737238931 0 0.14522842943996589 0.21534193400985699 0 0.14216045677169509 0.2226427774354276 0 0.14522842943996589 0.21534193400985699 0 0.13903299807830019 0.21154409335764149 0 0.1287590091161889 0.22454109023782651 0 0.13903299807830019 0.21154409335764149 0 0.12714211421566091 0.2115365522170618 0 0.11958782189190099 0.20227867846385961 0 0.12714211421566091 0.2115365522170618 0 0.13241563583181001 0.2003476577346209 0 0.13903299807830019 0.21154409335764149 0 0.12714211421566091 0.2115365522170618 0 0.13241563583181001 0.2003476577346209 0 0.1210814068145178 0.19423580856195369 0 0.13241563583181001 0.2003476577346209 0 0.13808072668616231 0.19149491569441959 0 0.1210814068145178 0.19423580856195369 0 0.14172685770208041 0.18088834424850889 0 0.13808072668616231 0.19149491569441959 0 0.1210814068145178 0.19423580856195369 0 0.14172685770208041 0.18088834424850889 0 0.1210814068145178 0.19423580856195369 0 0.13241563583181001 0.2003476577346209 0 0.15664227980061579 0.1834446584897341 0 0.15183105921464751 0.210852851725322 0 0.14735069213281321 0.19092796682168489 0 0.14172685770208041 0.18088834424850889 0 0.13808072668616231 0.19149491569441959 0 0.14735069213281321 0.19092796682168489 0 0.15183105921464751 0.210852851725322 0 0.13808072668616231 0.19149491569441959 0 0.14735069213281321 0.19092796682168489 0 0.15664227980061579 0.1834446584897341 0 0.15183105921464751 0.210852851725322 0 0.15183105921464751 0.210852851725322 0 0.13241563583181001 0.2003476577346209 0 0.13808072668616231 0.19149491569441959 0 0.15183105921464751 0.210852851725322 0 0.13808072668616231 0.19149491569441959 0 0.15664227980061579 0.1834446584897341 0 0.17803712215301101 0.18711146321258301 0 0.17078007948547791 0.20461318166966591 0 0.15664227980061579 0.1834446584897341 0 0.15183105921464751 0.210852851725322 0 0.17078007948547791 0.20461318166966591 0 0.17803712215301101 0.18711146321258301 0 0.18699821765939811 0.20575379358823331 0 0.17078007948547791 0.20461318166966591 0 0.18699821765939811 0.20575379358823331 0 0.18150256540618689 0.21619068467845909 0 0.17078007948547791 0.20461318166966591 0 0.18150256540618689 0.21619068467845909 0 0.17078007948547791 0.20461318166966591 0 0.1696832039875637 0.2204437538389574 0 0.15183105921464751 0.210852851725322 0 0.1696832039875637 0.2204437538389574 0 0.15183105921464751 0.210852851725322 0 0.17078007948547791 0.20461318166966591 0 0.1696832039875637 0.2204437538389574 0 0.15183105921464751 0.210852851725322 0 0.16890701105638031 0.23504418317664161 0 0.15183105921464751 0.210852851725322 0 0.1696832039875637 0.2204437538389574 0 0.16890701105638031 0.23504418317664161 0 0.1513137794066001 0.21432303737238931 0 0.15183105921464751 0.210852851725322 0 0.16890701105638031 0.23504418317664161 0 0.1696832039875637 0.2204437538389574 0 0.1730962958839812 0.23373525170759399 0 0.16890701105638031 0.23504418317664161 0 0.18150256540618689 0.21619068467845909 0 0.1696832039875637 0.2204437538389574 0 0.1874551123034256 0.23002704556275291 0 0.1696832039875637 0.2204437538389574 0 0.1874551123034256 0.23002704556275291 0 0.1730962958839812 0.23373525170759399 0 0.1696832039875637 0.2204437538389574 0 0.1874551123034256 0.23002704556275291 0 0.16890701105638031 0.23504418317664161 0 0.18564289691528729 0.25868749876629671 0 0.1821848497420967 0.24129823675235251 0 0.16890701105638031 0.23504418317664161 0 0.18564289691528729 0.25868749876629671 0 0.1730962958839812 0.23373525170759399 0 0.1821848497420967 0.24129823675235251 0 0.16890701105638031 0.23504418317664161 0 0.1874551123034256 0.23002704556275291 0 0.1730962958839812 0.23373525170759399 0 0.1821848497420967 0.24129823675235251 0 0.14248646727170791 0.24329921538672239 0 0.16890701105638031 0.23504418317664161 0 0.1631161995596529 0.25657386530356069 0 0.1730962958839812 0.23373525170759399 0 0.16890701105638031 0.23504418317664161 0 0.2052270206192876 0.23961033728654851 0 0.2245441737887168 0.23093760545441711 0 0.21458810326103989 0.25029177234766842 0 0.2052270206192876 0.23961033728654851 0 0.2050239072751949 0.2492833193895482 0 0.21458810326103989 0.25029177234766842 0 0.2052270206192876 0.23961033728654851 0 0.2050239072751949 0.2492833193895482 0 0.1956251304139873 0.24830732682566101 0 0.1874551123034256 0.23002704556275291 0 0.1821848497420967 0.24129823675235251 0 0.1956251304139873 0.24830732682566101 0 0.1874551123034256 0.23002704556275291 0 0.2052270206192876 0.23961033728654851 0 0.1821848497420967 0.24129823675235251 0 0.1956251304139873 0.24830732682566101 0 0.18564289691528729 0.25868749876629671 0 0.1874551123034256 0.23002704556275291 0 0.2052270206192876 0.23961033728654851 0 0.1956251304139873 0.24830732682566101 0 0.1874551123034256 0.23002704556275291 0 0.2052270206192876 0.23961033728654851 0 0.20110338325899621 0.22697869990708769 0 0.18150256540618689 0.21619068467845909 0 0.1874551123034256 0.23002704556275291 0 0.19422843088031849 0.2167901493339745 0 0.1874551123034256 0.23002704556275291 0 0.20110338325899621 0.22697869990708769 0 0.19422843088031849 0.2167901493339745 0 0.20110338325899621 0.22697869990708769 0 0.2086865974780466 0.21738525977654841 0 0.19422843088031849 0.2167901493339745 0 0.2052270206192876 0.23961033728654851 0 0.21155197229915221 0.22775520817690251 0 0.2245441737887168 0.23093760545441711 0 0.20110338325899621 0.22697869990708769 0 0.21155197229915221 0.22775520817690251 0 0.2086865974780466 0.21738525977654841 0 0.2052270206192876 0.23961033728654851 0 0.20110338325899621 0.22697869990708769 0 0.21155197229915221 0.22775520817690251 0 0.21155197229915221 0.22775520817690251 0 0.2086865974780466 0.21738525977654841 0 0.22156171208109349 0.2232889965660497 0 0.211417792929007 0.20448623071467029 0 0.2086865974780466 0.21738525977654841 0 0.22411523440486891 0.2128525325182862 0 0.2086865974780466 0.21738525977654841 0 0.22411523440486891 0.2128525325182862 0 0.22156171208109349 0.2232889965660497 0 0.211417792929007 0.20448623071467029 0 0.2086865974780466 0.21738525977654841 0 0.19996516513116139 0.20542151256053021 0 0.2086865974780466 0.21738525977654841 0 0.19422843088031849 0.2167901493339745 0 0.19996516513116139 0.20542151256053021 0 0.18699821765939811 0.20575379358823331 0 0.18150256540618689 0.21619068467845909 0 0.19422843088031849 0.2167901493339745 0 0.18699821765939811 0.20575379358823331 0 0.19422843088031849 0.2167901493339745 0 0.19996516513116139 0.20542151256053021 0 0.18699821765939811 0.20575379358823331 0 0.19996516513116139 0.20542151256053021 0 0.19943196450540629 0.19077826793543179 0 0.17803712215301101 0.18711146321258301 0 0.19943196450540629 0.19077826793543179 0 0.17803712215301101 0.18711146321258301 0 0.18699821765939811 0.20575379358823331 0 0.19943196450540629 0.19077826793543179 0 0.211417792929007 0.20448623071467029 0 0.19943196450540629 0.19077826793543179 0 0.22082680685780151 0.19444507265828059 0 0.19943196450540629 0.19077826793543179 0 0.22082680685780151 0.19444507265828059 0 0.211417792929007 0.20448623071467029 0 0.19996516513116139 0.20542151256053021 0 0.19943196450540629 0.19077826793543179 0 0.22082680685780151 0.19444507265828059 0 0.2418323282778008 0.1922485172988235 0 0.23200417938957321 0.20455559625434991 0 0.22082680685780151 0.19444507265828059 0 0.2418323282778008 0.1922485172988235 0 0.2298041727050075 0.1787595393801808 0 0.2418323282778008 0.1922485172988235 0 0.24124234801782149 0.21867626254200909 0 0.2418323282778008 0.1922485172988235 0 0.24124234801782149 0.21867626254200909 0 0.25471258750952741 0.20148162901819469 0 0.2418323282778008 0.1922485172988235 0 0.24124234801782149 0.21867626254200909 0 0.23200417938957321 0.20455559625434991 0 0.24124234801782149 0.21867626254200909 0 0.25357276657721323 0.21641202867955539 0 0.25471258750952741 0.20148162901819469 0 0.24124234801782149 0.21867626254200909 0 0.22411523440486891 0.2128525325182862 0 0.2303270751280653 0.22194856436908961 0 0.211417792929007 0.20448623071467029 0 0.22082680685780151 0.19444507265828059 0 0.22411523440486891 0.2128525325182862 0 0.22082680685780151 0.19444507265828059 0 0.23200417938957321 0.20455559625434991 0 0.22411523440486891 0.2128525325182862 0 0.24124234801782149 0.21867626254200909 0 0.23200417938957321 0.20455559625434991 0 0.22411523440486891 0.2128525325182862 0 0.22411523440486891 0.2128525325182862 0 0.22156171208109349 0.2232889965660497 0 0.2303270751280653 0.22194856436908961 0 0.22156171208109349 0.2232889965660497 0 0.2245441737887168 0.23093760545441711 0 0.2301452193877111 0.22885480910105491 0 0.21155197229915221 0.22775520817690251 0 0.22156171208109349 0.2232889965660497 0 0.2245441737887168 0.23093760545441711 0 0.2301452193877111 0.22885480910105491 0 0.23408043491912681 0.23335190051361199 0 0.23787356880598759 0.22384871304106421 0 0.2301452193877111 0.22885480910105491 0 0.23408043491912681 0.23335190051361199 0 0.2258394828391487 0.23585902185418811 0 0.2245441737887168 0.23093760545441711 0 0.2301452193877111 0.22885480910105491 0 0.2258394828391487 0.23585902185418811 0 0.2301452193877111 0.22885480910105491 0 0.2303270751280653 0.22194856436908961 0 0.23787356880598759 0.22384871304106421 0 0.22156171208109349 0.2232889965660497 0 0.2301452193877111 0.22885480910105491 0 0.2303270751280653 0.22194856436908961 0 0.24124234801782149 0.21867626254200909 0 0.2303270751280653 0.22194856436908961 0 0.23787356880598759 0.22384871304106421 0 0.24124234801782149 0.21867626254200909 0 0.23787356880598759 0.22384871304106421 0 0.25357276657721323 0.21641202867955539 0 0.23408043491912681 0.23335190051361199 0 0.24868260911088891 0.2303107595792985 0 0.25357276657721323 0.21641202867955539 0 0.23408043491912681 0.23335190051361199 0 0.23787356880598759 0.22384871304106421 0 0.25357276657721323 0.21641202867955539 0 0.23408043491912681 0.23335190051361199 0 0.25357276657721323 0.21641202867955539 0 0.24868260911088891 0.2303107595792985 0 0.2392512687495113 0.23539683186585869 0 0.2471090749199483 0.2357199094212839 0 0.23408043491912681 0.23335190051361199 0 0.24868260911088891 0.2303107595792985 0 0.2392512687495113 0.23539683186585869 0 0.23408043491912681 0.23335190051361199 0 0.2356673672060029 0.23553231024254659 0 0.23369101455560959 0.23545012385447089 0 0.2356673672060029 0.23553231024254659 0 0.23652425047500741 0.24096462129343871 0 0.23369101455560959 0.23545012385447089 0 0.23652425047500741 0.24096462129343871 0 0.2392512687495113 0.23539683186585869 0 0.24523436150048811 0.24199469982198529 0 0.2356673672060029 0.23553231024254659 0 0.23652425047500741 0.24096462129343871 0 0.2392512687495113 0.23539683186585869 0 0.23408043491912681 0.23335190051361199 0 0.2356673672060029 0.23553231024254659 0 0.2392512687495113 0.23539683186585869 0 0.24523436150048811 0.24199469982198529 0 0.2471090749199483 0.2357199094212839 0 0.25452501640087027 0.2374112721999547 0 0.2392512687495113 0.23539683186585869 0 0.24523436150048811 0.24199469982198529 0 0.2471090749199483 0.2357199094212839 0 0.24523436150048811 0.24199469982198529 0 0.23995652529561701 0.25039133628829258 0 0.25404003316197471 0.25208422786308371 0 0.23652425047500741 0.24096462129343871 0 0.24523436150048811 0.24199469982198529 0 0.23995652529561701 0.25039133628829258 0 0.23652425047500741 0.24096462129343871 0 0.23169913173193779 0.25404958449575432 0 0.23995652529561701 0.25039133628829258 0 0.23369101455560959 0.23545012385447089 0 0.2170338530129477 0.25958452376210089 0 0.21458810326103989 0.25029177234766842 0 0.23408043491912681 0.23335190051361199 0 0.23369101455560959 0.23545012385447089 0 0.21458810326103989 0.25029177234766842 0 0.23408043491912681 0.23335190051361199 0 0.21458810326103989 0.25029177234766842 0 0.2245441737887168 0.23093760545441711 0 0.21458810326103989 0.25029177234766842 0 0.23408043491912681 0.23335190051361199 0 0.2258394828391487 0.23585902185418811 0 0.21458810326103989 0.25029177234766842 0 0.23369101455560959 0.23545012385447089 0 0.2170338530129477 0.25958452376210089 0 0.23169913173193779 0.25404958449575432 0 0.23652425047500741 0.24096462129343871 0 0.23369101455560959 0.23545012385447089 0 0.23169913173193779 0.25404958449575432 0 0.23369101455560959 0.23545012385447089 0 0.2170338530129477 0.25958452376210089 0 0.2245441737887168 0.23093760545441711 0 0.2258394828391487 0.23585902185418811 0 0.21458810326103989 0.25029177234766842 0 0.2074718948020329 0.13931593166829101 0 0.2035930282546865 0.1573108976369578 0 0.22801201431925219 0.15227861461809999 0 0.2074718948020329 0.13931593166829101 0 0.22815060196587239 0.13250420183309389 0 0.2202182220460269 0.1181723145221887 0 0.2074718948020329 0.13931593166829101 0 0.2202182220460269 0.1181723145221887 0 0.19370351113240411 0.1202502215829211 0 0.18154761934540289 0.13534417850528041 0 0.2074718948020329 0.13931593166829101 0 0.19370351113240411 0.1202502215829211 0 0.1832181015668064 0.15465227861531949 0 0.2074718948020329 0.13931593166829101 0 0.1832181015668064 0.15465227861531949 0 0.18154761934540289 0.13534417850528041 0 0.2074718948020329 0.13931593166829101 0 0.1832181015668064 0.15465227861531949 0 0.2074718948020329 0.13931593166829101 0 0.2035930282546865 0.1573108976369578 0 0.1832181015668064 0.15465227861531949 0 0.1915320106228488 0.17262237876131631 0 0.2035930282546865 0.1573108976369578 0 0.1915320106228488 0.17262237876131631 0 0.21309098299550949 0.1707274381193544 0 0.2035930282546865 0.1573108976369578 0 0.19943196450540629 0.19077826793543179 0 0.1915320106228488 0.17262237876131631 0 0.21309098299550949 0.1707274381193544 0 0.17803712215301101 0.18711146321258301 0 0.19943196450540629 0.19077826793543179 0 0.1915320106228488 0.17262237876131631 0 0.19943196450540629 0.19077826793543179 0 0.22082680685780151 0.19444507265828059 0 0.21309098299550949 0.1707274381193544 0 0.21309098299550949 0.1707274381193544 0 0.2035930282546865 0.1573108976369578 0 0.22801201431925219 0.15227861461809999 0 0.2298041727050075 0.1787595393801808 0 0.2424223085377801 0.16582077205563811 0 0.22801201431925219 0.15227861461809999 0 0.21309098299550949 0.1707274381193544 0 0.2298041727050075 0.1787595393801808 0 0.22801201431925219 0.15227861461809999 0 0.22082680685780151 0.19444507265828059 0 0.21309098299550949 0.1707274381193544 0 0.2298041727050075 0.1787595393801808 0 0.2418323282778008 0.1922485172988235 0 0.2424223085377801 0.16582077205563811 0 0.2418323282778008 0.1922485172988235 0 0.2424223085377801 0.16582077205563811 0 0.26032431562704572 0.18342712708893841 0 0.2418323282778008 0.1922485172988235 0 0.2298041727050075 0.1787595393801808 0 0.2424223085377801 0.16582077205563811 0 0.2424223085377801 0.16582077205563811 0 0.24301228879775941 0.13939302681245261 0 0.2424223085377801 0.16582077205563811 0 0.24301228879775941 0.13939302681245261 0 0.25486404381895789 0.1523024957907583 0 0.22801201431925219 0.15227861461809999 0 0.23648687609860089 0.13476882232929049 0 0.24301228879775941 0.13939302681245261 0 0.2424223085377801 0.16582077205563811 0 0.22801201431925219 0.15227861461809999 0 0.24301228879775941 0.13939302681245261 0 0.2074718948020329 0.13931593166829101 0 0.22801201431925219 0.15227861461809999 0 0.22815060196587239 0.13250420183309389 0 0.22815060196587239 0.13250420183309389 0 0.24420216851797599 0.1292372680552665 0 0.2202182220460269 0.1181723145221887 0 0.22801201431925219 0.15227861461809999 0 0.22815060196587239 0.13250420183309389 0 0.23648687609860089 0.13476882232929049 0 0.22815060196587239 0.13250420183309389 0 0.23648687609860089 0.13476882232929049 0 0.24420216851797599 0.1292372680552665 0 0.23648687609860089 0.13476882232929049 0 0.24301228879775941 0.13939302681245261 0 0.24420216851797599 0.1292372680552665 0 0.24646482385440791 0.1109165710353929 0 0.23770217468454991 0.11680213067385049 0 0.255186127323073 0.11543194682551421 0 0.24420216851797599 0.1292372680552665 0 0.23770217468454991 0.11680213067385049 0 0.255186127323073 0.11543194682551421 0 0.23770217468454991 0.11680213067385049 0 0.255186127323073 0.11543194682551421 0 0.23770217468454991 0.11680213067385049 0 0.24055722746134861 0.1095612663226197 0 0.23538797832625211 0.10692464088038291 0 0.24646482385440791 0.1109165710353929 0 0.23770217468454991 0.11680213067385049 0 0.24055722746134861 0.1095612663226197 0 0.24174744587836799 0.1033548466348798 0 0.22816008327650389 0.097918375238235045 0 0.24736227196270541 0.090270970101712061 0 0.22816008327650389 0.097918375238235045 0 0.24736227196270541 0.090270970101712061 0 0.24174744587836799 0.1033548466348798 0 0.24736227196270541 0.090270970101712061 0 0.25459763100830068 0.096141582858552177 0 0.24174744587836799 0.1033548466348798 0 0.25459763100830068 0.096141582858552177 0 0.24646482385440791 0.1109165710353929 0 0.24174744587836799 0.1033548466348798 0 0.25655208948606423 0.10927836717886751 0 0.24174744587836799 0.1033548466348798 0 0.25655208948606423 0.10927836717886751 0 0.24646482385440791 0.1109165710353929 0 0.24055722746134861 0.1095612663226197 0 0.24174744587836799 0.1033548466348798 0 0.23538797832625211 0.10692464088038291 0 0.24174744587836799 0.1033548466348798 0 0.22816008327650389 0.097918375238235045 0 0.24055722746134861 0.1095612663226197 0 0.23538797832625211 0.10692464088038291 0 0.24174744587836799 0.1033548466348798 0 0.23538797832625211 0.10692464088038291 0 0.24174744587836799 0.1033548466348798 0 0.24174744587836799 0.1033548466348798 0 0.22816008327650389 0.097918375238235045 0 0.23538797832625211 0.10692464088038291 0 0.22816008327650389 0.097918375238235045 0 0.22436085098549791 0.1097634104313145 0 0.23770217468454991 0.11680213067385049 0 0.2202182220460269 0.1181723145221887 0 0.23770217468454991 0.11680213067385049 0 0.2202182220460269 0.1181723145221887 0 0.22436085098549791 0.1097634104313145 0 0.24420216851797599 0.1292372680552665 0 0.23770217468454991 0.11680213067385049 0 0.2202182220460269 0.1181723145221887 0 0.24420216851797599 0.1292372680552665 0 0.2202182220460269 0.1181723145221887 0 0.23770217468454991 0.11680213067385049 0 0.23538797832625211 0.10692464088038291 0 0.22436085098549791 0.1097634104313145 0 0.2202182220460269 0.1181723145221887 0 0.20033579659415629 0.10899959084191641 0 0.19370351113240411 0.1202502215829211 0 0.2202182220460269 0.1181723145221887 0 0.20033579659415629 0.10899959084191641 0 0.2202182220460269 0.1181723145221887 0 0.19370351113240411 0.1202502215829211 0 0.2202182220460269 0.1181723145221887 0 0.22436085098549791 0.1097634104313145 0 0.20033579659415629 0.10899959084191641 0 0.22816008327650389 0.097918375238235045 0 0.22436085098549791 0.1097634104313145 0 0.20033579659415629 0.10899959084191641 0 0.22816008327650389 0.097918375238235045 0 0.20033579659415629 0.10899959084191641 0 0.2016134769563831 0.087296750559026068 0 0.22816008327650389 0.097918375238235045 0 0.20033579659415629 0.10899959084191641 0 0.20033579659415629 0.10899959084191641 0 0.18422746814952201 0.1154148446289336 0 0.1860496622757298 0.1024087067025775 0 0.20033579659415629 0.10899959084191641 0 0.2016134769563831 0.087296750559026068 0 0.1860496622757298 0.1024087067025775 0 0.20033579659415629 0.10899959084191641 0 0.1860496622757298 0.1024087067025775 0 0.20033579659415629 0.10899959084191641 0 0.19370351113240411 0.1202502215829211 0 0.18422746814952201 0.1154148446289336 0 0.20033579659415629 0.10899959084191641 0 0.18422746814952201 0.1154148446289336 0 0.19220101611619109 0.069455466931817506 0 0.2016134769563831 0.087296750559026068 0 0.22553753830923129 0.072562856517635971 0 0.19220101611619109 0.069455466931817506 0 0.22553753830923129 0.072562856517635971 0 0.20371280465575431 0.054854742933563613 0 0.19220101611619109 0.069455466931817506 0 0.2016134769563831 0.087296750559026068 0 0.17506687063626211 0.076675125879817507 0 0.2016134769563831 0.087296750559026068 0 0.17506687063626211 0.076675125879817507 0 0.2016134769563831 0.087296750559026068 0 0.1860496622757298 0.1024087067025775 0 0.17954517331912459 0.085943521096986275 0 0.22816008327650389 0.097918375238235045 0 0.2016134769563831 0.087296750559026068 0 0.22553753830923129 0.072562856517635971 0 0.22816008327650389 0.097918375238235045 0 0.2016134769563831 0.087296750559026068 0 0.22553753830923129 0.072562856517635971 0 0.20371280465575431 0.054854742933563613 0 0.22816008327650389 0.097918375238235045 0 0.22553753830923129 0.072562856517635971 0 0.24736227196270541 0.090270970101712061 0 0.22553753830923129 0.072562856517635971 0 0.24736227196270541 0.090270970101712061 0 0.22553753830923129 0.072562856517635971 0 0.24736227196270541 0.090270970101712061 0 0.24874122334595 0.07170785510379532 0 0.22553753830923129 0.072562856517635971 0 0.24874122334595 0.07170785510379532 0 0.24629062771517271 0.052820950830226497 0 0.24629062771517271 0.052820950830226497 0 0.22540450977275331 0.044226989078737088 0 0.24629062771517271 0.052820950830226497 0 0.2492733855269578 0.041579555173777823 0 0.22540450977275331 0.044226989078737088 0 0.2492733855269578 0.041579555173777823 0 0.23050941707716249 0.025621187905106171 0 0.2492733855269578 0.041579555173777823 0 0.22540450977275331 0.044226989078737088 0 0.23050941707716249 0.025621187905106171 0 0.22540450977275331 0.044226989078737088 0 0.23050941707716249 0.025621187905106171 0 0.21805144048265651 0.031797176764528597 0 0.22553753830923129 0.072562856517635971 0 0.24629062771517271 0.052820950830226497 0 0.22540450977275331 0.044226989078737088 0 0.23790413247208811 0.0091049515404343275 0 0.25322369798355371 0.0032948183560677501 0 0.2464198669495459 -0.012097030270161889 0 0.23790413247208811 0.0091049515404343275 0 0.25442723867738032 0.016379625870619269 0 0.25322369798355371 0.0032948183560677501 0 0.2492733855269578 0.041579555173777823 0 0.24818833723327199 0.02644705719899533 0 0.23050941707716249 0.025621187905106171 0 0.23790413247208811 0.0091049515404343275 0 0.24818833723327199 0.02644705719899533 0 0.25442723867738032 0.016379625870619269 0 0.23790413247208811 0.0091049515404343275 0 0.24818833723327199 0.02644705719899533 0 0.23050941707716249 0.025621187905106171 0 0.23050941707716249 0.025621187905106171 0 0.2117734432503762 0.02170750274702346 0 0.21805144048265651 0.031797176764528597 0 0.23050941707716249 0.025621187905106171 0 0.21174544862736719 0.0096628206364345465 0 0.23050941707716249 0.025621187905106171 0 0.22518260227175371 0.0072623370788317187 0 0.21174544862736719 0.0096628206364345465 0 0.23790413247208811 0.0091049515404343275 0 0.22518260227175371 0.0072623370788317187 0 0.2300866381754704 -0.0072438550720441714 0 0.23790413247208811 0.0091049515404343275 0 0.23050941707716249 0.025621187905106171 0 0.22518260227175371 0.0072623370788317187 0 0.21174544862736719 0.0096628206364345465 0 0.2117734432503762 0.02170750274702346 0 0.20589386385567829 -0.0063134785331596111 0 0.2117734432503762 0.02170750274702346 0 0.19985428483697371 0.01027601627170664 0 0.20589386385567829 -0.0063134785331596111 0 0.2117734432503762 0.02170750274702346 0 0.20589386385567829 -0.0063134785331596111 0 0.22518260227175371 0.0072623370788317187 0 0.21174544862736719 0.0096628206364345465 0 0.2185782736923042 -0.0038367730406402641 0 0.23050941707716249 0.025621187905106171 0 0.21174544862736719 0.0096628206364345465 0 0.2117734432503762 0.02170750274702346 0 0.2117734432503762 0.02170750274702346 0 0.19994459845139961 0.023663902980434019 0 0.19985428483697371 0.01027601627170664 0 0.2117734432503762 0.02170750274702346 0 0.21805144048265651 0.031797176764528597 0 0.20451839183033399 0.035633027327247678 0 0.2117734432503762 0.02170750274702346 0 0.19994459845139961 0.023663902980434019 0 0.20451839183033399 0.035633027327247678 0 0.19994459845139961 0.023663902980434019 0 0.20451839183033399 0.035633027327247678 0 0.1836322738879155 0.027039065575756291 0 0.19994459845139961 0.023663902980434019 0 0.19985428483697371 0.01027601627170664 0 0.1836322738879155 0.027039065575756291 0 0.19985428483697371 0.01027601627170664 0 0.20589386385567829 -0.0063134785331596111 0 0.18863989258252481 -0.001979820774580698 0 0.19985428483697371 0.01027601627170664 0 0.1836322738879155 0.027039065575756291 0 0.18863989258252481 -0.001979820774580698 0 0.22553753830923129 0.072562856517635971 0 0.22540450977275331 0.044226989078737088 0 0.20371280465575431 0.054854742933563613 0 0.22540450977275331 0.044226989078737088 0 0.20451839183033399 0.035633027327247678 0 0.22540450977275331 0.044226989078737088 0 0.21805144048265651 0.031797176764528597 0 0.20451839183033399 0.035633027327247678 0 0.22540450977275331 0.044226989078737088 0 0.20371280465575431 0.054854742933563613 0 0.20451839183033399 0.035633027327247678 0 0.20451839183033399 0.035633027327247678 0 0.1818880710022803 0.03714662934948755 0 0.1836322738879155 0.027039065575756291 0 0.20371280465575431 0.054854742933563613 0 0.20451839183033399 0.035633027327247678 0 0.1818880710022803 0.03714662934948755 0 0.20371280465575431 0.054854742933563613 0 0.1818880710022803 0.03714662934948755 0 0.20451839183033399 0.035633027327247678 0 0.1836322738879155 0.027039065575756291 0 0.20371280465575431 0.054854742933563613 0 0.17847747081927551 0.05691087761465332 0 0.1818880710022803 0.03714662934948755 0 0.19220101611619109 0.069455466931817506 0 0.20371280465575431 0.054854742933563613 0 0.17847747081927551 0.05691087761465332 0 0.17847747081927551 0.05691087761465332 0 0.1818880710022803 0.03714662934948755 0 0.17847747081927551 0.05691087761465332 0 0.1818880710022803 0.03714662934948755 0 0.1636569447874848 0.036789081642687432 0 0.1818880710022803 0.03714662934948755 0 0.1836322738879155 0.027039065575756291 0 0.1818880710022803 0.03714662934948755 0 0.1636569447874848 0.036789081642687432 0 0.1620242678869008 0.02102957209859084 0 0.17847747081927551 0.05691087761465332 0 0.1636569447874848 0.036789081642687432 0 0.15962551614652079 0.053115759904931073 0 0.17847747081927551 0.05691087761465332 0 0.15962551614652079 0.053115759904931073 0 0.16641746421004469 0.065589342706300277 0 0.15962551614652079 0.053115759904931073 0 0.15045482833334159 0.067212260357143019 0 0.16641746421004469 0.065589342706300277 0 0.1716695151525548 0.011722155214289249 0 0.17506184651935949 -0.0021247232161890161 0 0.18863989258252481 -0.001979820774580698 0 0.1836322738879155 0.027039065575756291 0 0.18863989258252481 -0.001979820774580698 0 0.1836322738879155 0.027039065575756291 0 0.1716695151525548 0.011722155214289249 0 0.18863989258252481 -0.001979820774580698 0 0.1818880710022803 0.03714662934948755 0 0.1730573255808272 0.02268781650565178 0 0.1620242678869008 0.02102957209859084 0 0.1818880710022803 0.03714662934948755 0 0.1620242678869008 0.02102957209859084 0 0.1730573255808272 0.02268781650565178 0 0.1836322738879155 0.027039065575756291 0 0.1716695151525548 0.011722155214289249 0 0.1730573255808272 0.02268781650565178 0 0.1836322738879155 0.027039065575756291 0 0.1818880710022803 0.03714662934948755 0 0.1730573255808272 0.02268781650565178 0 0.1836322738879155 0.027039065575756291 0 0.1636569447874848 0.036789081642687432 0 0.1620242678869008 0.02102957209859084 0 0.15032019737810451 0.03113296745297477 0 0.1730573255808272 0.02268781650565178 0 0.1620242678869008 0.02102957209859084 0 0.1716695151525548 0.011722155214289249 0 0.1620242678869008 0.02102957209859084 0 0.1716695151525548 0.011722155214289249 0 0.15871689523486121 0.010399441389301141 0 0.1716695151525548 0.011722155214289249 0 0.15871689523486121 0.010399441389301141 0 0.1628037813635097 0.0015330777282007481 0 0.15871689523486121 0.010399441389301141 0 0.1628037813635097 0.0015330777282007481 0 0.15453230216132671 0.0032055715019124438 0 0.1716695151525548 0.011722155214289249 0 0.1628037813635097 0.0015330777282007481 0 0.17506184651935949 -0.0021247232161890161 0 0.1620242678869008 0.02102957209859084 0 0.14216046477152491 0.0049125148476896544 0 0.15871689523486121 0.010399441389301141 0 0.14216046477152491 0.0049125148476896544 0 0.15453230216132671 0.0032055715019124438 0 0.14216046477152491 0.0049125148476896544 0 0.15453230216132671 0.0032055715019124438 0 0.15849764294065671 -0.0060544572746906826 0 0.1620242678869008 0.02102957209859084 0 0.15871689523486121 0.010399441389301141 0 0.14216046477152491 0.0049125148476896544 0 0.1620242678869008 0.02102957209859084 0 0.14216046477152491 0.0049125148476896544 0 0.1432298655490542 0.02239521632663263 0 0.1620242678869008 0.02102957209859084 0 0.1432298655490542 0.02239521632663263 0 0.15032019737810451 0.03113296745297477 0 0.1432298655490542 0.02239521632663263 0 0.15032019737810451 0.03113296745297477 0 0.1366405524080008 0.032741533152345258 0 0.1432298655490542 0.02239521632663263 0 0.12659142849079691 0.028091664155532971 0 0.1366405524080008 0.032741533152345258 0 0.14216046477152491 0.0049125148476896544 0 0.1432298655490542 0.02239521632663263 0 0.12659142849079691 0.028091664155532971 0 0.14216046477152491 0.0049125148476896544 0 0.12659142849079691 0.028091664155532971 0 0.1323442420055404 0.014884056975098 0 0.14216046477152491 0.0049125148476896544 0 0.12659142849079691 0.028091664155532971 0 0.11882011836095251 0.0065886106746579649 0 0.12659142849079691 0.028091664155532971 0 0.1323442420055404 0.014884056975098 0 0.12659142849079691 0.028091664155532971 0 0.1366405524080008 0.032741533152345258 0 0.11882011836095251 0.0065886106746579649 0 0.1323442420055404 0.014884056975098 0 0.13735218555535891 0.001011181807127467 0 0.1323442420055404 0.014884056975098 0 0.13735218555535891 0.001011181807127467 0 0.14216046477152491 0.0049125148476896544 0 0.1323442420055404 0.014884056975098 0 0.13735218555535891 0.001011181807127467 0 0.14216046477152491 0.0049125148476896544 0 0.13735218555535891 0.001011181807127467 0 0.15962551614652079 0.053115759904931073 0 0.1452456698728295 0.044396077507560729 0 0.15045482833334159 0.067212260357143019 0 0.1452456698728295 0.044396077507560729 0 0.12683439495817461 0.052003073372435288 0 0.15045482833334159 0.067212260357143019 0 0.1636569447874848 0.036789081642687432 0 0.15032019737810451 0.03113296745297477 0 0.1452456698728295 0.044396077507560729 0 0.1636569447874848 0.036789081642687432 0 0.15962551614652079 0.053115759904931073 0 0.1452456698728295 0.044396077507560729 0 0.1636569447874848 0.036789081642687432 0 0.1452456698728295 0.044396077507560729 0 0.15032019737810451 0.03113296745297477 0 0.1452456698728295 0.044396077507560729 0 0.1366405524080008 0.032741533152345258 0 0.1452456698728295 0.044396077507560729 0 0.13015300311198849 0.040381385354086502 0 0.12683439495817461 0.052003073372435288 0 0.1452456698728295 0.044396077507560729 0 0.1366405524080008 0.032741533152345258 0 0.13015300311198849 0.040381385354086502 0 0.12659142849079691 0.028091664155532971 0 0.1366405524080008 0.032741533152345258 0 0.13015300311198849 0.040381385354086502 0 0.12683439495817461 0.052003073372435288 0 0.13134854049252651 0.064566646620811727 0 0.15045482833334159 0.067212260357143019 0 0.1452456698728295 0.044396077507560729 0 0.12683439495817461 0.052003073372435288 0 0.12683439495817461 0.052003073372435288 0 0.15045482833334159 0.067212260357143019 0 0.1213053233293625 0.063977455960140386 0 0.12683439495817461 0.052003073372435288 0 0.13134854049252651 0.064566646620811727 0 0.13134854049252651 0.064566646620811727 0 0.12679961534922851 0.075073796793526271 0 0.15045482833334159 0.067212260357143019 0 0.1213053233293625 0.063977455960140386 0 0.13134854049252651 0.064566646620811727 0 0.12679961534922851 0.075073796793526271 0 0.12679961534922851 0.075073796793526271 0 0.15045482833334159 0.067212260357143019 0 0.1492815716532653 0.085445809678383625 0 0.1185648575779607 0.095458187827811403 0 0.12679961534922851 0.075073796793526271 0 0.13332649773741079 0.089989738391902788 0 0.1492815716532653 0.085445809678383625 0 0.13332649773741079 0.089989738391902788 0 0.13865994636918871 0.10398115926788989 0 0.12679961534922851 0.075073796793526271 0 0.1492815716532653 0.085445809678383625 0 0.12679961534922851 0.075073796793526271 0 0.1492815716532653 0.085445809678383625 0 0.13332649773741079 0.089989738391902788 0 0.123281054128593 0.11724462113534739 0 0.1185648575779607 0.095458187827811403 0 0.13865994636918871 0.10398115926788989 0 0.1185648575779607 0.095458187827811403 0 0.13332649773741079 0.089989738391902788 0 0.13865994636918871 0.10398115926788989 0 0.123281054128593 0.11724462113534739 0 0.13865994636918871 0.10398115926788989 0 0.13947052033133081 0.1245003570974072 0 0.13947052033133081 0.1245003570974072 0 0.15026369300765779 0.1129544164764977 0 0.16718880021878149 0.12232812864365609 0 0.13947052033133081 0.1245003570974072 0 0.16718880021878149 0.12232812864365609 0 0.13865994636918871 0.10398115926788989 0 0.13947052033133081 0.1245003570974072 0 0.15026369300765779 0.1129544164764977 0 0.1492815716532653 0.085445809678383625 0 0.13865994636918871 0.10398115926788989 0 0.15573550511132991 0.1010080208970377 0 0.13865994636918871 0.10398115926788989 0 0.15026369300765779 0.1129544164764977 0 0.15573550511132991 0.1010080208970377 0 0.15573550511132991 0.1010080208970377 0 0.17176352795730221 0.095817822563241214 0 0.16718880021878149 0.12232812864365609 0 0.17176352795730221 0.095817822563241214 0 0.16718880021878149 0.12232812864365609 0 0.1492815716532653 0.085445809678383625 0 0.15573550511132991 0.1010080208970377 0 0.17176352795730221 0.095817822563241214 0 0.15026369300765779 0.1129544164764977 0 0.15573550511132991 0.1010080208970377 0 0.16718880021878149 0.12232812864365609 0 0.16718880021878149 0.12232812864365609 0 0.18422746814952201 0.1154148446289336 0 0.17176352795730221 0.095817822563241214 0 0.16718880021878149 0.12232812864365609 0 0.18422746814952201 0.1154148446289336 0 0.19370351113240411 0.1202502215829211 0 0.16718880021878149 0.12232812864365609 0 0.19370351113240411 0.1202502215829211 0 0.16718880021878149 0.12232812864365609 0 0.18422746814952201 0.1154148446289336 0 0.17176352795730221 0.095817822563241214 0 0.18422746814952201 0.1154148446289336 0 0.1860496622757298 0.1024087067025775 0 0.17176352795730221 0.095817822563241214 0 0.1860496622757298 0.1024087067025775 0 0.17954517331912459 0.085943521096986275 0 0.17176352795730221 0.095817822563241214 0 0.1860496622757298 0.1024087067025775 0 0.2016134769563831 0.087296750559026068 0 0.17954517331912459 0.085943521096986275 0 0.17506687063626211 0.076675125879817507 0 0.17176352795730221 0.095817822563241214 0 0.17407526170850959 0.082421447341849294 0 0.17176352795730221 0.095817822563241214 0 0.17954517331912459 0.085943521096986275 0 0.17407526170850959 0.082421447341849294 0 0.17954517331912459 0.085943521096986275 0 0.17407526170850959 0.082421447341849294 0 0.17506687063626211 0.076675125879817507 0 0.17407526170850959 0.082421447341849294 0 0.17506687063626211 0.076675125879817507 0 0.17954517331912459 0.085943521096986275 0 0.17407526170850959 0.082421447341849294 0 0.17847747081927551 0.05691087761465332 0 0.17506687063626211 0.076675125879817507 0 0.19220101611619109 0.069455466931817506 0 0.17847747081927551 0.05691087761465332 0 0.17506687063626211 0.076675125879817507 0 0.17847747081927551 0.05691087761465332 0 0.17506687063626211 0.076675125879817507 0 0.16641746421004469 0.065589342706300277 0 0.17407526170850959 0.082421447341849294 0 0.17506687063626211 0.076675125879817507 0 0.16846263511482451 0.074032689774956653 0 0.15045482833334159 0.067212260357143019 0 0.16846263511482451 0.074032689774956653 0 0.16641746421004469 0.065589342706300277 0 0.17506687063626211 0.076675125879817507 0 0.16846263511482451 0.074032689774956653 0 0.16641746421004469 0.065589342706300277 0 0.15045482833334159 0.067212260357143019 0 0.17407526170850959 0.082421447341849294 0 0.16846263511482451 0.074032689774956653 0 0.17506687063626211 0.076675125879817507 0 0.16846263511482451 0.074032689774956653 0 0.15045482833334159 0.067212260357143019 0 0.17407526170850959 0.082421447341849294 0 0.1492815716532653 0.085445809678383625 0 0.17176352795730221 0.095817822563241214 0 0.1492815716532653 0.085445809678383625 0 0.17176352795730221 0.095817822563241214 0 0.17407526170850959 0.082421447341849294 0 0.15045482833334159 0.067212260357143019 0 0.1492815716532653 0.085445809678383625 0 0.17407526170850959 0.082421447341849294 0 0.094789198081262169 0.47221984895451657 0 0.09870107108427445 0.5 0 0.1248616532684987 0.47476888169724352 0 0.09870107108427445 0.5 0 0.1248616532684987 0.47476888169724352 0 0.1287333349596296 0.50000000000000233 0 0.1248616532684987 0.47476888169724352 0 0.1154926134483955 0.45328817880533262 0 0.094789198081262169 0.47221984895451657 0 0.1248616532684987 0.47476888169724352 0 0.1154926134483955 0.45328817880533262 0 0.1248616532684987 0.47476888169724352 0 0.1205619018159948 0.44674810255646558 0 0.1248616532684987 0.47476888169724352 0 0.1154926134483955 0.45328817880533262 0 0.1205619018159948 0.44674810255646558 0 0.1154926134483955 0.45328817880533262 0 0.106123573628292 0.43180747591342172 0 0.1154926134483955 0.45328817880533262 0 0.1205619018159948 0.44674810255646558 0 0.106123573628292 0.43180747591342172 0 0.1154926134483955 0.45328817880533262 0 0.096722182691352548 0.44869154901932268 0 0.106123573628292 0.43180747591342172 0 0.094789198081262169 0.47221984895451657 0 0.1154926134483955 0.45328817880533262 0 0.096722182691352548 0.44869154901932268 0 0.094789198081262169 0.47221984895451657 0 0.077453222292990773 0.45016302493177879 0 0.067202034968243438 0.47028323083424428 0 0.094789198081262169 0.47221984895451657 0 0.096722182691352548 0.44869154901932268 0 0.077453222292990773 0.45016302493177879 0 0.096722182691352548 0.44869154901932268 0 0.077453222292990773 0.45016302493177879 0 0.085233479690329184 0.42595657570789891 0 0.077453222292990773 0.45016302493177879 0 0.085233479690329184 0.42595657570789891 0 0.077453222292990773 0.45016302493177879 0 0.055846149836862702 0.43889490050586683 0 0.065639666334966471 0.42409002317344818 0 0.077453222292990773 0.45016302493177879 0 0.067202034968243438 0.47028323083424428 0 0.051776939420019832 0.45519588853091181 0 0.094789198081262169 0.47221984895451657 0 0.067202034968243438 0.47028323083424428 0 0.068668807208919325 0.5 0 0.094789198081262169 0.47221984895451657 0 0.09870107108427445 0.5 0 0.068668807208919325 0.5 0 0.068668807208919325 0.5 0 0.043814234576468783 0.4752156274217324 0 0.038636543333564137 0.5 0 0.067202034968243438 0.47028323083424428 0 0.068668807208919325 0.5 0 0.043814234576468783 0.4752156274217324 0 0.038636543333564137 0.5 0 0.0095498935665802413 0.47810272379952351 0 0.0086042794582089632 0.5 0 0.043814234576468783 0.4752156274217324 0 0.038636543333564137 0.5 0 0.0095498935665802413 0.47810272379952351 0 0.043814234576468783 0.4752156274217324 0 0.0095498935665802413 0.47810272379952351 0 0.02936257191825143 0.45548825099001988 0 -0.0044763741368290672 0.43313315307665529 0 0.006403582431216831 0.45126676372832991 0 0.01131617767293759 0.43066417693356068 0 0.006403582431216831 0.45126676372832991 0 0.024585063983693121 0.43937755350337049 0 0.01131617767293759 0.43066417693356068 0 -0.0062093312902834459 0.46527566221073008 0 0.0095498935665802413 0.47810272379952351 0 0.006403582431216831 0.45126676372832991 0 0.0095498935665802413 0.47810272379952351 0 0.006403582431216831 0.45126676372832991 0 0.02936257191825143 0.45548825099001988 0 0.02936257191825143 0.45548825099001988 0 0.024585063983693121 0.43937755350337049 0 0.039439570502417587 0.44016889882154447 0 0.006403582431216831 0.45126676372832991 0 0.02936257191825143 0.45548825099001988 0 0.024585063983693121 0.43937755350337049 0 0.02936257191825143 0.45548825099001988 0 0.039439570502417587 0.44016889882154447 0 0.051776939420019832 0.45519588853091181 0 0.043814234576468783 0.4752156274217324 0 0.02936257191825143 0.45548825099001988 0 0.051776939420019832 0.45519588853091181 0 0.067202034968243438 0.47028323083424428 0 0.043814234576468783 0.4752156274217324 0 0.051776939420019832 0.45519588853091181 0 0.039439570502417587 0.44016889882154447 0 0.051776939420019832 0.45519588853091181 0 0.055846149836862702 0.43889490050586683 0 0.077453222292990773 0.45016302493177879 0 0.051776939420019832 0.45519588853091181 0 0.055846149836862702 0.43889490050586683 0 0.055846149836862702 0.43889490050586683 0 0.044352211855280779 0.42435697566478181 0 0.065639666334966471 0.42409002317344818 0 0.054179592762823331 0.4124556941646933 0 0.065774511826563423 0.40583773171119408 0 0.065639666334966471 0.42409002317344818 0 0.054179592762823331 0.4124556941646933 0 0.044352211855280779 0.42435697566478181 0 0.042551786202842029 0.40583695196884878 0 0.054179592762823331 0.4124556941646933 0 0.044352211855280779 0.42435697566478181 0 0.065639666334966471 0.42409002317344818 0 0.054179592762823331 0.4124556941646933 0 0.052579787594463898 0.40215678830519391 0 0.065774511826563423 0.40583773171119408 0 0.054179592762823331 0.4124556941646933 0 0.042551786202842029 0.40583695196884878 0 0.052579787594463898 0.40215678830519391 0 0.031615607723292562 0.41237007764590089 0 0.044352211855280779 0.42435697566478181 0 0.042551786202842029 0.40583695196884878 0 0.031615607723292562 0.41237007764590089 0 0.044352211855280779 0.42435697566478181 0 0.029348552931666359 0.42650056435783129 0 0.039439570502417587 0.44016889882154447 0 0.055846149836862702 0.43889490050586683 0 0.044352211855280779 0.42435697566478181 0 0.039439570502417587 0.44016889882154447 0 0.044352211855280779 0.42435697566478181 0 0.029348552931666359 0.42650056435783129 0 0.024585063983693121 0.43937755350337049 0 0.039439570502417587 0.44016889882154447 0 0.029348552931666359 0.42650056435783129 0 0.024585063983693121 0.43937755350337049 0 0.029348552931666359 0.42650056435783129 0 0.01131617767293759 0.43066417693356068 0 0.029348552931666359 0.42650056435783129 0 0.019479081626689841 0.41692126840220728 0 0.01131617767293759 0.43066417693356068 0 0.031615607723292562 0.41237007764590089 0 0.029348552931666359 0.42650056435783129 0 0.019479081626689841 0.41692126840220728 0 0.031615607723292562 0.41237007764590089 0 0.019479081626689841 0.41692126840220728 0 0.02210553341445062 0.40298972327242938 0 0.019479081626689841 0.41692126840220728 0 0.0046995574085186929 0.41194005205042061 0 0.02210553341445062 0.40298972327242938 0 0.019479081626689841 0.41692126840220728 0 0.0046995574085186929 0.41194005205042061 0 0.01131617767293759 0.43066417693356068 0 -0.0044763741368290672 0.43313315307665529 0 0.0046995574085186929 0.41194005205042061 0 0.01131617767293759 0.43066417693356068 0 -0.0068648610501423502 0.39382000907293813 0 0.0053185270157129726 0.37689571945341471 0 0.0079727676898529512 0.39395805239723503 0 0.0053185270157129726 0.37689571945341471 0 0.0079727676898529512 0.39395805239723503 0 0.017055050774382831 0.3783760363496293 0 0.0053185270157129726 0.37689571945341471 0 0.017055050774382831 0.3783760363496293 0 0.014905446519761849 0.37011919055753012 0 -0.0068648610501423502 0.39382000907293813 0 0.0046995574085186929 0.41194005205042061 0 0.0079727676898529512 0.39395805239723503 0 0.0046995574085186929 0.41194005205042061 0 0.0079727676898529512 0.39395805239723503 0 0.02210553341445062 0.40298972327242938 0 0.0079727676898529512 0.39395805239723503 0 0.02210553341445062 0.40298972327242938 0 0.02735486101880703 0.39232044610694311 0 0.031615607723292562 0.41237007764590089 0 0.02210553341445062 0.40298972327242938 0 0.03492587150599015 0.39714318271575322 0 0.02210553341445062 0.40298972327242938 0 0.02735486101880703 0.39232044610694311 0 0.03492587150599015 0.39714318271575322 0 0.0079727676898529512 0.39395805239723503 0 0.02735486101880703 0.39232044610694311 0 0.033420514628485373 0.38302977191180709 0 0.017055050774382831 0.3783760363496293 0 0.033420514628485373 0.38302977191180709 0 0.023779055828078009 0.37097747554075361 0 0.0079727676898529512 0.39395805239723503 0 0.017055050774382831 0.3783760363496293 0 0.033420514628485373 0.38302977191180709 0 0.0079727676898529512 0.39395805239723503 0 0.033420514628485373 0.38302977191180709 0 0.02735486101880703 0.39232044610694311 0 0.032859848824407727 0.38560668074253002 0 0.033420514628485373 0.38302977191180709 0 0.02735486101880703 0.39232044610694311 0 0.032859848824407727 0.38560668074253002 0 0.032844630049655758 0.3911952656019041 0 0.033420514628485373 0.38302977191180709 0 0.040531910439000007 0.38820627445006711 0 0.055078026168592691 0.37372917012189599 0 0.033420514628485373 0.38302977191180709 0 0.055078026168592691 0.37372917012189599 0 0.032859848824407727 0.38560668074253002 0 0.033420514628485373 0.38302977191180709 0 0.032859848824407727 0.38560668074253002 0 0.040531910439000007 0.38820627445006711 0 0.032844630049655758 0.3911952656019041 0 0.032859848824407727 0.38560668074253002 0 0.033420514628485373 0.38302977191180709 0 0.040531910439000007 0.38820627445006711 0 0.031615607723292562 0.41237007764590089 0 0.03492587150599015 0.39714318271575322 0 0.042551786202842029 0.40583695196884878 0 0.040531910439000007 0.38820627445006711 0 0.03492587150599015 0.39714318271575322 0 0.032844630049655758 0.3911952656019041 0 0.02735486101880703 0.39232044610694311 0 0.03492587150599015 0.39714318271575322 0 0.032844630049655758 0.3911952656019041 0 0.040531910439000007 0.38820627445006711 0 0.03492587150599015 0.39714318271575322 0 0.044409534997012647 0.39663533348309749 0 0.040531910439000007 0.38820627445006711 0 0.044409534997012647 0.39663533348309749 0 0.05145831924276717 0.38983346997562462 0 0.044409534997012647 0.39663533348309749 0 0.042551786202842029 0.40583695196884878 0 0.052579787594463898 0.40215678830519391 0 0.03492587150599015 0.39714318271575322 0 0.044409534997012647 0.39663533348309749 0 0.042551786202842029 0.40583695196884878 0 0.052579787594463898 0.40215678830519391 0 0.065929237187869999 0.38841376689227869 0 0.065774511826563423 0.40583773171119408 0 0.044409534997012647 0.39663533348309749 0 0.052579787594463898 0.40215678830519391 0 0.05145831924276717 0.38983346997562462 0 0.052579787594463898 0.40215678830519391 0 0.05145831924276717 0.38983346997562462 0 0.065929237187869999 0.38841376689227869 0 0.05145831924276717 0.38983346997562462 0 0.065929237187869999 0.38841376689227869 0 0.055078026168592691 0.37372917012189599 0 0.040531910439000007 0.38820627445006711 0 0.05145831924276717 0.38983346997562462 0 0.055078026168592691 0.37372917012189599 0 0.065929237187869999 0.38841376689227869 0 0.07065435961583541 0.37741521318853999 0 0.055078026168592691 0.37372917012189599 0 0.065929237187869999 0.38841376689227869 0 0.07065435961583541 0.37741521318853999 0 0.084874637398179506 0.3830893474080016 0 0.065929237187869999 0.38841376689227869 0 0.084874637398179506 0.3830893474080016 0 0.078183007061163587 0.39730645121706609 0 0.084874637398179506 0.3830893474080016 0 0.09301373708766289 0.40175012648401748 0 0.1017514530376761 0.37456476915266362 0 0.084874637398179506 0.3830893474080016 0 0.1017514530376761 0.37456476915266362 0 0.089894590955766338 0.37016501712229671 0 0.084874637398179506 0.3830893474080016 0 0.09301373708766289 0.40175012648401748 0 0.084874637398179506 0.3830893474080016 0 0.09301373708766289 0.40175012648401748 0 0.078183007061163587 0.39730645121706609 0 0.09301373708766289 0.40175012648401748 0 0.078183007061163587 0.39730645121706609 0 0.0779125114683729 0.4107996813321716 0 0.065929237187869999 0.38841376689227869 0 0.078183007061163587 0.39730645121706609 0 0.065774511826563423 0.40583773171119408 0 0.078183007061163587 0.39730645121706609 0 0.065774511826563423 0.40583773171119408 0 0.0779125114683729 0.4107996813321716 0 0.065774511826563423 0.40583773171119408 0 0.0779125114683729 0.4107996813321716 0 0.065639666334966471 0.42409002317344818 0 0.0779125114683729 0.4107996813321716 0 0.065639666334966471 0.42409002317344818 0 0.085233479690329184 0.42595657570789891 0 0.077453222292990773 0.45016302493177879 0 0.065639666334966471 0.42409002317344818 0 0.085233479690329184 0.42595657570789891 0 0.09301373708766289 0.40175012648401748 0 0.085233479690329184 0.42595657570789891 0 0.09301373708766289 0.40175012648401748 0 0.0779125114683729 0.4107996813321716 0 0.085233479690329184 0.42595657570789891 0 0.09301373708766289 0.40175012648401748 0 0.085233479690329184 0.42595657570789891 0 0.096641093798834857 0.4103746730739769 0 0.096641093798834857 0.4103746730739769 0 0.106123573628292 0.43180747591342172 0 0.096641093798834857 0.4103746730739769 0 0.1162621503634904 0.41872732341568758 0 0.11303311796937431 0.39768424579749467 0 0.096641093798834857 0.4103746730739769 0 0.106123573628292 0.43180747591342172 0 0.1162621503634904 0.41872732341568758 0 0.096641093798834857 0.4103746730739769 0 0.1162621503634904 0.41872732341568758 0 0.085233479690329184 0.42595657570789891 0 0.096641093798834857 0.4103746730739769 0 0.106123573628292 0.43180747591342172 0 0.096722182691352548 0.44869154901932268 0 0.085233479690329184 0.42595657570789891 0 0.106123573628292 0.43180747591342172 0 0.1205619018159948 0.44674810255646558 0 0.1162621503634904 0.41872732341568758 0 0.1205619018159948 0.44674810255646558 0 0.106123573628292 0.43180747591342172 0 0.1162621503634904 0.41872732341568758 0 0.1162621503634904 0.41872732341568758 0 0.11303311796937431 0.39768424579749467 0 0.11303311796937431 0.39768424579749467 0 0.1231373165426977 0.3806134049577457 0 0.1271742827044339 0.39597619803598749 0 0.1162621503634904 0.41872732341568758 0 0.11303311796937431 0.39768424579749467 0 0.1271742827044339 0.39597619803598749 0 0.11303311796937431 0.39768424579749467 0 0.1098040855752573 0.37664116817930182 0 0.11303311796937431 0.39768424579749467 0 0.1098040855752573 0.37664116817930182 0 0.1231373165426977 0.3806134049577457 0 0.09301373708766289 0.40175012648401748 0 0.10162794664532369 0.38287681265592 0 0.1017514530376761 0.37456476915266362 0 0.11303311796937431 0.39768424579749467 0 0.1098040855752573 0.37664116817930182 0 0.10162794664532369 0.38287681265592 0 0.09301373708766289 0.40175012648401748 0 0.1017514530376761 0.37456476915266362 0 0.09301373708766289 0.40175012648401748 0 0.096641093798834857 0.4103746730739769 0 0.10162794664532369 0.38287681265592 0 0.096641093798834857 0.4103746730739769 0 0.10162794664532369 0.38287681265592 0 0.096641093798834857 0.4103746730739769 0 0.11303311796937431 0.39768424579749467 0 0.10162794664532369 0.38287681265592 0 0.09301373708766289 0.40175012648401748 0 0.096641093798834857 0.4103746730739769 0 0.10657505318114149 0.3555980905611088 0 0.1040837309638282 0.33936254988137232 0 0.10657505318114149 0.3555980905611088 0 0.096269577202366938 0.34885221845001108 0 0.090674694454237537 0.35844253683721511 0 0.10657505318114149 0.3555980905611088 0 0.1081370103155585 0.34698533999968961 0 0.1040837309638282 0.33936254988137232 0 0.10657505318114149 0.3555980905611088 0 0.096269577202366938 0.34885221845001108 0 0.1040837309638282 0.33936254988137232 0 0.10657505318114149 0.3555980905611088 0 0.1081370103155585 0.34698533999968961 0 0.1081370103155585 0.34698533999968961 0 0.1105857944332822 0.35159063999376577 0 0.10657505318114149 0.3555980905611088 0 0.1081370103155585 0.34698533999968961 0 0.1105857944332822 0.35159063999376577 0 0.10657505318114149 0.3555980905611088 0 0.097223947907205094 0.36469260341832099 0 0.090674694454237537 0.35844253683721511 0 0.1098040855752573 0.37664116817930182 0 0.10657505318114149 0.3555980905611088 0 0.1098040855752573 0.37664116817930182 0 0.10162794664532369 0.38287681265592 0 0.10657505318114149 0.3555980905611088 0 0.10657505318114149 0.3555980905611088 0 0.097223947907205094 0.36469260341832099 0 0.1017514530376761 0.37456476915266362 0 0.10162794664532369 0.38287681265592 0 0.10657505318114149 0.3555980905611088 0 0.10162794664532369 0.38287681265592 0 0.10657505318114149 0.3555980905611088 0 0.1017514530376761 0.37456476915266362 0 0.097223947907205094 0.36469260341832099 0 0.1017514530376761 0.37456476915266362 0 0.089894590955766338 0.37016501712229671 0 0.1231373165426977 0.3806134049577457 0 0.1176766025370503 0.36283148293627721 0 0.13271547193899449 0.36524458735671972 0 0.1098040855752573 0.37664116817930182 0 0.10657505318114149 0.3555980905611088 0 0.1176766025370503 0.36283148293627721 0 0.1098040855752573 0.37664116817930182 0 0.1231373165426977 0.3806134049577457 0 0.1176766025370503 0.36283148293627721 0 0.1176766025370503 0.36283148293627721 0 0.1232256624926347 0.35239419723674059 0 0.13271547193899449 0.36524458735671972 0 0.10657505318114149 0.3555980905611088 0 0.1176766025370503 0.36283148293627721 0 0.1105857944332822 0.35159063999376577 0 0.1176766025370503 0.36283148293627721 0 0.1232256624926347 0.35239419723674059 0 0.1105857944332822 0.35159063999376577 0 0.1081370103155585 0.34698533999968961 0 0.1105857944332822 0.35159063999376577 0 0.1168368962248217 0.34531303274388031 0 0.1232256624926347 0.35239419723674059 0 0.1105857944332822 0.35159063999376577 0 0.1168368962248217 0.34531303274388031 0 0.1232256624926347 0.35239419723674059 0 0.1168368962248217 0.34531303274388031 0 0.1260676383484185 0.3399282146226113 0 0.1081370103155585 0.34698533999968961 0 0.1173014636805894 0.33730338313169689 0 0.1117137236550247 0.32726307032677399 0 0.1081370103155585 0.34698533999968961 0 0.1117137236550247 0.32726307032677399 0 0.1168368962248217 0.34531303274388031 0 0.1173014636805894 0.33730338313169689 0 0.1260676383484185 0.3399282146226113 0 0.1173014636805894 0.33730338313169689 0 0.12375204985912221 0.32702725796552912 0 0.1260676383484185 0.3399282146226113 0 0.1173014636805894 0.33730338313169689 0 0.12375204985912221 0.32702725796552912 0 0.1117137236550247 0.32726307032677399 0 0.1081370103155585 0.34698533999968961 0 0.1168368962248217 0.34531303274388031 0 0.1173014636805894 0.33730338313169689 0 0.1117137236550247 0.32726307032677399 0 0.11529043699448981 0.30754080065385803 0 0.1117137236550247 0.32726307032677399 0 0.1095765413243488 0.31862098055757049 0 0.11529043699448981 0.30754080065385803 0 0.1214195525311879 0.31440901896845502 0 0.1117137236550247 0.32726307032677399 0 0.11529043699448981 0.30754080065385803 0 0.1214195525311879 0.31440901896845502 0 0.12375204985912221 0.32702725796552912 0 0.12817088130983889 0.317450689473041 0 0.1214195525311879 0.31440901896845502 0 0.12375204985912221 0.32702725796552912 0 0.1117137236550247 0.32726307032677399 0 0.1040837309638282 0.33936254988137232 0 0.090103400857782137 0.31307047550514489 0 0.1040837309638282 0.33936254988137232 0 0.1025673515982234 0.32948055280164651 0 0.090103400857782137 0.31307047550514489 0 0.10278173829001019 0.3206216626476312 0 0.1025673515982234 0.32948055280164651 0 0.090103400857782137 0.31307047550514489 0 0.1095765413243488 0.31862098055757049 0 0.10278173829001019 0.3206216626476312 0 0.099947674014671917 0.31467323404701991 0 0.1095765413243488 0.31862098055757049 0 0.099947674014671917 0.31467323404701991 0 0.09732687347400408 0.30507295899279041 0 0.1117137236550247 0.32726307032677399 0 0.1095765413243488 0.31862098055757049 0 0.10278173829001019 0.3206216626476312 0 0.1117137236550247 0.32726307032677399 0 0.10278173829001019 0.3206216626476312 0 0.1025673515982234 0.32948055280164651 0 0.10278173829001019 0.3206216626476312 0 0.099947674014671917 0.31467323404701991 0 0.090103400857782137 0.31307047550514489 0 0.096269577202366938 0.34885221845001108 0 0.1040837309638282 0.33936254988137232 0 0.085896102217652828 0.34083244099607402 0 0.1081370103155585 0.34698533999968961 0 0.1117137236550247 0.32726307032677399 0 0.1040837309638282 0.33936254988137232 0 0.1081370103155585 0.34698533999968961 0 0.1040837309638282 0.33936254988137232 0 0.1117137236550247 0.32726307032677399 0 0.1040837309638282 0.33936254988137232 0 0.1025673515982234 0.32948055280164651 0 0.1040837309638282 0.33936254988137232 0 0.1025673515982234 0.32948055280164651 0 0.1040837309638282 0.33936254988137232 0 0.085896102217652828 0.34083244099607402 0 0.090103400857782137 0.31307047550514489 0 0.085896102217652828 0.34083244099607402 0 0.090103400857782137 0.31307047550514489 0 0.073944851781294785 0.32640562720437011 0 0.073944851781294785 0.32640562720437011 0 0.05926959110604698 0.32438382341666039 0 0.066452600317618793 0.30933520022964911 0 0.090103400857782137 0.31307047550514489 0 0.073944851781294785 0.32640562720437011 0 0.066452600317618793 0.30933520022964911 0 0.068002564407373206 0.3444061958743222 0 0.05926959110604698 0.32438382341666039 0 0.085896102217652828 0.34083244099607402 0 0.073944851781294785 0.32640562720437011 0 0.068002564407373206 0.3444061958743222 0 0.073944851781294785 0.32640562720437011 0 0.068002564407373206 0.3444061958743222 0 0.05926959110604698 0.32438382341666039 0 0.068002564407373206 0.3444061958743222 0 0.081709153938225559 0.35166937446406898 0 0.076735537708699481 0.364428568331984 0 0.068002564407373206 0.3444061958743222 0 0.076735537708699481 0.364428568331984 0 0.068002564407373206 0.3444061958743222 0 0.076735537708699481 0.364428568331984 0 0.058880509289504487 0.35752542115937253 0 0.085896102217652828 0.34083244099607402 0 0.068002564407373206 0.3444061958743222 0 0.081709153938225559 0.35166937446406898 0 0.081709153938225559 0.35166937446406898 0 0.090674694454237537 0.35844253683721511 0 0.076735537708699481 0.364428568331984 0 0.096269577202366938 0.34885221845001108 0 0.081709153938225559 0.35166937446406898 0 0.090674694454237537 0.35844253683721511 0 0.096269577202366938 0.34885221845001108 0 0.085896102217652828 0.34083244099607402 0 0.081709153938225559 0.35166937446406898 0 0.084874637398179506 0.3830893474080016 0 0.089894590955766338 0.37016501712229671 0 0.076735537708699481 0.364428568331984 0 0.084874637398179506 0.3830893474080016 0 0.076735537708699481 0.364428568331984 0 0.097223947907205094 0.36469260341832099 0 0.090674694454237537 0.35844253683721511 0 0.089894590955766338 0.37016501712229671 0 0.090674694454237537 0.35844253683721511 0 0.089894590955766338 0.37016501712229671 0 0.076735537708699481 0.364428568331984 0 0.090674694454237537 0.35844253683721511 0 0.076735537708699481 0.364428568331984 0 0.076735537708699481 0.364428568331984 0 0.055078026168592691 0.37372917012189599 0 0.058880509289504487 0.35752542115937253 0 0.07065435961583541 0.37741521318853999 0 0.084874637398179506 0.3830893474080016 0 0.076735537708699481 0.364428568331984 0 0.07065435961583541 0.37741521318853999 0 0.076735537708699481 0.364428568331984 0 0.055078026168592691 0.37372917012189599 0 0.076735537708699481 0.364428568331984 0 0.055078026168592691 0.37372917012189599 0 0.055078026168592691 0.37372917012189599 0 0.058880509289504487 0.35752542115937253 0 0.039125882353897343 0.35680699826087081 0 0.068002564407373206 0.3444061958743222 0 0.058880509289504487 0.35752542115937253 0 0.05148455776782021 0.34576385860545072 0 0.058880509289504487 0.35752542115937253 0 0.05148455776782021 0.34576385860545072 0 0.039125882353897343 0.35680699826087081 0 0.039125882353897343 0.35680699826087081 0 0.031548662582759998 0.36398682567210089 0 0.025752053585936779 0.33511492304397028 0 0.05148455776782021 0.34576385860545072 0 0.039125882353897343 0.35680699826087081 0 0.044831250079309708 0.3305842246099347 0 0.033420514628485373 0.38302977191180709 0 0.039125882353897343 0.35680699826087081 0 0.031548662582759998 0.36398682567210089 0 0.033420514628485373 0.38302977191180709 0 0.055078026168592691 0.37372917012189599 0 0.039125882353897343 0.35680699826087081 0 0.033420514628485373 0.38302977191180709 0 0.039125882353897343 0.35680699826087081 0 0.033420514628485373 0.38302977191180709 0 0.031548662582759998 0.36398682567210089 0 0.023779055828078009 0.37097747554075361 0 0.017055050774382831 0.3783760363496293 0 0.023779055828078009 0.37097747554075361 0 0.014905446519761849 0.37011919055753012 0 0.023779055828078009 0.37097747554075361 0 0.019349684376360511 0.36318206543595072 0 0.014905446519761849 0.37011919055753012 0 0.031548662582759998 0.36398682567210089 0 0.019349684376360511 0.36318206543595072 0 0.019690074755218789 0.35178644121934483 0 0.031548662582759998 0.36398682567210089 0 0.023779055828078009 0.37097747554075361 0 0.019349684376360511 0.36318206543595072 0 0.031548662582759998 0.36398682567210089 0 0.025752053585936779 0.33511492304397028 0 0.031548662582759998 0.36398682567210089 0 0.019690074755218789 0.35178644121934483 0 0.025752053585936779 0.33511492304397028 0 0.019349684376360511 0.36318206543595072 0 0.019690074755218789 0.35178644121934483 0 0.0119730942360182 0.35563939605115702 0 0.0119730942360182 0.35563939605115702 0 0.0038095970876644218 0.35606187191015221 0 0.0077169544749549623 0.36306791211952738 0 -0.0077202170519437719 0.34710906184019069 0 0.0082446038140756572 0.34376242611402219 0 0.0038095970876644218 0.35606187191015221 0 0.0119730942360182 0.35563939605115702 0 0.0082446038140756572 0.34376242611402219 0 0.0038095970876644218 0.35606187191015221 0 0.019690074755218789 0.35178644121934483 0 0.0119730942360182 0.35563939605115702 0 0.0082446038140756572 0.34376242611402219 0 -0.0045677851665312944 0.36532665559408428 0 0.0038095970876644218 0.35606187191015221 0 0.0077169544749549623 0.36306791211952738 0 -0.0087141207398781558 0.37710904293520409 0 0.0053185270157129726 0.37689571945341471 0 0.0077169544749549623 0.36306791211952738 0 0.0053185270157129726 0.37689571945341471 0 0.0077169544749549623 0.36306791211952738 0 0.014905446519761849 0.37011919055753012 0 0.019349684376360511 0.36318206543595072 0 0.0077169544749549623 0.36306791211952738 0 0.014905446519761849 0.37011919055753012 0 0.019349684376360511 0.36318206543595072 0 0.0119730942360182 0.35563939605115702 0 0.0077169544749549623 0.36306791211952738 0 -0.009249588209606344 0.30814111102660002 0 0.0094307060340404689 0.32376070079746733 0 0.01995544458911469 0.30624302041583928 0 -0.005758602284471958 0.33512988219008361 0 0.0082446038140756572 0.34376242611402219 0 0.0094307060340404689 0.32376070079746733 0 0.0082446038140756572 0.34376242611402219 0 0.0094307060340404689 0.32376070079746733 0 0.025752053585936779 0.33511492304397028 0 0.019690074755218789 0.35178644121934483 0 0.0082446038140756572 0.34376242611402219 0 0.025752053585936779 0.33511492304397028 0 0.025752053585936779 0.33511492304397028 0 0.01995544458911469 0.30624302041583928 0 0.025752053585936779 0.33511492304397028 0 0.034898059553693392 0.31581284699138767 0 0.01995544458911469 0.30624302041583928 0 0.0094307060340404689 0.32376070079746733 0 0.025752053585936779 0.33511492304397028 0 0.01995544458911469 0.30624302041583928 0 0.034898059553693392 0.31581284699138767 0 0.044831250079309708 0.3305842246099347 0 0.05053661780472133 0.30436145095899841 0 0.025752053585936779 0.33511492304397028 0 0.034898059553693392 0.31581284699138767 0 0.044831250079309708 0.3305842246099347 0 0.039125882353897343 0.35680699826087081 0 0.025752053585936779 0.33511492304397028 0 0.044831250079309708 0.3305842246099347 0 0.039125882353897343 0.35680699826087081 0 0.044831250079309708 0.3305842246099347 0 0.068002564407373206 0.3444061958743222 0 0.05148455776782021 0.34576385860545072 0 0.05926959110604698 0.32438382341666039 0 0.05148455776782021 0.34576385860545072 0 0.044831250079309708 0.3305842246099347 0 0.05926959110604698 0.32438382341666039 0 0.044831250079309708 0.3305842246099347 0 0.05053661780472133 0.30436145095899841 0 0.044831250079309708 0.3305842246099347 0 0.05926959110604698 0.32438382341666039 0 0.05053661780472133 0.30436145095899841 0 0.05926959110604698 0.32438382341666039 0 0.05053661780472133 0.30436145095899841 0 0.05926959110604698 0.32438382341666039 0 0.05053661780472133 0.30436145095899841 0 0.066452600317618793 0.30933520022964911 0 0.059204269303370749 0.30137448027593422 0 0.05053661780472133 0.30436145095899841 0 0.066452600317618793 0.30933520022964911 0 0.04765756321016474 0.29776054867416191 0 0.05053661780472133 0.30436145095899841 0 0.052561166870736087 0.29505630281458828 0 0.059204269303370749 0.30137448027593422 0 0.05053661780472133 0.30436145095899841 0 0.052561166870736087 0.29505630281458828 0 0.05053661780472133 0.30436145095899841 0 0.052561166870736087 0.29505630281458828 0 0.04765756321016474 0.29776054867416191 0 0.05053661780472133 0.30436145095899841 0 0.052561166870736087 0.29505630281458828 0 0.036977033779240318 0.28312664447104818 0 0.062988366650143207 0.29302398426469728 0 0.036977033779240318 0.28312664447104818 0 0.048149862160842181 0.27985089866820428 0 0.062988366650143207 0.29302398426469728 0 0.036977033779240318 0.28312664447104818 0 0.062988366650143207 0.29302398426469728 0 0.048149862160842181 0.27985089866820428 0 0.054778979573680928 0.27715841955607551 0 0.062988366650143207 0.29302398426469728 0 0.059204269303370749 0.30137448027593422 0 0.052561166870736087 0.29505630281458828 0 0.062988366650143207 0.29302398426469728 0 0.04765756321016474 0.29776054867416191 0 0.036186098738389023 0.29603891009636157 0 0.036977033779240318 0.28312664447104818 0 0.04765756321016474 0.29776054867416191 0 0.052561166870736087 0.29505630281458828 0 0.036977033779240318 0.28312664447104818 0 0.036186098738389023 0.29603891009636157 0 0.036977033779240318 0.28312664447104818 0 0.027757552790527541 0.29644954410470781 0 0.034898059553693392 0.31581284699138767 0 0.05053661780472133 0.30436145095899841 0 0.039754971674175903 0.30430037111620312 0 0.04765756321016474 0.29776054867416191 0 0.05053661780472133 0.30436145095899841 0 0.039754971674175903 0.30430037111620312 0 0.04765756321016474 0.29776054867416191 0 0.036186098738389023 0.29603891009636157 0 0.039754971674175903 0.30430037111620312 0 0.036186098738389023 0.29603891009636157 0 0.039754971674175903 0.30430037111620312 0 0.028740536311392211 0.30567206060121932 0 0.034898059553693392 0.31581284699138767 0 0.039754971674175903 0.30430037111620312 0 0.028740536311392211 0.30567206060121932 0 0.034898059553693392 0.31581284699138767 0 0.028740536311392211 0.30567206060121932 0 0.01995544458911469 0.30624302041583928 0 0.028740536311392211 0.30567206060121932 0 0.01995544458911469 0.30624302041583928 0 0.01995544458911469 0.30624302041583928 0 0.027757552790527541 0.29644954410470781 0 0.016928650534501429 0.29116708493907051 0 0.01995544458911469 0.30624302041583928 0 0.016928650534501429 0.29116708493907051 0 0.036186098738389023 0.29603891009636157 0 0.028740536311392211 0.30567206060121932 0 0.027757552790527541 0.29644954410470781 0 0.028740536311392211 0.30567206060121932 0 0.01995544458911469 0.30624302041583928 0 0.027757552790527541 0.29644954410470781 0 0.036977033779240318 0.28312664447104818 0 0.016928650534501429 0.29116708493907051 0 0.013901856479889301 0.2760911494623014 0 0.036977033779240318 0.28312664447104818 0 0.027757552790527541 0.29644954410470781 0 0.016928650534501429 0.29116708493907051 0 0.016928650534501429 0.29116708493907051 0 0.0075090435902615098 0.27971283806045072 0 0.013901856479889301 0.2760911494623014 0 0.016928650534501429 0.29116708493907051 0 0.013901856479889301 0.2760911494623014 0 0.016928650534501429 0.29116708493907051 0 0.002380999114604244 0.28599596302517022 0 0.0075090435902615098 0.27971283806045072 0 0.016928650534501429 0.29116708493907051 0 0.002380999114604244 0.28599596302517022 0 0.0038021096493471361 0.29689124930627131 0 0.01995544458911469 0.30624302041583928 0 0.016928650534501429 0.29116708493907051 0 0.0038021096493471361 0.29689124930627131 0 -0.009249588209606344 0.30814111102660002 0 0.01995544458911469 0.30624302041583928 0 -0.009249588209606344 0.30814111102660002 0 0.01995544458911469 0.30624302041583928 0 0.0038021096493471361 0.29689124930627131 0 0.012944211518790589 0.24639919126045251 0 0.001894876929373096 0.24743045501984201 0 0.027350481215018482 0.26092432701142793 0 0.001894876929373096 0.24743045501984201 0 0.01235577794179212 0.26160751525750708 0 0.027350481215018482 0.26092432701142793 0 0.001894876929373096 0.24743045501984201 0 0.027350481215018482 0.26092432701142793 0 0.01235577794179212 0.26160751525750708 0 0.0066431973405819862 0.26423936680728111 0 0.01332705073189009 0.26743114199411 0 0.001894876929373096 0.24743045501984201 0 0.01235577794179212 0.26160751525750708 0 0.0027594708259384838 0.25829047161104352 0 0.01235577794179212 0.26160751525750708 0 0.0027594708259384838 0.25829047161104352 0 0.0066431973405819862 0.26423936680728111 0 -0.00067809962666212902 0.26216505597133072 0 0.0027594708259384838 0.25829047161104352 0 0.0066431973405819862 0.26423936680728111 0 -0.00067809962666212902 0.26216505597133072 0 0.0066431973405819862 0.26423936680728111 0 0.010965700908337589 0.27322930467739909 0 -0.001267499687089951 0.2776013217203892 0 0.0075090435902615098 0.27971283806045072 0 0.010965700908337589 0.27322930467739909 0 -0.001267499687089951 0.2776013217203892 0 0.002380999114604244 0.28599596302517022 0 0.0075090435902615098 0.27971283806045072 0 0.0075090435902615098 0.27971283806045072 0 0.013901856479889301 0.2760911494623014 0 0.010965700908337589 0.27322930467739909 0 0.010965700908337589 0.27322930467739909 0 0.01332705073189009 0.26743114199411 0 0.022419763759722669 0.26962443384228668 0 0.0066431973405819862 0.26423936680728111 0 0.010965700908337589 0.27322930467739909 0 0.01332705073189009 0.26743114199411 0 0.036977033779240318 0.28312664447104818 0 0.010965700908337589 0.27322930467739909 0 0.022419763759722669 0.26962443384228668 0 0.01235577794179212 0.26160751525750708 0 0.01332705073189009 0.26743114199411 0 0.022419763759722669 0.26962443384228668 0 0.036977033779240318 0.28312664447104818 0 0.013901856479889301 0.2760911494623014 0 0.010965700908337589 0.27322930467739909 0 0.036977033779240318 0.28312664447104818 0 0.010965700908337589 0.27322930467739909 0 0.036977033779240318 0.28312664447104818 0 0.022419763759722669 0.26962443384228668 0 0.032397819765571212 0.27218151163944088 0 0.022419763759722669 0.26962443384228668 0 0.027350481215018482 0.26092432701142793 0 0.032397819765571212 0.27218151163944088 0 0.018629400856135309 0.24429501886194191 0 0.012944211518790589 0.24639919126045251 0 0.027350481215018482 0.26092432701142793 0 0.018629400856135309 0.24429501886194191 0 0.027350481215018482 0.26092432701142793 0 0.02692674034290404 0.25134916217479408 0 0.01235577794179212 0.26160751525750708 0 0.022419763759722669 0.26962443384228668 0 0.027350481215018482 0.26092432701142793 0 0.027350481215018482 0.26092432701142793 0 0.02692674034290404 0.25134916217479408 0 0.036501911092354018 0.25177276941539839 0 0.027350481215018482 0.26092432701142793 0 0.036501911092354018 0.25177276941539839 0 0.052806085500663583 0.27441819900301412 0 0.036501911092354018 0.25177276941539839 0 0.052806085500663583 0.27441819900301412 0 0.027350481215018482 0.26092432701142793 0 0.039536256484267153 0.27410031615862712 0 0.052806085500663583 0.27441819900301412 0 0.027350481215018482 0.26092432701142793 0 0.052806085500663583 0.27441819900301412 0 0.036977033779240318 0.28312664447104818 0 0.032397819765571212 0.27218151163944088 0 0.039536256484267153 0.27410031615862712 0 0.027350481215018482 0.26092432701142793 0 0.032397819765571212 0.27218151163944088 0 0.039536256484267153 0.27410031615862712 0 0.039536256484267153 0.27410031615862712 0 0.048149862160842181 0.27985089866820428 0 0.052806085500663583 0.27441819900301412 0 0.036977033779240318 0.28312664447104818 0 0.039536256484267153 0.27410031615862712 0 0.048149862160842181 0.27985089866820428 0 0.052806085500663583 0.27441819900301412 0 0.051790667069154861 0.2547103276228454 0 0.069466372585565969 0.27425949764399721 0 0.052806085500663583 0.27441819900301412 0 0.054778979573680928 0.27715841955607551 0 0.076123070751733898 0.28677840112891878 0 0.048149862160842181 0.27985089866820428 0 0.052806085500663583 0.27441819900301412 0 0.054778979573680928 0.27715841955607551 0 0.052806085500663583 0.27441819900301412 0 0.054778979573680928 0.27715841955607551 0 0.051790667069154861 0.2547103276228454 0 0.069466372585565969 0.27425949764399721 0 0.036501911092354018 0.25177276941539839 0 0.052806085500663583 0.27441819900301412 0 0.051790667069154861 0.2547103276228454 0 0.051790667069154861 0.2547103276228454 0 0.062472563593505302 0.26110660749064829 0 0.069466372585565969 0.27425949764399721 0 0.051790667069154861 0.2547103276228454 0 0.062472563593505302 0.26110660749064829 0 0.063392491700480919 0.2510828642249095 0 0.07090317009537217 0.25886987532900169 0 0.089645379702363526 0.25980927980688501 0 0.066829182329119829 0.26693814307945207 0 0.063392491700480919 0.2510828642249095 0 0.07090317009537217 0.25886987532900169 0 0.074261774750864804 0.25289133929391111 0 0.062472563593505302 0.26110660749064829 0 0.063392491700480919 0.2510828642249095 0 0.07090317009537217 0.25886987532900169 0 0.062472563593505302 0.26110660749064829 0 0.07090317009537217 0.25886987532900169 0 0.066829182329119829 0.26693814307945207 0 0.07090317009537217 0.25886987532900169 0 0.074261774750864804 0.25289133929391111 0 0.089645379702363526 0.25980927980688501 0 0.072073934872957782 0.23900016577853919 0 0.074261774750864804 0.25289133929391111 0 0.089645379702363526 0.25980927980688501 0 0.089645379702363526 0.25980927980688501 0 0.066829182329119829 0.26693814307945207 0 0.089645379702363526 0.25980927980688501 0 0.084738505220855201 0.27427167124983992 0 0.066829182329119829 0.26693814307945207 0 0.084738505220855201 0.27427167124983992 0 0.069466372585565969 0.27425949764399721 0 0.085077205623658711 0.29152493742801078 0 0.084738505220855201 0.27427167124983992 0 0.095910340366493346 0.28464594086445177 0 0.099818528257267281 0.27185690653089678 0 0.089645379702363526 0.25980927980688501 0 0.084738505220855201 0.27427167124983992 0 0.099818528257267281 0.27185690653089678 0 0.084738505220855201 0.27427167124983992 0 0.066829182329119829 0.26693814307945207 0 0.069466372585565969 0.27425949764399721 0 0.052806085500663583 0.27441819900301412 0 0.069466372585565969 0.27425949764399721 0 0.076123070751733898 0.28677840112891878 0 0.052806085500663583 0.27441819900301412 0 0.076123070751733898 0.28677840112891878 0 0.069466372585565969 0.27425949764399721 0 0.076123070751733898 0.28677840112891878 0 0.062472563593505302 0.26110660749064829 0 0.069466372585565969 0.27425949764399721 0 0.062472563593505302 0.26110660749064829 0 0.066829182329119829 0.26693814307945207 0 0.069466372585565969 0.27425949764399721 0 0.069466372585565969 0.27425949764399721 0 0.085077205623658711 0.29152493742801078 0 0.069466372585565969 0.27425949764399721 0 0.076123070751733898 0.28677840112891878 0 0.085077205623658711 0.29152493742801078 0 0.062988366650143207 0.29302398426469728 0 0.076123070751733898 0.28677840112891878 0 0.066452600317618793 0.30933520022964911 0 0.054778979573680928 0.27715841955607551 0 0.062988366650143207 0.29302398426469728 0 0.076123070751733898 0.28677840112891878 0 0.090103400857782137 0.31307047550514489 0 0.076123070751733898 0.28677840112891878 0 0.066452600317618793 0.30933520022964911 0 0.059204269303370749 0.30137448027593422 0 0.062988366650143207 0.29302398426469728 0 0.066452600317618793 0.30933520022964911 0 0.090103400857782137 0.31307047550514489 0 0.076123070751733898 0.28677840112891878 0 0.085077205623658711 0.29152493742801078 0 0.090103400857782137 0.31307047550514489 0 0.076123070751733898 0.28677840112891878 0 0.090103400857782137 0.31307047550514489 0 0.085077205623658711 0.29152493742801078 0 0.09732687347400408 0.30507295899279041 0 0.085077205623658711 0.29152493742801078 0 0.09732687347400408 0.30507295899279041 0 0.084738505220855201 0.27427167124983992 0 0.085077205623658711 0.29152493742801078 0 0.095910340366493346 0.28464594086445177 0 0.076123070751733898 0.28677840112891878 0 0.085077205623658711 0.29152493742801078 0 0.085077205623658711 0.29152493742801078 0 0.095910340366493346 0.28464594086445177 0 0.10018382130907411 0.29953286904093468 0 0.085077205623658711 0.29152493742801078 0 0.10018382130907411 0.29953286904093468 0 0.095910340366493346 0.28464594086445177 0 0.10809736708577181 0.28553666446189058 0 0.10018382130907411 0.29953286904093468 0 0.10809736708577181 0.28553666446189058 0 0.10018382130907411 0.29953286904093468 0 0.10959494141679089 0.29761357018739809 0 0.099947674014671917 0.31467323404701991 0 0.090103400857782137 0.31307047550514489 0 0.09732687347400408 0.30507295899279041 0 0.085077205623658711 0.29152493742801078 0 0.09732687347400408 0.30507295899279041 0 0.10018382130907411 0.29953286904093468 0 0.09732687347400408 0.30507295899279041 0 0.10018382130907411 0.29953286904093468 0 0.1055944182754792 0.3076919023112884 0 0.10018382130907411 0.29953286904093468 0 0.11529043699448981 0.30754080065385803 0 0.10959494141679089 0.29761357018739809 0 0.10018382130907411 0.29953286904093468 0 0.11529043699448981 0.30754080065385803 0 0.1095765413243488 0.31862098055757049 0 0.09732687347400408 0.30507295899279041 0 0.1055944182754792 0.3076919023112884 0 0.10018382130907411 0.29953286904093468 0 0.1055944182754792 0.3076919023112884 0 0.11529043699448981 0.30754080065385803 0 0.1095765413243488 0.31862098055757049 0 0.09732687347400408 0.30507295899279041 0 0.1095765413243488 0.31862098055757049 0 0.1055944182754792 0.3076919023112884 0 0.11529043699448981 0.30754080065385803 0 0.11529043699448981 0.30754080065385803 0 0.11637637905870279 0.30155283343175482 0 0.11810871752106521 0.30621928700195911 0 0.11529043699448981 0.30754080065385803 0 0.10959494141679089 0.29761357018739809 0 0.11637637905870279 0.30155283343175482 0 0.10959494141679089 0.29761357018739809 0 0.11637637905870279 0.30155283343175482 0 0.1164892219926046 0.29243334627748818 0 0.11529043699448981 0.30754080065385803 0 0.11637637905870279 0.30155283343175482 0 0.11637637905870279 0.30155283343175482 0 0.1222906650571363 0.2985709440566281 0 0.1164892219926046 0.29243334627748818 0 0.1222906650571363 0.2985709440566281 0 0.1206025954822835 0.30378795350269022 0 0.1243783730770044 0.30485679470236721 0 0.11637637905870279 0.30155283343175482 0 0.1222906650571363 0.2985709440566281 0 0.1206025954822835 0.30378795350269022 0 0.11637637905870279 0.30155283343175482 0 0.1206025954822835 0.30378795350269022 0 0.11810871752106521 0.30621928700195911 0 0.1206025954822835 0.30378795350269022 0 0.11810871752106521 0.30621928700195911 0 0.1213521300308707 0.30775440284793348 0 0.11529043699448981 0.30754080065385803 0 0.11810871752106521 0.30621928700195911 0 0.11930841490252821 0.30912172642276631 0 0.11810871752106521 0.30621928700195911 0 0.1213521300308707 0.30775440284793348 0 0.11930841490252821 0.30912172642276631 0 0.1243783730770044 0.30485679470236721 0 0.1213521300308707 0.30775440284793348 0 0.1244342991148414 0.30898461385241399 0 0.1206025954822835 0.30378795350269022 0 0.1243783730770044 0.30485679470236721 0 0.1213521300308707 0.30775440284793348 0 0.1214195525311879 0.31440901896845502 0 0.1244342991148414 0.30898461385241399 0 0.12900107104525951 0.30968741412501871 0 0.1214195525311879 0.31440901896845502 0 0.1213521300308707 0.30775440284793348 0 0.1244342991148414 0.30898461385241399 0 0.1214195525311879 0.31440901896845502 0 0.11529043699448981 0.30754080065385803 0 0.11930841490252821 0.30912172642276631 0 0.1214195525311879 0.31440901896845502 0 0.1213521300308707 0.30775440284793348 0 0.11930841490252821 0.30912172642276631 0 0.10809736708577181 0.28553666446189058 0 0.1164892219926046 0.29243334627748818 0 0.1210835213650209 0.28058702695229848 0 0.10809736708577181 0.28553666446189058 0 0.10959494141679089 0.29761357018739809 0 0.1164892219926046 0.29243334627748818 0 0.1222906650571363 0.2985709440566281 0 0.1164892219926046 0.29243334627748818 0 0.12596292383497329 0.28976449579057961 0 0.1164892219926046 0.29243334627748818 0 0.1210835213650209 0.28058702695229848 0 0.12596292383497329 0.28976449579057961 0 0.10809736708577181 0.28553666446189058 0 0.1210835213650209 0.28058702695229848 0 0.1147979612748997 0.2707881575742877 0 0.1210835213650209 0.28058702695229848 0 0.1147979612748997 0.2707881575742877 0 0.12791172371537049 0.26609555254785411 0 0.1147979612748997 0.2707881575742877 0 0.116065923487036 0.25155424759680489 0 0.099818528257267281 0.27185690653089678 0 0.1147979612748997 0.2707881575742877 0 0.116065923487036 0.25155424759680489 0 0.12791172371537049 0.26609555254785411 0 0.089645379702363526 0.25980927980688501 0 0.116065923487036 0.25155424759680489 0 0.089645379702363526 0.25980927980688501 0 0.116065923487036 0.25155424759680489 0 0.099818528257267281 0.27185690653089678 0 0.089645379702363526 0.25980927980688501 0 0.099818528257267281 0.27185690653089678 0 0.095910340366493346 0.28464594086445177 0 0.10809736708577181 0.28553666446189058 0 0.099818528257267281 0.27185690653089678 0 0.10809736708577181 0.28553666446189058 0 0.1147979612748997 0.2707881575742877 0 0.099818528257267281 0.27185690653089678 0 0.14627836463393121 0.26809473379089088 0 0.14256315404166739 0.2804585798755338 0 0.1332419302865058 0.27890394506169119 0 0.14627836463393121 0.26809473379089088 0 0.14256315404166739 0.2804585798755338 0 0.15383705453569649 0.27951082009548711 0 0.14627836463393121 0.26809473379089088 0 0.15383705453569649 0.27951082009548711 0 0.1609818760820641 0.2708255403471686 0 0.14248646727170791 0.24329921538672239 0 0.14627836463393121 0.26809473379089088 0 0.1631161995596529 0.25657386530356069 0 0.14248646727170791 0.24329921538672239 0 0.116065923487036 0.25155424759680489 0 0.12791172371537049 0.26609555254785411 0 0.14248646727170791 0.24329921538672239 0 0.14627836463393121 0.26809473379089088 0 0.12791172371537049 0.26609555254785411 0 0.14627836463393121 0.26809473379089088 0 0.12791172371537049 0.26609555254785411 0 0.1332419302865058 0.27890394506169119 0 0.1210835213650209 0.28058702695229848 0 0.12791172371537049 0.26609555254785411 0 0.1332419302865058 0.27890394506169119 0 0.1332419302865058 0.27890394506169119 0 0.12596292383497329 0.28976449579057961 0 0.13463915166403909 0.29011289163129678 0 0.1210835213650209 0.28058702695229848 0 0.1332419302865058 0.27890394506169119 0 0.12596292383497329 0.28976449579057961 0 0.1222906650571363 0.2985709440566281 0 0.12596292383497329 0.28976449579057961 0 0.12923992476061211 0.29615108028493942 0 0.12596292383497329 0.28976449579057961 0 0.12923992476061211 0.29615108028493942 0 0.13463915166403909 0.29011289163129678 0 0.13463915166403909 0.29011289163129678 0 0.13544399911061031 0.29845687749894129 0 0.1416447250157222 0.29544082675589128 0 0.12923992476061211 0.29615108028493942 0 0.13463915166403909 0.29011289163129678 0 0.13544399911061031 0.29845687749894129 0 0.14256315404166739 0.2804585798755338 0 0.1332419302865058 0.27890394506169119 0 0.13463915166403909 0.29011289163129678 0 0.1243783730770044 0.30485679470236721 0 0.1244342991148414 0.30898461385241399 0 0.12900107104525951 0.30968741412501871 0 0.1243783730770044 0.30485679470236721 0 0.12900107104525951 0.30968741412501871 0 0.1290658347258283 0.30205966601357243 0 0.12900107104525951 0.30968741412501871 0 0.1290658347258283 0.30205966601357243 0 0.1340409753043473 0.30463488541353972 0 0.1222906650571363 0.2985709440566281 0 0.1243783730770044 0.30485679470236721 0 0.1290658347258283 0.30205966601357243 0 0.1222906650571363 0.2985709440566281 0 0.12923992476061211 0.29615108028493942 0 0.1290658347258283 0.30205966601357243 0 0.12923992476061211 0.29615108028493942 0 0.1290658347258283 0.30205966601357243 0 0.13544399911061031 0.29845687749894129 0 0.13544399911061031 0.29845687749894129 0 0.14170706289926879 0.30357921339911909 0 0.1416447250157222 0.29544082675589128 0 0.13544399911061031 0.29845687749894129 0 0.1340409753043473 0.30463488541353972 0 0.14170706289926879 0.30357921339911909 0 0.1290658347258283 0.30205966601357243 0 0.13544399911061031 0.29845687749894129 0 0.1340409753043473 0.30463488541353972 0 0.13598458437900529 0.30983158877234418 0 0.14130712994747449 0.31140798331507108 0 0.14170706289926879 0.30357921339911909 0 0.12900107104525951 0.30968741412501871 0 0.1340409753043473 0.30463488541353972 0 0.13598458437900529 0.30983158877234418 0 0.1340409753043473 0.30463488541353972 0 0.13598458437900529 0.30983158877234418 0 0.14170706289926879 0.30357921339911909 0 0.13598458437900529 0.30983158877234418 0 0.14130712994747449 0.31140798331507108 0 0.13528824775885559 0.3155805734405937 0 0.12900107104525951 0.30968741412501871 0 0.13598458437900529 0.30983158877234418 0 0.13528824775885559 0.3155805734405937 0 0.1483486037307668 0.31106151759990119 0 0.14130712994747449 0.31140798331507108 0 0.14170706289926879 0.30357921339911909 0 0.1483486037307668 0.31106151759990119 0 0.14170706289926879 0.30357921339911909 0 0.1513591925520972 0.30423422291399321 0 0.14170706289926879 0.30357921339911909 0 0.14924189349128261 0.29698436464102829 0 0.1513591925520972 0.30423422291399321 0 0.14170706289926879 0.30357921339911909 0 0.14924189349128261 0.29698436464102829 0 0.1416447250157222 0.29544082675589128 0 0.1513591925520972 0.30423422291399321 0 0.15847128754916129 0.30901971199088751 0 0.1567398971697517 0.30020769771567818 0 0.14924189349128261 0.29698436464102829 0 0.1513591925520972 0.30423422291399321 0 0.1567398971697517 0.30020769771567818 0 0.1483486037307668 0.31106151759990119 0 0.1513591925520972 0.30423422291399321 0 0.15847128754916129 0.30901971199088751 0 0.1483486037307668 0.31106151759990119 0 0.15847128754916129 0.30901971199088751 0 0.1531779528472626 0.31690967251270458 0 0.14256315404166739 0.2804585798755338 0 0.15383705453569649 0.27951082009548711 0 0.14728728951424691 0.28871625735014939 0 0.14256315404166739 0.2804585798755338 0 0.13463915166403909 0.29011289163129678 0 0.14728728951424691 0.28871625735014939 0 0.14924189349128261 0.29698436464102829 0 0.14728728951424691 0.28871625735014939 0 0.1416447250157222 0.29544082675589128 0 0.13463915166403909 0.29011289163129678 0 0.14728728951424691 0.28871625735014939 0 0.1416447250157222 0.29544082675589128 0 0.14924189349128261 0.29698436464102829 0 0.1576814993112734 0.29111844862325259 0 0.1567398971697517 0.30020769771567818 0 0.14924189349128261 0.29698436464102829 0 0.14728728951424691 0.28871625735014939 0 0.1576814993112734 0.29111844862325259 0 0.15383705453569649 0.27951082009548711 0 0.14728728951424691 0.28871625735014939 0 0.1576814993112734 0.29111844862325259 0 0.15383705453569649 0.27951082009548711 0 0.1576814993112734 0.29111844862325259 0 0.16532030222413041 0.28061774918364429 0 0.1576814993112734 0.29111844862325259 0 0.1689979645595176 0.28949488405725932 0 0.16532030222413041 0.28061774918364429 0 0.1576814993112734 0.29111844862325259 0 0.1689979645595176 0.28949488405725932 0 0.16694561294494401 0.29968174040922901 0 0.1689979645595176 0.28949488405725932 0 0.16694561294494401 0.29968174040922901 0 0.17866142019044989 0.29199773726540068 0 0.1689979645595176 0.28949488405725932 0 0.17498255083596301 0.28300150235233201 0 0.16532030222413041 0.28061774918364429 0 0.1576814993112734 0.29111844862325259 0 0.1567398971697517 0.30020769771567818 0 0.16694561294494401 0.29968174040922901 0 0.15847128754916129 0.30901971199088751 0 0.1567398971697517 0.30020769771567818 0 0.16694561294494401 0.29968174040922901 0 0.16694561294494401 0.29968174040922901 0 0.17666858027807311 0.3015349886251833 0 0.1707678241303611 0.31259989648156872 0 0.15847128754916129 0.30901971199088751 0 0.16694561294494401 0.29968174040922901 0 0.1707678241303611 0.31259989648156872 0 0.17666858027807311 0.3015349886251833 0 0.18371952992762389 0.30785332357736089 0 0.1707678241303611 0.31259989648156872 0 0.16694561294494401 0.29968174040922901 0 0.17666858027807311 0.3015349886251833 0 0.17866142019044989 0.29199773726540068 0 0.17666858027807311 0.3015349886251833 0 0.18371952992762389 0.30785332357736089 0 0.1898902111984884 0.29891268329407239 0 0.18371952992762389 0.30785332357736089 0 0.1898902111984884 0.29891268329407239 0 0.17666858027807311 0.3015349886251833 0 0.17866142019044989 0.29199773726540068 0 0.1898902111984884 0.29891268329407239 0 0.17498255083596301 0.28300150235233201 0 0.17866142019044989 0.29199773726540068 0 0.1849298445554361 0.28099903695767547 0 0.1689979645595176 0.28949488405725932 0 0.17498255083596301 0.28300150235233201 0 0.17866142019044989 0.29199773726540068 0 0.17866142019044989 0.29199773726540068 0 0.18677859260729601 0.28760164196875848 0 0.1898902111984884 0.29891268329407239 0 0.17866142019044989 0.29199773726540068 0 0.18677859260729601 0.28760164196875848 0 0.1849298445554361 0.28099903695767547 0 0.1849298445554361 0.28099903695767547 0 0.17528279401001801 0.2714166079934146 0 0.19094745617081291 0.27038549871767581 0 0.17528279401001801 0.2714166079934146 0 0.18564289691528729 0.25868749876629671 0 0.19094745617081291 0.27038549871767581 0 0.17498255083596301 0.28300150235233201 0 0.1849298445554361 0.28099903695767547 0 0.17528279401001801 0.2714166079934146 0 0.17528279401001801 0.2714166079934146 0 0.16532030222413041 0.28061774918364429 0 0.1609818760820641 0.2708255403471686 0 0.17498255083596301 0.28300150235233201 0 0.17528279401001801 0.2714166079934146 0 0.16532030222413041 0.28061774918364429 0 0.17528279401001801 0.2714166079934146 0 0.1609818760820641 0.2708255403471686 0 0.1631161995596529 0.25657386530356069 0 0.15383705453569649 0.27951082009548711 0 0.16532030222413041 0.28061774918364429 0 0.1609818760820641 0.2708255403471686 0 0.14627836463393121 0.26809473379089088 0 0.1609818760820641 0.2708255403471686 0 0.1631161995596529 0.25657386530356069 0 0.16890701105638031 0.23504418317664161 0 0.1631161995596529 0.25657386530356069 0 0.18564289691528729 0.25868749876629671 0 0.17528279401001801 0.2714166079934146 0 0.1631161995596529 0.25657386530356069 0 0.18564289691528729 0.25868749876629671 0 0.1956251304139873 0.24830732682566101 0 0.18564289691528729 0.25868749876629671 0 0.20465537480646501 0.25892384109831479 0 0.18564289691528729 0.25868749876629671 0 0.19094745617081291 0.27038549871767581 0 0.20465537480646501 0.25892384109831479 0 0.2050239072751949 0.2492833193895482 0 0.1956251304139873 0.24830732682566101 0 0.20465537480646501 0.25892384109831479 0 0.19094745617081291 0.27038549871767581 0 0.20212350544635149 0.27452240688285762 0 0.1917381003592612 0.28136787577326228 0 0.1849298445554361 0.28099903695767547 0 0.19094745617081291 0.27038549871767581 0 0.1917381003592612 0.28136787577326228 0 0.19094745617081291 0.27038549871767581 0 0.20212350544635149 0.27452240688285762 0 0.20465537480646501 0.25892384109831479 0 0.21559138507808229 0.27635001083075639 0 0.2170338530129477 0.25958452376210089 0 0.2223889939606305 0.26849190584137572 0 0.20212350544635149 0.27452240688285762 0 0.2170338530129477 0.25958452376210089 0 0.20037669147028589 0.28371892366973078 0 0.2170338530129477 0.25958452376210089 0 0.20037669147028589 0.28371892366973078 0 0.21559138507808229 0.27635001083075639 0 0.2170338530129477 0.25958452376210089 0 0.20037669147028589 0.28371892366973078 0 0.20212350544635149 0.27452240688285762 0 0.20465537480646501 0.25892384109831479 0 0.21458810326103989 0.25029177234766842 0 0.20212350544635149 0.27452240688285762 0 0.2170338530129477 0.25958452376210089 0 0.21458810326103989 0.25029177234766842 0 0.20212350544635149 0.27452240688285762 0 0.21458810326103989 0.25029177234766842 0 0.2050239072751949 0.2492833193895482 0 0.20465537480646501 0.25892384109831479 0 0.21458810326103989 0.25029177234766842 0 0.20465537480646501 0.25892384109831479 0 0.21458810326103989 0.25029177234766842 0 0.23169913173193779 0.25404958449575432 0 0.22942687348362151 0.26728355318502178 0 0.24090080429007341 0.26281353644332878 0 0.23169913173193779 0.25404958449575432 0 0.2249153238939712 0.26221153605608138 0 0.22942687348362151 0.26728355318502178 0 0.2170338530129477 0.25958452376210089 0 0.2249153238939712 0.26221153605608138 0 0.2223889939606305 0.26849190584137572 0 0.2170338530129477 0.25958452376210089 0 0.23169913173193779 0.25404958449575432 0 0.2249153238939712 0.26221153605608138 0 0.2223889939606305 0.26849190584137572 0 0.2255322572178127 0.27738204478537232 0 0.22942687348362151 0.26728355318502178 0 0.2249153238939712 0.26221153605608138 0 0.2223889939606305 0.26849190584137572 0 0.22942687348362151 0.26728355318502178 0 0.21559138507808229 0.27635001083075639 0 0.2255322572178127 0.27738204478537232 0 0.21985426169801439 0.28935406669317137 0 0.21559138507808229 0.27635001083075639 0 0.2223889939606305 0.26849190584137572 0 0.2255322572178127 0.27738204478537232 0 0.2255322572178127 0.27738204478537232 0 0.23621117140834261 0.27732665952701641 0 0.23095623596381579 0.2876536505458 0 0.2255322572178127 0.27738204478537232 0 0.22942687348362151 0.26728355318502178 0 0.23621117140834261 0.27732665952701641 0 0.23621117140834261 0.27732665952701641 0 0.24818821145747599 0.27522177653690871 0 0.24090080429007341 0.26281353644332878 0 0.22942687348362151 0.26728355318502178 0 0.23621117140834261 0.27732665952701641 0 0.24090080429007341 0.26281353644332878 0 0.24818821145747599 0.27522177653690871 0 0.24090080429007341 0.26281353644332878 0 0.25530776412370298 0.26639583896058622 0 0.23995652529561701 0.25039133628829258 0 0.24090080429007341 0.26281353644332878 0 0.25404003316197471 0.25208422786308371 0 0.23169913173193779 0.25404958449575432 0 0.23995652529561701 0.25039133628829258 0 0.24090080429007341 0.26281353644332878 0 0.23765651747073049 0.31117848176507701 0 0.2454028482605469 0.29267792886045368 0 0.25114017462525878 0.31153615041935723 0 0.23765651747073049 0.31117848176507701 0 0.2454028482605469 0.29267792886045368 0 0.2283396740985745 0.30195705682751389 0 0.2454028482605469 0.29267792886045368 0 0.23095623596381579 0.2876536505458 0 0.2283396740985745 0.30195705682751389 0 0.23621117140834261 0.27732665952701641 0 0.24818821145747599 0.27522177653690871 0 0.2454028482605469 0.29267792886045368 0 0.23621117140834261 0.27732665952701641 0 0.2454028482605469 0.29267792886045368 0 0.23095623596381579 0.2876536505458 0 0.2255322572178127 0.27738204478537232 0 0.23095623596381579 0.2876536505458 0 0.21985426169801439 0.28935406669317137 0 0.23095623596381579 0.2876536505458 0 0.21985426169801439 0.28935406669317137 0 0.2283396740985745 0.30195705682751389 0 0.2283396740985745 0.30195705682751389 0 0.2184758680590754 0.31184724711422762 0 0.22801070301179061 0.32060690690137728 0 0.21985426169801439 0.28935406669317137 0 0.2283396740985745 0.30195705682751389 0 0.21670572119465931 0.30172893354768798 0 0.23765651747073049 0.31117848176507701 0 0.2283396740985745 0.30195705682751389 0 0.22801070301179061 0.32060690690137728 0 0.2283396740985745 0.30195705682751389 0 0.2184758680590754 0.31184724711422762 0 0.21670572119465931 0.30172893354768798 0 0.2184758680590754 0.31184724711422762 0 0.21670572119465931 0.30172893354768798 0 0.20632342479934371 0.30585855598863948 0 0.21670572119465931 0.30172893354768798 0 0.20632342479934371 0.30585855598863948 0 0.21141614329998781 0.29390938293380992 0 0.20632342479934371 0.30585855598863948 0 0.21141614329998781 0.29390938293380992 0 0.2042452804315445 0.29308429151921322 0 0.21559138507808229 0.27635001083075639 0 0.21985426169801439 0.28935406669317137 0 0.2104384150331686 0.28649738738125968 0 0.21985426169801439 0.28935406669317137 0 0.21141614329998781 0.29390938293380992 0 0.2104384150331686 0.28649738738125968 0 0.21985426169801439 0.28935406669317137 0 0.21670572119465931 0.30172893354768798 0 0.21141614329998781 0.29390938293380992 0 0.21141614329998781 0.29390938293380992 0 0.2042452804315445 0.29308429151921322 0 0.2104384150331686 0.28649738738125968 0 0.2042452804315445 0.29308429151921322 0 0.2104384150331686 0.28649738738125968 0 0.20037669147028589 0.28371892366973078 0 0.21559138507808229 0.27635001083075639 0 0.2104384150331686 0.28649738738125968 0 0.20037669147028589 0.28371892366973078 0 0.20212350544635149 0.27452240688285762 0 0.20037669147028589 0.28371892366973078 0 0.1898902111984884 0.29891268329407239 0 0.18677859260729601 0.28760164196875848 0 0.1917381003592612 0.28136787577326228 0 0.1898902111984884 0.29891268329407239 0 0.20037669147028589 0.28371892366973078 0 0.1976595376627992 0.29976589533378561 0 0.1898902111984884 0.29891268329407239 0 0.2042452804315445 0.29308429151921322 0 0.20037669147028589 0.28371892366973078 0 0.1976595376627992 0.29976589533378561 0 0.20212350544635149 0.27452240688285762 0 0.1898902111984884 0.29891268329407239 0 0.20212350544635149 0.27452240688285762 0 0.1917381003592612 0.28136787577326228 0 0.1898902111984884 0.29891268329407239 0 0.20037669147028589 0.28371892366973078 0 0.1898902111984884 0.29891268329407239 0 0.18677859260729601 0.28760164196875848 0 0.1849298445554361 0.28099903695767547 0 0.1917381003592612 0.28136787577326228 0 0.20632342479934371 0.30585855598863948 0 0.19412409721151189 0.30848045781950378 0 0.19635424873152091 0.31866253726922511 0 0.20632342479934371 0.30585855598863948 0 0.1976595376627992 0.29976589533378561 0 0.19412409721151189 0.30848045781950378 0 0.20632342479934371 0.30585855598863948 0 0.2042452804315445 0.29308429151921322 0 0.1976595376627992 0.29976589533378561 0 0.18371952992762389 0.30785332357736089 0 0.1976595376627992 0.29976589533378561 0 0.1898902111984884 0.29891268329407239 0 0.18371952992762389 0.30785332357736089 0 0.19412409721151189 0.30848045781950378 0 0.19635424873152091 0.31866253726922511 0 0.18371952992762389 0.30785332357736089 0 0.1976595376627992 0.29976589533378561 0 0.19412409721151189 0.30848045781950378 0 0.19635424873152091 0.31866253726922511 0 0.19329834396814641 0.33328399686629978 0 0.21150607161232149 0.3245036863190196 0 0.19635424873152091 0.31866253726922511 0 0.19329834396814641 0.33328399686629978 0 0.1818581672390053 0.32281790922797782 0 0.19329834396814641 0.33328399686629978 0 0.20841238186686439 0.34472105417207632 0 0.1876990638134575 0.35190483133425488 0 0.19329834396814641 0.33328399686629978 0 0.21150607161232149 0.3245036863190196 0 0.20841238186686439 0.34472105417207632 0 0.21150607161232149 0.3245036863190196 0 0.22736457019319431 0.33776348264759248 0 0.20841238186686439 0.34472105417207632 0 0.20632342479934371 0.30585855598863948 0 0.19635424873152091 0.31866253726922511 0 0.21150607161232149 0.3245036863190196 0 0.2184758680590754 0.31184724711422762 0 0.20632342479934371 0.30585855598863948 0 0.21150607161232149 0.3245036863190196 0 0.21150607161232149 0.3245036863190196 0 0.22801070301179061 0.32060690690137728 0 0.22736457019319431 0.33776348264759248 0 0.2184758680590754 0.31184724711422762 0 0.21150607161232149 0.3245036863190196 0 0.22801070301179061 0.32060690690137728 0 0.22801070301179061 0.32060690690137728 0 0.22736457019319431 0.33776348264759248 0 0.24490867605631639 0.32967072069511189 0 0.22736457019319431 0.33776348264759248 0 0.24490867605631639 0.32967072069511189 0 0.24521693247762111 0.35027114815259558 0 0.23765651747073049 0.31117848176507701 0 0.22801070301179061 0.32060690690137728 0 0.24490867605631639 0.32967072069511189 0 0.23765651747073049 0.31117848176507701 0 0.24490867605631639 0.32967072069511189 0 0.25114017462525878 0.31153615041935723 0 0.24305895760768401 0.36641304215893011 0 0.24521693247762111 0.35027114815259558 0 0.22613265613425179 0.35680737964537468 0 0.22736457019319431 0.33776348264759248 0 0.24521693247762111 0.35027114815259558 0 0.22613265613425179 0.35680737964537468 0 0.22736457019319431 0.33776348264759248 0 0.22613265613425179 0.35680737964537468 0 0.20841238186686439 0.34472105417207632 0 0.22613265613425179 0.35680737964537468 0 0.20200890290724041 0.36500873302905812 0 0.22860253219506471 0.37841014948266538 0 0.24305895760768401 0.36641304215893011 0 0.22613265613425179 0.35680737964537468 0 0.22860253219506471 0.37841014948266538 0 0.20200890290724041 0.36500873302905812 0 0.22860253219506471 0.37841014948266538 0 0.22613265613425179 0.35680737964537468 0 0.20841238186686439 0.34472105417207632 0 0.20200890290724041 0.36500873302905812 0 0.20841238186686439 0.34472105417207632 0 0.1876990638134575 0.35190483133425488 0 0.20200890290724041 0.36500873302905812 0 0.1876990638134575 0.35190483133425488 0 0.20200890290724041 0.36500873302905812 0 0.17637045729064621 0.37495278481954358 0 0.1876990638134575 0.35190483133425488 0 0.17637045729064621 0.37495278481954358 0 0.16909864488713719 0.35514267549568418 0 0.15975417249048229 0.36968310563447321 0 0.16909864488713719 0.35514267549568418 0 0.14990537096685039 0.36070173528474042 0 0.17637045729064621 0.37495278481954358 0 0.15975417249048229 0.36968310563447321 0 0.16909864488713719 0.35514267549568418 0 0.16909864488713719 0.35514267549568418 0 0.1770056519607103 0.33831974362286749 0 0.1619384281755652 0.34052596047808847 0 0.16909864488713719 0.35514267549568418 0 0.14990537096685039 0.36070173528474042 0 0.15416632756111201 0.34898696826244741 0 0.16909864488713719 0.35514267549568418 0 0.1619384281755652 0.34052596047808847 0 0.15416632756111201 0.34898696826244741 0 0.1876990638134575 0.35190483133425488 0 0.16909864488713719 0.35514267549568418 0 0.1770056519607103 0.33831974362286749 0 0.19329834396814641 0.33328399686629978 0 0.1770056519607103 0.33831974362286749 0 0.1818581672390053 0.32281790922797782 0 0.19329834396814641 0.33328399686629978 0 0.1876990638134575 0.35190483133425488 0 0.1770056519607103 0.33831974362286749 0 0.1770056519607103 0.33831974362286749 0 0.1818581672390053 0.32281790922797782 0 0.1657389141743941 0.32607447656151611 0 0.1818581672390053 0.32281790922797782 0 0.1707678241303611 0.31259989648156872 0 0.1657389141743941 0.32607447656151611 0 0.18371952992762389 0.30785332357736089 0 0.19635424873152091 0.31866253726922511 0 0.1818581672390053 0.32281790922797782 0 0.18371952992762389 0.30785332357736089 0 0.1818581672390053 0.32281790922797782 0 0.1707678241303611 0.31259989648156872 0 0.1707678241303611 0.31259989648156872 0 0.1657389141743941 0.32607447656151611 0 0.16084478468494731 0.31759224325908281 0 0.1657389141743941 0.32607447656151611 0 0.15632698434060879 0.32309477146443721 0 0.16084478468494731 0.31759224325908281 0 0.1657389141743941 0.32607447656151611 0 0.15632698434060879 0.32309477146443721 0 0.1534459738215358 0.33116830427909388 0 0.15847128754916129 0.30901971199088751 0 0.1707678241303611 0.31259989648156872 0 0.16084478468494731 0.31759224325908281 0 0.15847128754916129 0.30901971199088751 0 0.16084478468494731 0.31759224325908281 0 0.1531779528472626 0.31690967251270458 0 0.15632698434060879 0.32309477146443721 0 0.16084478468494731 0.31759224325908281 0 0.1531779528472626 0.31690967251270458 0 0.1770056519607103 0.33831974362286749 0 0.1657389141743941 0.32607447656151611 0 0.1619384281755652 0.34052596047808847 0 0.1657389141743941 0.32607447656151611 0 0.1619384281755652 0.34052596047808847 0 0.1534459738215358 0.33116830427909388 0 0.1619384281755652 0.34052596047808847 0 0.14537830609435001 0.34101383565047871 0 0.15416632756111201 0.34898696826244741 0 0.1619384281755652 0.34052596047808847 0 0.1534459738215358 0.33116830427909388 0 0.14537830609435001 0.34101383565047871 0 0.1534459738215358 0.33116830427909388 0 0.1427633336259623 0.33140140495610498 0 0.14842729617490411 0.32372916070978858 0 0.1534459738215358 0.33116830427909388 0 0.1427633336259623 0.33140140495610498 0 0.14537830609435001 0.34101383565047871 0 0.1427633336259623 0.33140140495610498 0 0.14537830609435001 0.34101383565047871 0 0.13654253772275141 0.33890423694427602 0 0.1483486037307668 0.31106151759990119 0 0.1531779528472626 0.31690967251270458 0 0.14487070829517959 0.31682928085866202 0 0.1531779528472626 0.31690967251270458 0 0.14842729617490411 0.32372916070978858 0 0.14487070829517959 0.31682928085866202 0 0.15632698434060879 0.32309477146443721 0 0.1534459738215358 0.33116830427909388 0 0.14842729617490411 0.32372916070978858 0 0.15632698434060879 0.32309477146443721 0 0.1531779528472626 0.31690967251270458 0 0.14842729617490411 0.32372916070978858 0 0.1427633336259623 0.33140140495610498 0 0.14842729617490411 0.32372916070978858 0 0.1402378637359267 0.32270884290342983 0 0.14842729617490411 0.32372916070978858 0 0.14487070829517959 0.31682928085866202 0 0.1402378637359267 0.32270884290342983 0 0.1483486037307668 0.31106151759990119 0 0.14130712994747449 0.31140798331507108 0 0.14487070829517959 0.31682928085866202 0 0.14130712994747449 0.31140798331507108 0 0.14487070829517959 0.31682928085866202 0 0.13528824775885559 0.3155805734405937 0 0.14487070829517959 0.31682928085866202 0 0.13528824775885559 0.3155805734405937 0 0.1402378637359267 0.32270884290342983 0 0.13528824775885559 0.3155805734405937 0 0.1330765722643745 0.32249408610517011 0 0.1402378637359267 0.32270884290342983 0 0.1330765722643745 0.32249408610517011 0 0.1402378637359267 0.32270884290342983 0 0.13309473665224339 0.33072661256584468 0 0.12375204985912221 0.32702725796552912 0 0.1330765722643745 0.32249408610517011 0 0.13309473665224339 0.33072661256584468 0 0.12375204985912221 0.32702725796552912 0 0.1330765722643745 0.32249408610517011 0 0.12817088130983889 0.317450689473041 0 0.13528824775885559 0.3155805734405937 0 0.1330765722643745 0.32249408610517011 0 0.12817088130983889 0.317450689473041 0 0.1214195525311879 0.31440901896845502 0 0.12900107104525951 0.30968741412501871 0 0.12817088130983889 0.317450689473041 0 0.12900107104525951 0.30968741412501871 0 0.13528824775885559 0.3155805734405937 0 0.12817088130983889 0.317450689473041 0 0.14537830609435001 0.34101383565047871 0 0.13654253772275141 0.33890423694427602 0 0.13685475473781181 0.34959577292381833 0 0.13654253772275141 0.33890423694427602 0 0.1260676383484185 0.3399282146226113 0 0.13685475473781181 0.34959577292381833 0 0.1427633336259623 0.33140140495610498 0 0.13654253772275141 0.33890423694427602 0 0.13309473665224339 0.33072661256584468 0 0.1427633336259623 0.33140140495610498 0 0.1402378637359267 0.32270884290342983 0 0.13309473665224339 0.33072661256584468 0 0.12375204985912221 0.32702725796552912 0 0.13309473665224339 0.33072661256584468 0 0.1260676383484185 0.3399282146226113 0 0.13654253772275141 0.33890423694427602 0 0.13309473665224339 0.33072661256584468 0 0.1260676383484185 0.3399282146226113 0 0.1232256624926347 0.35239419723674059 0 0.13685475473781181 0.34959577292381833 0 0.13271547193899449 0.36524458735671972 0 0.1232256624926347 0.35239419723674059 0 0.1260676383484185 0.3399282146226113 0 0.13685475473781181 0.34959577292381833 0 0.13685475473781181 0.34959577292381833 0 0.13271547193899449 0.36524458735671972 0 0.14990537096685039 0.36070173528474042 0 0.13271547193899449 0.36524458735671972 0 0.14727668153694909 0.37350977329143831 0 0.1384203385310763 0.3853027474406937 0 0.13271547193899449 0.36524458735671972 0 0.14727668153694909 0.37350977329143831 0 0.14990537096685039 0.36070173528474042 0 0.15975417249048229 0.36968310563447321 0 0.14727668153694909 0.37350977329143831 0 0.14990537096685039 0.36070173528474042 0 0.14537830609435001 0.34101383565047871 0 0.13685475473781181 0.34959577292381833 0 0.15416632756111201 0.34898696826244741 0 0.13685475473781181 0.34959577292381833 0 0.14990537096685039 0.36070173528474042 0 0.15416632756111201 0.34898696826244741 0 0.15196678808574959 0.39634912392256672 0 0.1402717845598023 0.40641241395674649 0 0.16129649351817349 0.40676751558544272 0 0.15196678808574959 0.39634912392256672 0 0.1384203385310763 0.3853027474406937 0 0.1402717845598023 0.40641241395674649 0 0.15196678808574959 0.39634912392256672 0 0.15611970777082879 0.38410855928095938 0 0.1384203385310763 0.3853027474406937 0 0.14727668153694909 0.37350977329143831 0 0.15611970777082879 0.38410855928095938 0 0.1384203385310763 0.3853027474406937 0 0.15975417249048229 0.36968310563447321 0 0.14727668153694909 0.37350977329143831 0 0.15611970777082879 0.38410855928095938 0 0.1231373165426977 0.3806134049577457 0 0.13271547193899449 0.36524458735671972 0 0.1384203385310763 0.3853027474406937 0 0.1231373165426977 0.3806134049577457 0 0.1384203385310763 0.3853027474406937 0 0.1271742827044339 0.39597619803598749 0 0.1384203385310763 0.3853027474406937 0 0.1271742827044339 0.39597619803598749 0 0.1402717845598023 0.40641241395674649 0 0.1162621503634904 0.41872732341568758 0 0.1271742827044339 0.39597619803598749 0 0.1402717845598023 0.40641241395674649 0 0.1162621503634904 0.41872732341568758 0 0.1402717845598023 0.40641241395674649 0 0.14380353536204241 0.43078456768362461 0 0.1162621503634904 0.41872732341568758 0 0.14380353536204241 0.43078456768362461 0 0.1205619018159948 0.44674810255646558 0 0.1162621503634904 0.41872732341568758 0 0.13914808732176639 0.43525501877606959 0 0.1162621503634904 0.41872732341568758 0 0.13914808732176639 0.43525501877606959 0 0.14380353536204241 0.43078456768362461 0 0.1402717845598023 0.40641241395674649 0 0.16129649351817349 0.40676751558544272 0 0.1583102357697074 0.42239552662274649 0 0.1402717845598023 0.40641241395674649 0 0.14380353536204241 0.43078456768362461 0 0.1583102357697074 0.42239552662274649 0 0.16129649351817349 0.40676751558544272 0 0.17483444504792359 0.42517132393635743 0 0.1767108048052333 0.40648620419478521 0 0.16129649351817349 0.40676751558544272 0 0.1583102357697074 0.42239552662274649 0 0.17483444504792359 0.42517132393635743 0 0.1583102357697074 0.42239552662274649 0 0.17483444504792359 0.42517132393635743 0 0.1713449203605947 0.44284181195156158 0 0.14380353536204241 0.43078456768362461 0 0.1713449203605947 0.44284181195156158 0 0.14380353536204241 0.43078456768362461 0 0.1583102357697074 0.42239552662274649 0 0.1713449203605947 0.44284181195156158 0 0.17483444504792359 0.42517132393635743 0 0.18216746451451801 0.43740730714955978 0 0.1713449203605947 0.44284181195156158 0 0.17483444504792359 0.42517132393635743 0 0.1713449203605947 0.44284181195156158 0 0.17483444504792359 0.42517132393635743 0 0.1894098998784805 0.41329321868770491 0 0.19020123220431809 0.42989189963497759 0 0.17483444504792359 0.42517132393635743 0 0.18216746451451801 0.43740730714955978 0 0.19020123220431809 0.42989189963497759 0 0.17483444504792359 0.42517132393635743 0 0.1767108048052333 0.40648620419478521 0 0.1894098998784805 0.41329321868770491 0 0.1767108048052333 0.40648620419478521 0 0.16971698500113649 0.39319336099264368 0 0.18829620058045249 0.39400560177177729 0 0.1767108048052333 0.40648620419478521 0 0.18829620058045249 0.39400560177177729 0 0.1894098998784805 0.41329321868770491 0 0.15196678808574959 0.39634912392256672 0 0.15611970777082879 0.38410855928095938 0 0.16971698500113649 0.39319336099264368 0 0.15196678808574959 0.39634912392256672 0 0.16129649351817349 0.40676751558544272 0 0.16971698500113649 0.39319336099264368 0 0.16129649351817349 0.40676751558544272 0 0.1767108048052333 0.40648620419478521 0 0.16971698500113649 0.39319336099264368 0 0.17637045729064621 0.37495278481954358 0 0.15975417249048229 0.36968310563447321 0 0.15611970777082879 0.38410855928095938 0 0.17637045729064621 0.37495278481954358 0 0.15611970777082879 0.38410855928095938 0 0.16971698500113649 0.39319336099264368 0 0.17637045729064621 0.37495278481954358 0 0.16971698500113649 0.39319336099264368 0 0.18829620058045249 0.39400560177177729 0 0.20200890290724041 0.36500873302905812 0 0.18829620058045249 0.39400560177177729 0 0.21022739730807871 0.38998636848418261 0 0.20200890290724041 0.36500873302905812 0 0.17637045729064621 0.37495278481954358 0 0.18829620058045249 0.39400560177177729 0 0.18829620058045249 0.39400560177177729 0 0.21022739730807871 0.38998636848418261 0 0.20498907662426999 0.40636669370009521 0 0.18829620058045249 0.39400560177177729 0 0.20498907662426999 0.40636669370009521 0 0.1894098998784805 0.41329321868770491 0 0.21022739730807871 0.38998636848418261 0 0.225418264115859 0.4045632601918206 0 0.20498907662426999 0.40636669370009521 0 0.20200890290724041 0.36500873302905812 0 0.21022739730807871 0.38998636848418261 0 0.22860253219506471 0.37841014948266538 0 0.21022739730807871 0.38998636848418261 0 0.22860253219506471 0.37841014948266538 0 0.225418264115859 0.4045632601918206 0 0.225418264115859 0.4045632601918206 0 0.2490748840761759 0.41447913741323361 0 0.25519616148288887 0.39181156593627298 0 0.22860253219506471 0.37841014948266538 0 0.225418264115859 0.4045632601918206 0 0.25519616148288887 0.39181156593627298 0 0.22860253219506471 0.37841014948266538 0 0.25519616148288887 0.39181156593627298 0 0.24305895760768401 0.36641304215893011 0 0.22860253219506471 0.37841014948266538 0 0.25519616148288887 0.39181156593627298 0 0.2490748840761759 0.41447913741323361 0 0.23040520055063371 0.42472223384156732 0 0.24517769652138269 0.43868647355565088 0 0.225418264115859 0.4045632601918206 0 0.2490748840761759 0.41447913741323361 0 0.23040520055063371 0.42472223384156732 0 0.225418264115859 0.4045632601918206 0 0.23040520055063371 0.42472223384156732 0 0.20794960100346549 0.42683021087399747 0 0.23040520055063371 0.42472223384156732 0 0.20794960100346549 0.42683021087399747 0 0.2229924843016429 0.43948176305630821 0 0.23040520055063371 0.42472223384156732 0 0.2229924843016429 0.43948176305630821 0 0.24517769652138269 0.43868647355565088 0 0.225418264115859 0.4045632601918206 0 0.20794960100346549 0.42683021087399747 0 0.20498907662426999 0.40636669370009521 0 0.20794960100346549 0.42683021087399747 0 0.20498907662426999 0.40636669370009521 0 0.1894098998784805 0.41329321868770491 0 0.20794960100346549 0.42683021087399747 0 0.19020123220431809 0.42989189963497759 0 0.19426067079655579 0.44330707928475449 0 0.20794960100346549 0.42683021087399747 0 0.1894098998784805 0.41329321868770491 0 0.19020123220431809 0.42989189963497759 0 0.18216746451451801 0.43740730714955978 0 0.19020123220431809 0.42989189963497759 0 0.19426067079655579 0.44330707928475449 0 0.19426067079655579 0.44330707928475449 0 0.1940681668251448 0.45640187690020761 0 0.18254949088188149 0.4477470207382499 0 0.19426067079655579 0.44330707928475449 0 0.1940681668251448 0.45640187690020761 0 0.20814429074563079 0.44944136850783811 0 0.1940681668251448 0.45640187690020761 0 0.20814429074563079 0.44944136850783811 0 0.2039949308663013 0.472197178379127 0 0.1940681668251448 0.45640187690020761 0 0.2039949308663013 0.472197178379127 0 0.18608081776579821 0.46867989557539208 0 0.1940681668251448 0.45640187690020761 0 0.18608081776579821 0.46867989557539208 0 0.18254949088188149 0.4477470207382499 0 0.20814429074563079 0.44944136850783811 0 0.22852149564367849 0.45772005811557609 0 0.2039949308663013 0.472197178379127 0 0.20794960100346549 0.42683021087399747 0 0.19426067079655579 0.44330707928475449 0 0.20814429074563079 0.44944136850783811 0 0.20794960100346549 0.42683021087399747 0 0.20814429074563079 0.44944136850783811 0 0.2229924843016429 0.43948176305630821 0 0.2229924843016429 0.43948176305630821 0 0.22852149564367849 0.45772005811557609 0 0.24517769652138269 0.43868647355565088 0 0.20814429074563079 0.44944136850783811 0 0.2229924843016429 0.43948176305630821 0 0.22852149564367849 0.45772005811557609 0 0.22852149564367849 0.45772005811557609 0 0.2480713074063006 0.45455858161591112 0 0.2508124586903176 0.47172026355836871 0 0.22852149564367849 0.45772005811557609 0 0.2480713074063006 0.45455858161591112 0 0.24517769652138269 0.43868647355565088 0 0.24658834009167641 0.5 0 0.2268462464291012 0.47913099520174052 0 0.2508124586903176 0.47172026355836871 0 0.22852149564367849 0.45772005811557609 0 0.2268462464291012 0.47913099520174052 0 0.2508124586903176 0.47172026355836871 0 0.22852149564367849 0.45772005811557609 0 0.2268462464291012 0.47913099520174052 0 0.2039949308663013 0.472197178379127 0 0.24658834009167641 0.5 0 0.2268462464291012 0.47913099520174052 0 0.21774471386125249 0.5 0 0.2039949308663013 0.472197178379127 0 0.18890108763082861 0.5 0 0.18608081776579821 0.46867989557539208 0 0.21774471386125249 0.5 0 0.2039949308663013 0.472197178379127 0 0.18890108763082861 0.5 0 0.2268462464291012 0.47913099520174052 0 0.21774471386125249 0.5 0 0.2039949308663013 0.472197178379127 0 0.18890108763082861 0.5 0 0.16570119088049859 0.47142090597577962 0 0.18608081776579821 0.46867989557539208 0 0.18890108763082861 0.5 0 0.1600574614004048 0.499999999999998 0 0.16570119088049859 0.47142090597577962 0 0.1600574614004048 0.499999999999998 0 0.16570119088049859 0.47142090597577962 0 0.1600574614004048 0.499999999999998 0 0.16570119088049859 0.47142090597577962 0 0.1473140710794911 0.47841155746419622 0 0.16570119088049859 0.47142090597577962 0 0.18608081776579821 0.46867989557539208 0 0.18254949088188149 0.4477470207382499 0 0.16570119088049859 0.47142090597577962 0 0.18254949088188149 0.4477470207382499 0 0.1713449203605947 0.44284181195156158 0 0.18216746451451801 0.43740730714955978 0 0.19426067079655579 0.44330707928475449 0 0.18254949088188149 0.4477470207382499 0 0.18254949088188149 0.4477470207382499 0 0.1713449203605947 0.44284181195156158 0 0.18216746451451801 0.43740730714955978 0 0.18254949088188149 0.4477470207382499 0 0.1713449203605947 0.44284181195156158 0 0.16570119088049859 0.47142090597577962 0 0.1713449203605947 0.44284181195156158 0 0.16570119088049859 0.47142090597577962 0 0.1713449203605947 0.44284181195156158 0 0.15076126992746861 0.45128164001408699 0 0.16570119088049859 0.47142090597577962 0 0.14979107830043681 0.4659705410046826 0 0.15076126992746861 0.45128164001408699 0 0.14979107830043681 0.4659705410046826 0 0.15076126992746861 0.45128164001408699 0 0.13538778131428869 0.46276806056466779 0 0.13914808732176639 0.43525501877606959 0 0.14380353536204241 0.43078456768362461 0 0.15076126992746861 0.45128164001408699 0 0.14380353536204241 0.43078456768362461 0 0.1713449203605947 0.44284181195156158 0 0.15076126992746861 0.45128164001408699 0 0.13914808732176639 0.43525501877606959 0 0.15076126992746861 0.45128164001408699 0 0.13538778131428869 0.46276806056466779 0 0.13914808732176639 0.43525501877606959 0 0.13538778131428869 0.46276806056466779 0 0.1205619018159948 0.44674810255646558 0 0.13914808732176639 0.43525501877606959 0 0.13538778131428869 0.46276806056466779 0 0.1248616532684987 0.47476888169724352 0 0.1205619018159948 0.44674810255646558 0 0.13538778131428869 0.46276806056466779 0 0.13538778131428869 0.46276806056466779 0 0.13162747530681079 0.49028110235326611 0 0.1248616532684987 0.47476888169724352 0 0.13538778131428869 0.46276806056466779 0 0.13162747530681079 0.49028110235326611 0 0.13538778131428869 0.46276806056466779 0 0.13162747530681079 0.49028110235326611 0 0.1473140710794911 0.47841155746419622 0 0.1248616532684987 0.47476888169724352 0 0.13162747530681079 0.49028110235326611 0 0.1248616532684987 0.47476888169724352 0 0.1287333349596296 0.50000000000000233 0 0.1248616532684987 0.47476888169724352 0 0.13162747530681079 0.49028110235326611 0 0.1287333349596296 0.50000000000000233 0 0.13162747530681079 0.49028110235326611 0 0.1302991587401483 0.50000000000000044 0 0.13162747530681079 0.49028110235326611 0 0.1302991587401483 0.50000000000000044 0 0.13586647714571501 0.50000000000000044 0 0.13162747530681079 0.49028110235326611 0 0.1287333349596296 0.50000000000000233 0 0.1302991587401483 0.50000000000000044 0 0.13162747530681079 0.49028110235326611 0 0.13586647714571501 0.50000000000000044 0 0.14406777576738011 0.49099847585001533 0 0.13162747530681079 0.49028110235326611 0 0.13586647714571501 0.50000000000000044 0 0.1600574614004048 0.499999999999998 0 0.13586647714571501 0.50000000000000044 0 0.14406777576738011 0.49099847585001533 0 0.1600574614004048 0.499999999999998 0 0.14406777576738011 0.49099847585001533 0 0.1473140710794911 0.47841155746419622 0 0.13162747530681079 0.49028110235326611 0 0.14406777576738011 0.49099847585001533 0 0.1473140710794911 0.47841155746419622 0 0.16570119088049859 0.47142090597577962 0 0.14979107830043681 0.4659705410046826 0 0.1473140710794911 0.47841155746419622 0 0.14979107830043681 0.4659705410046826 0 0.13538778131428869 0.46276806056466779 0 0.1473140710794911 0.47841155746419622 0 0.3484716028812469 0.46927922019571022 0 0.3639431844790027 0.47792576209206161 0 0.36215729707138089 0.45952194433731441 0 0.3484716028812469 0.46927922019571022 0 0.34825454286986979 0.4866410253547736 0 0.3639431844790027 0.47792576209206161 0 0.34825454286986979 0.4866410253547736 0 0.36196284501337178 0.5 0 0.3639431844790027 0.47792576209206161 0 0.34825454286986979 0.4866410253547736 0 0.36196284501337178 0.5 0 0.33311921878294798 0.5 0 0.36196284501337178 0.5 0 0.3639431844790027 0.47792576209206161 0 0.38120033573297152 0.48442634992442057 0 0.3639431844790027 0.47792576209206161 0 0.37844435483634198 0.4675903904274426 0 0.38120033573297152 0.48442634992442057 0 0.3639431844790027 0.47792576209206161 0 0.36215729707138089 0.45952194433731441 0 0.37844435483634198 0.4675903904274426 0 0.36215729707138089 0.45952194433731441 0 0.37809165231809289 0.44568724501072521 0 0.37844435483634198 0.4675903904274426 0 0.36215729707138089 0.45952194433731441 0 0.35494335133579169 0.44207750056399991 0 0.37809165231809289 0.44568724501072521 0 0.35494335133579169 0.44207750056399991 0 0.365542703577178 0.42914551292816783 0 0.37809165231809289 0.44568724501072521 0 0.35494335133579169 0.44207750056399991 0 0.33746945485668051 0.4332718215327816 0 0.35494335133579169 0.44207750056399991 0 0.33933393763431879 0.44574212964051668 0 0.33746945485668051 0.4332718215327816 0 0.36215729707138089 0.45952194433731441 0 0.35494335133579169 0.44207750056399991 0 0.34904963657780902 0.45457154773394731 0 0.35494335133579169 0.44207750056399991 0 0.34904963657780902 0.45457154773394731 0 0.33933393763431879 0.44574212964051668 0 0.3484716028812469 0.46927922019571022 0 0.36215729707138089 0.45952194433731441 0 0.34904963657780902 0.45457154773394731 0 0.3484716028812469 0.46927922019571022 0 0.34904963657780902 0.45457154773394731 0 0.33768006752307722 0.45817683321967928 0 0.33768006752307722 0.45817683321967928 0 0.32516604183334019 0.44948070643492349 0 0.3263791186886712 0.4718105620932988 0 0.3484716028812469 0.46927922019571022 0 0.33768006752307722 0.45817683321967928 0 0.3263791186886712 0.4718105620932988 0 0.33933393763431879 0.44574212964051668 0 0.32516604183334019 0.44948070643492349 0 0.33457771181584611 0.43369686048393857 0 0.32516604183334019 0.44948070643492349 0 0.33457771181584611 0.43369686048393857 0 0.33933393763431879 0.44574212964051668 0 0.33457771181584611 0.43369686048393857 0 0.33746945485668051 0.4332718215327816 0 0.34904963657780902 0.45457154773394731 0 0.33768006752307722 0.45817683321967928 0 0.33933393763431879 0.44574212964051668 0 0.33768006752307722 0.45817683321967928 0 0.33933393763431879 0.44574212964051668 0 0.32516604183334019 0.44948070643492349 0 0.32516604183334019 0.44948070643492349 0 0.30610823095482448 0.43788140873538328 0 0.33457771181584611 0.43369686048393857 0 0.32516604183334019 0.44948070643492349 0 0.30909376894118562 0.45443190325323968 0 0.30610823095482448 0.43788140873538328 0 0.32516604183334019 0.44948070643492349 0 0.3263791186886712 0.4718105620932988 0 0.30909376894118562 0.45443190325323968 0 0.3263791186886712 0.4718105620932988 0 0.30059931196992168 0.47005809262963882 0 0.31153103284441203 0.48323920778459489 0 0.3484716028812469 0.46927922019571022 0 0.34825454286986979 0.4866410253547736 0 0.3263791186886712 0.4718105620932988 0 0.34825454286986979 0.4866410253547736 0 0.3263791186886712 0.4718105620932988 0 0.33311921878294798 0.5 0 0.3263791186886712 0.4718105620932988 0 0.33311921878294798 0.5 0 0.31153103284441203 0.48323920778459489 0 0.33311921878294798 0.5 0 0.30427559255252412 0.5 0 0.31153103284441203 0.48323920778459489 0 0.30427559255252412 0.5 0 0.31153103284441203 0.48323920778459489 0 0.29110307967174748 0.48580921065493432 0 0.30059931196992168 0.47005809262963882 0 0.31153103284441203 0.48323920778459489 0 0.29110307967174748 0.48580921065493432 0 0.30059931196992168 0.47005809262963882 0 0.29110307967174748 0.48580921065493432 0 0.27585954767988607 0.47408041721782612 0 0.30427559255252412 0.5 0 0.29110307967174748 0.48580921065493432 0 0.27543196632210021 0.5 0 0.27543196632210021 0.5 0 0.27585954767988607 0.47408041721782612 0 0.26198527678341299 0.48673919500437729 0 0.29110307967174748 0.48580921065493432 0 0.27543196632210021 0.5 0 0.27585954767988607 0.47408041721782612 0 0.27585954767988607 0.47408041721782612 0 0.2508124586903176 0.47172026355836871 0 0.26198527678341299 0.48673919500437729 0 0.24658834009167641 0.5 0 0.2508124586903176 0.47172026355836871 0 0.26198527678341299 0.48673919500437729 0 0.24658834009167641 0.5 0 0.27543196632210021 0.5 0 0.26198527678341299 0.48673919500437729 0 0.2480713074063006 0.45455858161591112 0 0.24517769652138269 0.43868647355565088 0 0.26777357876982372 0.45010753123404867 0 0.24517769652138269 0.43868647355565088 0 0.26777357876982372 0.45010753123404867 0 0.26600993858745892 0.42808938636359573 0 0.2480713074063006 0.45455858161591112 0 0.2508124586903176 0.47172026355836871 0 0.26777357876982372 0.45010753123404867 0 0.27585954767988607 0.47408041721782612 0 0.2508124586903176 0.47172026355836871 0 0.26777357876982372 0.45010753123404867 0 0.27585954767988607 0.47408041721782612 0 0.26777357876982372 0.45010753123404867 0 0.28975077836376328 0.45156795454144122 0 0.26777357876982372 0.45010753123404867 0 0.28975077836376328 0.45156795454144122 0 0.28607917402868899 0.43188291486824332 0 0.28975077836376328 0.45156795454144122 0 0.30610823095482448 0.43788140873538328 0 0.28607917402868899 0.43188291486824332 0 0.30059931196992168 0.47005809262963882 0 0.27585954767988607 0.47408041721782612 0 0.28975077836376328 0.45156795454144122 0 0.3263791186886712 0.4718105620932988 0 0.30059931196992168 0.47005809262963882 0 0.30909376894118562 0.45443190325323968 0 0.30059931196992168 0.47005809262963882 0 0.28975077836376328 0.45156795454144122 0 0.30909376894118562 0.45443190325323968 0 0.28975077836376328 0.45156795454144122 0 0.30909376894118562 0.45443190325323968 0 0.30610823095482448 0.43788140873538328 0 0.30610823095482448 0.43788140873538328 0 0.30869255759955722 0.41877018355733042 0 0.28607917402868899 0.43188291486824332 0 0.3075810200549029 0.4073564129674252 0 0.30869255759955722 0.41877018355733042 0 0.30232024370737348 0.40459188745546998 0 0.31142364564813352 0.41093370315849659 0 0.3075810200549029 0.4073564129674252 0 0.31015955469665918 0.40201373970895371 0 0.31142364564813352 0.41093370315849659 0 0.3075810200549029 0.4073564129674252 0 0.30869255759955722 0.41877018355733042 0 0.30869255759955722 0.41877018355733042 0 0.29605666041485018 0.40551048050067168 0 0.30232024370737348 0.40459188745546998 0 0.30869255759955722 0.41877018355733042 0 0.2819443595412231 0.40529087474680159 0 0.30869255759955722 0.41877018355733042 0 0.2819443595412231 0.40529087474680159 0 0.29605666041485018 0.40551048050067168 0 0.30869255759955722 0.41877018355733042 0 0.28607917402868899 0.43188291486824332 0 0.2819443595412231 0.40529087474680159 0 0.2490748840761759 0.41447913741323361 0 0.26600993858745892 0.42808938636359573 0 0.2819443595412231 0.40529087474680159 0 0.26777357876982372 0.45010753123404867 0 0.28607917402868899 0.43188291486824332 0 0.26600993858745892 0.42808938636359573 0 0.28607917402868899 0.43188291486824332 0 0.26600993858745892 0.42808938636359573 0 0.2819443595412231 0.40529087474680159 0 0.2490748840761759 0.41447913741323361 0 0.24517769652138269 0.43868647355565088 0 0.26600993858745892 0.42808938636359573 0 0.2490748840761759 0.41447913741323361 0 0.25519616148288887 0.39181156593627298 0 0.2819443595412231 0.40529087474680159 0 0.25519616148288887 0.39181156593627298 0 0.2618259464583832 0.36726095095448358 0 0.25519616148288887 0.39181156593627298 0 0.27405714121884811 0.38409687161834088 0 0.2618259464583832 0.36726095095448358 0 0.24305895760768401 0.36641304215893011 0 0.25519616148288887 0.39181156593627298 0 0.2618259464583832 0.36726095095448358 0 0.2490748840761759 0.41447913741323361 0 0.25519616148288887 0.39181156593627298 0 0.27405714121884811 0.38409687161834088 0 0.2819443595412231 0.40529087474680159 0 0.28762179706039948 0.39125587461843808 0 0.25519616148288887 0.39181156593627298 0 0.2819443595412231 0.40529087474680159 0 0.25519616148288887 0.39181156593627298 0 0.27405714121884811 0.38409687161834088 0 0.2819443595412231 0.40529087474680159 0 0.27405714121884811 0.38409687161834088 0 0.28403056220722062 0.37531448917755911 0 0.2737626695690904 0.37327007608818358 0 0.27405714121884811 0.38409687161834088 0 0.28403056220722062 0.37531448917755911 0 0.28762179706039948 0.39125587461843808 0 0.29405085274881382 0.37834813740539031 0 0.28762179706039948 0.39125587461843808 0 0.30049862001061489 0.39881078008944609 0 0.28403056220722062 0.37531448917755911 0 0.29405085274881382 0.37834813740539031 0 0.28762179706039948 0.39125587461843808 0 0.2819443595412231 0.40529087474680159 0 0.28762179706039948 0.39125587461843808 0 0.29316512877403511 0.40022580951085568 0 0.28762179706039948 0.39125587461843808 0 0.29316512877403511 0.40022580951085568 0 0.30049862001061489 0.39881078008944609 0 0.2819443595412231 0.40529087474680159 0 0.29316512877403511 0.40022580951085568 0 0.29605666041485018 0.40551048050067168 0 0.29316512877403511 0.40022580951085568 0 0.29605666041485018 0.40551048050067168 0 0.30042223720462058 0.4004666581126537 0 0.29605666041485018 0.40551048050067168 0 0.30232024370737348 0.40459188745546998 0 0.30042223720462058 0.4004666581126537 0 0.29316512877403511 0.40022580951085568 0 0.30042223720462058 0.4004666581126537 0 0.30049862001061489 0.39881078008944609 0 0.30042223720462058 0.4004666581126537 0 0.30049862001061489 0.39881078008944609 0 0.30232024370737348 0.40459188745546998 0 0.30049862001061489 0.39881078008944609 0 0.30232024370737348 0.40459188745546998 0 0.30049862001061489 0.39881078008944609 0 0.30430913302558388 0.40020258685778032 0 0.30232024370737348 0.40459188745546998 0 0.30042223720462058 0.4004666581126537 0 0.30049862001061489 0.39881078008944609 0 0.30049862001061489 0.39881078008944609 0 0.30098622665836988 0.38824011406760628 0 0.30049862001061489 0.39881078008944609 0 0.30430913302558388 0.40020258685778032 0 0.30098622665836988 0.38824011406760628 0 0.30098622665836988 0.38824011406760628 0 0.30110064445947421 0.38575968774854158 0 0.31262554991773928 0.39787599139405988 0 0.31015955469665918 0.40201373970895371 0 0.30098622665836988 0.38824011406760628 0 0.30110064445947421 0.38575968774854158 0 0.31262554991773928 0.39787599139405988 0 0.30430913302558388 0.40020258685778032 0 0.31015955469665918 0.40201373970895371 0 0.30098622665836988 0.38824011406760628 0 0.31015955469665918 0.40201373970895371 0 0.30098622665836988 0.38824011406760628 0 0.31262554991773928 0.39787599139405988 0 0.3075810200549029 0.4073564129674252 0 0.30232024370737348 0.40459188745546998 0 0.30430913302558388 0.40020258685778032 0 0.3075810200549029 0.4073564129674252 0 0.30430913302558388 0.40020258685778032 0 0.31015955469665918 0.40201373970895371 0 0.29405085274881382 0.37834813740539031 0 0.30049862001061489 0.39881078008944609 0 0.29405085274881382 0.37834813740539031 0 0.30049862001061489 0.39881078008944609 0 0.30098622665836988 0.38824011406760628 0 0.30110064445947421 0.38575968774854158 0 0.30177514978199971 0.3711373061071076 0 0.30110064445947421 0.38575968774854158 0 0.3104817065657739 0.3858680532317833 0 0.30177514978199971 0.3711373061071076 0 0.29405085274881382 0.37834813740539031 0 0.30110064445947421 0.38575968774854158 0 0.30177514978199971 0.3711373061071076 0 0.29405085274881382 0.37834813740539031 0 0.30110064445947421 0.38575968774854158 0 0.29405085274881382 0.37834813740539031 0 0.30098622665836988 0.38824011406760628 0 0.30110064445947421 0.38575968774854158 0 0.29405085274881382 0.37834813740539031 0 0.30098622665836988 0.38824011406760628 0 0.30098622665836988 0.38824011406760628 0 0.30110064445947421 0.38575968774854158 0 0.30110064445947421 0.38575968774854158 0 0.3104817065657739 0.3858680532317833 0 0.31262554991773928 0.39787599139405988 0 0.3104817065657739 0.3858680532317833 0 0.30177514978199971 0.3711373061071076 0 0.3104817065657739 0.3858680532317833 0 0.31717345926189522 0.3709258031848055 0 0.30177514978199971 0.3711373061071076 0 0.3104817065657739 0.3858680532317833 0 0.3376156911696272 0.37620073599141618 0 0.3104817065657739 0.3858680532317833 0 0.3376156911696272 0.37620073599141618 0 0.31717345926189522 0.3709258031848055 0 0.3104817065657739 0.3858680532317833 0 0.3376156911696272 0.37620073599141618 0 0.3351802944883514 0.39738750443412002 0 0.3376156911696272 0.37620073599141618 0 0.3351802944883514 0.39738750443412002 0 0.34879159400795012 0.38769315231290841 0 0.3351802944883514 0.39738750443412002 0 0.33658962428999861 0.41133204962483783 0 0.34988972217452752 0.40801784569160632 0 0.3351802944883514 0.39738750443412002 0 0.32415045537600512 0.40999229503957763 0 0.33658962428999861 0.41133204962483783 0 0.3351802944883514 0.39738750443412002 0 0.31909953512109351 0.40044867980609039 0 0.32415045537600512 0.40999229503957763 0 0.3104817065657739 0.3858680532317833 0 0.3351802944883514 0.39738750443412002 0 0.31909953512109351 0.40044867980609039 0 0.3104817065657739 0.3858680532317833 0 0.31909953512109351 0.40044867980609039 0 0.3104817065657739 0.3858680532317833 0 0.31262554991773928 0.39787599139405988 0 0.31909953512109351 0.40044867980609039 0 0.31262554991773928 0.39787599139405988 0 0.32415045537600512 0.40999229503957763 0 0.31015955469665918 0.40201373970895371 0 0.31262554991773928 0.39787599139405988 0 0.32415045537600512 0.40999229503957763 0 0.31262554991773928 0.39787599139405988 0 0.31909953512109351 0.40044867980609039 0 0.32415045537600512 0.40999229503957763 0 0.31015955469665918 0.40201373970895371 0 0.31933288273494848 0.41578736535030097 0 0.32415045537600512 0.40999229503957763 0 0.31142364564813352 0.41093370315849659 0 0.31015955469665918 0.40201373970895371 0 0.31933288273494848 0.41578736535030097 0 0.30869255759955722 0.41877018355733042 0 0.31933288273494848 0.41578736535030097 0 0.32906281765607392 0.42006619542527468 0 0.31015955469665918 0.40201373970895371 0 0.31933288273494848 0.41578736535030097 0 0.31142364564813352 0.41093370315849659 0 0.30869255759955722 0.41877018355733042 0 0.31933288273494848 0.41578736535030097 0 0.31933288273494848 0.41578736535030097 0 0.32415045537600512 0.40999229503957763 0 0.32906281765607392 0.42006619542527468 0 0.30869255759955722 0.41877018355733042 0 0.33457771181584611 0.43369686048393857 0 0.33544075565789128 0.43224949236785898 0 0.30869255759955722 0.41877018355733042 0 0.33544075565789128 0.43224949236785898 0 0.30610823095482448 0.43788140873538328 0 0.30869255759955722 0.41877018355733042 0 0.33457771181584611 0.43369686048393857 0 0.30869255759955722 0.41877018355733042 0 0.33544075565789128 0.43224949236785898 0 0.32906281765607392 0.42006619542527468 0 0.30610823095482448 0.43788140873538328 0 0.33457771181584611 0.43369686048393857 0 0.33457771181584611 0.43369686048393857 0 0.33544075565789128 0.43224949236785898 0 0.33746945485668051 0.4332718215327816 0 0.33457771181584611 0.43369686048393857 0 0.33544075565789128 0.43224949236785898 0 0.33544075565789128 0.43224949236785898 0 0.33746945485668051 0.4332718215327816 0 0.35001853239939229 0.42365555934674631 0 0.33544075565789128 0.43224949236785898 0 0.33746945485668051 0.4332718215327816 0 0.33457771181584611 0.43369686048393857 0 0.33746945485668051 0.4332718215327816 0 0.33544075565789128 0.43224949236785898 0 0.33658962428999861 0.41133204962483783 0 0.34988972217452752 0.40801784569160632 0 0.33544075565789128 0.43224949236785898 0 0.32906281765607392 0.42006619542527468 0 0.33658962428999861 0.41133204962483783 0 0.33544075565789128 0.43224949236785898 0 0.34988972217452752 0.40801784569160632 0 0.32415045537600512 0.40999229503957763 0 0.32906281765607392 0.42006619542527468 0 0.33658962428999861 0.41133204962483783 0 0.33544075565789128 0.43224949236785898 0 0.34988972217452752 0.40801784569160632 0 0.35001853239939229 0.42365555934674631 0 0.34988972217452752 0.40801784569160632 0 0.36165970526353591 0.41519797525725338 0 0.36412400085156282 0.39702719229323191 0 0.34988972217452752 0.40801784569160632 0 0.35001853239939229 0.42365555934674631 0 0.36165970526353591 0.41519797525725338 0 0.35494335133579169 0.44207750056399991 0 0.33746945485668051 0.4332718215327816 0 0.365542703577178 0.42914551292816783 0 0.33746945485668051 0.4332718215327816 0 0.35001853239939229 0.42365555934674631 0 0.365542703577178 0.42914551292816783 0 0.33746945485668051 0.4332718215327816 0 0.365542703577178 0.42914551292816783 0 0.35001853239939229 0.42365555934674631 0 0.365542703577178 0.42914551292816783 0 0.36165970526353591 0.41519797525725338 0 0.365542703577178 0.42914551292816783 0 0.36165970526353591 0.41519797525725338 0 0.37744029411777058 0.41252948965876268 0 0.36165970526353591 0.41519797525725338 0 0.36412400085156282 0.39702719229323191 0 0.37744029411777058 0.41252948965876268 0 0.36412400085156282 0.39702719229323191 0 0.38026367080056678 0.39066664182047522 0 0.37744029411777058 0.41252948965876268 0 0.34988972217452752 0.40801784569160632 0 0.36412400085156282 0.39702719229323191 0 0.36433868869116592 0.38378619901535488 0 0.36433868869116592 0.38378619901535488 0 0.3773824667175657 0.37546563606013739 0 0.38026367080056678 0.39066664182047522 0 0.36433868869116592 0.38378619901535488 0 0.36474967577348072 0.36653341875104961 0 0.3773824667175657 0.37546563606013739 0 0.36412400085156282 0.39702719229323191 0 0.36433868869116592 0.38378619901535488 0 0.38026367080056678 0.39066664182047522 0 0.36433868869116592 0.38378619901535488 0 0.36474967577348072 0.36653341875104961 0 0.36412400085156282 0.39702719229323191 0 0.36433868869116592 0.38378619901535488 0 0.3376156911696272 0.37620073599141618 0 0.34879159400795012 0.38769315231290841 0 0.36474967577348072 0.36653341875104961 0 0.36433868869116592 0.38378619901535488 0 0.34879159400795012 0.38769315231290841 0 0.36474967577348072 0.36653341875104961 0 0.3351802944883514 0.39738750443412002 0 0.34988972217452752 0.40801784569160632 0 0.34879159400795012 0.38769315231290841 0 0.34988972217452752 0.40801784569160632 0 0.36433868869116592 0.38378619901535488 0 0.34988972217452752 0.40801784569160632 0 0.36433868869116592 0.38378619901535488 0 0.34879159400795012 0.38769315231290841 0 0.34699100967064078 0.35539672769273539 0 0.36474967577348072 0.36653341875104961 0 0.36518945593320651 0.34509967395937191 0 0.34699100967064078 0.35539672769273539 0 0.36518945593320651 0.34509967395937191 0 0.348137396692076 0.34077307725183559 0 0.3376156911696272 0.37620073599141618 0 0.34699100967064078 0.35539672769273539 0 0.36474967577348072 0.36653341875104961 0 0.3376156911696272 0.37620073599141618 0 0.36474967577348072 0.36653341875104961 0 0.36474967577348072 0.36653341875104961 0 0.36518945593320651 0.34509967395937191 0 0.36474967577348072 0.36653341875104961 0 0.36518945593320651 0.34509967395937191 0 0.3855881021147175 0.35910908792858098 0 0.36518945593320651 0.34509967395937191 0 0.36562923609293069 0.32366592916769399 0 0.36518945593320651 0.34509967395937191 0 0.36562923609293069 0.32366592916769399 0 0.348137396692076 0.34077307725183559 0 0.36518945593320651 0.34509967395937191 0 0.36562923609293069 0.32366592916769399 0 0.38128435600444488 0.32837669887387311 0 0.36562923609293069 0.32366592916769399 0 0.36606901625265492 0.30223218437601618 0 0.38242981621443428 0.31397380775534678 0 0.36562923609293069 0.32366592916769399 0 0.36606901625265492 0.30223218437601618 0 0.36562923609293069 0.32366592916769399 0 0.34238706329751362 0.32476320095938682 0 0.35183379698966949 0.31056891257481539 0 0.36562923609293069 0.32366592916769399 0 0.348137396692076 0.34077307725183559 0 0.34238706329751362 0.32476320095938682 0 0.348137396692076 0.34077307725183559 0 0.33072504187423118 0.34237289876026822 0 0.34238706329751362 0.32476320095938682 0 0.33072504187423118 0.34237289876026822 0 0.34238706329751362 0.32476320095938682 0 0.32122702449841589 0.32177081607522939 0 0.34238706329751362 0.32476320095938682 0 0.33644502425256478 0.30910566618648461 0 0.35183379698966949 0.31056891257481539 0 0.34238706329751362 0.32476320095938682 0 0.32122702449841589 0.32177081607522939 0 0.33644502425256478 0.30910566618648461 0 0.32122702449841589 0.32177081607522939 0 0.31445651652981632 0.33878768779705848 0 0.30372390616191358 0.32889084998335888 0 0.33072504187423118 0.34237289876026822 0 0.32122702449841589 0.32177081607522939 0 0.31445651652981632 0.33878768779705848 0 0.33072504187423118 0.34237289876026822 0 0.31445651652981632 0.33878768779705848 0 0.31594857135045817 0.35062531106266931 0 0.33072504187423118 0.34237289876026822 0 0.31594857135045817 0.35062531106266931 0 0.32442852787466708 0.36030442639367111 0 0.31594857135045817 0.35062531106266931 0 0.32442852787466708 0.36030442639367111 0 0.31156622091740832 0.36111849420004938 0 0.34699100967064078 0.35539672769273539 0 0.348137396692076 0.34077307725183559 0 0.33072504187423118 0.34237289876026822 0 0.34699100967064078 0.35539672769273539 0 0.33072504187423118 0.34237289876026822 0 0.32442852787466708 0.36030442639367111 0 0.3376156911696272 0.37620073599141618 0 0.34699100967064078 0.35539672769273539 0 0.32442852787466708 0.36030442639367111 0 0.3376156911696272 0.37620073599141618 0 0.32442852787466708 0.36030442639367111 0 0.31717345926189522 0.3709258031848055 0 0.32442852787466708 0.36030442639367111 0 0.31717345926189522 0.3709258031848055 0 0.31156622091740832 0.36111849420004938 0 0.30177514978199971 0.3711373061071076 0 0.30274952797195698 0.35001407804523332 0 0.31717345926189522 0.3709258031848055 0 0.31156622091740832 0.36111849420004938 0 0.30177514978199971 0.3711373061071076 0 0.31156622091740832 0.36111849420004938 0 0.30177514978199971 0.3711373061071076 0 0.30274952797195698 0.35001407804523332 0 0.30177514978199971 0.3711373061071076 0 0.30274952797195698 0.35001407804523332 0 0.29106955940472562 0.3530243656434488 0 0.31445651652981632 0.33878768779705848 0 0.31594857135045817 0.35062531106266931 0 0.30274952797195698 0.35001407804523332 0 0.31594857135045817 0.35062531106266931 0 0.31156622091740832 0.36111849420004938 0 0.30274952797195698 0.35001407804523332 0 0.29106955940472562 0.3530243656434488 0 0.28705150305193838 0.35613499197806497 0 0.28036396902745148 0.33491142517978989 0 0.28705150305193838 0.35613499197806497 0 0.28036396902745148 0.33491142517978989 0 0.28705150305193838 0.35613499197806497 0 0.27644360280618341 0.34191623842927221 0 0.28036396902745148 0.33491142517978989 0 0.29106955940472562 0.3530243656434488 0 0.28036396902745148 0.33491142517978989 0 0.30274952797195698 0.35001407804523332 0 0.29106955940472562 0.3530243656434488 0 0.29374099595638509 0.3392252011883215 0 0.28705150305193838 0.35613499197806497 0 0.28458867991473008 0.36361942358965982 0 0.27543832275303448 0.34988028840297991 0 0.29405085274881382 0.37834813740539031 0 0.28705150305193838 0.35613499197806497 0 0.28458867991473008 0.36361942358965982 0 0.29405085274881382 0.37834813740539031 0 0.28705150305193838 0.35613499197806497 0 0.30177514978199971 0.3711373061071076 0 0.29106955940472562 0.3530243656434488 0 0.29405085274881382 0.37834813740539031 0 0.30177514978199971 0.3711373061071076 0 0.28705150305193838 0.35613499197806497 0 0.30177514978199971 0.3711373061071076 0 0.29106955940472562 0.3530243656434488 0 0.28705150305193838 0.35613499197806497 0 0.29405085274881382 0.37834813740539031 0 0.28458867991473008 0.36361942358965982 0 0.28403056220722062 0.37531448917755911 0 0.2815017213106239 0.3651550498314205 0 0.27898286169525299 0.37041503512408969 0 0.29405085274881382 0.37834813740539031 0 0.2815017213106239 0.3651550498314205 0 0.28403056220722062 0.37531448917755911 0 0.29405085274881382 0.37834813740539031 0 0.2815017213106239 0.3651550498314205 0 0.29405085274881382 0.37834813740539031 0 0.28458867991473008 0.36361942358965982 0 0.2815017213106239 0.3651550498314205 0 0.28403056220722062 0.37531448917755911 0 0.27898286169525299 0.37041503512408969 0 0.2737626695690904 0.37327007608818358 0 0.27663649369407689 0.36792052539919551 0 0.2737626695690904 0.37327007608818358 0 0.27125000512352843 0.36234153133647429 0 0.27405714121884811 0.38409687161834088 0 0.2737626695690904 0.37327007608818358 0 0.2618259464583832 0.36726095095448358 0 0.2815017213106239 0.3651550498314205 0 0.27898286169525299 0.37041503512408969 0 0.27663649369407689 0.36792052539919551 0 0.27898286169525299 0.37041503512408969 0 0.27663649369407689 0.36792052539919551 0 0.2737626695690904 0.37327007608818358 0 0.2737626695690904 0.37327007608818358 0 0.27125000512352843 0.36234153133647429 0 0.2618259464583832 0.36726095095448358 0 0.27125000512352843 0.36234153133647429 0 0.26895258987243392 0.3519619622574508 0 0.2618259464583832 0.36726095095448358 0 0.2815017213106239 0.3651550498314205 0 0.27125000512352843 0.36234153133647429 0 0.26895258987243392 0.3519619622574508 0 0.2815017213106239 0.3651550498314205 0 0.27663649369407689 0.36792052539919551 0 0.27125000512352843 0.36234153133647429 0 0.28458867991473008 0.36361942358965982 0 0.2815017213106239 0.3651550498314205 0 0.27543832275303448 0.34988028840297991 0 0.2815017213106239 0.3651550498314205 0 0.26895258987243392 0.3519619622574508 0 0.28458867991473008 0.36361942358965982 0 0.27543832275303448 0.34988028840297991 0 0.26895258987243392 0.3519619622574508 0 0.2618259464583832 0.36726095095448358 0 0.2684557314338783 0.34271033597269462 0 0.2815017213106239 0.3651550498314205 0 0.27543832275303448 0.34988028840297991 0 0.26895258987243392 0.3519619622574508 0 0.28705150305193838 0.35613499197806497 0 0.27543832275303448 0.34988028840297991 0 0.27644360280618341 0.34191623842927221 0 0.27543832275303448 0.34988028840297991 0 0.2684557314338783 0.34271033597269462 0 0.27644360280618341 0.34191623842927221 0 0.27543832275303448 0.34988028840297991 0 0.26895258987243392 0.3519619622574508 0 0.2684557314338783 0.34271033597269462 0 0.2618259464583832 0.36726095095448358 0 0.2684557314338783 0.34271033597269462 0 0.24521693247762111 0.35027114815259558 0 0.2618259464583832 0.36726095095448358 0 0.2684557314338783 0.34271033597269462 0 0.24305895760768401 0.36641304215893011 0 0.24521693247762111 0.35027114815259558 0 0.2618259464583832 0.36726095095448358 0 0.24490867605631639 0.32967072069511189 0 0.26050839607327853 0.32387463406168998 0 0.25114017462525878 0.31153615041935723 0 0.26050839607327853 0.32387463406168998 0 0.25114017462525878 0.31153615041935723 0 0.26342424027676908 0.31148804944983333 0 0.24490867605631639 0.32967072069511189 0 0.26050839607327853 0.32387463406168998 0 0.2684557314338783 0.34271033597269462 0 0.24490867605631639 0.32967072069511189 0 0.24521693247762111 0.35027114815259558 0 0.2684557314338783 0.34271033597269462 0 0.26050839607327853 0.32387463406168998 0 0.2684557314338783 0.34271033597269462 0 0.27508551640937329 0.31815972099090539 0 0.2684557314338783 0.34271033597269462 0 0.27508551640937329 0.31815972099090539 0 0.2684557314338783 0.34271033597269462 0 0.27787730485363338 0.33070420273373929 0 0.27508551640937329 0.31815972099090539 0 0.2684557314338783 0.34271033597269462 0 0.27644360280618341 0.34191623842927221 0 0.27787730485363338 0.33070420273373929 0 0.27644360280618341 0.34191623842927221 0 0.28036396902745148 0.33491142517978989 0 0.27787730485363338 0.33070420273373929 0 0.28036396902745148 0.33491142517978989 0 0.27787730485363338 0.33070420273373929 0 0.28036396902745148 0.33491142517978989 0 0.27787730485363338 0.33070420273373929 0 0.27508551640937329 0.31815972099090539 0 0.28036396902745148 0.33491142517978989 0 0.27508551640937329 0.31815972099090539 0 0.26050839607327853 0.32387463406168998 0 0.27508551640937329 0.31815972099090539 0 0.26342424027676908 0.31148804944983333 0 0.27584787744150779 0.31533663815394608 0 0.27508551640937329 0.31815972099090539 0 0.2839587577339367 0.31315639516335231 0 0.27584787744150779 0.31533663815394608 0 0.27508551640937329 0.31815972099090539 0 0.28036396902745148 0.33491142517978989 0 0.27508551640937329 0.31815972099090539 0 0.28884331716543121 0.32432796479040632 0 0.27508551640937329 0.31815972099090539 0 0.2839587577339367 0.31315639516335231 0 0.28884331716543121 0.32432796479040632 0 0.2839587577339367 0.31315639516335231 0 0.28884331716543121 0.32432796479040632 0 0.29436859405188742 0.31561290386725788 0 0.28884331716543121 0.32432796479040632 0 0.29436859405188742 0.31561290386725788 0 0.30372390616191358 0.32889084998335888 0 0.29106955940472562 0.3530243656434488 0 0.28036396902745148 0.33491142517978989 0 0.29374099595638509 0.3392252011883215 0 0.28036396902745148 0.33491142517978989 0 0.28884331716543121 0.32432796479040632 0 0.29374099595638509 0.3392252011883215 0 0.28884331716543121 0.32432796479040632 0 0.29374099595638509 0.3392252011883215 0 0.30372390616191358 0.32889084998335888 0 0.30274952797195698 0.35001407804523332 0 0.29374099595638509 0.3392252011883215 0 0.30372390616191358 0.32889084998335888 0 0.31445651652981632 0.33878768779705848 0 0.30274952797195698 0.35001407804523332 0 0.30372390616191358 0.32889084998335888 0 0.30274952797195698 0.35001407804523332 0 0.30372390616191358 0.32889084998335888 0 0.29436859405188742 0.31561290386725788 0 0.30372390616191358 0.32889084998335888 0 0.30469828435187041 0.30776762192148471 0 0.32122702449841589 0.32177081607522939 0 0.30372390616191358 0.32889084998335888 0 0.30469828435187041 0.30776762192148471 0 0.30372390616191358 0.32889084998335888 0 0.30469828435187041 0.30776762192148471 0 0.30469828435187041 0.30776762192148471 0 0.29887142377560671 0.29447355700322281 0 0.31975384086217118 0.29390073052843008 0 0.30469828435187041 0.30776762192148471 0 0.29887142377560671 0.29447355700322281 0 0.29061870484628499 0.30392168747768772 0 0.29887142377560671 0.29447355700322281 0 0.29803417524575498 0.27809430922643119 0 0.31975384086217118 0.29390073052843008 0 0.29887142377560671 0.29447355700322281 0 0.28125211357195179 0.28868343586208051 0 0.29803417524575498 0.27809430922643119 0 0.29887142377560671 0.29447355700322281 0 0.28125211357195179 0.28868343586208051 0 0.29061870484628499 0.30392168747768772 0 0.29436859405188742 0.31561290386725788 0 0.30469828435187041 0.30776762192148471 0 0.29061870484628499 0.30392168747768772 0 0.2839587577339367 0.31315639516335231 0 0.29436859405188742 0.31561290386725788 0 0.29061870484628499 0.30392168747768772 0 0.28125211357195179 0.28868343586208051 0 0.29061870484628499 0.30392168747768772 0 0.27979091010679558 0.3031930520058399 0 0.2839587577339367 0.31315639516335231 0 0.29061870484628499 0.30392168747768772 0 0.27979091010679558 0.3031930520058399 0 0.27584787744150779 0.31533663815394608 0 0.2839587577339367 0.31315639516335231 0 0.27979091010679558 0.3031930520058399 0 0.27584787744150779 0.31533663815394608 0 0.27979091010679558 0.3031930520058399 0 0.26696287399916629 0.2923816923273807 0 0.27508551640937329 0.31815972099090539 0 0.26696287399916629 0.2923816923273807 0 0.27508551640937329 0.31815972099090539 0 0.26696287399916629 0.2923816923273807 0 0.26342424027676908 0.31148804944983333 0 0.27584787744150779 0.31533663815394608 0 0.27508551640937329 0.31815972099090539 0 0.26696287399916629 0.2923816923273807 0 0.28125211357195179 0.28868343586208051 0 0.26696287399916629 0.2923816923273807 0 0.26185531842249993 0.2787869231154117 0 0.28125211357195179 0.28868343586208051 0 0.27979091010679558 0.3031930520058399 0 0.26696287399916629 0.2923816923273807 0 0.2454028482605469 0.29267792886045368 0 0.26696287399916629 0.2923816923273807 0 0.26185531842249993 0.2787869231154117 0 0.24818821145747599 0.27522177653690871 0 0.2454028482605469 0.29267792886045368 0 0.26185531842249993 0.2787869231154117 0 0.26696287399916629 0.2923816923273807 0 0.25114017462525878 0.31153615041935723 0 0.26342424027676908 0.31148804944983333 0 0.2454028482605469 0.29267792886045368 0 0.26696287399916629 0.2923816923273807 0 0.25114017462525878 0.31153615041935723 0 0.25404003316197471 0.25208422786308371 0 0.25530776412370298 0.26639583896058622 0 0.27103688063193948 0.26427270241964718 0 0.24090080429007341 0.26281353644332878 0 0.25404003316197471 0.25208422786308371 0 0.25530776412370298 0.26639583896058622 0 0.25530776412370298 0.26639583896058622 0 0.26185531842249993 0.2787869231154117 0 0.27103688063193948 0.26427270241964718 0 0.24818821145747599 0.27522177653690871 0 0.25530776412370298 0.26639583896058622 0 0.26185531842249993 0.2787869231154117 0 0.28125211357195179 0.28868343586208051 0 0.26185531842249993 0.2787869231154117 0 0.27103688063193948 0.26427270241964718 0 0.25404003316197471 0.25208422786308371 0 0.27103688063193948 0.26427270241964718 0 0.27355486584907379 0.24364475180805101 0 0.27103688063193948 0.26427270241964718 0 0.29692855903906679 0.25537037528416417 0 0.27355486584907379 0.24364475180805101 0 0.27103688063193948 0.26427270241964718 0 0.29803417524575498 0.27809430922643119 0 0.29692855903906679 0.25537037528416417 0 0.28125211357195179 0.28868343586208051 0 0.27103688063193948 0.26427270241964718 0 0.29803417524575498 0.27809430922643119 0 0.29803417524575498 0.27809430922643119 0 0.29692855903906679 0.25537037528416417 0 0.32239972953691409 0.26902358330948362 0 0.29692855903906679 0.25537037528416417 0 0.32239972953691409 0.26902358330948362 0 0.32448256229391081 0.244023600812113 0 0.34859232732963041 0.2656914204712259 0 0.32448256229391081 0.244023600812113 0 0.35052125483258301 0.2434514759103418 0 0.32239972953691409 0.26902358330948362 0 0.34859232732963041 0.2656914204712259 0 0.32448256229391081 0.244023600812113 0 0.32239972953691409 0.26902358330948362 0 0.34580587121379802 0.29027056413174801 0 0.34859232732963041 0.2656914204712259 0 0.32239972953691409 0.26902358330948362 0 0.34859232732963041 0.2656914204712259 0 0.29803417524575498 0.27809430922643119 0 0.32239972953691409 0.26902358330948362 0 0.31975384086217118 0.29390073052843008 0 0.32122702449841589 0.32177081607522939 0 0.30469828435187041 0.30776762192148471 0 0.31975384086217118 0.29390073052843008 0 0.32122702449841589 0.32177081607522939 0 0.31975384086217118 0.29390073052843008 0 0.33644502425256478 0.30910566618648461 0 0.31975384086217118 0.29390073052843008 0 0.33644502425256478 0.30910566618648461 0 0.34580587121379802 0.29027056413174801 0 0.32239972953691409 0.26902358330948362 0 0.31975384086217118 0.29390073052843008 0 0.34580587121379802 0.29027056413174801 0 0.34580587121379802 0.29027056413174801 0 0.35183379698966949 0.31056891257481539 0 0.36606901625265492 0.30223218437601618 0 0.33644502425256478 0.30910566618648461 0 0.34580587121379802 0.29027056413174801 0 0.35183379698966949 0.31056891257481539 0 0.36562923609293069 0.32366592916769399 0 0.35183379698966949 0.31056891257481539 0 0.36606901625265492 0.30223218437601618 0 0.36606901625265492 0.30223218437601618 0 0.37288852905391068 0.28307277276217568 0 0.38313639778678782 0.29894980138166888 0 0.34580587121379802 0.29027056413174801 0 0.36606901625265492 0.30223218437601618 0 0.37288852905391068 0.28307277276217568 0 0.37288852905391068 0.28307277276217568 0 0.37478492512234668 0.26235925763296819 0 0.34859232732963041 0.2656914204712259 0 0.37478492512234668 0.26235925763296819 0 0.34859232732963041 0.2656914204712259 0 0.37478492512234668 0.26235925763296819 0 0.34859232732963041 0.2656914204712259 0 0.35052125483258301 0.2434514759103418 0 0.34580587121379802 0.29027056413174801 0 0.37288852905391068 0.28307277276217568 0 0.34859232732963041 0.2656914204712259 0 0.40237095019481112 0.27711100542787093 0 0.40097752291506289 0.25902709479471048 0 0.38795285511664351 0.27501277358291848 0 0.40237095019481112 0.27711100542787093 0 0.38795285511664351 0.27501277358291848 0 0.39245341439736259 0.28869000139839213 0 0.37478492512234668 0.26235925763296819 0 0.40097752291506289 0.25902709479471048 0 0.37478492512234668 0.26235925763296819 0 0.40097752291506289 0.25902709479471048 0 0.38795285511664351 0.27501277358291848 0 0.37478492512234668 0.26235925763296819 0 0.40097752291506289 0.25902709479471048 0 0.39333580902427501 0.24081282939082621 0 0.37288852905391068 0.28307277276217568 0 0.37478492512234668 0.26235925763296819 0 0.38795285511664351 0.27501277358291848 0 0.37288852905391068 0.28307277276217568 0 0.38795285511664351 0.27501277358291848 0 0.39245341439736259 0.28869000139839213 0 0.37288852905391068 0.28307277276217568 0 0.38313639778678782 0.29894980138166888 0 0.39245341439736259 0.28869000139839213 0 0.38313639778678782 0.29894980138166888 0 0.40184121301557668 0.30678024061641418 0 0.38242981621443428 0.31397380775534678 0 0.36606901625265492 0.30223218437601618 0 0.38313639778678782 0.29894980138166888 0 0.38242981621443428 0.31397380775534678 0 0.38313639778678782 0.29894980138166888 0 0.40184121301557668 0.30678024061641418 0 0.39245341439736259 0.28869000139839213 0 0.40184121301557668 0.30678024061641418 0 0.39245341439736259 0.28869000139839213 0 0.4080647950624654 0.29173952990842672 0 0.40237095019481112 0.27711100542787093 0 0.39245341439736259 0.28869000139839213 0 0.4080647950624654 0.29173952990842672 0 0.4080647950624654 0.29173952990842672 0 0.42111158276914429 0.29961990628964941 0 0.41801819212357011 0.2740782959756311 0 0.42111158276914429 0.29961990628964941 0 0.41801819212357011 0.2740782959756311 0 0.42111158276914429 0.29961990628964941 0 0.41431845905081632 0.31211616404088999 0 0.42420497341471841 0.32516151660366771 0 0.40184121301557668 0.30678024061641418 0 0.41169384258873692 0.3030193229363472 0 0.41431845905081632 0.31211616404088999 0 0.4080647950624654 0.29173952990842672 0 0.41169384258873692 0.3030193229363472 0 0.42111158276914429 0.29961990628964941 0 0.40184121301557668 0.30678024061641418 0 0.4080647950624654 0.29173952990842672 0 0.41169384258873692 0.3030193229363472 0 0.41169384258873692 0.3030193229363472 0 0.42111158276914429 0.29961990628964941 0 0.41431845905081632 0.31211616404088999 0 0.42111158276914429 0.29961990628964941 0 0.42420497341471841 0.32516151660366771 0 0.42111158276914429 0.29961990628964941 0 0.42968026012840121 0.30115694743242971 0 0.43130474666914309 0.31304161877190062 0 0.42968026012840121 0.30115694743242971 0 0.44258646999382029 0.30990113159980692 0 0.42968026012840121 0.30115694743242971 0 0.44258646999382029 0.30990113159980692 0 0.43130474666914309 0.31304161877190062 0 0.42111158276914429 0.29961990628964941 0 0.42800801910193731 0.28582653817902792 0 0.41801819212357011 0.2740782959756311 0 0.42968026012840121 0.30115694743242971 0 0.42800801910193731 0.28582653817902792 0 0.44797459424715858 0.28113195035900113 0 0.42111158276914429 0.29961990628964941 0 0.42968026012840121 0.30115694743242971 0 0.42800801910193731 0.28582653817902792 0 0.4349067289361882 0.26981889711766149 0 0.41801819212357011 0.2740782959756311 0 0.42717012070777932 0.25569493195645271 0 0.42800801910193731 0.28582653817902792 0 0.4349067289361882 0.26981889711766149 0 0.44797459424715858 0.28113195035900113 0 0.42800801910193731 0.28582653817902792 0 0.4349067289361882 0.26981889711766149 0 0.41801819212357011 0.2740782959756311 0 0.40237095019481112 0.27711100542787093 0 0.4080647950624654 0.29173952990842672 0 0.41801819212357011 0.2740782959756311 0 0.40237095019481112 0.27711100542787093 0 0.40097752291506289 0.25902709479471048 0 0.41801819212357011 0.2740782959756311 0 0.40097752291506289 0.25902709479471048 0 0.42717012070777932 0.25569493195645271 0 0.40097752291506289 0.25902709479471048 0 0.41801819212357011 0.2740782959756311 0 0.42717012070777932 0.25569493195645271 0 0.40097752291506289 0.25902709479471048 0 0.42717012070777932 0.25569493195645271 0 0.41286841049430861 0.24788583003777651 0 0.42717012070777932 0.25569493195645271 0 0.45336271850049548 0.25236276911819511 0 0.42717012070777932 0.25569493195645271 0 0.45336271850049548 0.25236276911819511 0 0.44134696414428898 0.24814556957704689 0 0.4349067289361882 0.26981889711766149 0 0.42717012070777932 0.25569493195645271 0 0.45336271850049548 0.25236276911819511 0 0.44797459424715858 0.28113195035900113 0 0.45336271850049548 0.25236276911819511 0 0.4349067289361882 0.26981889711766149 0 0.44797459424715858 0.28113195035900113 0 0.45336271850049548 0.25236276911819511 0 0.44797459424715858 0.28113195035900113 0 0.46860043072286323 0.26090172283992602 0 0.47518926652314969 0.27560515809727743 0 0.44797459424715858 0.28113195035900113 0 0.45336271850049548 0.25236276911819511 0 0.46860043072286323 0.26090172283992602 0 0.45336271850049548 0.25236276911819511 0 0.46860043072286323 0.26090172283992602 0 0.48180965237011408 0.2487438147612096 0 0.45336271850049548 0.25236276911819511 0 0.48180965237011408 0.2487438147612096 0 0.46860043072286323 0.26090172283992602 0 0.48241006781490819 0.26268970127635521 0 0.48180965237011408 0.2487438147612096 0 0.46860043072286323 0.26090172283992602 0 0.48241006781490819 0.26268970127635521 0 0.47518926652314969 0.27560515809727743 0 0.48241006781490819 0.26268970127635521 0 0.47518926652314969 0.27560515809727743 0 0.48864569132575902 0.27555399191102209 0 0.48864569132575902 0.27555399191102209 0 0.5 0.25788891558126559 0 0.5 0.28784398070901179 0 0.48241006781490819 0.26268970127635521 0 0.5 0.25788891558126559 0 0.48180965237011408 0.2487438147612096 0 0.48241006781490819 0.26268970127635521 0 0.48864569132575902 0.27555399191102209 0 0.5 0.25788891558126559 0 0.49687855588093471 0.30562269631142192 0 0.5 0.28784398070901179 0 0.5 0.31779904583675789 0 0.48491490847636098 0.30901068293115042 0 0.49687855588093471 0.30562269631142192 0 0.48562912229073679 0.29374220389120048 0 0.48491490847636098 0.30901068293115042 0 0.49687855588093471 0.30562269631142192 0 0.48893996521802741 0.32077530068026477 0 0.48864569132575902 0.27555399191102209 0 0.5 0.28784398070901179 0 0.48562912229073679 0.29374220389120048 0 0.49687855588093471 0.30562269631142192 0 0.5 0.28784398070901179 0 0.48562912229073679 0.29374220389120048 0 0.47518926652314969 0.27560515809727743 0 0.48864569132575902 0.27555399191102209 0 0.48562912229073679 0.29374220389120048 0 0.47518926652314969 0.27560515809727743 0 0.48562912229073679 0.29374220389120048 0 0.46816558308298489 0.29083511245767268 0 0.48562912229073679 0.29374220389120048 0 0.47222103054853309 0.30536857664361422 0 0.46816558308298489 0.29083511245767268 0 0.48491490847636098 0.30901068293115042 0 0.48562912229073679 0.29374220389120048 0 0.47222103054853309 0.30536857664361422 0 0.48491490847636098 0.30901068293115042 0 0.47222103054853309 0.30536857664361422 0 0.47648252662976798 0.31886183994020412 0 0.47222103054853309 0.30536857664361422 0 0.45866337291811637 0.30169365927876157 0 0.46179392227446953 0.32291451832445861 0 0.45866337291811637 0.30169365927876157 0 0.44258646999382029 0.30990113159980692 0 0.46179392227446953 0.32291451832445861 0 0.47222103054853309 0.30536857664361422 0 0.45866337291811637 0.30169365927876157 0 0.46816558308298489 0.29083511245767268 0 0.44797459424715858 0.28113195035900113 0 0.45866337291811637 0.30169365927876157 0 0.46816558308298489 0.29083511245767268 0 0.44797459424715858 0.28113195035900113 0 0.47518926652314969 0.27560515809727743 0 0.46816558308298489 0.29083511245767268 0 0.44797459424715858 0.28113195035900113 0 0.44258646999382029 0.30990113159980692 0 0.42968026012840121 0.30115694743242971 0 0.44797459424715858 0.28113195035900113 0 0.44258646999382029 0.30990113159980692 0 0.44797459424715858 0.28113195035900113 0 0.45866337291811637 0.30169365927876157 0 0.44258646999382029 0.30990113159980692 0 0.44258646999382029 0.30990113159980692 0 0.46179392227446953 0.32291451832445861 0 0.44258646999382029 0.30990113159980692 0 0.43894044703962998 0.32936859193394902 0 0.46179392227446953 0.32291451832445861 0 0.44258646999382029 0.30990113159980692 0 0.43894044703962998 0.32936859193394902 0 0.44258646999382029 0.30990113159980692 0 0.43894044703962998 0.32936859193394902 0 0.43130474666914309 0.31304161877190062 0 0.43894044703962998 0.32936859193394902 0 0.45181909328986353 0.33594590439129729 0 0.43529442408543872 0.34883605226809089 0 0.43894044703962998 0.32936859193394902 0 0.45181909328986353 0.33594590439129729 0 0.46179392227446953 0.32291451832445861 0 0.45181909328986353 0.33594590439129729 0 0.46495921083649527 0.33796731498031379 0 0.45493863887308472 0.34850758154427958 0 0.45181909328986353 0.33594590439129729 0 0.46495921083649527 0.33796731498031379 0 0.46179392227446953 0.32291451832445861 0 0.47648252662976798 0.31886183994020412 0 0.48100137455512032 0.33592790504910791 0 0.48893996521802741 0.32077530068026477 0 0.46179392227446953 0.32291451832445861 0 0.47648252662976798 0.31886183994020412 0 0.48100137455512032 0.33592790504910791 0 0.47222103054853309 0.30536857664361422 0 0.46179392227446953 0.32291451832445861 0 0.47648252662976798 0.31886183994020412 0 0.48491490847636098 0.30901068293115042 0 0.47648252662976798 0.31886183994020412 0 0.48893996521802741 0.32077530068026477 0 0.46179392227446953 0.32291451832445861 0 0.48100137455512032 0.33592790504910791 0 0.46495921083649527 0.33796731498031379 0 0.48100137455512032 0.33592790504910791 0 0.47458285366073072 0.34817911082046721 0 0.46495921083649527 0.33796731498031379 0 0.46179392227446953 0.32291451832445861 0 0.48100137455512032 0.33592790504910791 0 0.48100137455512032 0.33592790504910791 0 0.47458285366073072 0.34817911082046721 0 0.48100137455512032 0.33592790504910791 0 0.48893996521802741 0.32077530068026477 0 0.48100137455512032 0.33592790504910791 0 0.4984937498586452 0.34777929695842291 0 0.5 0.31779904583675789 0 0.48893996521802741 0.32077530068026477 0 0.4984937498586452 0.34777929695842291 0 0.5 0.31779904583675789 0 0.4984937498586452 0.34777929695842291 0 0.50000000000000433 0.34775411096450393 0 0.48100137455512032 0.33592790504910791 0 0.48893996521802741 0.32077530068026477 0 0.4984937498586452 0.34777929695842291 0 0.49687855588093471 0.30562269631142192 0 0.48893996521802741 0.32077530068026477 0 0.49687855588093471 0.30562269631142192 0 0.5 0.31779904583675789 0 0.48893996521802741 0.32077530068026477 0 0.5 0.37175840028027313 0 0.48688174284785979 0.35971936811564431 0 0.50000000000000433 0.34775411096450393 0 0.5 0.37175840028027313 0 0.48688174284785979 0.35971936811564431 0 0.48177296974371542 0.3780796821533936 0 0.48100137455512032 0.33592790504910791 0 0.4984937498586452 0.34777929695842291 0 0.47458285366073072 0.34817911082046721 0 0.48688174284785979 0.35971936811564431 0 0.4984937498586452 0.34777929695842291 0 0.47458285366073072 0.34817911082046721 0 0.48688174284785979 0.35971936811564431 0 0.4984937498586452 0.34777929695842291 0 0.50000000000000433 0.34775411096450393 0 0.4984937498586452 0.34777929695842291 0 0.47458285366073072 0.34817911082046721 0 0.4984937498586452 0.34777929695842291 0 0.50000000000000433 0.34775411096450393 0 0.48688174284785979 0.35971936811564431 0 0.47458285366073072 0.34817911082046721 0 0.46644088382406917 0.36371991056145853 0 0.47458285366073072 0.34817911082046721 0 0.46644088382406917 0.36371991056145853 0 0.46644088382406917 0.36371991056145853 0 0.45829891398740957 0.37926071030245079 0 0.48177296974371542 0.3780796821533936 0 0.48688174284785979 0.35971936811564431 0 0.46644088382406917 0.36371991056145853 0 0.48177296974371542 0.3780796821533936 0 0.46644088382406917 0.36371991056145853 0 0.45829891398740957 0.37926071030245079 0 0.46644088382406917 0.36371991056145853 0 0.45450488254489102 0.36219879314378839 0 0.45829891398740957 0.37926071030245079 0 0.46495921083649527 0.33796731498031379 0 0.47458285366073072 0.34817911082046721 0 0.45493863887308472 0.34850758154427958 0 0.47458285366073072 0.34817911082046721 0 0.45493863887308472 0.34850758154427958 0 0.47458285366073072 0.34817911082046721 0 0.46644088382406917 0.36371991056145853 0 0.45493863887308472 0.34850758154427958 0 0.46644088382406917 0.36371991056145853 0 0.45450488254489102 0.36219879314378839 0 0.45493863887308472 0.34850758154427958 0 0.45181909328986353 0.33594590439129729 0 0.45493863887308472 0.34850758154427958 0 0.43529442408543872 0.34883605226809089 0 0.45493863887308472 0.34850758154427958 0 0.44448268479035308 0.35511800724889642 0 0.43529442408543872 0.34883605226809089 0 0.45493863887308472 0.34850758154427958 0 0.43529442408543872 0.34883605226809089 0 0.45450488254489102 0.36219879314378839 0 0.45493863887308472 0.34850758154427958 0 0.44448268479035308 0.35511800724889642 0 0.44448268479035308 0.35511800724889642 0 0.44279863902385319 0.36498191861006751 0 0.43487683942449812 0.35106569067825599 0 0.44448268479035308 0.35511800724889642 0 0.43529442408543872 0.34883605226809089 0 0.43487683942449812 0.35106569067825599 0 0.45450488254489102 0.36219879314378839 0 0.44279863902385319 0.36498191861006751 0 0.45829891398740957 0.37926071030245079 0 0.44279863902385319 0.36498191861006751 0 0.45829891398740957 0.37926071030245079 0 0.45450488254489102 0.36219879314378839 0 0.44448268479035308 0.35511800724889642 0 0.44279863902385319 0.36498191861006751 0 0.42892444364691579 0.3641293946929936 0 0.42225433889660879 0.37545697575276449 0 0.43605286711449009 0.38080977408974359 0 0.44279863902385319 0.36498191861006751 0 0.42892444364691579 0.3641293946929936 0 0.43605286711449009 0.38080977408974359 0 0.44279863902385319 0.36498191861006751 0 0.42892444364691579 0.3641293946929936 0 0.42729836406029548 0.35070312691768563 0 0.42892444364691579 0.3641293946929936 0 0.41660844069210962 0.35988002802349189 0 0.42225433889660879 0.37545697575276449 0 0.41660844069210962 0.35988002802349189 0 0.40918213701441342 0.3736144609854074 0 0.42225433889660879 0.37545697575276449 0 0.41660844069210962 0.35988002802349189 0 0.40918213701441342 0.3736144609854074 0 0.40205795884979889 0.36380219258680641 0 0.40642652845595439 0.35168475710611302 0 0.41593005466970517 0.35003896004439389 0 0.41338688547046137 0.33788792813028518 0 0.41660844069210962 0.35988002802349189 0 0.40642652845595439 0.35168475710611302 0 0.40205795884979889 0.36380219258680641 0 0.41660844069210962 0.35988002802349189 0 0.40642652845595439 0.35168475710611302 0 0.41593005466970517 0.35003896004439389 0 0.41660844069210962 0.35988002802349189 0 0.41593005466970517 0.35003896004439389 0 0.42729836406029548 0.35070312691768563 0 0.42729836406029548 0.35070312691768563 0 0.41338688547046137 0.33788792813028518 0 0.41593005466970517 0.35003896004439389 0 0.42729836406029548 0.35070312691768563 0 0.41338688547046137 0.33788792813028518 0 0.42892444364691579 0.3641293946929936 0 0.41660844069210962 0.35988002802349189 0 0.42729836406029548 0.35070312691768563 0 0.42892444364691579 0.3641293946929936 0 0.42729836406029548 0.35070312691768563 0 0.44279863902385319 0.36498191861006751 0 0.42729836406029548 0.35070312691768563 0 0.43487683942449812 0.35106569067825599 0 0.44279863902385319 0.36498191861006751 0 0.42729836406029548 0.35070312691768563 0 0.43109136567724748 0.3489063315667284 0 0.43529442408543872 0.34883605226809089 0 0.42729836406029548 0.35070312691768563 0 0.43109136567724748 0.3489063315667284 0 0.43487683942449812 0.35106569067825599 0 0.43109136567724748 0.3489063315667284 0 0.43529442408543872 0.34883605226809089 0 0.43487683942449812 0.35106569067825599 0 0.43529442408543872 0.34883605226809089 0 0.43487683942449812 0.35106569067825599 0 0.42729836406029548 0.35070312691768563 0 0.42420497341471841 0.32516151660366771 0 0.43894044703962998 0.32936859193394902 0 0.43529442408543872 0.34883605226809089 0 0.43894044703962998 0.32936859193394902 0 0.43109136567724748 0.3489063315667284 0 0.43529442408543872 0.34883605226809089 0 0.42729836406029548 0.35070312691768563 0 0.43109136567724748 0.3489063315667284 0 0.42420497341471841 0.32516151660366771 0 0.43894044703962998 0.32936859193394902 0 0.43109136567724748 0.3489063315667284 0 0.42420497341471841 0.32516151660366771 0 0.43894044703962998 0.32936859193394902 0 0.43130474666914309 0.31304161877190062 0 0.42420497341471841 0.32516151660366771 0 0.42111158276914429 0.29961990628964941 0 0.43130474666914309 0.31304161877190062 0 0.42420497341471841 0.32516151660366771 0 0.40184121301557668 0.30678024061641418 0 0.41431845905081632 0.31211616404088999 0 0.41140534993910638 0.32360132811636988 0 0.41431845905081632 0.31211616404088999 0 0.42420497341471841 0.32516151660366771 0 0.41140534993910638 0.32360132811636988 0 0.42729836406029548 0.35070312691768563 0 0.42420497341471841 0.32516151660366771 0 0.41338688547046137 0.33788792813028518 0 0.42420497341471841 0.32516151660366771 0 0.41140534993910638 0.32360132811636988 0 0.41338688547046137 0.33788792813028518 0 0.41140534993910638 0.32360132811636988 0 0.41338688547046137 0.33788792813028518 0 0.39947540688062583 0.32507272934288628 0 0.41338688547046137 0.33788792813028518 0 0.39947540688062583 0.32507272934288628 0 0.40642652845595439 0.35168475710611302 0 0.41338688547046137 0.33788792813028518 0 0.39105145014164849 0.3414869239971704 0 0.41338688547046137 0.33788792813028518 0 0.39105145014164849 0.3414869239971704 0 0.39947540688062583 0.32507272934288628 0 0.40184121301557668 0.30678024061641418 0 0.41140534993910638 0.32360132811636988 0 0.39947540688062583 0.32507272934288628 0 0.40184121301557668 0.30678024061641418 0 0.39947540688062583 0.32507272934288628 0 0.38242981621443428 0.31397380775534678 0 0.36562923609293069 0.32366592916769399 0 0.38242981621443428 0.31397380775534678 0 0.38128435600444488 0.32837669887387311 0 0.39947540688062583 0.32507272934288628 0 0.38242981621443428 0.31397380775534678 0 0.38128435600444488 0.32837669887387311 0 0.39105145014164849 0.3414869239971704 0 0.39947540688062583 0.32507272934288628 0 0.38128435600444488 0.32837669887387311 0 0.36518945593320651 0.34509967395937191 0 0.39105145014164849 0.3414869239971704 0 0.38128435600444488 0.32837669887387311 0 0.36518945593320651 0.34509967395937191 0 0.39105145014164849 0.3414869239971704 0 0.3855881021147175 0.35910908792858098 0 0.36474967577348072 0.36653341875104961 0 0.3855881021147175 0.35910908792858098 0 0.3855881021147175 0.35910908792858098 0 0.39248458597179969 0.37472262889043839 0 0.3773824667175657 0.37546563606013739 0 0.36474967577348072 0.36653341875104961 0 0.3855881021147175 0.35910908792858098 0 0.3773824667175657 0.37546563606013739 0 0.40918213701441342 0.3736144609854074 0 0.39248458597179969 0.37472262889043839 0 0.40205795884979889 0.36380219258680641 0 0.3855881021147175 0.35910908792858098 0 0.39248458597179969 0.37472262889043839 0 0.40205795884979889 0.36380219258680641 0 0.40642652845595439 0.35168475710611302 0 0.39105145014164849 0.3414869239971704 0 0.3855881021147175 0.35910908792858098 0 0.40642652845595439 0.35168475710611302 0 0.3855881021147175 0.35910908792858098 0 0.40642652845595439 0.35168475710611302 0 0.3855881021147175 0.35910908792858098 0 0.40205795884979889 0.36380219258680641 0 0.39221066862400811 0.40518894945558848 0 0.39940032860097008 0.38986983405391068 0 0.41033309730305728 0.40785957742124029 0 0.40918213701441342 0.3736144609854074 0 0.39248458597179969 0.37472262889043839 0 0.39940032860097008 0.38986983405391068 0 0.39248458597179969 0.37472262889043839 0 0.39940032860097008 0.38986983405391068 0 0.38026367080056678 0.39066664182047522 0 0.39248458597179969 0.37472262889043839 0 0.3773824667175657 0.37546563606013739 0 0.38026367080056678 0.39066664182047522 0 0.39221066862400811 0.40518894945558848 0 0.39940032860097008 0.38986983405391068 0 0.38026367080056678 0.39066664182047522 0 0.39221066862400811 0.40518894945558848 0 0.38026367080056678 0.39066664182047522 0 0.37744029411777058 0.41252948965876268 0 0.39221066862400811 0.40518894945558848 0 0.37744029411777058 0.41252948965876268 0 0.39361595229767549 0.42501920432355378 0 0.365542703577178 0.42914551292816783 0 0.39361595229767549 0.42501920432355378 0 0.37809165231809289 0.44568724501072521 0 0.365542703577178 0.42914551292816783 0 0.37744029411777058 0.41252948965876268 0 0.39361595229767549 0.42501920432355378 0 0.365542703577178 0.42914551292816783 0 0.39361595229767549 0.42501920432355378 0 0.39361595229767549 0.42501920432355378 0 0.41035062152962531 0.4256058815429955 0 0.40092741287151468 0.44093224530230651 0 0.39361595229767549 0.42501920432355378 0 0.40092741287151468 0.44093224530230651 0 0.37809165231809289 0.44568724501072521 0 0.39361595229767549 0.42501920432355378 0 0.41033309730305728 0.40785957742124029 0 0.41035062152962531 0.4256058815429955 0 0.39221066862400811 0.40518894945558848 0 0.39361595229767549 0.42501920432355378 0 0.41033309730305728 0.40785957742124029 0 0.41033309730305728 0.40785957742124029 0 0.41035062152962531 0.4256058815429955 0 0.42646345733135449 0.42088686527347441 0 0.41035062152962531 0.4256058815429955 0 0.4216403136361262 0.43569606407888728 0 0.42646345733135449 0.42088686527347441 0 0.41035062152962531 0.4256058815429955 0 0.4216403136361262 0.43569606407888728 0 0.40092741287151468 0.44093224530230651 0 0.43504649219903713 0.43385430946487219 0 0.42646345733135449 0.42088686527347441 0 0.44292677264660579 0.42392515796168401 0 0.4216403136361262 0.43569606407888728 0 0.43504649219903713 0.43385430946487219 0 0.42646345733135449 0.42088686527347441 0 0.4216403136361262 0.43569606407888728 0 0.43504649219903713 0.43385430946487219 0 0.4309855774719657 0.44262377444488737 0 0.41033309730305728 0.40785957742124029 0 0.42646345733135449 0.42088686527347441 0 0.43473852811684172 0.40482082561786309 0 0.42646345733135449 0.42088686527347441 0 0.43473852811684172 0.40482082561786309 0 0.44292677264660579 0.42392515796168401 0 0.43473852811684172 0.40482082561786309 0 0.42003555557297712 0.38799376876492359 0 0.43605286711449009 0.38080977408974359 0 0.41033309730305728 0.40785957742124029 0 0.43473852811684172 0.40482082561786309 0 0.42003555557297712 0.38799376876492359 0 0.39940032860097008 0.38986983405391068 0 0.41033309730305728 0.40785957742124029 0 0.42003555557297712 0.38799376876492359 0 0.40918213701441342 0.3736144609854074 0 0.39940032860097008 0.38986983405391068 0 0.42003555557297712 0.38799376876492359 0 0.40918213701441342 0.3736144609854074 0 0.42003555557297712 0.38799376876492359 0 0.42225433889660879 0.37545697575276449 0 0.42003555557297712 0.38799376876492359 0 0.42225433889660879 0.37545697575276449 0 0.43605286711449009 0.38080977408974359 0 0.44279863902385319 0.36498191861006751 0 0.43605286711449009 0.38080977408974359 0 0.45829891398740957 0.37926071030245079 0 0.43605286711449009 0.38080977408974359 0 0.44916269767969552 0.39669925538146661 0 0.45829891398740957 0.37926071030245079 0 0.43473852811684172 0.40482082561786309 0 0.43605286711449009 0.38080977408974359 0 0.44916269767969552 0.39669925538146661 0 0.43473852811684172 0.40482082561786309 0 0.44916269767969552 0.39669925538146661 0 0.45819524916971172 0.41557138043250991 0 0.44916269767969552 0.39669925538146661 0 0.47914945699370431 0.3984681476517854 0 0.45819524916971172 0.41557138043250991 0 0.44916269767969552 0.39669925538146661 0 0.45829891398740957 0.37926071030245079 0 0.47914945699370431 0.3984681476517854 0 0.45829891398740957 0.37926071030245079 0 0.47914945699370431 0.3984681476517854 0 0.44916269767969552 0.39669925538146661 0 0.45829891398740957 0.37926071030245079 0 0.45829891398740957 0.37926071030245079 0 0.48177296974371542 0.3780796821533936 0 0.47914945699370431 0.3984681476517854 0 0.47914945699370431 0.3984681476517854 0 0.5 0.39471699264069632 0 0.49999999999999928 0.41767558500111929 0 0.48177296974371542 0.3780796821533936 0 0.47914945699370431 0.3984681476517854 0 0.5 0.39471699264069632 0 0.5 0.37175840028027313 0 0.48177296974371542 0.3780796821533936 0 0.5 0.39471699264069632 0 0.48950419912568011 0.43203648207583117 0 0.49999999999999928 0.41767558500111929 0 0.47941257652712138 0.42859526255965119 0 0.48950419912568011 0.43203648207583117 0 0.49999999999999928 0.41767558500111929 0 0.50000000000000022 0.44212157098762489 0 0.49999999999999928 0.41767558500111929 0 0.47638758820359789 0.4177788365799131 0 0.47941257652712138 0.42859526255965119 0 0.47914945699370431 0.3984681476517854 0 0.49999999999999928 0.41767558500111929 0 0.47638758820359789 0.4177788365799131 0 0.47914945699370431 0.3984681476517854 0 0.49999999999999928 0.41767558500111929 0 0.47914945699370431 0.3984681476517854 0 0.47638758820359789 0.4177788365799131 0 0.45819524916971172 0.41557138043250991 0 0.47638758820359789 0.4177788365799131 0 0.46959145424244531 0.42892785421681912 0 0.47941257652712138 0.42859526255965119 0 0.48950419912568011 0.43203648207583117 0 0.47941257652712138 0.42859526255965119 0 0.47860421997559988 0.43975350975492877 0 0.46959145424244531 0.42892785421681912 0 0.47941257652712138 0.42859526255965119 0 0.47860421997559988 0.43975350975492877 0 0.46959145424244531 0.42892785421681912 0 0.45720843995119947 0.43738544852223271 0 0.45819524916971172 0.41557138043250991 0 0.46959145424244531 0.42892785421681912 0 0.45720843995119947 0.43738544852223271 0 0.47860421997559988 0.43975350975492877 0 0.47638758820359789 0.4177788365799131 0 0.46959145424244531 0.42892785421681912 0 0.45819524916971172 0.41557138043250991 0 0.43473852811684172 0.40482082561786309 0 0.45819524916971172 0.41557138043250991 0 0.44292677264660579 0.42392515796168401 0 0.45720843995119947 0.43738544852223271 0 0.45819524916971172 0.41557138043250991 0 0.44292677264660579 0.42392515796168401 0 0.45720843995119947 0.43738544852223271 0 0.44292677264660579 0.42392515796168401 0 0.44501475256406542 0.43710487641451851 0 0.43504649219903713 0.43385430946487219 0 0.44292677264660579 0.42392515796168401 0 0.44501475256406542 0.43710487641451851 0 0.44501475256406542 0.43710487641451851 0 0.44086930591740259 0.443703986550611 0 0.44426520485267701 0.44828521544284999 0 0.43504649219903713 0.43385430946487219 0 0.44501475256406542 0.43710487641451851 0 0.44086930591740259 0.443703986550611 0 0.44576605402647751 0.45131382091928901 0 0.43097115028835131 0.45382894378787952 0 0.4371491165808723 0.44919465112914592 0 0.44086930591740259 0.443703986550611 0 0.44106718496795649 0.44783878756079798 0 0.4371491165808723 0.44919465112914592 0 0.44106718496795649 0.44783878756079798 0 0.44576605402647751 0.45131382091928901 0 0.4371491165808723 0.44919465112914592 0 0.44086930591740259 0.443703986550611 0 0.44426520485267701 0.44828521544284999 0 0.44106718496795649 0.44783878756079798 0 0.44426520485267701 0.44828521544284999 0 0.44576605402647751 0.45131382091928901 0 0.44086930591740259 0.443703986550611 0 0.44106718496795649 0.44783878756079798 0 0.44426520485267701 0.44828521544284999 0 0.45720843995119947 0.43738544852223271 0 0.44501475256406542 0.43710487641451851 0 0.44426520485267701 0.44828521544284999 0 0.44576605402647751 0.45131382091928901 0 0.44334270512280699 0.46695283516179431 0 0.45751300038554987 0.46615712058798953 0 0.44426520485267701 0.44828521544284999 0 0.45751300038554987 0.46615712058798953 0 0.44576605402647751 0.45131382091928901 0 0.44334270512280699 0.46695283516179431 0 0.42744619309891668 0.4675425472795256 0 0.44426520485267701 0.44828521544284999 0 0.44576605402647751 0.45131382091928901 0 0.45751300038554987 0.46615712058798953 0 0.44426520485267701 0.44828521544284999 0 0.45751300038554987 0.46615712058798953 0 0.47213260242633898 0.44992772785007767 0 0.44426520485267701 0.44828521544284999 0 0.47213260242633898 0.44992772785007767 0 0.45720843995119947 0.43738544852223271 0 0.47860421997559988 0.43975350975492877 0 0.45720843995119947 0.43738544852223271 0 0.44426520485267701 0.44828521544284999 0 0.47213260242633898 0.44992772785007767 0 0.47213260242633898 0.44992772785007767 0 0.47860421997559988 0.43975350975492877 0 0.50000000000000067 0.45157024025730719 0 0.45720843995119947 0.43738544852223271 0 0.47213260242633898 0.44992772785007767 0 0.47860421997559988 0.43975350975492877 0 0.47213260242633898 0.44992772785007767 0 0.48064266697128027 0.4673483066551633 0 0.50000000000000067 0.45157024025730719 0 0.45751300038554987 0.46615712058798953 0 0.47213260242633898 0.44992772785007767 0 0.48064266697128027 0.4673483066551633 0 0.48064266697128027 0.4673483066551633 0 0.5 0.46843982966384828 0 0.50000000000000067 0.45157024025730719 0 0.47860421997559988 0.43975350975492877 0 0.50000000000000022 0.44212157098762489 0 0.47860421997559988 0.43975350975492877 0 0.50000000000000067 0.45157024025730719 0 0.50000000000000022 0.44212157098762489 0 0.47213260242633898 0.44992772785007767 0 0.50000000000000067 0.45157024025730719 0 0.48950419912568011 0.43203648207583117 0 0.47860421997559988 0.43975350975492877 0 0.50000000000000022 0.44212157098762489 0 0.48834007405180069 0.49233461120087918 0 0.50000000000000222 0.48530941907038949 0 0.47076079591842229 0.48402902573312923 0 0.48834007405180069 0.49233461120087918 0 0.5 0.5 0 0.48259950028877657 0.49999999999999922 0 0.50000000000000222 0.48530941907038949 0 0.47076079591842229 0.48402902573312923 0 0.48834007405180069 0.49233461120087918 0 0.5 0.5 0 0.50000000000000222 0.48530941907038949 0 0.50000000000000222 0.48530941907038949 0 0.48785086572242647 0.47628164528063233 0 0.47076079591842229 0.48402902573312923 0 0.48064266697128027 0.4673483066551633 0 0.5 0.46843982966384828 0 0.48785086572242647 0.47628164528063233 0 0.5 0.46843982966384828 0 0.50000000000000222 0.48530941907038949 0 0.48785086572242647 0.47628164528063233 0 0.45751300038554987 0.46615712058798953 0 0.48064266697128027 0.4673483066551633 0 0.47076079591842229 0.48402902573312923 0 0.48064266697128027 0.4673483066551633 0 0.48785086572242647 0.47628164528063233 0 0.47076079591842229 0.48402902573312923 0 0.47076079591842229 0.48402902573312923 0 0.48259950028877657 0.49999999999999922 0 0.45965124302753141 0.5 0 0.48834007405180069 0.49233461120087918 0 0.47076079591842229 0.48402902573312923 0 0.48259950028877657 0.49999999999999922 0 0.47076079591842229 0.48402902573312923 0 0.48259950028877657 0.49999999999999922 0 0.47076079591842229 0.48402902573312923 0 0.45965124302753141 0.5 0 0.44264557298028417 0.48279785186037327 0 0.45751300038554987 0.46615712058798953 0 0.47076079591842229 0.48402902573312923 0 0.47076079591842229 0.48402902573312923 0 0.44264557298028417 0.48279785186037327 0 0.45751300038554987 0.46615712058798953 0 0.47076079591842229 0.48402902573312923 0 0.44264557298028417 0.48279785186037327 0 0.44334270512280699 0.46695283516179431 0 0.44264557298028417 0.48279785186037327 0 0.42744619309891668 0.4675425472795256 0 0.44334270512280699 0.46695283516179431 0 0.45751300038554987 0.46615712058798953 0 0.44264557298028417 0.48279785186037327 0 0.45965124302753141 0.5 0 0.44264557298028417 0.48279785186037327 0 0.43670298576628619 0.5 0 0.44264557298028417 0.48279785186037327 0 0.42814010978677508 0.48883471415535268 0 0.41453035004214622 0.48156667798761449 0 0.43670298576628619 0.5 0 0.42814010978677508 0.48883471415535268 0 0.41868153035838401 0.49097432677342312 0 0.44264557298028417 0.48279785186037327 0 0.43670298576628619 0.5 0 0.42814010978677508 0.48883471415535268 0 0.43670298576628619 0.5 0 0.41375472850504103 0.5 0 0.41868153035838401 0.49097432677342312 0 0.41375472850504103 0.5 0 0.41868153035838401 0.49097432677342312 0 0.40912633217135602 0.48377127363976219 0 0.42814010978677508 0.48883471415535268 0 0.41868153035838401 0.49097432677342312 0 0.41453035004214622 0.48156667798761449 0 0.41868153035838401 0.49097432677342312 0 0.40912633217135602 0.48377127363976219 0 0.41453035004214622 0.48156667798761449 0 0.40882198151684829 0.470458307354371 0 0.40912633217135602 0.48377127363976219 0 0.42744619309891668 0.4675425472795256 0 0.40912633217135602 0.48377127363976219 0 0.42744619309891668 0.4675425472795256 0 0.40912633217135602 0.48377127363976219 0 0.41453035004214622 0.48156667798761449 0 0.42744619309891668 0.4675425472795256 0 0.40882198151684829 0.470458307354371 0 0.40912633217135602 0.48377127363976219 0 0.40257181831080802 0.47789339995616598 0 0.44264557298028417 0.48279785186037327 0 0.41453035004214622 0.48156667798761449 0 0.44264557298028417 0.48279785186037327 0 0.41453035004214622 0.48156667798761449 0 0.42744619309891668 0.4675425472795256 0 0.44576605402647751 0.45131382091928901 0 0.42744619309891668 0.4675425472795256 0 0.44576605402647751 0.45131382091928901 0 0.43097115028835131 0.45382894378787952 0 0.42744619309891668 0.4675425472795256 0 0.43097115028835131 0.45382894378787952 0 0.42744619309891668 0.4675425472795256 0 0.41709851720120961 0.46055572465752248 0 0.44086930591740259 0.443703986550611 0 0.4309855774719657 0.44262377444488737 0 0.4371491165808723 0.44919465112914592 0 0.43504649219903713 0.43385430946487219 0 0.44086930591740259 0.443703986550611 0 0.4309855774719657 0.44262377444488737 0 0.43097115028835131 0.45382894378787952 0 0.4309855774719657 0.44262377444488737 0 0.4371491165808723 0.44919465112914592 0 0.43097115028835131 0.45382894378787952 0 0.4309855774719657 0.44262377444488737 0 0.41665312800777271 0.44940921386284588 0 0.4216403136361262 0.43569606407888728 0 0.4309855774719657 0.44262377444488737 0 0.41665312800777271 0.44940921386284588 0 0.41665312800777271 0.44940921386284588 0 0.4029362549212489 0.45832899449672349 0 0.40092741287151468 0.44093224530230651 0 0.4216403136361262 0.43569606407888728 0 0.41665312800777271 0.44940921386284588 0 0.40092741287151468 0.44093224530230651 0 0.40882198151684829 0.470458307354371 0 0.42744619309891668 0.4675425472795256 0 0.41709851720120961 0.46055572465752248 0 0.43097115028835131 0.45382894378787952 0 0.41665312800777271 0.44940921386284588 0 0.41709851720120961 0.46055572465752248 0 0.41665312800777271 0.44940921386284588 0 0.41709851720120961 0.46055572465752248 0 0.4029362549212489 0.45832899449672349 0 0.40882198151684829 0.470458307354371 0 0.41709851720120961 0.46055572465752248 0 0.4029362549212489 0.45832899449672349 0 0.40882198151684829 0.470458307354371 0 0.4029362549212489 0.45832899449672349 0 0.3944208343110962 0.47305259584339332 0 0.4029362549212489 0.45832899449672349 0 0.38943508825963058 0.45629052964312111 0 0.3944208343110962 0.47305259584339332 0 0.4029362549212489 0.45832899449672349 0 0.40092741287151468 0.44093224530230651 0 0.38943508825963058 0.45629052964312111 0 0.40092741287151468 0.44093224530230651 0 0.37809165231809289 0.44568724501072521 0 0.38943508825963058 0.45629052964312111 0 0.37809165231809289 0.44568724501072521 0 0.38943508825963058 0.45629052964312111 0 0.37844435483634198 0.4675903904274426 0 0.38943508825963058 0.45629052964312111 0 0.37844435483634198 0.4675903904274426 0 0.3944208343110962 0.47305259584339332 0 0.37844435483634198 0.4675903904274426 0 0.38120033573297152 0.48442634992442057 0 0.3944208343110962 0.47305259584339332 0 0.38120033573297152 0.48442634992442057 0 0.3944208343110962 0.47305259584339332 0 0.39562515835400552 0.48382872387274839 0 0.36196284501337178 0.5 0 0.38120033573297152 0.48442634992442057 0 0.39080647124379558 0.49999999999999922 0 0.38120033573297152 0.48442634992442057 0 0.39080647124379558 0.49999999999999922 0 0.39562515835400552 0.48382872387274839 0 0.40912633217135602 0.48377127363976219 0 0.39080647124379558 0.49999999999999922 0 0.40912633217135602 0.48377127363976219 0 0.39080647124379558 0.49999999999999922 0 0.39562515835400552 0.48382872387274839 0 0.41375472850504103 0.5 0 0.40912633217135602 0.48377127363976219 0 0.39080647124379558 0.49999999999999922 0 0.40912633217135602 0.48377127363976219 0 0.40257181831080802 0.47789339995616598 0 0.39562515835400552 0.48382872387274839 0 0.40882198151684829 0.470458307354371 0 0.40257181831080802 0.47789339995616598 0 0.3944208343110962 0.47305259584339332 0 0.40257181831080802 0.47789339995616598 0 0.3944208343110962 0.47305259584339332 0 0.39562515835400552 0.48382872387274839 0 0.34137977846588119 0.091947059702449957 0 0.3184977734976509 0.082531855017860187 0 0.34137977846588119 0.091947059702449957 0 0.33853514524224232 0.092154422351098803 0 0.3184977734976509 0.082531855017860187 0 0.33853514524224232 0.092154422351098803 0 0.3184977734976509 0.082531855017860187 0 0.3305269393921435 0.093893314460775035 0 0.34137977846588119 0.091947059702449957 0 0.33488127772135701 0.070909675734900868 0 0.3184977734976509 0.082531855017860187 0 0.33488127772135701 0.070909675734900868 0 0.35624300874513559 0.071190975121652081 0 0.33828509493208109 0.051113002016081502 0 0.3184977734976509 0.082531855017860187 0 0.31750720709783492 0.060828210965220328 0 0.30506359630307739 0.067813250175554993 0 0.33488127772135701 0.070909675734900868 0 0.32846421329825382 0.059059627678852658 0 0.31750720709783492 0.060828210965220328 0 0.33488127772135701 0.070909675734900868 0 0.3184977734976509 0.082531855017860187 0 0.31750720709783492 0.060828210965220328 0 0.3184977734976509 0.082531855017860187 0 0.3254096333834442 0.096971455496547829 0 0.3305269393921435 0.093893314460775035 0 0.3184977734976509 0.082531855017860187 0 0.3254096333834442 0.096971455496547829 0 0.31111548734401751 0.094174984339189319 0 0.3254096333834442 0.096971455496547829 0 0.33219394353324039 0.1121017755840282 0 0.31111548734401751 0.094174984339189319 0 0.33219394353324039 0.1121017755840282 0 0.31111548734401751 0.094174984339189319 0 0.33219394353324039 0.1121017755840282 0 0.31151194808720201 0.1150643222194616 0 0.31111548734401751 0.094174984339189319 0 0.33219394353324039 0.1121017755840282 0 0.31151194808720201 0.1150643222194616 0 0.32387679174541939 0.1297141718462434 0 0.33219394353324039 0.1121017755840282 0 0.32387679174541939 0.1297141718462434 0 0.35327239972246333 0.1300285668288671 0 0.33219394353324039 0.1121017755840282 0 0.35327239972246333 0.1300285668288671 0 0.33219394353324039 0.1121017755840282 0 0.34279585490336462 0.1026082003979065 0 0.35159211237321392 0.11222190062690381 0 0.33853514524224232 0.092154422351098803 0 0.3305269393921435 0.093893314460775035 0 0.33650548478629722 0.09727411407467923 0 0.3254096333834442 0.096971455496547829 0 0.33351858274250701 0.1005678965871936 0 0.3305269393921435 0.093893314460775035 0 0.33351858274250701 0.1005678965871936 0 0.3305269393921435 0.093893314460775035 0 0.33650548478629722 0.09727411407467923 0 0.3254096333834442 0.096971455496547829 0 0.33219394353324039 0.1121017755840282 0 0.33351858274250701 0.1005678965871936 0 0.33219394353324039 0.1121017755840282 0 0.33351858274250701 0.1005678965871936 0 0.34279585490336462 0.1026082003979065 0 0.33351858274250701 0.1005678965871936 0 0.34279585490336462 0.1026082003979065 0 0.33650548478629722 0.09727411407467923 0 0.33853514524224232 0.092154422351098803 0 0.34279585490336462 0.1026082003979065 0 0.33650548478629722 0.09727411407467923 0 0.34279585490336462 0.1026082003979065 0 0.35159211237321392 0.11222190062690381 0 0.36426178343411147 0.1013622643870397 0 0.33853514524224232 0.092154422351098803 0 0.34279585490336462 0.1026082003979065 0 0.36426178343411147 0.1013622643870397 0 0.34137977846588119 0.091947059702449957 0 0.33853514524224232 0.092154422351098803 0 0.36426178343411147 0.1013622643870397 0 0.33853514524224232 0.092154422351098803 0 0.36426178343411147 0.1013622643870397 0 0.34137977846588119 0.091947059702449957 0 0.36426178343411147 0.1013622643870397 0 0.33219394353324039 0.1121017755840282 0 0.35159211237321392 0.11222190062690381 0 0.35327239972246333 0.1300285668288671 0 0.35159211237321392 0.11222190062690381 0 0.36649271172908648 0.1176987398754743 0 0.35327239972246333 0.1300285668288671 0 0.35159211237321392 0.11222190062690381 0 0.36649271172908648 0.1176987398754743 0 0.36426178343411147 0.1013622643870397 0 0.36649271172908648 0.1176987398754743 0 0.36938385952287339 0.13266757129752671 0 0.38138511069115272 0.12353481432135879 0 0.36649271172908648 0.1176987398754743 0 0.36426178343411147 0.1013622643870397 0 0.3795225325030368 0.1068242515199407 0 0.36426178343411147 0.1013622643870397 0 0.3795225325030368 0.1068242515199407 0 0.36426178343411147 0.1013622643870397 0 0.3742009225581896 0.091268948227223284 0 0.3795225325030368 0.1068242515199407 0 0.3742009225581896 0.091268948227223284 0 0.35754778501084228 0.087847667021068221 0 0.35624300874513559 0.071190975121652081 0 0.36426178343411147 0.1013622643870397 0 0.3742009225581896 0.091268948227223284 0 0.35754778501084228 0.087847667021068221 0 0.3742009225581896 0.091268948227223284 0 0.35624300874513559 0.071190975121652081 0 0.34137977846588119 0.091947059702449957 0 0.35754778501084228 0.087847667021068221 0 0.35624300874513559 0.071190975121652081 0 0.34137977846588119 0.091947059702449957 0 0.36426178343411147 0.1013622643870397 0 0.35754778501084228 0.087847667021068221 0 0.34137977846588119 0.091947059702449957 0 0.33488127772135701 0.070909675734900868 0 0.35624300874513559 0.071190975121652081 0 0.3742009225581896 0.091268948227223284 0 0.35624300874513559 0.071190975121652081 0 0.37575225644292037 0.071709270247263784 0 0.35624300874513559 0.071190975121652081 0 0.36737709041569239 0.056764699852256018 0 0.37575225644292037 0.071709270247263784 0 0.36737709041569239 0.056764699852256018 0 0.36443667806580698 0.054513224756226962 0 0.39058826119953283 0.057913447496371839 0 0.36443667806580698 0.054513224756226962 0 0.36984281421283938 0.03924660656396721 0 0.37608467898805159 0.048096788967416412 0 0.36984281421283938 0.03924660656396721 0 0.35576481933353549 0.041718099984820838 0 0.3798040161112804 0.028996110171619349 0 0.35576481933353549 0.041718099984820838 0 0.36136411866671431 0.026161729739540451 0 0.37786156531075732 0.02725125369877367 0 0.35576481933353549 0.041718099984820838 0 0.3798040161112804 0.028996110171619349 0 0.37786156531075732 0.02725125369877367 0 0.35576481933353549 0.041718099984820838 0 0.3798040161112804 0.028996110171619349 0 0.36984281421283938 0.03924660656396721 0 0.37726993283737248 0.041439113600633092 0 0.37608467898805159 0.048096788967416412 0 0.36984281421283938 0.03924660656396721 0 0.37675727284589372 0.036323400775862158 0 0.37726993283737248 0.041439113600633092 0 0.36443667806580698 0.054513224756226962 0 0.36984281421283938 0.03924660656396721 0 0.35576481933353549 0.041718099984820838 0 0.35576481933353549 0.041718099984820838 0 0.36136411866671431 0.026161729739540451 0 0.34099279295720591 0.031691385536231111 0 0.35576481933353549 0.041718099984820838 0 0.34539840685914608 0.044617690611648012 0 0.34099279295720591 0.031691385536231111 0 0.35624300874513559 0.071190975121652081 0 0.34416591963185211 0.055615952208139578 0 0.33828509493208109 0.051113002016081502 0 0.36443667806580698 0.054513224756226962 0 0.34416591963185211 0.055615952208139578 0 0.33828509493208109 0.051113002016081502 0 0.36737709041569239 0.056764699852256018 0 0.34416591963185211 0.055615952208139578 0 0.35624300874513559 0.071190975121652081 0 0.33828509493208109 0.051113002016081502 0 0.35624300874513559 0.071190975121652081 0 0.36737709041569239 0.056764699852256018 0 0.34416591963185211 0.055615952208139578 0 0.36443667806580698 0.054513224756226962 0 0.33828509493208109 0.051113002016081502 0 0.36443667806580698 0.054513224756226962 0 0.34539840685914608 0.044617690611648012 0 0.33828509493208109 0.051113002016081502 0 0.36443667806580698 0.054513224756226962 0 0.35576481933353549 0.041718099984820838 0 0.34539840685914608 0.044617690611648012 0 0.36737709041569239 0.056764699852256018 0 0.36443667806580698 0.054513224756226962 0 0.34416591963185211 0.055615952208139578 0 0.35686418876597309 0.010252504770385159 0 0.37537418671591988 0.012891754799621079 0 0.3700201466167648 -0.002195575246397889 0 0.35686418876597309 0.010252504770385159 0 0.37786156531075732 0.02725125369877367 0 0.36136411866671431 0.026161729739540451 0 0.35686418876597309 0.010252504770385159 0 0.37786156531075732 0.02725125369877367 0 0.35686418876597309 0.010252504770385159 0 0.37537418671591988 0.012891754799621079 0 0.37786156531075732 0.02725125369877367 0 0.36136411866671431 0.026161729739540451 0 0.35686418876597309 0.010252504770385159 0 0.34167945108238768 0.015605415956853899 0 0.36136411866671431 0.026161729739540451 0 0.34167945108238768 0.015605415956853899 0 0.34099279295720591 0.031691385536231111 0 0.35686418876597309 0.010252504770385159 0 0.34167945108238768 0.015605415956853899 0 0.33586681222118892 -0.0067462441580033658 0 0.35686418876597309 0.010252504770385159 0 0.33586681222118892 -0.0067462441580033658 0 0.34167945108238768 0.015605415956853899 0 0.32490055802469708 0.021190940670656921 0 0.33586681222118892 -0.0067462441580033658 0 0.34167945108238768 0.015605415956853899 0 0.32490055802469708 0.021190940670656921 0 0.34099279295720591 0.031691385536231111 0 0.32490055802469708 0.021190940670656921 0 0.34099279295720591 0.031691385536231111 0 0.32801258046435111 0.036170166979635328 0 0.32490055802469708 0.021190940670656921 0 0.31497710433926901 0.036033128519756527 0 0.30595588987094691 0.026092456194660541 0 0.32490055802469708 0.021190940670656921 0 0.31046320235639918 0.0067575729804437252 0 0.30595588987094691 0.026092456194660541 0 0.32490055802469708 0.021190940670656921 0 0.32801258046435111 0.036170166979635328 0 0.31497710433926901 0.036033128519756527 0 0.32490055802469708 0.021190940670656921 0 0.31046320235639918 0.0067575729804437252 0 0.33586681222118892 -0.0067462441580033658 0 0.33488127772135701 0.070909675734900868 0 0.32846421329825382 0.059059627678852658 0 0.33828509493208109 0.051113002016081502 0 0.33828509493208109 0.051113002016081502 0 0.33632782521092219 0.048924662700562782 0 0.31456469921871788 0.048028881697348168 0 0.34539840685914608 0.044617690611648012 0 0.33828509493208109 0.051113002016081502 0 0.33632782521092219 0.048924662700562782 0 0.33828509493208109 0.051113002016081502 0 0.33632782521092219 0.048924662700562782 0 0.34539840685914608 0.044617690611648012 0 0.33609782728063148 0.04111054955314445 0 0.34099279295720591 0.031691385536231111 0 0.34539840685914608 0.044617690611648012 0 0.33632782521092219 0.048924662700562782 0 0.33609782728063148 0.04111054955314445 0 0.33609782728063148 0.04111054955314445 0 0.34099279295720591 0.031691385536231111 0 0.32801258046435111 0.036170166979635328 0 0.33632782521092219 0.048924662700562782 0 0.33609782728063148 0.04111054955314445 0 0.33051084790212298 0.042529329228536181 0 0.33632782521092219 0.048924662700562782 0 0.33051084790212298 0.042529329228536181 0 0.32327528761916352 0.043108517346294839 0 0.33609782728063148 0.04111054955314445 0 0.33051084790212298 0.042529329228536181 0 0.32801258046435111 0.036170166979635328 0 0.33632782521092219 0.048924662700562782 0 0.32327528761916352 0.043108517346294839 0 0.31456469921871788 0.048028881697348168 0 0.33051084790212298 0.042529329228536181 0 0.32327528761916352 0.043108517346294839 0 0.32801258046435111 0.036170166979635328 0 0.32327528761916352 0.043108517346294839 0 0.32801258046435111 0.036170166979635328 0 0.31497710433926901 0.036033128519756527 0 0.32327528761916352 0.043108517346294839 0 0.31497710433926901 0.036033128519756527 0 0.31456469921871788 0.048028881697348168 0 0.33828509493208109 0.051113002016081502 0 0.31456469921871788 0.048028881697348168 0 0.32846421329825382 0.059059627678852658 0 0.33828509493208109 0.051113002016081502 0 0.31456469921871788 0.048028881697348168 0 0.32846421329825382 0.059059627678852658 0 0.31456469921871788 0.048028881697348168 0 0.31750720709783492 0.060828210965220328 0 0.31456469921871788 0.048028881697348168 0 0.31750720709783492 0.060828210965220328 0 0.30386903740065402 0.05697431224277244 0 0.31750720709783492 0.060828210965220328 0 0.30386903740065402 0.05697431224277244 0 0.30506359630307739 0.067813250175554993 0 0.31456469921871788 0.048028881697348168 0 0.30386903740065402 0.05697431224277244 0 0.29084430350535467 0.044944761378613682 0 0.30386903740065402 0.05697431224277244 0 0.29325963230024937 0.057606978803657879 0 0.29690158384745241 0.06457818982176422 0 0.31456469921871788 0.048028881697348168 0 0.30257644158749403 0.037675663858353942 0 0.29084430350535467 0.044944761378613682 0 0.31456469921871788 0.048028881697348168 0 0.29084430350535467 0.044944761378613682 0 0.30257644158749403 0.037675663858353942 0 0.28728110375769011 0.032980092644635972 0 0.30595588987094691 0.026092456194660541 0 0.31497710433926901 0.036033128519756527 0 0.31456469921871788 0.048028881697348168 0 0.30257644158749403 0.037675663858353942 0 0.31497710433926901 0.036033128519756527 0 0.30257644158749403 0.037675663858353942 0 0.30595588987094691 0.026092456194660541 0 0.28728110375769011 0.032980092644635972 0 0.28354425329012439 0.021068516806879451 0 0.27754771987688809 0.040797440569893019 0 0.30257644158749403 0.037675663858353942 0 0.29084430350535467 0.044944761378613682 0 0.28728110375769011 0.032980092644635972 0 0.28728110375769011 0.032980092644635972 0 0.2844924432277231 0.043204628682168907 0 0.27754771987688809 0.040797440569893019 0 0.29084430350535467 0.044944761378613682 0 0.28728110375769011 0.032980092644635972 0 0.2844924432277231 0.043204628682168907 0 0.2844924432277231 0.043204628682168907 0 0.28229664577095948 0.054096220135532967 0 0.27754771987688809 0.040797440569893019 0 0.29084430350535467 0.044944761378613682 0 0.2844924432277231 0.043204628682168907 0 0.28229664577095948 0.054096220135532967 0 0.29084430350535467 0.044944761378613682 0 0.28229664577095948 0.054096220135532967 0 0.29325963230024937 0.057606978803657879 0 0.28229664577095948 0.054096220135532967 0 0.28695696052130792 0.062426000594819037 0 0.29325963230024937 0.057606978803657879 0 0.28229664577095948 0.054096220135532967 0 0.28695696052130792 0.062426000594819037 0 0.27961998430175328 0.060695812266760227 0 0.28695696052130792 0.062426000594819037 0 0.29325963230024937 0.057606978803657879 0 0.29690158384745241 0.06457818982176422 0 0.30386903740065402 0.05697431224277244 0 0.29084430350535467 0.044944761378613682 0 0.29325963230024937 0.057606978803657879 0 0.31046320235639918 0.0067575729804437252 0 0.29633736445586178 0.016145334388179639 0 0.2895407867033607 0.0013395930438658619 0 0.31046320235639918 0.0067575729804437252 0 0.30595588987094691 0.026092456194660541 0 0.29633736445586178 0.016145334388179639 0 0.28728110375769011 0.032980092644635972 0 0.29633736445586178 0.016145334388179639 0 0.28354425329012439 0.021068516806879451 0 0.28728110375769011 0.032980092644635972 0 0.30595588987094691 0.026092456194660541 0 0.29633736445586178 0.016145334388179639 0 0.29633736445586178 0.016145334388179639 0 0.28354425329012439 0.021068516806879451 0 0.2895407867033607 0.0013395930438658619 0 0.28354425329012439 0.021068516806879451 0 0.2895407867033607 0.0013395930438658619 0 0.27605408581287011 0.0090157940159830471 0 0.28354425329012439 0.021068516806879451 0 0.2895407867033607 0.0013395930438658619 0 0.2895407867033607 0.0013395930438658619 0 0.27605408581287011 0.0090157940159830471 0 0.26778398551549509 -0.0036893303100333872 0 0.27605408581287011 0.0090157940159830471 0 0.26417056773795178 0.0090152440179189393 0 0.26778398551549509 -0.0036893303100333872 0 0.27605408581287011 0.0090157940159830471 0 0.26936383070045983 0.02007531215695801 0 0.26417056773795178 0.0090152440179189393 0 0.28354425329012439 0.021068516806879451 0 0.27754771987688809 0.040797440569893019 0 0.28354425329012439 0.021068516806879451 0 0.27605408581287011 0.0090157940159830471 0 0.26936383070045983 0.02007531215695801 0 0.28354425329012439 0.021068516806879451 0 0.26936383070045983 0.02007531215695801 0 0.27332262009486957 0.033728107725222278 0 0.26936383070045983 0.02007531215695801 0 0.26667678125960848 0.028969541142501901 0 0.27332262009486957 0.033728107725222278 0 0.26936383070045983 0.02007531215695801 0 0.26667678125960848 0.028969541142501901 0 0.25978705670837199 0.02772172808684556 0 0.26667678125960848 0.028969541142501901 0 0.25978705670837199 0.02772172808684556 0 0.26423361753473251 0.034353016600981737 0 0.24818833723327199 0.02644705719899533 0 0.25978705670837199 0.02772172808684556 0 0.25442723867738032 0.016379625870619269 0 0.24818833723327199 0.02644705719899533 0 0.25978705670837199 0.02772172808684556 0 0.25704478259505842 0.035809011079610743 0 0.26936383070045983 0.02007531215695801 0 0.25978705670837199 0.02772172808684556 0 0.25442723867738032 0.016379625870619269 0 0.26936383070045983 0.02007531215695801 0 0.25442723867738032 0.016379625870619269 0 0.26417056773795178 0.0090152440179189393 0 0.25442723867738032 0.016379625870619269 0 0.26417056773795178 0.0090152440179189393 0 0.25322369798355371 0.0032948183560677501 0 0.26417056773795178 0.0090152440179189393 0 0.25322369798355371 0.0032948183560677501 0 0.26778398551549509 -0.0036893303100333872 0 0.28229664577095948 0.054096220135532967 0 0.27155118646365262 0.060526364332906778 0 0.27754771987688809 0.040797440569893019 0 0.26803735397675288 0.057537922442449492 0 0.27155118646365262 0.060526364332906778 0 0.27754771987688809 0.040797440569893019 0 0.27155118646365262 0.060526364332906778 0 0.27754771987688809 0.040797440569893019 0 0.26803735397675288 0.057537922442449492 0 0.26717674565759131 0.061414912581717808 0 0.27155118646365262 0.060526364332906778 0 0.26803735397675288 0.057537922442449492 0 0.26717674565759131 0.061414912581717808 0 0.26717674565759131 0.061414912581717808 0 0.27082486665434358 0.062915996334918609 0 0.26717674565759131 0.061414912581717808 0 0.27155118646365262 0.060526364332906778 0 0.27082486665434358 0.062915996334918609 0 0.27155118646365262 0.060526364332906778 0 0.27082486665434358 0.062915996334918609 0 0.26803735397675288 0.057537922442449492 0 0.27155118646365262 0.060526364332906778 0 0.27155118646365262 0.060526364332906778 0 0.27961998430175328 0.060695812266760227 0 0.27767514445109232 0.065734664003783444 0 0.28229664577095948 0.054096220135532967 0 0.27155118646365262 0.060526364332906778 0 0.27961998430175328 0.060695812266760227 0 0.28354425329012439 0.021068516806879451 0 0.27754771987688809 0.040797440569893019 0 0.27332262009486957 0.033728107725222278 0 0.26803735397675288 0.057537922442449492 0 0.27754771987688809 0.040797440569893019 0 0.27332262009486957 0.033728107725222278 0 0.26803735397675288 0.057537922442449492 0 0.27332262009486957 0.033728107725222278 0 0.26337349528673171 0.044011131262296957 0 0.26803735397675288 0.057537922442449492 0 0.27332262009486957 0.033728107725222278 0 0.26667678125960848 0.028969541142501901 0 0.27332262009486957 0.033728107725222278 0 0.26423361753473251 0.034353016600981737 0 0.27332262009486957 0.033728107725222278 0 0.26337349528673171 0.044011131262296957 0 0.26423361753473251 0.034353016600981737 0 0.25978705670837199 0.02772172808684556 0 0.26423361753473251 0.034353016600981737 0 0.25704478259505842 0.035809011079610743 0 0.26337349528673171 0.044011131262296957 0 0.26423361753473251 0.034353016600981737 0 0.25704478259505842 0.035809011079610743 0 0.2492733855269578 0.041579555173777823 0 0.24818833723327199 0.02644705719899533 0 0.25704478259505842 0.035809011079610743 0 0.2492733855269578 0.041579555173777823 0 0.26337349528673171 0.044011131262296957 0 0.25704478259505842 0.035809011079610743 0 0.2492733855269578 0.041579555173777823 0 0.26803735397675288 0.057537922442449492 0 0.26337349528673171 0.044011131262296957 0 0.2492733855269578 0.041579555173777823 0 0.26803735397675288 0.057537922442449492 0 0.24629062771517271 0.052820950830226497 0 0.2492733855269578 0.041579555173777823 0 0.26803735397675288 0.057537922442449492 0 0.24874122334595 0.07170785510379532 0 0.24629062771517271 0.052820950830226497 0 0.26717674565759131 0.061414912581717808 0 0.24629062771517271 0.052820950830226497 0 0.26717674565759131 0.061414912581717808 0 0.24629062771517271 0.052820950830226497 0 0.26803735397675288 0.057537922442449492 0 0.26717674565759131 0.061414912581717808 0 0.24874122334595 0.07170785510379532 0 0.26717674565759131 0.061414912581717808 0 0.26207170159221099 0.084412837492877896 0 0.26717674565759131 0.061414912581717808 0 0.26207170159221099 0.084412837492877896 0 0.26717674565759131 0.061414912581717808 0 0.26459661937193729 0.083407271434054076 0 0.26207170159221099 0.084412837492877896 0 0.24736227196270541 0.090270970101712061 0 0.24874122334595 0.07170785510379532 0 0.26207170159221099 0.084412837492877896 0 0.24736227196270541 0.090270970101712061 0 0.26207170159221099 0.084412837492877896 0 0.24736227196270541 0.090270970101712061 0 0.26016144869860108 0.09301841504440217 0 0.25459763100830068 0.096141582858552177 0 0.24736227196270541 0.090270970101712061 0 0.26207170159221099 0.084412837492877896 0 0.26016144869860108 0.09301841504440217 0 0.24736227196270541 0.090270970101712061 0 0.25459763100830068 0.096141582858552177 0 0.26459661937193729 0.083407271434054076 0 0.26207170159221099 0.084412837492877896 0 0.26207170159221099 0.084412837492877896 0 0.26016144869860108 0.09301841504440217 0 0.26459661937193729 0.083407271434054076 0 0.2619867778419176 0.09199379318438361 0 0.26207170159221099 0.084412837492877896 0 0.2619867778419176 0.09199379318438361 0 0.26016144869860108 0.09301841504440217 0 0.26459661937193729 0.083407271434054076 0 0.26207170159221099 0.084412837492877896 0 0.2619867778419176 0.09199379318438361 0 0.2619867778419176 0.09199379318438361 0 0.26016144869860108 0.09301841504440217 0 0.26459661937193729 0.083407271434054076 0 0.28765643041333783 0.074223541376674432 0 0.26459661937193729 0.083407271434054076 0 0.27601190449835611 0.084120993139366301 0 0.28765643041333783 0.074223541376674432 0 0.2619867778419176 0.09199379318438361 0 0.27601190449835611 0.084120993139366301 0 0.27597760534302263 0.093816081557894046 0 0.2619867778419176 0.09199379318438361 0 0.27601190449835611 0.084120993139366301 0 0.26459661937193729 0.083407271434054076 0 0.2619867778419176 0.09199379318438361 0 0.27601190449835611 0.084120993139366301 0 0.27601190449835611 0.084120993139366301 0 0.28527214605629803 0.093542631019163408 0 0.27597760534302263 0.093816081557894046 0 0.26459661937193729 0.083407271434054076 0 0.27082486665434358 0.062915996334918609 0 0.26717674565759131 0.061414912581717808 0 0.26459661937193729 0.083407271434054076 0 0.27082486665434358 0.062915996334918609 0 0.26459661937193729 0.083407271434054076 0 0.27082486665434358 0.062915996334918609 0 0.27767514445109232 0.065734664003783444 0 0.26459661937193729 0.083407271434054076 0 0.27767514445109232 0.065734664003783444 0 0.28765643041333783 0.074223541376674432 0 0.27155118646365262 0.060526364332906778 0 0.27082486665434358 0.062915996334918609 0 0.27767514445109232 0.065734664003783444 0 0.27082486665434358 0.062915996334918609 0 0.27767514445109232 0.065734664003783444 0 0.27155118646365262 0.060526364332906778 0 0.27767514445109232 0.065734664003783444 0 0.27767514445109232 0.065734664003783444 0 0.28765643041333783 0.074223541376674432 0 0.27767514445109232 0.065734664003783444 0 0.29306802488508721 0.072068336257275281 0 0.28695696052130792 0.062426000594819037 0 0.27961998430175328 0.060695812266760227 0 0.27767514445109232 0.065734664003783444 0 0.28695696052130792 0.062426000594819037 0 0.27767514445109232 0.065734664003783444 0 0.29306802488508721 0.072068336257275281 0 0.28695696052130792 0.062426000594819037 0 0.29306802488508721 0.072068336257275281 0 0.29690158384745241 0.06457818982176422 0 0.29561576852942001 0.073116650333272012 0 0.29306802488508721 0.072068336257275281 0 0.29561576852942001 0.073116650333272012 0 0.29306802488508721 0.072068336257275281 0 0.29003703115479512 0.076248193094349867 0 0.29306802488508721 0.072068336257275281 0 0.28765643041333783 0.074223541376674432 0 0.29306802488508721 0.072068336257275281 0 0.29003703115479512 0.076248193094349867 0 0.28765643041333783 0.074223541376674432 0 0.29561576852942001 0.073116650333272012 0 0.29003703115479512 0.076248193094349867 0 0.27767514445109232 0.065734664003783444 0 0.29306802488508721 0.072068336257275281 0 0.28765643041333783 0.074223541376674432 0 0.29003703115479512 0.076248193094349867 0 0.28765643041333783 0.074223541376674432 0 0.27601190449835611 0.084120993139366301 0 0.29003703115479512 0.076248193094349867 0 0.27601190449835611 0.084120993139366301 0 0.29003703115479512 0.076248193094349867 0 0.28765643041333783 0.074223541376674432 0 0.27601190449835611 0.084120993139366301 0 0.29003703115479512 0.076248193094349867 0 0.28870857493654689 0.086239244916881869 0 0.27601190449835611 0.084120993139366301 0 0.28870857493654689 0.086239244916881869 0 0.28527214605629803 0.093542631019163408 0 0.28870857493654689 0.086239244916881869 0 0.28527214605629803 0.093542631019163408 0 0.29246213629446111 0.095768124011444758 0 0.28870857493654689 0.086239244916881869 0 0.29698271976236568 0.089899813846382556 0 0.29246213629446111 0.095768124011444758 0 0.29003703115479512 0.076248193094349867 0 0.28870857493654689 0.086239244916881869 0 0.29698271976236568 0.089899813846382556 0 0.29561576852942001 0.073116650333272012 0 0.29003703115479512 0.076248193094349867 0 0.31111548734401751 0.094174984339189319 0 0.29003703115479512 0.076248193094349867 0 0.31111548734401751 0.094174984339189319 0 0.29003703115479512 0.076248193094349867 0 0.29698271976236568 0.089899813846382556 0 0.31111548734401751 0.094174984339189319 0 0.3184977734976509 0.082531855017860187 0 0.29561576852942001 0.073116650333272012 0 0.31111548734401751 0.094174984339189319 0 0.3184977734976509 0.082531855017860187 0 0.29561576852942001 0.073116650333272012 0 0.3184977734976509 0.082531855017860187 0 0.29561576852942001 0.073116650333272012 0 0.30506359630307739 0.067813250175554993 0 0.31750720709783492 0.060828210965220328 0 0.30506359630307739 0.067813250175554993 0 0.29306802488508721 0.072068336257275281 0 0.30506359630307739 0.067813250175554993 0 0.29690158384745241 0.06457818982176422 0 0.30386903740065402 0.05697431224277244 0 0.30506359630307739 0.067813250175554993 0 0.29690158384745241 0.06457818982176422 0 0.29306802488508721 0.072068336257275281 0 0.30506359630307739 0.067813250175554993 0 0.29561576852942001 0.073116650333272012 0 0.30506359630307739 0.067813250175554993 0 0.29561576852942001 0.073116650333272012 0 0.29306802488508721 0.072068336257275281 0 0.30506359630307739 0.067813250175554993 0 0.31151194808720201 0.1150643222194616 0 0.30247500772594699 0.1071381656543656 0 0.29129275041579278 0.1172303442398579 0 0.31151194808720201 0.1150643222194616 0 0.29622008012258699 0.12991313160987961 0 0.32387679174541939 0.1297141718462434 0 0.31151194808720201 0.1150643222194616 0 0.29129275041579278 0.1172303442398579 0 0.29622008012258699 0.12991313160987961 0 0.31151194808720201 0.1150643222194616 0 0.31111548734401751 0.094174984339189319 0 0.30247500772594699 0.1071381656543656 0 0.31111548734401751 0.094174984339189319 0 0.30128354362195031 0.098124169066782854 0 0.30247500772594699 0.1071381656543656 0 0.29698271976236568 0.089899813846382556 0 0.30128354362195031 0.098124169066782854 0 0.29246213629446111 0.095768124011444758 0 0.29698271976236568 0.089899813846382556 0 0.31111548734401751 0.094174984339189319 0 0.30128354362195031 0.098124169066782854 0 0.30128354362195031 0.098124169066782854 0 0.30247500772594699 0.1071381656543656 0 0.29260899031297011 0.10538418601464609 0 0.29260899031297011 0.10538418601464609 0 0.29246213629446111 0.095768124011444758 0 0.28702757351663483 0.1001100210532227 0 0.30128354362195031 0.098124169066782854 0 0.29260899031297011 0.10538418601464609 0 0.29246213629446111 0.095768124011444758 0 0.28527214605629803 0.093542631019163408 0 0.29246213629446111 0.095768124011444758 0 0.28702757351663483 0.1001100210532227 0 0.28527214605629803 0.093542631019163408 0 0.28702757351663483 0.1001100210532227 0 0.28108272677848523 0.099874609951530163 0 0.29260899031297011 0.10538418601464609 0 0.28356239405763972 0.106033323917978 0 0.28664880997705461 0.11131452551203889 0 0.29260899031297011 0.10538418601464609 0 0.28702757351663483 0.1001100210532227 0 0.28356239405763972 0.106033323917978 0 0.28702757351663483 0.1001100210532227 0 0.28356239405763972 0.106033323917978 0 0.28108272677848523 0.099874609951530163 0 0.28356239405763972 0.106033323917978 0 0.2814598539497668 0.10990299155730229 0 0.28664880997705461 0.11131452551203889 0 0.27786688771157569 0.1150217509861922 0 0.29622008012258699 0.12991313160987961 0 0.28664880997705461 0.11131452551203889 0 0.29129275041579278 0.1172303442398579 0 0.27786688771157569 0.1150217509861922 0 0.27786688771157569 0.1150217509861922 0 0.27913813953766042 0.12972245958528131 0 0.29622008012258699 0.12991313160987961 0 0.29129275041579278 0.1172303442398579 0 0.27786688771157569 0.1150217509861922 0 0.29622008012258699 0.12991313160987961 0 0.2814598539497668 0.10990299155730229 0 0.28664880997705461 0.11131452551203889 0 0.27786688771157569 0.1150217509861922 0 0.30247500772594699 0.1071381656543656 0 0.29260899031297011 0.10538418601464609 0 0.29129275041579278 0.1172303442398579 0 0.29260899031297011 0.10538418601464609 0 0.28664880997705461 0.11131452551203889 0 0.29129275041579278 0.1172303442398579 0 0.27418517611644572 0.1163335826691398 0 0.26638390190257438 0.1102685147937751 0 0.25655208948606423 0.10927836717886751 0 0.27786688771157569 0.1150217509861922 0 0.27418517611644572 0.1163335826691398 0 0.27913813953766042 0.12972245958528131 0 0.27418517611644572 0.1163335826691398 0 0.27248198541775659 0.12784311929978001 0 0.27913813953766042 0.12972245958528131 0 0.2814598539497668 0.10990299155730229 0 0.27786688771157569 0.1150217509861922 0 0.27702128122739278 0.10689832557857171 0 0.27786688771157569 0.1150217509861922 0 0.27418517611644572 0.1163335826691398 0 0.26638390190257438 0.1102685147937751 0 0.27418517611644572 0.1163335826691398 0 0.26888095198589312 0.11979825388229511 0 0.26487973471170051 0.1148861259760711 0 0.27418517611644572 0.1163335826691398 0 0.26888095198589312 0.11979825388229511 0 0.27248198541775659 0.12784311929978001 0 0.26888095198589312 0.11979825388229511 0 0.26519442307348812 0.1188177922564181 0 0.26487973471170051 0.1148861259760711 0 0.26888095198589312 0.11979825388229511 0 0.26562400985315288 0.1251654340079911 0 0.27248198541775659 0.12784311929978001 0 0.26888095198589312 0.11979825388229511 0 0.26519442307348812 0.1188177922564181 0 0.26562400985315288 0.1251654340079911 0 0.27786688771157569 0.1150217509861922 0 0.26638390190257438 0.1102685147937751 0 0.25872482925013801 0.09949030162923457 0 0.27786688771157569 0.1150217509861922 0 0.25872482925013801 0.09949030162923457 0 0.27786688771157569 0.1150217509861922 0 0.27150352658480642 0.1040925172930806 0 0.25872482925013801 0.09949030162923457 0 0.28527214605629803 0.093542631019163408 0 0.27597760534302263 0.093816081557894046 0 0.28108272677848523 0.099874609951530163 0 0.27597760534302263 0.093816081557894046 0 0.28108272677848523 0.099874609951530163 0 0.27461357126647679 0.10027579108255071 0 0.27786688771157569 0.1150217509861922 0 0.27702128122739278 0.10689832557857171 0 0.27150352658480642 0.1040925172930806 0 0.27461357126647679 0.10027579108255071 0 0.27702128122739278 0.10689832557857171 0 0.27150352658480642 0.1040925172930806 0 0.28356239405763972 0.106033323917978 0 0.28108272677848523 0.099874609951530163 0 0.27702128122739278 0.10689832557857171 0 0.28108272677848523 0.099874609951530163 0 0.27461357126647679 0.10027579108255071 0 0.27702128122739278 0.10689832557857171 0 0.28356239405763972 0.106033323917978 0 0.2814598539497668 0.10990299155730229 0 0.27702128122739278 0.10689832557857171 0 0.2619867778419176 0.09199379318438361 0 0.27597760534302263 0.093816081557894046 0 0.26850219741802223 0.0981363484555835 0 0.27150352658480642 0.1040925172930806 0 0.26850219741802223 0.0981363484555835 0 0.25872482925013801 0.09949030162923457 0 0.27461357126647679 0.10027579108255071 0 0.27150352658480642 0.1040925172930806 0 0.26850219741802223 0.0981363484555835 0 0.27597760534302263 0.093816081557894046 0 0.27461357126647679 0.10027579108255071 0 0.26850219741802223 0.0981363484555835 0 0.2619867778419176 0.09199379318438361 0 0.26850219741802223 0.0981363484555835 0 0.25872482925013801 0.09949030162923457 0 0.2619867778419176 0.09199379318438361 0 0.26016144869860108 0.09301841504440217 0 0.25872482925013801 0.09949030162923457 0 0.2619867778419176 0.09199379318438361 0 0.25872482925013801 0.09949030162923457 0 0.26016144869860108 0.09301841504440217 0 0.25872482925013801 0.09949030162923457 0 0.26016144869860108 0.09301841504440217 0 0.25872482925013801 0.09949030162923457 0 0.25459763100830068 0.096141582858552177 0 0.26638390190257438 0.1102685147937751 0 0.25872482925013801 0.09949030162923457 0 0.26054083413963042 0.1068609537315081 0 0.26638390190257438 0.1102685147937751 0 0.26054083413963042 0.1068609537315081 0 0.25655208948606423 0.10927836717886751 0 0.25872482925013801 0.09949030162923457 0 0.258042440935632 0.10497087790269199 0 0.26054083413963042 0.1068609537315081 0 0.25872482925013801 0.09949030162923457 0 0.258042440935632 0.10497087790269199 0 0.258042440935632 0.10497087790269199 0 0.26054083413963042 0.1068609537315081 0 0.25655208948606423 0.10927836717886751 0 0.25872482925013801 0.09949030162923457 0 0.25655208948606423 0.10927836717886751 0 0.25872482925013801 0.09949030162923457 0 0.25655208948606423 0.10927836717886751 0 0.25459763100830068 0.096141582858552177 0 0.24174744587836799 0.1033548466348798 0 0.25655208948606423 0.10927836717886751 0 0.25459763100830068 0.096141582858552177 0 0.25872482925013801 0.09949030162923457 0 0.258042440935632 0.10497087790269199 0 0.25655208948606423 0.10927836717886751 0 0.25872482925013801 0.09949030162923457 0 0.25459763100830068 0.096141582858552177 0 0.26016144869860108 0.09301841504440217 0 0.25459763100830068 0.096141582858552177 0 0.27418517611644572 0.1163335826691398 0 0.25655208948606423 0.10927836717886751 0 0.26487973471170051 0.1148861259760711 0 0.27418517611644572 0.1163335826691398 0 0.25655208948606423 0.10927836717886751 0 0.2613903323121034 0.11972876860365821 0 0.25824300399834771 0.11754386918627879 0 0.25813574029091341 0.12532111527980791 0 0.2613903323121034 0.11972876860365821 0 0.25824300399834771 0.11754386918627879 0 0.26064106818342869 0.11649387083006101 0 0.2613903323121034 0.11972876860365821 0 0.26303182906276251 0.1167652494283456 0 0.26064106818342869 0.11649387083006101 0 0.2613903323121034 0.11972876860365821 0 0.25813574029091341 0.12532111527980791 0 0.26562400985315288 0.1251654340079911 0 0.2613903323121034 0.11972876860365821 0 0.26519442307348812 0.1188177922564181 0 0.26562400985315288 0.1251654340079911 0 0.2613903323121034 0.11972876860365821 0 0.26519442307348812 0.1188177922564181 0 0.26303182906276251 0.1167652494283456 0 0.26487973471170051 0.1148861259760711 0 0.2618287337373767 0.1148464313763837 0 0.2589676606418963 0.1122376160430168 0 0.25655208948606423 0.10927836717886751 0 0.26487973471170051 0.1148861259760711 0 0.2589676606418963 0.1122376160430168 0 0.26519442307348812 0.1188177922564181 0 0.26487973471170051 0.1148861259760711 0 0.26303182906276251 0.1167652494283456 0 0.26487973471170051 0.1148861259760711 0 0.2618287337373767 0.1148464313763837 0 0.26303182906276251 0.1167652494283456 0 0.2618287337373767 0.1148464313763837 0 0.26303182906276251 0.1167652494283456 0 0.26064106818342869 0.11649387083006101 0 0.2618287337373767 0.1148464313763837 0 0.26064106818342869 0.11649387083006101 0 0.26015078570541528 0.1146524558252945 0 0.2618287337373767 0.1148464313763837 0 0.2589676606418963 0.1122376160430168 0 0.26015078570541528 0.1146524558252945 0 0.2589676606418963 0.1122376160430168 0 0.26015078570541528 0.1146524558252945 0 0.25777400528710798 0.1147846643059361 0 0.25824300399834771 0.11754386918627879 0 0.26015078570541528 0.1146524558252945 0 0.25777400528710798 0.1147846643059361 0 0.25824300399834771 0.11754386918627879 0 0.26064106818342869 0.11649387083006101 0 0.26015078570541528 0.1146524558252945 0 0.24646482385440791 0.1109165710353929 0 0.25655208948606423 0.10927836717886751 0 0.255186127323073 0.11543194682551421 0 0.25824300399834771 0.11754386918627879 0 0.25777400528710798 0.1147846643059361 0 0.255186127323073 0.11543194682551421 0 0.2589676606418963 0.1122376160430168 0 0.25777400528710798 0.1147846643059361 0 0.255186127323073 0.11543194682551421 0 0.25655208948606423 0.10927836717886751 0 0.255186127323073 0.11543194682551421 0 0.25655208948606423 0.10927836717886751 0 0.2589676606418963 0.1122376160430168 0 0.255186127323073 0.11543194682551421 0 0.255186127323073 0.11543194682551421 0 0.25238596385504641 0.12804651946228041 0 0.24420216851797599 0.1292372680552665 0 0.255186127323073 0.11543194682551421 0 0.25238596385504641 0.12804651946228041 0 0.255186127323073 0.11543194682551421 0 0.25238596385504641 0.12804651946228041 0 0.25813574029091341 0.12532111527980791 0 0.25824300399834771 0.11754386918627879 0 0.255186127323073 0.11543194682551421 0 0.25813574029091341 0.12532111527980791 0 0.25238596385504641 0.12804651946228041 0 0.25813574029091341 0.12532111527980791 0 0.26818611498992623 0.1403022215883418 0 0.24420216851797599 0.1292372680552665 0 0.26818611498992623 0.1403022215883418 0 0.24301228879775941 0.13939302681245261 0 0.24420216851797599 0.1292372680552665 0 0.26818611498992623 0.1403022215883418 0 0.24420216851797599 0.1292372680552665 0 0.25238596385504641 0.12804651946228041 0 0.26818611498992623 0.1403022215883418 0 0.25813574029091341 0.12532111527980791 0 0.26562400985315288 0.1251654340079911 0 0.26818611498992623 0.1403022215883418 0 0.27248198541775659 0.12784311929978001 0 0.26818611498992623 0.1403022215883418 0 0.27913813953766042 0.12972245958528131 0 0.26562400985315288 0.1251654340079911 0 0.27248198541775659 0.12784311929978001 0 0.26818611498992623 0.1403022215883418 0 0.26818611498992623 0.1403022215883418 0 0.27913813953766042 0.12972245958528131 0 0.28414721419066807 0.1482284927670183 0 0.26818611498992623 0.1403022215883418 0 0.26583546295036609 0.16369396270660089 0 0.28414721419066807 0.1482284927670183 0 0.26818611498992623 0.1403022215883418 0 0.25486404381895789 0.1523024957907583 0 0.26583546295036609 0.16369396270660089 0 0.24301228879775941 0.13939302681245261 0 0.26818611498992623 0.1403022215883418 0 0.25486404381895789 0.1523024957907583 0 0.2424223085377801 0.16582077205563811 0 0.25486404381895789 0.1523024957907583 0 0.26583546295036609 0.16369396270660089 0 0.2424223085377801 0.16582077205563811 0 0.26032431562704572 0.18342712708893841 0 0.26583546295036609 0.16369396270660089 0 0.26032431562704572 0.18342712708893841 0 0.27712404590978218 0.18082877805207789 0 0.26583546295036609 0.16369396270660089 0 0.27712404590978218 0.18082877805207789 0 0.26583546295036609 0.16369396270660089 0 0.28977860037431658 0.16805367250728201 0 0.26583546295036609 0.16369396270660089 0 0.28977860037431658 0.16805367250728201 0 0.28414721419066807 0.1482284927670183 0 0.27712404590978218 0.18082877805207789 0 0.28977860037431658 0.16805367250728201 0 0.29478084704188562 0.18627619782702401 0 0.28977860037431658 0.16805367250728201 0 0.29478084704188562 0.18627619782702401 0 0.31259037162619269 0.16725562300018509 0 0.29478084704188562 0.18627619782702401 0 0.31732062797233113 0.1926592597090995 0 0.31259037162619269 0.16725562300018509 0 0.28977860037431658 0.16805367250728201 0 0.29946190776947251 0.15165108642358641 0 0.31259037162619269 0.16725562300018509 0 0.29946190776947251 0.15165108642358641 0 0.31457327253359829 0.14480451223356691 0 0.31259037162619269 0.16725562300018509 0 0.29946190776947251 0.15165108642358641 0 0.29622008012258699 0.12991313160987961 0 0.31457327253359829 0.14480451223356691 0 0.29622008012258699 0.12991313160987961 0 0.31457327253359829 0.14480451223356691 0 0.29622008012258699 0.12991313160987961 0 0.32387679174541939 0.1297141718462434 0 0.31457327253359829 0.14480451223356691 0 0.27913813953766042 0.12972245958528131 0 0.29622008012258699 0.12991313160987961 0 0.28414721419066807 0.1482284927670183 0 0.29946190776947251 0.15165108642358641 0 0.29622008012258699 0.12991313160987961 0 0.28414721419066807 0.1482284927670183 0 0.28977860037431658 0.16805367250728201 0 0.29946190776947251 0.15165108642358641 0 0.28414721419066807 0.1482284927670183 0 0.27355486584907379 0.24364475180805101 0 0.25452501640087027 0.2374112721999547 0 0.26408278890255732 0.22479217687295791 0 0.25404003316197471 0.25208422786308371 0 0.27355486584907379 0.24364475180805101 0 0.25452501640087027 0.2374112721999547 0 0.24523436150048811 0.24199469982198529 0 0.25404003316197471 0.25208422786308371 0 0.25452501640087027 0.2374112721999547 0 0.24868260911088891 0.2303107595792985 0 0.2471090749199483 0.2357199094212839 0 0.25452501640087027 0.2374112721999547 0 0.24868260911088891 0.2303107595792985 0 0.25452501640087027 0.2374112721999547 0 0.26408278890255732 0.22479217687295791 0 0.24868260911088891 0.2303107595792985 0 0.26408278890255732 0.22479217687295791 0 0.25357276657721323 0.21641202867955539 0 0.27355486584907379 0.24364475180805101 0 0.26408278890255732 0.22479217687295791 0 0.28109637724199782 0.22150209212538899 0 0.26408278890255732 0.22479217687295791 0 0.28109637724199782 0.22150209212538899 0 0.27306509823529962 0.19947215684549871 0 0.26408278890255732 0.22479217687295791 0 0.25357276657721323 0.21641202867955539 0 0.27306509823529962 0.19947215684549871 0 0.25357276657721323 0.21641202867955539 0 0.25471258750952741 0.20148162901819469 0 0.27306509823529962 0.19947215684549871 0 0.25357276657721323 0.21641202867955539 0 0.27306509823529962 0.19947215684549871 0 0.2418323282778008 0.1922485172988235 0 0.26032431562704572 0.18342712708893841 0 0.25471258750952741 0.20148162901819469 0 0.26032431562704572 0.18342712708893841 0 0.25471258750952741 0.20148162901819469 0 0.27306509823529962 0.19947215684549871 0 0.26032431562704572 0.18342712708893841 0 0.27712404590978218 0.18082877805207789 0 0.27306509823529962 0.19947215684549871 0 0.29478084704188562 0.18627619782702401 0 0.27306509823529962 0.19947215684549871 0 0.29788838547339219 0.20777731020547871 0 0.27712404590978218 0.18082877805207789 0 0.29478084704188562 0.18627619782702401 0 0.27306509823529962 0.19947215684549871 0 0.29478084704188562 0.18627619782702401 0 0.29788838547339219 0.20777731020547871 0 0.31732062797233113 0.1926592597090995 0 0.29788838547339219 0.20777731020547871 0 0.31916040529159301 0.2166328624030785 0 0.31732062797233113 0.1926592597090995 0 0.28109637724199782 0.22150209212538899 0 0.27306509823529962 0.19947215684549871 0 0.29788838547339219 0.20777731020547871 0 0.28109637724199782 0.22150209212538899 0 0.29788838547339219 0.20777731020547871 0 0.29668368374297521 0.23238313674276659 0 0.27355486584907379 0.24364475180805101 0 0.28109637724199782 0.22150209212538899 0 0.29668368374297521 0.23238313674276659 0 0.29788838547339219 0.20777731020547871 0 0.29668368374297521 0.23238313674276659 0 0.31916040529159301 0.2166328624030785 0 0.29692855903906679 0.25537037528416417 0 0.29668368374297521 0.23238313674276659 0 0.32448256229391081 0.244023600812113 0 0.29692855903906679 0.25537037528416417 0 0.27355486584907379 0.24364475180805101 0 0.29668368374297521 0.23238313674276659 0 0.32448256229391081 0.244023600812113 0 0.33724611662768478 0.226971671205 0 0.35052125483258301 0.2434514759103418 0 0.32448256229391081 0.244023600812113 0 0.33724611662768478 0.226971671205 0 0.31916040529159301 0.2166328624030785 0 0.29668368374297521 0.23238313674276659 0 0.32448256229391081 0.244023600812113 0 0.31916040529159301 0.2166328624030785 0 0.33724611662768478 0.226971671205 0 0.31916040529159301 0.2166328624030785 0 0.34036716376080012 0.20191553243135291 0 0.31916040529159301 0.2166328624030785 0 0.31732062797233113 0.1926592597090995 0 0.34036716376080012 0.20191553243135291 0 0.31732062797233113 0.1926592597090995 0 0.34036716376080012 0.20191553243135291 0 0.33327910971122948 0.1769249887409369 0 0.34036716376080012 0.20191553243135291 0 0.33327910971122948 0.1769249887409369 0 0.35363051640006049 0.1838751638919715 0 0.34036716376080012 0.20191553243135291 0 0.36940151407566268 0.20038014978660379 0 0.35363051640006049 0.1838751638919715 0 0.36940151407566268 0.20038014978660379 0 0.35418005050780299 0.2186338278764331 0 0.36970064025412291 0.2313836502337521 0 0.34036716376080012 0.20191553243135291 0 0.36940151407566268 0.20038014978660379 0 0.35418005050780299 0.2186338278764331 0 0.33724611662768478 0.226971671205 0 0.34036716376080012 0.20191553243135291 0 0.35418005050780299 0.2186338278764331 0 0.33724611662768478 0.226971671205 0 0.35418005050780299 0.2186338278764331 0 0.35052125483258301 0.2434514759103418 0 0.35418005050780299 0.2186338278764331 0 0.36970064025412291 0.2313836502337521 0 0.35052125483258301 0.2434514759103418 0 0.37478492512234668 0.26235925763296819 0 0.36970064025412291 0.2313836502337521 0 0.35052125483258301 0.2434514759103418 0 0.33497932682518311 0.1519205034936916 0 0.32387679174541939 0.1297141718462434 0 0.35327239972246333 0.1300285668288671 0 0.33497932682518311 0.1519205034936916 0 0.31457327253359829 0.14480451223356691 0 0.31259037162619269 0.16725562300018509 0 0.33497932682518311 0.1519205034936916 0 0.32387679174541939 0.1297141718462434 0 0.31457327253359829 0.14480451223356691 0 0.33497932682518311 0.1519205034936916 0 0.31259037162619269 0.16725562300018509 0 0.33327910971122948 0.1769249887409369 0 0.31732062797233113 0.1926592597090995 0 0.31259037162619269 0.16725562300018509 0 0.33327910971122948 0.1769249887409369 0 0.33497932682518311 0.1519205034936916 0 0.33327910971122948 0.1769249887409369 0 0.34907151432127381 0.16521020144779211 0 0.34907151432127381 0.16521020144779211 0 0.35363051640006049 0.1838751638919715 0 0.37277469716236061 0.17385369407461371 0 0.33327910971122948 0.1769249887409369 0 0.34907151432127381 0.16521020144779211 0 0.35363051640006049 0.1838751638919715 0 0.36940151407566268 0.20038014978660379 0 0.35363051640006049 0.1838751638919715 0 0.37277469716236061 0.17385369407461371 0 0.37277469716236061 0.17385369407461371 0 0.36285879787080821 0.15032831482926681 0 0.3843829660287168 0.1587008111838667 0 0.34907151432127381 0.16521020144779211 0 0.37277469716236061 0.17385369407461371 0 0.36285879787080821 0.15032831482926681 0 0.36285879787080821 0.15032831482926681 0 0.36938385952287339 0.13266757129752671 0 0.38232915319187621 0.14145147187989651 0 0.33497932682518311 0.1519205034936916 0 0.36285879787080821 0.15032831482926681 0 0.35327239972246333 0.1300285668288671 0 0.33497932682518311 0.1519205034936916 0 0.34907151432127381 0.16521020144779211 0 0.36285879787080821 0.15032831482926681 0 0.36649271172908648 0.1176987398754743 0 0.35327239972246333 0.1300285668288671 0 0.36938385952287339 0.13266757129752671 0 0.36285879787080821 0.15032831482926681 0 0.35327239972246333 0.1300285668288671 0 0.36938385952287339 0.13266757129752671 0 0.39421974672685411 0.13240309148155921 0 0.38232915319187621 0.14145147187989651 0 0.38138511069115272 0.12353481432135879 0 0.36938385952287339 0.13266757129752671 0 0.38232915319187621 0.14145147187989651 0 0.38138511069115272 0.12353481432135879 0 0.39421974672685411 0.13240309148155921 0 0.41199731756477831 0.13352747615702071 0 0.3942733283070321 0.11371104406223111 0 0.39421974672685411 0.13240309148155921 0 0.40120830104283178 0.15077536395034899 0 0.41199731756477831 0.13352747615702071 0 0.39421974672685411 0.13240309148155921 0 0.40120830104283178 0.15077536395034899 0 0.38232915319187621 0.14145147187989651 0 0.36285879787080821 0.15032831482926681 0 0.38232915319187621 0.14145147187989651 0 0.3843829660287168 0.1587008111838667 0 0.40120830104283178 0.15077536395034899 0 0.38232915319187621 0.14145147187989651 0 0.3843829660287168 0.1587008111838667 0 0.37277469716236061 0.17385369407461371 0 0.3843829660287168 0.1587008111838667 0 0.39936082591505218 0.176604797209717 0 0.37277469716236061 0.17385369407461371 0 0.39936082591505218 0.176604797209717 0 0.38992891259608609 0.19548318162929729 0 0.40120830104283178 0.15077536395034899 0 0.39936082591505218 0.176604797209717 0 0.41410660213767347 0.1652382216241598 0 0.40120830104283178 0.15077536395034899 0 0.3843829660287168 0.1587008111838667 0 0.39936082591505218 0.176604797209717 0 0.40120830104283178 0.15077536395034899 0 0.41410660213767347 0.1652382216241598 0 0.42972130682252457 0.1533439082518103 0 0.39936082591505218 0.176604797209717 0 0.41410660213767347 0.1652382216241598 0 0.42626679864566441 0.18172907206941921 0 0.42626679864566441 0.18172907206941921 0 0.42972130682252457 0.1533439082518103 0 0.45055708181009879 0.1690731760043504 0 0.41410660213767347 0.1652382216241598 0 0.42626679864566441 0.18172907206941921 0 0.42972130682252457 0.1533439082518103 0 0.42972130682252457 0.1533439082518103 0 0.43054248402473921 0.1250848439374013 0 0.44904083753606949 0.1441389705362057 0 0.42972130682252457 0.1533439082518103 0 0.43054248402473921 0.1250848439374013 0 0.41199731756477831 0.13352747615702071 0 0.43054248402473921 0.1250848439374013 0 0.41199731756477831 0.13352747615702071 0 0.41135066019799099 0.1182158826350982 0 0.40120830104283178 0.15077536395034899 0 0.42972130682252457 0.1533439082518103 0 0.41199731756477831 0.13352747615702071 0 0.42972130682252457 0.1533439082518103 0 0.41199731756477831 0.13352747615702071 0 0.40097752291506289 0.25902709479471048 0 0.39333580902427501 0.24081282939082621 0 0.41286841049430861 0.24788583003777651 0 0.37478492512234668 0.26235925763296819 0 0.36970064025412291 0.2313836502337521 0 0.39333580902427501 0.24081282939082621 0 0.36970064025412291 0.2313836502337521 0 0.39333580902427501 0.24081282939082621 0 0.39338333076520482 0.2163019563834182 0 0.39338333076520482 0.2163019563834182 0 0.41736514745474701 0.23222376298023259 0 0.39333580902427501 0.24081282939082621 0 0.39338333076520482 0.2163019563834182 0 0.41736514745474701 0.23222376298023259 0 0.39338333076520482 0.2163019563834182 0 0.38992891259608609 0.19548318162929729 0 0.41508715600771068 0.20488700545500521 0 0.36940151407566268 0.20038014978660379 0 0.39338333076520482 0.2163019563834182 0 0.36940151407566268 0.20038014978660379 0 0.39338333076520482 0.2163019563834182 0 0.38992891259608609 0.19548318162929729 0 0.36940151407566268 0.20038014978660379 0 0.36970064025412291 0.2313836502337521 0 0.39338333076520482 0.2163019563834182 0 0.36940151407566268 0.20038014978660379 0 0.37277469716236061 0.17385369407461371 0 0.38992891259608609 0.19548318162929729 0 0.39936082591505218 0.176604797209717 0 0.38992891259608609 0.19548318162929729 0 0.41508715600771068 0.20488700545500521 0 0.39936082591505218 0.176604797209717 0 0.42626679864566441 0.18172907206941921 0 0.41508715600771068 0.20488700545500521 0 0.42626679864566441 0.18172907206941921 0 0.44140000057487638 0.20455834627575151 0 0.44473765559285833 0.18692520255949671 0 0.42626679864566441 0.18172907206941921 0 0.41508715600771068 0.20488700545500521 0 0.44140000057487638 0.20455834627575151 0 0.41508715600771068 0.20488700545500521 0 0.43790507610234408 0.2273079216372012 0 0.44140000057487638 0.20455834627575151 0 0.39338333076520482 0.2163019563834182 0 0.41508715600771068 0.20488700545500521 0 0.41736514745474701 0.23222376298023259 0 0.41508715600771068 0.20488700545500521 0 0.41736514745474701 0.23222376298023259 0 0.43790507610234408 0.2273079216372012 0 0.42717012070777932 0.25569493195645271 0 0.41736514745474701 0.23222376298023259 0 0.44134696414428898 0.24814556957704689 0 0.41736514745474701 0.23222376298023259 0 0.44134696414428898 0.24814556957704689 0 0.41736514745474701 0.23222376298023259 0 0.44134696414428898 0.24814556957704689 0 0.43790507610234408 0.2273079216372012 0 0.39333580902427501 0.24081282939082621 0 0.41736514745474701 0.23222376298023259 0 0.41286841049430861 0.24788583003777651 0 0.42717012070777932 0.25569493195645271 0 0.41736514745474701 0.23222376298023259 0 0.41286841049430861 0.24788583003777651 0 0.45336271850049548 0.25236276911819511 0 0.45602225988021539 0.23816249748875179 0 0.48180965237011408 0.2487438147612096 0 0.45336271850049548 0.25236276911819511 0 0.45602225988021539 0.23816249748875179 0 0.44134696414428898 0.24814556957704689 0 0.44600400848591359 0.23698591979390529 0 0.43790507610234408 0.2273079216372012 0 0.45336271850049548 0.25236276911819511 0 0.44134696414428898 0.24814556957704689 0 0.44600400848591359 0.23698591979390529 0 0.45336271850049548 0.25236276911819511 0 0.45602225988021539 0.23816249748875179 0 0.44600400848591359 0.23698591979390529 0 0.45602225988021539 0.23816249748875179 0 0.44600400848591359 0.23698591979390529 0 0.45492939023952461 0.2194397610932603 0 0.44600400848591359 0.23698591979390529 0 0.43790507610234408 0.2273079216372012 0 0.45492939023952461 0.2194397610932603 0 0.45602225988021539 0.23816249748875179 0 0.45492939023952461 0.2194397610932603 0 0.47419086539053962 0.2296972043723752 0 0.45492939023952461 0.2194397610932603 0 0.46072674134079361 0.19234021588846559 0 0.47847088324409548 0.2092058758105422 0 0.45492939023952461 0.2194397610932603 0 0.44140000057487638 0.20455834627575151 0 0.46072674134079361 0.19234021588846559 0 0.43790507610234408 0.2273079216372012 0 0.45492939023952461 0.2194397610932603 0 0.44140000057487638 0.20455834627575151 0 0.44140000057487638 0.20455834627575151 0 0.46072674134079361 0.19234021588846559 0 0.44473765559285833 0.18692520255949671 0 0.46072674134079361 0.19234021588846559 0 0.4812983336831132 0.1885899983914231 0 0.47847088324409548 0.2092058758105422 0 0.4812983336831132 0.1885899983914231 0 0.5 0.19797878532577309 0 0.47847088324409548 0.2092058758105422 0 0.5 0.19797878532577309 0 0.47847088324409548 0.2092058758105422 0 0.5 0.22793385045351919 0 0.47847088324409548 0.2092058758105422 0 0.47419086539053962 0.2296972043723752 0 0.5 0.22793385045351919 0 0.45492939023952461 0.2194397610932603 0 0.47847088324409548 0.2092058758105422 0 0.47419086539053962 0.2296972043723752 0 0.5 0.25788891558126559 0 0.5 0.22793385045351919 0 0.48180965237011408 0.2487438147612096 0 0.47419086539053962 0.2296972043723752 0 0.5 0.22793385045351919 0 0.48180965237011408 0.2487438147612096 0 0.45602225988021539 0.23816249748875179 0 0.47419086539053962 0.2296972043723752 0 0.48180965237011408 0.2487438147612096 0 0.46287167922105149 0.15545842773829099 0 0.44904083753606949 0.1441389705362057 0 0.45055708181009879 0.1690731760043504 0 0.46287167922105149 0.15545842773829099 0 0.46355845200513762 0.13850516077978961 0 0.47909635670674228 0.14767892477560191 0 0.46287167922105149 0.15545842773829099 0 0.46355845200513762 0.13850516077978961 0 0.44904083753606949 0.1441389705362057 0 0.46355845200513762 0.13850516077978961 0 0.47795750643906171 0.12649365297180731 0 0.4559740449914913 0.1245921335342187 0 0.46355845200513762 0.13850516077978961 0 0.44904083753606949 0.1441389705362057 0 0.4559740449914913 0.1245921335342187 0 0.43054248402473921 0.1250848439374013 0 0.44904083753606949 0.1441389705362057 0 0.4559740449914913 0.1245921335342187 0 0.42972130682252457 0.1533439082518103 0 0.44904083753606949 0.1441389705362057 0 0.45055708181009879 0.1690731760043504 0 0.42626679864566441 0.18172907206941921 0 0.45055708181009879 0.1690731760043504 0 0.44473765559285833 0.18692520255949671 0 0.46072674134079361 0.19234021588846559 0 0.45055708181009879 0.1690731760043504 0 0.44473765559285833 0.18692520255949671 0 0.46072674134079361 0.19234021588846559 0 0.45055708181009879 0.1690731760043504 0 0.4752785409050499 0.1685484481011886 0 0.46287167922105149 0.15545842773829099 0 0.45055708181009879 0.1690731760043504 0 0.4752785409050499 0.1685484481011886 0 0.45055708181009879 0.1690731760043504 0 0.4752785409050499 0.1685484481011886 0 0.46287167922105149 0.15545842773829099 0 0.4752785409050499 0.1685484481011886 0 0.47909635670674228 0.14767892477560191 0 0.46072674134079361 0.19234021588846559 0 0.4812983336831132 0.1885899983914231 0 0.4752785409050499 0.1685484481011886 0 0.4812983336831132 0.1885899983914231 0 0.4752785409050499 0.1685484481011886 0 0.50000000000000111 0.1680237201980268 0 0.4812983336831132 0.1885899983914231 0 0.5 0.19797878532577309 0 0.50000000000000111 0.1680237201980268 0 0.4752785409050499 0.1685484481011886 0 0.50000000000000111 0.1680237201980268 0 0.4752785409050499 0.1685484481011886 0 0.50000000000000111 0.1680237201980268 0 0.47909635670674228 0.14767892477560191 0 0.50000000000000111 0.1680237201980268 0 0.5 0.14405257421324749 0 0.47909635670674228 0.14767892477560191 0 0.46355845200513762 0.13850516077978961 0 0.47909635670674228 0.14767892477560191 0 0.47795750643906171 0.12649365297180731 0 0.5 0.14405257421324749 0 0.47795750643906171 0.12649365297180731 0 0.5 0.12008142822846821 0 0.5 0.14405257421324749 0 0.47909635670674228 0.14767892477560191 0 0.47795750643906171 0.12649365297180731 0 0.47795750643906171 0.12649365297180731 0 0.5 0.12008142822846821 0 0.48437617198066579 0.1083096126220475 0 0.48437617198066579 0.1083096126220475 0 0.5 0.096110282243688894 0 0.4787628640296252 0.09057766153942011 0 0.5 0.12008142822846821 0 0.48437617198066579 0.1083096126220475 0 0.5 0.096110282243688894 0 0.48437617198066579 0.1083096126220475 0 0.4787628640296252 0.09057766153942011 0 0.46516048943464161 0.10828503812685281 0 0.47795750643906171 0.12649365297180731 0 0.48437617198066579 0.1083096126220475 0 0.46516048943464161 0.10828503812685281 0 0.49999999999999389 0.072139136258909636 0 0.47264706529987838 0.068582714068275596 0 0.5 0.096110282243688894 0 0.49999999999999389 0.072139136258909636 0 0.4787628640296252 0.09057766153942011 0 0.49999999999999389 0.072139136258909636 0 0.4787628640296252 0.09057766153942011 0 0.47264706529987838 0.068582714068275596 0 0.47264706529987838 0.068582714068275596 0 0.44529413059976319 0.065026291877640793 0 0.47264706529987838 0.068582714068275596 0 0.45009241250792742 0.089848104882156193 0 0.44529413059976319 0.065026291877640793 0 0.4787628640296252 0.09057766153942011 0 0.47264706529987838 0.068582714068275596 0 0.45009241250792742 0.089848104882156193 0 0.45009241250792742 0.089848104882156193 0 0.44529413059976319 0.065026291877640793 0 0.42710943965072512 0.080764761008918995 0 0.4559740449914913 0.1245921335342187 0 0.46516048943464161 0.10828503812685281 0 0.44660059903698529 0.1095612823054605 0 0.47795750643906171 0.12649365297180731 0 0.4559740449914913 0.1245921335342187 0 0.46516048943464161 0.10828503812685281 0 0.45009241250792742 0.089848104882156193 0 0.46516048943464161 0.10828503812685281 0 0.44660059903698529 0.1095612823054605 0 0.4787628640296252 0.09057766153942011 0 0.45009241250792742 0.089848104882156193 0 0.46516048943464161 0.10828503812685281 0 0.45009241250792742 0.089848104882156193 0 0.44660059903698529 0.1095612823054605 0 0.42999027194599682 0.1018780191517587 0 0.43054248402473921 0.1250848439374013 0 0.4559740449914913 0.1245921335342187 0 0.44660059903698529 0.1095612823054605 0 0.43054248402473921 0.1250848439374013 0 0.44660059903698529 0.1095612823054605 0 0.42999027194599682 0.1018780191517587 0 0.43054248402473921 0.1250848439374013 0 0.41661501870526302 0.10782610780512 0 0.42999027194599682 0.1018780191517587 0 0.43054248402473921 0.1250848439374013 0 0.41135066019799099 0.1182158826350982 0 0.41661501870526302 0.10782610780512 0 0.43054248402473921 0.1250848439374013 0 0.41135066019799099 0.1182158826350982 0 0.41135066019799099 0.1182158826350982 0 0.41661501870526302 0.10782610780512 0 0.40605193543095291 0.1101899923625959 0 0.41199731756477831 0.13352747615702071 0 0.40856435551682457 0.1195913393650266 0 0.41135066019799099 0.1182158826350982 0 0.41661501870526302 0.10782610780512 0 0.42999027194599682 0.1018780191517587 0 0.41050144950628809 0.092342992232264526 0 0.41661501870526302 0.10782610780512 0 0.41050144950628809 0.092342992232264526 0 0.40408322644931421 0.10337105767737099 0 0.41661501870526302 0.10782610780512 0 0.40605193543095291 0.1101899923625959 0 0.40408322644931421 0.10337105767737099 0 0.45009241250792742 0.089848104882156193 0 0.42999027194599682 0.1018780191517587 0 0.42710943965072512 0.080764761008918995 0 0.42999027194599682 0.1018780191517587 0 0.42710943965072512 0.080764761008918995 0 0.41050144950628809 0.092342992232264526 0 0.44529413059976319 0.065026291877640793 0 0.42710943965072512 0.080764761008918995 0 0.41794119589964812 0.061469869687005997 0 0.44529413059976319 0.065026291877640793 0 0.41794119589964812 0.061469869687005997 0 0.42710943965072512 0.080764761008918995 0 0.40780427562880051 0.074340584248736047 0 0.41794119589964812 0.061469869687005997 0 0.42710943965072512 0.080764761008918995 0 0.40780427562880051 0.074340584248736047 0 0.41050144950628809 0.092342992232264526 0 0.41050144950628809 0.092342992232264526 0 0.39288103188780799 0.079211850819119467 0 0.39173805803946632 0.094638931286680023 0 0.40780427562880051 0.074340584248736047 0 0.41050144950628809 0.092342992232264526 0 0.39288103188780799 0.079211850819119467 0 0.40780427562880051 0.074340584248736047 0 0.39058826119953283 0.057913447496371839 0 0.41794119589964812 0.061469869687005997 0 0.40780427562880051 0.074340584248736047 0 0.39288103188780799 0.079211850819119467 0 0.39058826119953283 0.057913447496371839 0 0.39288103188780799 0.079211850819119467 0 0.37575225644292037 0.071709270247263784 0 0.39058826119953283 0.057913447496371839 0 0.3742009225581896 0.091268948227223284 0 0.39288103188780799 0.079211850819119467 0 0.39173805803946632 0.094638931286680023 0 0.3742009225581896 0.091268948227223284 0 0.39288103188780799 0.079211850819119467 0 0.37575225644292037 0.071709270247263784 0 0.3742009225581896 0.091268948227223284 0 0.39215883637124299 0.11134692133279479 0 0.39173805803946632 0.094638931286680023 0 0.3742009225581896 0.091268948227223284 0 0.39215883637124299 0.11134692133279479 0 0.3742009225581896 0.091268948227223284 0 0.3795225325030368 0.1068242515199407 0 0.39215883637124299 0.11134692133279479 0 0.3795225325030368 0.1068242515199407 0 0.39215883637124299 0.11134692133279479 0 0.3795225325030368 0.1068242515199407 0 0.38138511069115272 0.12353481432135879 0 0.3942733283070321 0.11371104406223111 0 0.36649271172908648 0.1176987398754743 0 0.3795225325030368 0.1068242515199407 0 0.38138511069115272 0.12353481432135879 0 0.39421974672685411 0.13240309148155921 0 0.38138511069115272 0.12353481432135879 0 0.3942733283070321 0.11371104406223111 0 0.3795225325030368 0.1068242515199407 0 0.3942733283070321 0.11371104406223111 0 0.3795225325030368 0.1068242515199407 0 0.39215883637124299 0.11134692133279479 0 0.3942733283070321 0.11371104406223111 0 0.41135066019799099 0.1182158826350982 0 0.39215883637124299 0.11134692133279479 0 0.40605193543095291 0.1101899923625959 0 0.41135066019799099 0.1182158826350982 0 0.39215883637124299 0.11134692133279479 0 0.3942733283070321 0.11371104406223111 0 0.41135066019799099 0.1182158826350982 0 0.39215883637124299 0.11134692133279479 0 0.41199731756477831 0.13352747615702071 0 0.40856435551682457 0.1195913393650266 0 0.3942733283070321 0.11371104406223111 0 0.41199731756477831 0.13352747615702071 0 0.3942733283070321 0.11371104406223111 0 0.40856435551682457 0.1195913393650266 0 0.41135066019799099 0.1182158826350982 0 0.3942733283070321 0.11371104406223111 0 0.39215883637124299 0.11134692133279479 0 0.3942733283070321 0.11371104406223111 0 0.40856435551682457 0.1195913393650266 0 0.3942733283070321 0.11371104406223111 0 0.39215883637124299 0.11134692133279479 0 0.40408322644931421 0.10337105767737099 0 0.39173805803946632 0.094638931286680023 0 0.39215883637124299 0.11134692133279479 0 0.40605193543095291 0.1101899923625959 0 0.40408322644931421 0.10337105767737099 0 0.41050144950628809 0.092342992232264526 0 0.40408322644931421 0.10337105767737099 0 0.39173805803946632 0.094638931286680023 0 0.4038432128890253 0.016274120358417851 0 0.39452024459155199 0.029629145094844 0 0.3798040161112804 0.028996110171619349 0 0.4038432128890253 0.016274120358417851 0 0.39452024459155199 0.029629145094844 0 0.40714332068978548 0.032011032787191827 0 0.4038432128890253 0.016274120358417851 0 0.3798040161112804 0.028996110171619349 0 0.4038432128890253 0.016274120358417851 0 0.39390920682105918 0.0040204267233196643 0 0.38813729234829519 0.016219836643301819 0 0.4038432128890253 0.016274120358417851 0 0.39390920682105918 0.0040204267233196643 0 0.40369857438468087 -0.0060371637805465179 0 0.39390920682105918 0.0040204267233196643 0 0.38212023564171321 0.001094655884648786 0 0.38813729234829519 0.016219836643301819 0 0.38212023564171321 0.001094655884648786 0 0.37537418671591988 0.012891754799621079 0 0.3700201466167648 -0.002195575246397889 0 0.38212023564171321 0.001094655884648786 0 0.37537418671591988 0.012891754799621079 0 0.38813729234829519 0.016219836643301819 0 0.38029426512156322 0.021339738828328979 0 0.38813729234829519 0.016219836643301819 0 0.3798040161112804 0.028996110171619349 0 0.4038432128890253 0.016274120358417851 0 0.38813729234829519 0.016219836643301819 0 0.3798040161112804 0.028996110171619349 0 0.37537418671591988 0.012891754799621079 0 0.38029426512156322 0.021339738828328979 0 0.37786156531075732 0.02725125369877367 0 0.37537418671591988 0.012891754799621079 0 0.38029426512156322 0.021339738828328979 0 0.38813729234829519 0.016219836643301819 0 0.39452024459155199 0.029629145094844 0 0.3798040161112804 0.028996110171619349 0 0.384792923869274 0.033192425096464057 0 0.38029426512156322 0.021339738828328979 0 0.3798040161112804 0.028996110171619349 0 0.37786156531075732 0.02725125369877367 0 0.36984281421283938 0.03924660656396721 0 0.3798040161112804 0.028996110171619349 0 0.37675727284589372 0.036323400775862158 0 0.3798040161112804 0.028996110171619349 0 0.38012370578730592 0.033949837724153123 0 0.37675727284589372 0.036323400775862158 0 0.3798040161112804 0.028996110171619349 0 0.38012370578730592 0.033949837724153123 0 0.384792923869274 0.033192425096464057 0 0.38012370578730592 0.033949837724153123 0 0.38115894465086869 0.037510150111343843 0 0.384792923869274 0.033192425096464057 0 0.38012370578730592 0.033949837724153123 0 0.38115894465086869 0.037510150111343843 0 0.37675727284589372 0.036323400775862158 0 0.38115894465086869 0.037510150111343843 0 0.37675727284589372 0.036323400775862158 0 0.37726993283737248 0.041439113600633092 0 0.37726993283737248 0.041439113600633092 0 0.38325871491723518 0.0441773091346798 0 0.37608467898805159 0.048096788967416412 0 0.38115894465086869 0.037510150111343843 0 0.37726993283737248 0.041439113600633092 0 0.38325871491723518 0.0441773091346798 0 0.38115894465086869 0.037510150111343843 0 0.38325871491723518 0.0441773091346798 0 0.38884635116990662 0.036871995634108659 0 0.38325871491723518 0.0441773091346798 0 0.38884635116990662 0.036871995634108659 0 0.39118926401298038 0.043344116461786472 0 0.39452024459155199 0.029629145094844 0 0.38884635116990662 0.036871995634108659 0 0.384792923869274 0.033192425096464057 0 0.38115894465086869 0.037510150111343843 0 0.38884635116990662 0.036871995634108659 0 0.384792923869274 0.033192425096464057 0 0.36737709041569239 0.056764699852256018 0 0.39058826119953283 0.057913447496371839 0 0.36443667806580698 0.054513224756226962 0 0.37608467898805159 0.048096788967416412 0 0.39058826119953283 0.057913447496371839 0 0.36737709041569239 0.056764699852256018 0 0.37575225644292037 0.071709270247263784 0 0.39058826119953283 0.057913447496371839 0 0.36443667806580698 0.054513224756226962 0 0.39058826119953283 0.057913447496371839 0 0.38325871491723518 0.0441773091346798 0 0.37608467898805159 0.048096788967416412 0 0.39058826119953283 0.057913447496371839 0 0.38325871491723518 0.0441773091346798 0 0.39058826119953283 0.057913447496371839 0 0.39118926401298038 0.043344116461786472 0 0.39058826119953283 0.057913447496371839 0 0.39917917489280202 0.048669550515315511 0 0.40824027372044169 0.058787065978875973 0 0.39058826119953283 0.057913447496371839 0 0.40824027372044169 0.058787065978875973 0 0.39058826119953283 0.057913447496371839 0 0.41794119589964812 0.061469869687005997 0 0.40824027372044169 0.058787065978875973 0 0.39058826119953283 0.057913447496371839 0 0.41794119589964812 0.061469869687005997 0 0.39058826119953283 0.057913447496371839 0 0.39917917489280202 0.048669550515315511 0 0.39118926401298038 0.043344116461786472 0 0.39917917489280202 0.048669550515315511 0 0.40803146459590139 0.044566129264659721 0 0.40824027372044169 0.058787065978875973 0 0.39452024459155199 0.029629145094844 0 0.38884635116990662 0.036871995634108659 0 0.39784661093515339 0.038736993374884177 0 0.39917917489280202 0.048669550515315511 0 0.39784661093515339 0.038736993374884177 0 0.39118926401298038 0.043344116461786472 0 0.38884635116990662 0.036871995634108659 0 0.39784661093515339 0.038736993374884177 0 0.39118926401298038 0.043344116461786472 0 0.39917917489280202 0.048669550515315511 0 0.39784661093515339 0.038736993374884177 0 0.40803146459590139 0.044566129264659721 0 0.39452024459155199 0.029629145094844 0 0.39784661093515339 0.038736993374884177 0 0.40714332068978548 0.032011032787191827 0 0.39784661093515339 0.038736993374884177 0 0.40714332068978548 0.032011032787191827 0 0.40803146459590139 0.044566129264659721 0 0.40714332068978548 0.032011032787191827 0 0.40803146459590139 0.044566129264659721 0 0.41964440497126981 0.040250358009145122 0 0.40803146459590139 0.044566129264659721 0 0.41964440497126981 0.040250358009145122 0 0.41733432138732551 0.050785193364838402 0 0.40714332068978548 0.032011032787191827 0 0.41964440497126981 0.040250358009145122 0 0.41891932927970088 0.026081136014491389 0 0.40824027372044169 0.058787065978875973 0 0.41733432138732551 0.050785193364838402 0 0.42589228624135061 0.059660684461379461 0 0.40824027372044169 0.058787065978875973 0 0.42589228624135061 0.059660684461379461 0 0.41794119589964812 0.061469869687005997 0 0.40824027372044169 0.058787065978875973 0 0.42589228624135061 0.059660684461379461 0 0.40803146459590139 0.044566129264659721 0 0.40824027372044169 0.058787065978875973 0 0.41733432138732551 0.050785193364838402 0 0.41964440497126981 0.040250358009145122 0 0.41733432138732551 0.050785193364838402 0 0.42647272639553008 0.050672874727357403 0 0.44529413059976319 0.065026291877640793 0 0.42589228624135061 0.059660684461379461 0 0.43583307009461808 0.053135938561971199 0 0.44529413059976319 0.065026291877640793 0 0.41794119589964812 0.061469869687005997 0 0.42589228624135061 0.059660684461379461 0 0.42589228624135061 0.059660684461379461 0 0.42647272639553008 0.050672874727357403 0 0.43583307009461808 0.053135938561971199 0 0.41733432138732551 0.050785193364838402 0 0.42589228624135061 0.059660684461379461 0 0.42647272639553008 0.050672874727357403 0 0.42647272639553008 0.050672874727357403 0 0.43583307009461808 0.053135938561971199 0 0.4340740022190257 0.043822740937536728 0 0.41964440497126981 0.040250358009145122 0 0.42987588244635011 0.033334548906864728 0 0.41891932927970088 0.026081136014491389 0 0.41964440497126981 0.040250358009145122 0 0.4340740022190257 0.043822740937536728 0 0.42987588244635011 0.033334548906864728 0 0.41964440497126981 0.040250358009145122 0 0.42647272639553008 0.050672874727357403 0 0.4340740022190257 0.043822740937536728 0 0.4340740022190257 0.043822740937536728 0 0.42987588244635011 0.033334548906864728 0 0.44528176508543132 0.032905620831071007 0 0.42987588244635011 0.033334548906864728 0 0.43184963590009789 0.021236349906575389 0 0.44528176508543132 0.032905620831071007 0 0.43184963590009789 0.021236349906575389 0 0.42259879527057942 0.015927249454054739 0 0.43188165484739188 0.01287087804949661 0 0.43184963590009789 0.021236349906575389 0 0.42259879527057942 0.015927249454054739 0 0.41891932927970088 0.026081136014491389 0 0.42987588244635011 0.033334548906864728 0 0.43184963590009789 0.021236349906575389 0 0.41891932927970088 0.026081136014491389 0 0.4038432128890253 0.016274120358417851 0 0.42259879527057942 0.015927249454054739 0 0.41891932927970088 0.026081136014491389 0 0.4038432128890253 0.016274120358417851 0 0.40714332068978548 0.032011032787191827 0 0.41891932927970088 0.026081136014491389 0 0.4038432128890253 0.016274120358417851 0 0.41402040698134779 -0.0025911497673051101 0 0.40369857438468087 -0.0060371637805465179 0 0.4038432128890253 0.016274120358417851 0 0.42788240966677021 0.003552130545216341 0 0.4038432128890253 0.016274120358417851 0 0.42101935538117791 0.0050386314779034547 0 0.41402040698134779 -0.0025911497673051101 0 0.4038432128890253 0.016274120358417851 0 0.42259879527057942 0.015927249454054739 0 0.42788240966677021 0.003552130545216341 0 0.4038432128890253 0.016274120358417851 0 0.42101935538117791 0.0050386314779034547 0 0.42788240966677021 0.003552130545216341 0 0.42788240966677021 0.003552130545216341 0 0.43188165484739188 0.01287087804949661 0 0.44740740452026229 0.01137317045841814 0 0.42259879527057942 0.015927249454054739 0 0.42788240966677021 0.003552130545216341 0 0.43188165484739188 0.01287087804949661 0 0.43184963590009789 0.021236349906575389 0 0.43188165484739188 0.01287087804949661 0 0.44740740452026229 0.01137317045841814 0 0.42788240966677021 0.003552130545216341 0 0.44740740452026229 0.01137317045841814 0 0.45192160644451512 -0.0091698592679851504 0 0.43184963590009789 0.021236349906575389 0 0.44740740452026229 0.01137317045841814 0 0.44528176508543132 0.032905620831071007 0 0.44740740452026229 0.01137317045841814 0 0.44528176508543132 0.032905620831071007 0 0.46875558315454652 0.02621282055229885 0 0.44740740452026229 0.01137317045841814 0 0.4740075662235973 0.0028935560396234419 0 0.46875558315454652 0.02621282055229885 0 0.44740740452026229 0.01137317045841814 0 0.4740075662235973 0.0028935560396234419 0 0.45192160644451512 -0.0091698592679851504 0 0.44529413059976319 0.065026291877640793 0 0.44587589901867808 0.047550444472131762 0 0.4614262583005877 0.04791767975015173 0 0.44529413059976319 0.065026291877640793 0 0.43583307009461808 0.053135938561971199 0 0.44587589901867808 0.047550444472131762 0 0.43583307009461808 0.053135938561971199 0 0.4340740022190257 0.043822740937536728 0 0.44587589901867808 0.047550444472131762 0 0.44587589901867808 0.047550444472131762 0 0.44528176508543132 0.032905620831071007 0 0.4614262583005877 0.04791767975015173 0 0.4340740022190257 0.043822740937536728 0 0.44587589901867808 0.047550444472131762 0 0.44528176508543132 0.032905620831071007 0 0.44528176508543132 0.032905620831071007 0 0.4614262583005877 0.04791767975015173 0 0.46875558315454652 0.02621282055229885 0 0.47264706529987838 0.068582714068275596 0 0.44529413059976319 0.065026291877640793 0 0.4614262583005877 0.04791767975015173 0 0.47264706529987838 0.068582714068275596 0 0.4614262583005877 0.04791767975015173 0 0.48053199367993171 0.043851827509569327 0 0.4614262583005877 0.04791767975015173 0 0.48053199367993171 0.043851827509569327 0 0.46875558315454652 0.02621282055229885 0 0.48053199367993171 0.043851827509569327 0 0.5 0.04545089247058498 0 0.5 0.018762648682260189 0 0.49999999999999389 0.072139136258909636 0 0.47264706529987838 0.068582714068275596 0 0.48053199367993171 0.043851827509569327 0 0.49999999999999389 0.072139136258909636 0 0.48053199367993171 0.043851827509569327 0 0.5 0.04545089247058498 0 0.48053199367993171 0.043851827509569327 0 0.46875558315454652 0.02621282055229885 0 0.5 0.018762648682260189 0 0.4740075662235973 0.0028935560396234419 0 0.46875558315454652 0.02621282055229885 0 0.5 0.018762648682260189 0 0.4740075662235973 0.0028935560396234419 0 0.5 0.018762648682260189 0 0.5 -0.0079255951060647756 0 0.4740075662235973 0.0028935560396234419 0 0.5 -0.0079255951060647756 0 0.47596080322225992 -0.02189184908118659 0 0.47596080322225992 -0.02189184908118659 0 0.50000000000000377 -0.034613838894389633 0 0.5 -0.0079255951060647756 0 0.47596080322225992 -0.02189184908118659 0 0.50000000000000377 -0.034613838894389633 0 0.47596080322225992 -0.02189184908118659 0 0.50000000000000377 -0.034613838894389633 0 0.48339532061042467 -0.042675677639817791 0 0.50000000000000377 -0.034613838894389633 0 0.5 -0.052291970509826757 0 0.48339532061042467 -0.042675677639817791 0 0.5 -0.052291970509826757 0 0.48378938215607542 -0.060491629721736481 0 0.49999999999999678 -0.069970102125263903 0 0.5 -0.052291970509826757 0 0.48378938215607542 -0.060491629721736481 0 0.48339532061042467 -0.042675677639817791 0 0.48378938215607542 -0.060491629721736481 0 0.47035919737641452 -0.05083356829212015 0 0.48339532061042467 -0.042675677639817791 0 0.48378938215607542 -0.060491629721736481 0 0.47035919737641452 -0.05083356829212015 0 0.46263532094350251 -0.0655193079319734 0 0.47596080322225992 -0.02189184908118659 0 0.48339532061042467 -0.042675677639817791 0 0.46122373864745198 -0.034064038759572521 0 0.47035919737641452 -0.05083356829212015 0 0.48339532061042467 -0.042675677639817791 0 0.46122373864745198 -0.034064038759572521 0 0.46122373864745198 -0.034064038759572521 0 0.45641225836005789 -0.05051217933658872 0 0.44483042593949818 -0.041063070916932051 0 0.47035919737641452 -0.05083356829212015 0 0.46122373864745198 -0.034064038759572521 0 0.45641225836005789 -0.05051217933658872 0 0.45641225836005789 -0.05051217933658872 0 0.44526353314296241 -0.062107813217869068 0 0.46263532094350251 -0.0655193079319734 0 0.47035919737641452 -0.05083356829212015 0 0.45641225836005789 -0.05051217933658872 0 0.46263532094350251 -0.0655193079319734 0 0.45641225836005789 -0.05051217933658872 0 0.44526353314296241 -0.062107813217869068 0 0.44483042593949818 -0.041063070916932051 0 0.44526353314296241 -0.062107813217869068 0 0.44483042593949818 -0.041063070916932051 0 0.42768193525564641 -0.052738548234870043 0 0.46122373864745198 -0.034064038759572521 0 0.44483042593949818 -0.041063070916932051 0 0.44260817666721519 -0.025216613737701819 0 0.44483042593949818 -0.041063070916932051 0 0.44260817666721519 -0.025216613737701819 0 0.43454865465473302 -0.032105158367880783 0 0.46122373864745198 -0.034064038759572521 0 0.44260817666721519 -0.025216613737701819 0 0.45192160644451512 -0.0091698592679851504 0 0.42788240966677021 0.003552130545216341 0 0.45192160644451512 -0.0091698592679851504 0 0.44260817666721519 -0.025216613737701819 0 0.45192160644451512 -0.0091698592679851504 0 0.43543049063324413 -0.012350052332502739 0 0.42788240966677021 0.003552130545216341 0 0.45192160644451512 -0.0091698592679851504 0 0.43543049063324413 -0.012350052332502739 0 0.4740075662235973 0.0028935560396234419 0 0.47596080322225992 -0.02189184908118659 0 0.45192160644451512 -0.0091698592679851504 0 0.47596080322225992 -0.02189184908118659 0 0.45192160644451512 -0.0091698592679851504 0 0.47596080322225992 -0.02189184908118659 0 0.46122373864745198 -0.034064038759572521 0 0.45192160644451512 -0.0091698592679851504 0 0.47621403880257929 -0.099362679963144546 0 0.45825176112352212 -0.1171944005084963 0 0.47461064769812122 -0.12772964805397971 0 0.50000000000000433 -0.1143432737178363 0 0.47621403880257929 -0.099362679963144546 0 0.47461064769812122 -0.12772964805397971 0 0.50000000000000433 -0.1143432737178363 0 0.47461064769812122 -0.12772964805397971 0 0.49999999999998102 -0.1000967699598443 0 0.47621403880257929 -0.099362679963144546 0 0.49999999999998102 -0.1000967699598443 0 0.47621403880257929 -0.099362679963144546 0 0.48785951469139027 -0.086657123706384981 0 0.50000000000000433 -0.1143432737178363 0 0.49999999999998102 -0.1000967699598443 0 0.47621403880257929 -0.099362679963144546 0 0.47621403880257929 -0.099362679963144546 0 0.48785951469139027 -0.086657123706384981 0 0.47522401996300467 -0.077198942777287505 0 0.47621403880257929 -0.099362679963144546 0 0.47522401996300467 -0.077198942777287505 0 0.46460819440086443 -0.0896918568577834 0 0.49999999999998102 -0.1000967699598443 0 0.48785951469139027 -0.086657123706384981 0 0.49999999999999678 -0.069970102125263903 0 0.49999999999999678 -0.069970102125263903 0 0.47522401996300467 -0.077198942777287505 0 0.48785951469139027 -0.086657123706384981 0 0.49999999999999678 -0.069970102125263903 0 0.47522401996300467 -0.077198942777287505 0 0.48378938215607542 -0.060491629721736481 0 0.49999999999999678 -0.069970102125263903 0 0.47522401996300467 -0.077198942777287505 0 0.48378938215607542 -0.060491629721736481 0 0.47522401996300467 -0.077198942777287505 0 0.46263532094350251 -0.0655193079319734 0 0.47522401996300467 -0.077198942777287505 0 0.46263532094350251 -0.0655193079319734 0 0.4504480399260129 -0.084427783429311939 0 0.44526353314296241 -0.062107813217869068 0 0.46263532094350251 -0.0655193079319734 0 0.4504480399260129 -0.084427783429311939 0 0.44526353314296241 -0.062107813217869068 0 0.4504480399260129 -0.084427783429311939 0 0.43069868055782679 -0.078899440675300136 0 0.4504480399260129 -0.084427783429311939 0 0.45242807760517778 -0.098628589966444233 0 0.42864211640777627 -0.097894499969741214 0 0.4504480399260129 -0.084427783429311939 0 0.42567205988902129 -0.091656624081337568 0 0.47522401996300467 -0.077198942777287505 0 0.4504480399260129 -0.084427783429311939 0 0.47522401996300467 -0.077198942777287505 0 0.4504480399260129 -0.084427783429311939 0 0.46460819440086443 -0.0896918568577834 0 0.4504480399260129 -0.084427783429311939 0 0.46460819440086443 -0.0896918568577834 0 0.45242807760517778 -0.098628589966444233 0 0.47621403880257929 -0.099362679963144546 0 0.45242807760517778 -0.098628589966444233 0 0.45825176112352212 -0.1171944005084963 0 0.47621403880257929 -0.099362679963144546 0 0.45242807760517778 -0.098628589966444233 0 0.47621403880257929 -0.099362679963144546 0 0.46460819440086443 -0.0896918568577834 0 0.45242807760517778 -0.098628589966444233 0 0.45242807760517778 -0.098628589966444233 0 0.42864211640777627 -0.097894499969741214 0 0.45242807760517778 -0.098628589966444233 0 0.43893170590200609 -0.1195052611799315 0 0.42864211640777627 -0.097894499969741214 0 0.45242807760517778 -0.098628589966444233 0 0.43893170590200609 -0.1195052611799315 0 0.45825176112352212 -0.1171944005084963 0 0.42080162445294911 -0.1170697999396166 0 0.40604313277712428 -0.1171380761358455 0 0.41368108829086198 -0.13554811058748131 0 0.42080162445294911 -0.1170697999396166 0 0.40662173914453831 -0.097214899993173481 0 0.40604313277712428 -0.1171380761358455 0 0.43893170590200609 -0.1195052611799315 0 0.42080162445294911 -0.1170697999396166 0 0.430889964195386 -0.135117951771525 0 0.43893170590200609 -0.1195052611799315 0 0.42080162445294911 -0.1170697999396166 0 0.42864211640777627 -0.097894499969741214 0 0.43893170590200609 -0.1195052611799315 0 0.42864211640777627 -0.097894499969741214 0 0.42864211640777627 -0.097894499969741214 0 0.42567205988902129 -0.091656624081337568 0 0.42864211640777627 -0.097894499969741214 0 0.40662173914453831 -0.097214899993173481 0 0.42567205988902129 -0.091656624081337568 0 0.42080162445294911 -0.1170697999396166 0 0.42864211640777627 -0.097894499969741214 0 0.40662173914453831 -0.097214899993173481 0 0.42864211640777627 -0.097894499969741214 0 0.40662173914453831 -0.097214899993173481 0 0.40662173914453831 -0.097214899993173481 0 0.42567205988902129 -0.091656624081337568 0 0.40662173914453831 -0.097214899993173481 0 0.41829766411352998 -0.087706900461061957 0 0.42567205988902129 -0.091656624081337568 0 0.40662173914453831 -0.097214899993173481 0 0.41020628866808312 -0.08357079425946129 0 0.41829766411352998 -0.087706900461061957 0 0.41020628866808312 -0.08357079425946129 0 0.42012861486432151 -0.07981881462850364 0 0.41094109939792961 -0.074512111623280808 0 0.41020628866808312 -0.08357079425946129 0 0.41094109939792961 -0.074512111623280808 0 0.40556094342569721 -0.078918860306745137 0 0.41020628866808312 -0.08357079425946129 0 0.42012861486432151 -0.07981881462850364 0 0.41829766411352998 -0.087706900461061957 0 0.42012861486432151 -0.07981881462850364 0 0.41829766411352998 -0.087706900461061957 0 0.42254342745458301 -0.084546146485576762 0 0.41829766411352998 -0.087706900461061957 0 0.42461385466063262 -0.08943412331831832 0 0.42254342745458301 -0.084546146485576762 0 0.42567205988902129 -0.091656624081337568 0 0.42461385466063262 -0.08943412331831832 0 0.43069868055782679 -0.078899440675300136 0 0.4504480399260129 -0.084427783429311939 0 0.42567205988902129 -0.091656624081337568 0 0.43069868055782679 -0.078899440675300136 0 0.4504480399260129 -0.084427783429311939 0 0.42864211640777627 -0.097894499969741214 0 0.42567205988902129 -0.091656624081337568 0 0.42567205988902129 -0.091656624081337568 0 0.42461385466063262 -0.08943412331831832 0 0.41829766411352998 -0.087706900461061957 0 0.42567205988902129 -0.091656624081337568 0 0.42461385466063262 -0.08943412331831832 0 0.42012861486432151 -0.07981881462850364 0 0.43069868055782679 -0.078899440675300136 0 0.42254342745458301 -0.084546146485576762 0 0.42461385466063262 -0.08943412331831832 0 0.43069868055782679 -0.078899440675300136 0 0.42254342745458301 -0.084546146485576762 0 0.43069868055782679 -0.078899440675300136 0 0.42085386234523608 -0.065266903626460593 0 0.41911482919747139 -0.073234494934215744 0 0.43069868055782679 -0.078899440675300136 0 0.42085386234523608 -0.065266903626460593 0 0.42768193525564641 -0.052738548234870043 0 0.44526353314296241 -0.062107813217869068 0 0.43069868055782679 -0.078899440675300136 0 0.42768193525564641 -0.052738548234870043 0 0.43069868055782679 -0.078899440675300136 0 0.42768193525564641 -0.052738548234870043 0 0.42012861486432151 -0.07981881462850364 0 0.43069868055782679 -0.078899440675300136 0 0.41911482919747139 -0.073234494934215744 0 0.42085386234523608 -0.065266903626460593 0 0.41911482919747139 -0.073234494934215744 0 0.41247118756252621 -0.068972059658544485 0 0.41911482919747139 -0.073234494934215744 0 0.41094109939792961 -0.074512111623280808 0 0.41247118756252621 -0.068972059658544485 0 0.42012861486432151 -0.07981881462850364 0 0.41911482919747139 -0.073234494934215744 0 0.41094109939792961 -0.074512111623280808 0 0.41094109939792961 -0.074512111623280808 0 0.41247118756252621 -0.068972059658544485 0 0.40519344017519737 -0.069697512887539489 0 0.42085386234523608 -0.065266903626460593 0 0.41247118756252621 -0.068972059658544485 0 0.40625270669679608 -0.06214927522122575 0 0.41247118756252621 -0.068972059658544485 0 0.40519344017519737 -0.069697512887539489 0 0.40625270669679608 -0.06214927522122575 0 0.40519344017519737 -0.069697512887539489 0 0.3909339432522656 -0.07145852807871525 0 0.40625270669679608 -0.06214927522122575 0 0.41094109939792961 -0.074512111623280808 0 0.40094221169150912 -0.074554002884685597 0 0.40556094342569721 -0.078918860306745137 0 0.40519344017519737 -0.069697512887539489 0 0.40094221169150912 -0.074554002884685597 0 0.3909339432522656 -0.07145852807871525 0 0.41094109939792961 -0.074512111623280808 0 0.40519344017519737 -0.069697512887539489 0 0.40094221169150912 -0.074554002884685597 0 0.40094221169150912 -0.074554002884685597 0 0.3909339432522656 -0.07145852807871525 0 0.39616481607021642 -0.077435810443283751 0 0.3909339432522656 -0.07145852807871525 0 0.39616481607021642 -0.077435810443283751 0 0.39262893539182381 -0.080692178350181262 0 0.39181446083091098 -0.066763706552935329 0 0.38421934743036401 -0.068446750892908373 0 0.38398729378694407 -0.058429379279077209 0 0.38421934743036401 -0.068446750892908373 0 0.37813424473731178 -0.068262582352726586 0 0.38398729378694407 -0.058429379279077209 0 0.37813424473731178 -0.068262582352726586 0 0.38294139036628899 -0.080331335386894381 0 0.37353404377441052 -0.075370636612477671 0 0.38421934743036401 -0.068446750892908373 0 0.37813424473731178 -0.068262582352726586 0 0.38294139036628899 -0.080331335386894381 0 0.39181446083091098 -0.066763706552935329 0 0.38294139036628899 -0.080331335386894381 0 0.39181446083091098 -0.066763706552935329 0 0.38421934743036401 -0.068446750892908373 0 0.38294139036628899 -0.080331335386894381 0 0.3909339432522656 -0.07145852807871525 0 0.39181446083091098 -0.066763706552935329 0 0.38294139036628899 -0.080331335386894381 0 0.38598565568847482 -0.085166122563822014 0 0.39289996883908601 -0.089154852807517448 0 0.39262893539182381 -0.080692178350181262 0 0.3909339432522656 -0.07145852807871525 0 0.38598565568847482 -0.085166122563822014 0 0.39262893539182381 -0.080692178350181262 0 0.3909339432522656 -0.07145852807871525 0 0.37406831990166722 -0.093898964220853504 0 0.3909339432522656 -0.07145852807871525 0 0.38598565568847482 -0.085166122563822014 0 0.37406831990166722 -0.093898964220853504 0 0.3909339432522656 -0.07145852807871525 0 0.38294139036628899 -0.080331335386894381 0 0.37406831990166722 -0.093898964220853504 0 0.38294139036628899 -0.080331335386894381 0 0.37406831990166722 -0.093898964220853504 0 0.38598565568847482 -0.085166122563822014 0 0.38240509603332101 -0.092127683864182172 0 0.37406831990166722 -0.093898964220853504 0 0.38240509603332101 -0.092127683864182172 0 0.39289996883908601 -0.089154852807517448 0 0.38960421283109031 -0.096689699614190994 0 0.38598565568847482 -0.085166122563822014 0 0.38240509603332101 -0.092127683864182172 0 0.39289996883908601 -0.089154852807517448 0 0.39289996883908601 -0.089154852807517448 0 0.39262893539182381 -0.080692178350181262 0 0.40015417394526698 -0.083038532459552866 0 0.39616481607021642 -0.077435810443283751 0 0.39262893539182381 -0.080692178350181262 0 0.40015417394526698 -0.083038532459552866 0 0.40094221169150912 -0.074554002884685597 0 0.40556094342569721 -0.078918860306745137 0 0.40015417394526698 -0.083038532459552866 0 0.40094221169150912 -0.074554002884685597 0 0.39616481607021642 -0.077435810443283751 0 0.40015417394526698 -0.083038532459552866 0 0.41020628866808312 -0.08357079425946129 0 0.40556094342569721 -0.078918860306745137 0 0.40015417394526698 -0.083038532459552866 0 0.40662173914453831 -0.097214899993173481 0 0.39289996883908601 -0.089154852807517448 0 0.40015417394526698 -0.083038532459552866 0 0.40662173914453831 -0.097214899993173481 0 0.41020628866808312 -0.08357079425946129 0 0.40015417394526698 -0.083038532459552866 0 0.40662173914453831 -0.097214899993173481 0 0.3851668720105898 -0.10347474583943909 0 0.38960421283109031 -0.096689699614190994 0 0.40662173914453831 -0.097214899993173481 0 0.3851668720105898 -0.10347474583943909 0 0.40662173914453831 -0.097214899993173481 0 0.39289996883908601 -0.089154852807517448 0 0.38960421283109031 -0.096689699614190994 0 0.40662173914453831 -0.097214899993173481 0 0.38960421283109031 -0.096689699614190994 0 0.40662173914453831 -0.097214899993173481 0 0.3851668720105898 -0.10347474583943909 0 0.39374350655696688 -0.1137959578468639 0 0.38960421283109031 -0.096689699614190994 0 0.37237061700676077 -0.09615783082836224 0 0.3851668720105898 -0.10347474583943909 0 0.38960421283109031 -0.096689699614190994 0 0.37237061700676077 -0.09615783082836224 0 0.38240509603332101 -0.092127683864182172 0 0.38960421283109031 -0.096689699614190994 0 0.37237061700676077 -0.09615783082836224 0 0.38240509603332101 -0.092127683864182172 0 0.37406831990166722 -0.093898964220853504 0 0.37237061700676077 -0.09615783082836224 0 0.3785150876385216 -0.1195111518185689 0 0.39374350655696688 -0.1137959578468639 0 0.39237070121405998 -0.13164091544729051 0 0.3851668720105898 -0.10347474583943909 0 0.3785150876385216 -0.1195111518185689 0 0.36371200487664068 -0.10973459168570281 0 0.3851668720105898 -0.10347474583943909 0 0.3785150876385216 -0.1195111518185689 0 0.39374350655696688 -0.1137959578468639 0 0.40662173914453831 -0.097214899993173481 0 0.39374350655696688 -0.1137959578468639 0 0.40604313277712428 -0.1171380761358455 0 0.39374350655696688 -0.1137959578468639 0 0.40604313277712428 -0.1171380761358455 0 0.39237070121405998 -0.13164091544729051 0 0.41728163952739061 -0.019334187549187701 0 0.42284227266732188 -0.010769512158268201 0 0.42466518995346408 -0.026577655794440151 0 0.41728163952739061 -0.019334187549187701 0 0.41227128108974659 -0.029924501558089681 0 0.42466518995346408 -0.026577655794440151 0 0.41227128108974659 -0.029924501558089681 0 0.40863720631140932 -0.019892986955346081 0 0.40014031603924488 -0.033106741091830219 0 0.41728163952739061 -0.019334187549187701 0 0.41227128108974659 -0.029924501558089681 0 0.40863720631140932 -0.019892986955346081 0 0.41728163952739061 -0.019334187549187701 0 0.40863720631140932 -0.019892986955346081 0 0.41436166681859882 -0.01226683791037885 0 0.40863720631140932 -0.019892986955346081 0 0.41436166681859882 -0.01226683791037885 0 0.40369857438468087 -0.0060371637805465179 0 0.42101935538117791 0.0050386314779034547 0 0.41402040698134779 -0.0025911497673051101 0 0.42284227266732188 -0.010769512158268201 0 0.41402040698134779 -0.0025911497673051101 0 0.41436166681859882 -0.01226683791037885 0 0.40369857438468087 -0.0060371637805465179 0 0.41402040698134779 -0.0025911497673051101 0 0.41436166681859882 -0.01226683791037885 0 0.42284227266732188 -0.010769512158268201 0 0.41728163952739061 -0.019334187549187701 0 0.41436166681859882 -0.01226683791037885 0 0.42284227266732188 -0.010769512158268201 0 0.42284227266732188 -0.010769512158268201 0 0.43543049063324413 -0.012350052332502739 0 0.42769414368384923 -0.02254750278133769 0 0.42101935538117791 0.0050386314779034547 0 0.42284227266732188 -0.010769512158268201 0 0.42101935538117791 0.0050386314779034547 0 0.42788240966677021 0.003552130545216341 0 0.42284227266732188 -0.010769512158268201 0 0.42788240966677021 0.003552130545216341 0 0.42284227266732188 -0.010769512158268201 0 0.43543049063324413 -0.012350052332502739 0 0.42284227266732188 -0.010769512158268201 0 0.42466518995346408 -0.026577655794440151 0 0.42284227266732188 -0.010769512158268201 0 0.42769414368384923 -0.02254750278133769 0 0.42466518995346408 -0.026577655794440151 0 0.44260817666721519 -0.025216613737701819 0 0.43543049063324413 -0.012350052332502739 0 0.42769414368384923 -0.02254750278133769 0 0.42769414368384923 -0.02254750278133769 0 0.42466518995346408 -0.026577655794440151 0 0.43454865465473302 -0.032105158367880783 0 0.42769414368384923 -0.02254750278133769 0 0.42466518995346408 -0.026577655794440151 0 0.44260817666721519 -0.025216613737701819 0 0.42769414368384923 -0.02254750278133769 0 0.43454865465473302 -0.032105158367880783 0 0.42466518995346408 -0.026577655794440151 0 0.43454865465473302 -0.032105158367880783 0 0.42768193525564641 -0.052738548234870043 0 0.42466518995346408 -0.026577655794440151 0 0.42768193525564641 -0.052738548234870043 0 0.44483042593949818 -0.041063070916932051 0 0.43454865465473302 -0.032105158367880783 0 0.42768193525564641 -0.052738548234870043 0 0.42085386234523608 -0.065266903626460593 0 0.42768193525564641 -0.052738548234870043 0 0.40779956660286398 -0.049018091936576927 0 0.42085386234523608 -0.065266903626460593 0 0.40779956660286398 -0.049018091936576927 0 0.40625270669679608 -0.06214927522122575 0 0.42466518995346408 -0.026577655794440151 0 0.42768193525564641 -0.052738548234870043 0 0.40779956660286398 -0.049018091936576927 0 0.42466518995346408 -0.026577655794440151 0 0.40779956660286398 -0.049018091936576927 0 0.41227128108974659 -0.029924501558089681 0 0.42466518995346408 -0.026577655794440151 0 0.40779956660286398 -0.049018091936576927 0 0.41227128108974659 -0.029924501558089681 0 0.40779956660286398 -0.049018091936576927 0 0.40014031603924488 -0.033106741091830219 0 0.40779956660286398 -0.049018091936576927 0 0.40014031603924488 -0.033106741091830219 0 0.3912967176308087 -0.04756724484766426 0 0.40014031603924488 -0.033106741091830219 0 0.3912967176308087 -0.04756724484766426 0 0.38547037370043469 -0.032308846426106139 0 0.3909339432522656 -0.07145852807871525 0 0.40779956660286398 -0.049018091936576927 0 0.40625270669679608 -0.06214927522122575 0 0.3909339432522656 -0.07145852807871525 0 0.39181446083091098 -0.066763706552935329 0 0.40779956660286398 -0.049018091936576927 0 0.39181446083091098 -0.066763706552935329 0 0.40779956660286398 -0.049018091936576927 0 0.3912967176308087 -0.04756724484766426 0 0.3909339432522656 -0.07145852807871525 0 0.40779956660286398 -0.049018091936576927 0 0.3912967176308087 -0.04756724484766426 0 0.38398729378694407 -0.058429379279077209 0 0.37514153202862571 -0.045861082966856079 0 0.39181446083091098 -0.066763706552935329 0 0.3912967176308087 -0.04756724484766426 0 0.38398729378694407 -0.058429379279077209 0 0.38398729378694407 -0.058429379279077209 0 0.37514153202862571 -0.045861082966856079 0 0.37192531576168952 -0.05914395824800911 0 0.37813424473731178 -0.068262582352726586 0 0.38398729378694407 -0.058429379279077209 0 0.37192531576168952 -0.05914395824800911 0 0.3912967176308087 -0.04756724484766426 0 0.38547037370043469 -0.032308846426106139 0 0.37514153202862571 -0.045861082966856079 0 0.38547037370043469 -0.032308846426106139 0 0.37514153202862571 -0.045861082966856079 0 0.36877413775607049 -0.02995327657106206 0 0.38547037370043469 -0.032308846426106139 0 0.37927030083329177 -0.015743113788958679 0 0.36877413775607049 -0.02995327657106206 0 0.38547037370043469 -0.032308846426106139 0 0.37927030083329177 -0.015743113788958679 0 0.39536675090020662 -0.019928774827198261 0 0.40014031603924488 -0.033106741091830219 0 0.38547037370043469 -0.032308846426106139 0 0.39536675090020662 -0.019928774827198261 0 0.40863720631140932 -0.019892986955346081 0 0.40014031603924488 -0.033106741091830219 0 0.39536675090020662 -0.019928774827198261 0 0.40863720631140932 -0.019892986955346081 0 0.39536675090020662 -0.019928774827198261 0 0.40369857438468087 -0.0060371637805465179 0 0.39536675090020662 -0.019928774827198261 0 0.40369857438468087 -0.0060371637805465179 0 0.39174671884158141 -0.0074493154892236006 0 0.39390920682105918 0.0040204267233196643 0 0.40369857438468087 -0.0060371637805465179 0 0.39174671884158141 -0.0074493154892236006 0 0.38212023564171321 0.001094655884648786 0 0.37927030083329177 -0.015743113788958679 0 0.39174671884158141 -0.0074493154892236006 0 0.38212023564171321 0.001094655884648786 0 0.37927030083329177 -0.015743113788958679 0 0.3700201466167648 -0.002195575246397889 0 0.37927030083329177 -0.015743113788958679 0 0.39536675090020662 -0.019928774827198261 0 0.39174671884158141 -0.0074493154892236006 0 0.39390920682105918 0.0040204267233196643 0 0.38212023564171321 0.001094655884648786 0 0.39174671884158141 -0.0074493154892236006 0 0.35686418876597309 0.010252504770385159 0 0.3700201466167648 -0.002195575246397889 0 0.35727920934793722 -0.0129667368589869 0 0.37927030083329177 -0.015743113788958679 0 0.3700201466167648 -0.002195575246397889 0 0.35727920934793722 -0.0129667368589869 0 0.36877413775607049 -0.02995327657106206 0 0.35727920934793722 -0.0129667368589869 0 0.35227314840285812 -0.03152257084722427 0 0.37927030083329177 -0.015743113788958679 0 0.36877413775607049 -0.02995327657106206 0 0.35727920934793722 -0.0129667368589869 0 0.35727920934793722 -0.0129667368589869 0 0.33875503928457851 -0.02222753562310531 0 0.35227314840285812 -0.03152257084722427 0 0.35727920934793722 -0.0129667368589869 0 0.33586681222118892 -0.0067462441580033658 0 0.33875503928457851 -0.02222753562310531 0 0.35686418876597309 0.010252504770385159 0 0.35727920934793722 -0.0129667368589869 0 0.33586681222118892 -0.0067462441580033658 0 0.33586681222118892 -0.0067462441580033658 0 0.33875503928457851 -0.02222753562310531 0 0.31486943567640469 -0.023744993086391868 0 0.33875503928457851 -0.02222753562310531 0 0.31486943567640469 -0.023744993086391868 0 0.33348659077450338 -0.036157133164920148 0 0.33875503928457851 -0.02222753562310531 0 0.33348659077450338 -0.036157133164920148 0 0.35227314840285812 -0.03152257084722427 0 0.31046320235639918 0.0067575729804437252 0 0.33586681222118892 -0.0067462441580033658 0 0.3153830815233527 -0.0087530987426132929 0 0.33586681222118892 -0.0067462441580033658 0 0.31486943567640469 -0.023744993086391868 0 0.3153830815233527 -0.0087530987426132929 0 0.33586681222118892 -0.0067462441580033658 0 0.31486943567640469 -0.023744993086391868 0 0.32115491610998381 -0.052976688016941227 0 0.32092150739102382 -0.073097043805500014 0 0.30601744289912669 -0.055409131432484229 0 0.32115491610998381 -0.052976688016941227 0 0.31197137499350902 -0.041008225260955711 0 0.30601744289912669 -0.055409131432484229 0 0.31486943567640469 -0.023744993086391868 0 0.33348659077450338 -0.036157133164920148 0 0.31197137499350902 -0.041008225260955711 0 0.32115491610998381 -0.052976688016941227 0 0.33348659077450338 -0.036157133164920148 0 0.31197137499350902 -0.041008225260955711 0 0.33348659077450338 -0.036157133164920148 0 0.3363568723602065 -0.050864743298462772 0 0.35116628403686417 -0.048621598638038131 0 0.32115491610998381 -0.052976688016941227 0 0.33348659077450338 -0.036157133164920148 0 0.3363568723602065 -0.050864743298462772 0 0.32115491610998381 -0.052976688016941227 0 0.3363568723602065 -0.050864743298462772 0 0.33388625794764348 -0.064812423232177271 0 0.3363568723602065 -0.050864743298462772 0 0.34794047334546518 -0.063974584280765273 0 0.33388625794764348 -0.064812423232177271 0 0.3363568723602065 -0.050864743298462772 0 0.35116628403686417 -0.048621598638038131 0 0.34794047334546518 -0.063974584280765273 0 0.35116628403686417 -0.048621598638038131 0 0.35914505774559541 -0.060409417065886872 0 0.36392372675137458 -0.051574144679805103 0 0.35116628403686417 -0.048621598638038131 0 0.36240463436463582 -0.041692596330413237 0 0.36392372675137458 -0.051574144679805103 0 0.35116628403686417 -0.048621598638038131 0 0.35914505774559541 -0.060409417065886872 0 0.34794047334546518 -0.063974584280765273 0 0.35116628403686417 -0.048621598638038131 0 0.35227314840285812 -0.03152257084722427 0 0.36240463436463582 -0.041692596330413237 0 0.33348659077450338 -0.036157133164920148 0 0.35116628403686417 -0.048621598638038131 0 0.35227314840285812 -0.03152257084722427 0 0.37514153202862571 -0.045861082966856079 0 0.36877413775607049 -0.02995327657106206 0 0.36240463436463582 -0.041692596330413237 0 0.36877413775607049 -0.02995327657106206 0 0.35227314840285812 -0.03152257084722427 0 0.36240463436463582 -0.041692596330413237 0 0.37514153202862571 -0.045861082966856079 0 0.36240463436463582 -0.041692596330413237 0 0.36392372675137458 -0.051574144679805103 0 0.35914505774559541 -0.060409417065886872 0 0.36392372675137458 -0.051574144679805103 0 0.37192531576168952 -0.05914395824800911 0 0.37514153202862571 -0.045861082966856079 0 0.36392372675137458 -0.051574144679805103 0 0.37192531576168952 -0.05914395824800911 0 0.37813424473731178 -0.068262582352726586 0 0.37192531576168952 -0.05914395824800911 0 0.3680772617285144 -0.06977757947088653 0 0.35914505774559541 -0.060409417065886872 0 0.37192531576168952 -0.05914395824800911 0 0.3680772617285144 -0.06977757947088653 0 0.35914505774559541 -0.060409417065886872 0 0.3680772617285144 -0.06977757947088653 0 0.35837286676988928 -0.071968688592424085 0 0.3680772617285144 -0.06977757947088653 0 0.36498327826552668 -0.083111049239403226 0 0.35837286676988928 -0.071968688592424085 0 0.3680772617285144 -0.06977757947088653 0 0.37353404377441052 -0.075370636612477671 0 0.36498327826552668 -0.083111049239403226 0 0.37813424473731178 -0.068262582352726586 0 0.3680772617285144 -0.06977757947088653 0 0.37353404377441052 -0.075370636612477671 0 0.38294139036628899 -0.080331335386894381 0 0.37353404377441052 -0.075370636612477671 0 0.36498327826552668 -0.083111049239403226 0 0.36498327826552668 -0.083111049239403226 0 0.37237061700676077 -0.09615783082836224 0 0.34241852099989789 -0.095233439592861846 0 0.38294139036628899 -0.080331335386894381 0 0.36498327826552668 -0.083111049239403226 0 0.37406831990166722 -0.093898964220853504 0 0.36498327826552668 -0.083111049239403226 0 0.37406831990166722 -0.093898964220853504 0 0.37237061700676077 -0.09615783082836224 0 0.36498327826552668 -0.083111049239403226 0 0.3449175019875389 -0.076917716904771144 0 0.34241852099989789 -0.095233439592861846 0 0.36498327826552668 -0.083111049239403226 0 0.3449175019875389 -0.076917716904771144 0 0.35837286676988928 -0.071968688592424085 0 0.3449175019875389 -0.076917716904771144 0 0.34794047334546518 -0.063974584280765273 0 0.35837286676988928 -0.071968688592424085 0 0.35914505774559541 -0.060409417065886872 0 0.34794047334546518 -0.063974584280765273 0 0.35837286676988928 -0.071968688592424085 0 0.36371200487664068 -0.10973459168570281 0 0.35664352332635268 -0.13060513793896061 0 0.36779594019891898 -0.12729788290040461 0 0.3785150876385216 -0.1195111518185689 0 0.36371200487664068 -0.10973459168570281 0 0.36779594019891898 -0.12729788290040461 0 0.36371200487664068 -0.10973459168570281 0 0.37237061700676077 -0.09615783082836224 0 0.34241852099989789 -0.095233439592861846 0 0.3851668720105898 -0.10347474583943909 0 0.36371200487664068 -0.10973459168570281 0 0.37237061700676077 -0.09615783082836224 0 0.3851668720105898 -0.10347474583943909 0 0.36371200487664068 -0.10973459168570281 0 0.36371200487664068 -0.10973459168570281 0 0.37237061700676077 -0.09615783082836224 0 0.37406831990166722 -0.093898964220853504 0 0.37237061700676077 -0.09615783082836224 0 0.36371200487664068 -0.10973459168570281 0 0.34332012240242971 -0.1020930362129598 0 0.34241852099989789 -0.095233439592861846 0 0.36371200487664068 -0.10973459168570281 0 0.35002252173753962 -0.112446561286345 0 0.34332012240242971 -0.1020930362129598 0 0.37237061700676077 -0.09615783082836224 0 0.34241852099989789 -0.095233439592861846 0 0.35002252173753962 -0.112446561286345 0 0.34025414842832208 -0.11782241666052221 0 0.34332012240242971 -0.1020930362129598 0 0.36371200487664068 -0.10973459168570281 0 0.35355367174401742 -0.1211945845718113 0 0.34779048707731292 -0.1340798558009649 0 0.36371200487664068 -0.10973459168570281 0 0.35664352332635268 -0.13060513793896061 0 0.34779048707731292 -0.1340798558009649 0 0.36371200487664068 -0.10973459168570281 0 0.34779048707731292 -0.1340798558009649 0 0.36371200487664068 -0.10973459168570281 0 0.35002252173753962 -0.112446561286345 0 0.35355367174401742 -0.1211945845718113 0 0.36371200487664068 -0.10973459168570281 0 0.35355367174401742 -0.1211945845718113 0 0.35002252173753962 -0.112446561286345 0 0.35355367174401742 -0.1211945845718113 0 0.34025414842832208 -0.11782241666052221 0 0.35355367174401742 -0.1211945845718113 0 0.34025414842832208 -0.11782241666052221 0 0.34381162934489939 -0.12854128697128539 0 0.33094534805706732 -0.1177437606496905 0 0.31854024801571379 -0.1183964408803808 0 0.33718817445421712 -0.13355179710808501 0 0.34025414842832208 -0.11782241666052221 0 0.33378984816934337 -0.1086297847084315 0 0.34332012240242971 -0.1020930362129598 0 0.33094534805706732 -0.1177437606496905 0 0.34025414842832208 -0.11782241666052221 0 0.33718817445421712 -0.13355179710808501 0 0.34025414842832208 -0.11782241666052221 0 0.34332012240242971 -0.1020930362129598 0 0.33094534805706732 -0.1177437606496905 0 0.33378984816934337 -0.1086297847084315 0 0.32495432121773932 -0.110318363891034 0 0.33094534805706732 -0.1177437606496905 0 0.34025414842832208 -0.11782241666052221 0 0.33378984816934337 -0.1086297847084315 0 0.33378984816934337 -0.1086297847084315 0 0.32725903490077729 -0.10071499943534749 0 0.32495432121773932 -0.110318363891034 0 0.33378984816934337 -0.1086297847084315 0 0.33669688161811212 -0.1016678149874002 0 0.32725903490077729 -0.10071499943534749 0 0.33378984816934337 -0.1086297847084315 0 0.34332012240242971 -0.1020930362129598 0 0.33669688161811212 -0.1016678149874002 0 0.34332012240242971 -0.1020930362129598 0 0.33669688161811212 -0.1016678149874002 0 0.34241852099989789 -0.095233439592861846 0 0.33669688161811212 -0.1016678149874002 0 0.34241852099989789 -0.095233439592861846 0 0.32725903490077729 -0.10071499943534749 0 0.34241852099989789 -0.095233439592861846 0 0.31246642499303512 -0.0943090483573608 0 0.34241852099989789 -0.095233439592861846 0 0.32725903490077729 -0.10071499943534749 0 0.31246642499303512 -0.0943090483573608 0 0.32725903490077729 -0.10071499943534749 0 0.31716114910448651 -0.10565591717263 0 0.31246642499303512 -0.0943090483573608 0 0.32725903490077729 -0.10071499943534749 0 0.31716114910448651 -0.10565591717263 0 0.32495432121773932 -0.110318363891034 0 0.33094534805706732 -0.1177437606496905 0 0.32495432121773932 -0.110318363891034 0 0.31854024801571379 -0.1183964408803808 0 0.31716114910448651 -0.10565591717263 0 0.32495432121773932 -0.110318363891034 0 0.31854024801571379 -0.1183964408803808 0 0.31716114910448651 -0.10565591717263 0 0.31854024801571379 -0.1183964408803808 0 0.30531265091832138 -0.10738965970164049 0 0.3449175019875389 -0.076917716904771144 0 0.33388625794764348 -0.064812423232177271 0 0.32092150739102382 -0.073097043805500014 0 0.3449175019875389 -0.076917716904771144 0 0.34794047334546518 -0.063974584280765273 0 0.33388625794764348 -0.064812423232177271 0 0.3449175019875389 -0.076917716904771144 0 0.34241852099989789 -0.095233439592861846 0 0.32092150739102382 -0.073097043805500014 0 0.34241852099989789 -0.095233439592861846 0 0.32092150739102382 -0.073097043805500014 0 0.31246642499303512 -0.0943090483573608 0 0.32115491610998381 -0.052976688016941227 0 0.33388625794764348 -0.064812423232177271 0 0.32092150739102382 -0.073097043805500014 0 0.32092150739102382 -0.073097043805500014 0 0.28819319405889499 -0.06706419956831737 0 0.31246642499303512 -0.0943090483573608 0 0.32092150739102382 -0.073097043805500014 0 0.28819319405889499 -0.06706419956831737 0 0.30601744289912669 -0.055409131432484229 0 0.28251432898617262 -0.093384657121855619 0 0.28819319405889499 -0.06706419956831737 0 0.31246642499303512 -0.0943090483573608 0 0.28251432898617262 -0.093384657121855619 0 0.28819319405889499 -0.06706419956831737 0 0.28251432898617262 -0.093384657121855619 0 0.28819319405889499 -0.06706419956831737 0 0.2788070763813692 -0.075616481315712358 0 0.30531265091832138 -0.10738965970164049 0 0.29209333803684512 -0.1204183792118467 0 0.30316218715013699 -0.13585617877411299 0 0.31854024801571379 -0.1183964408803808 0 0.30531265091832138 -0.10738965970164049 0 0.30316218715013699 -0.13585617877411299 0 0.30531265091832138 -0.10738965970164049 0 0.30316218715013699 -0.13585617877411299 0 0.30531265091832138 -0.10738965970164049 0 0.31246642499303512 -0.0943090483573608 0 0.2913954051317153 -0.1063448066268642 0 0.28251432898617262 -0.093384657121855619 0 0.31246642499303512 -0.0943090483573608 0 0.31716114910448651 -0.10565591717263 0 0.30531265091832138 -0.10738965970164049 0 0.31246642499303512 -0.0943090483573608 0 0.28251432898617262 -0.093384657121855619 0 0.31246642499303512 -0.0943090483573608 0 0.2913954051317153 -0.1063448066268642 0 0.28251432898617262 -0.093384657121855619 0 0.2913954051317153 -0.1063448066268642 0 0.27794998204403759 -0.11453953550188679 0 0.30531265091832138 -0.10738965970164049 0 0.2913954051317153 -0.1063448066268642 0 0.29209333803684512 -0.1204183792118467 0 0.2913954051317153 -0.1063448066268642 0 0.29209333803684512 -0.1204183792118467 0 0.27794998204403759 -0.11453953550188679 0 0.27794998204403759 -0.11453953550188679 0 0.25915390151091949 -0.11811210275817149 0 0.27338563510190422 -0.1356944138819183 0 0.29209333803684512 -0.1204183792118467 0 0.27794998204403759 -0.11453953550188679 0 0.27338563510190422 -0.1356944138819183 0 0.28251432898617262 -0.093384657121855619 0 0.27794998204403759 -0.11453953550188679 0 0.25666672159796139 -0.092586939936295867 0 0.28251432898617262 -0.093384657121855619 0 0.27794998204403759 -0.11453953550188679 0 0.25915390151091949 -0.11811210275817149 0 0.25666672159796139 -0.092586939936295867 0 0.23839025179526999 -0.1151992729885977 0 0.27794998204403759 -0.11453953550188679 0 0.25915390151091949 -0.11811210275817149 0 0.25666672159796139 -0.092586939936295867 0 0.28819319405889499 -0.06706419956831737 0 0.27512965144911827 -0.070681904186227995 0 0.27783686619476677 -0.05372527893061739 0 0.26897876163713708 -0.070467118147906876 0 0.27512965144911827 -0.070681904186227995 0 0.27783686619476677 -0.05372527893061739 0 0.26897876163713708 -0.070467118147906876 0 0.26180167325791431 -0.066706815846455908 0 0.27783686619476677 -0.05372527893061739 0 0.27067132333055188 -0.076788874412469815 0 0.26897876163713708 -0.070467118147906876 0 0.26145119023330071 -0.079000043976386408 0 0.27067132333055188 -0.076788874412469815 0 0.26897876163713708 -0.070467118147906876 0 0.2788070763813692 -0.075616481315712358 0 0.26897876163713708 -0.070467118147906876 0 0.27512965144911827 -0.070681904186227995 0 0.28819319405889499 -0.06706419956831737 0 0.2788070763813692 -0.075616481315712358 0 0.27512965144911827 -0.070681904186227995 0 0.26897876163713708 -0.070467118147906876 0 0.2788070763813692 -0.075616481315712358 0 0.26897876163713708 -0.070467118147906876 0 0.2788070763813692 -0.075616481315712358 0 0.27512965144911827 -0.070681904186227995 0 0.28251432898617262 -0.093384657121855619 0 0.25666672159796139 -0.092586939936295867 0 0.28251432898617262 -0.093384657121855619 0 0.27051227275229911 -0.08315566172012806 0 0.25666672159796139 -0.092586939936295867 0 0.28251432898617262 -0.093384657121855619 0 0.2788070763813692 -0.075616481315712358 0 0.27051227275229911 -0.08315566172012806 0 0.27067132333055188 -0.076788874412469815 0 0.27051227275229911 -0.08315566172012806 0 0.26145119023330071 -0.079000043976386408 0 0.27067132333055188 -0.076788874412469815 0 0.2788070763813692 -0.075616481315712358 0 0.27051227275229911 -0.08315566172012806 0 0.26145119023330071 -0.079000043976386408 0 0.25666672159796139 -0.092586939936295867 0 0.24423239209720191 -0.080930297464084477 0 0.27051227275229911 -0.08315566172012806 0 0.26145119023330071 -0.079000043976386408 0 0.25666672159796139 -0.092586939936295867 0 0.26180167325791431 -0.066706815846455908 0 0.25764566998465072 -0.070071372177431313 0 0.24120587699226881 -0.055916030502087773 0 0.26145119023330071 -0.079000043976386408 0 0.25764566998465072 -0.070071372177431313 0 0.24423239209720191 -0.080930297464084477 0 0.25764566998465072 -0.070071372177431313 0 0.24423239209720191 -0.080930297464084477 0 0.26897876163713708 -0.070467118147906876 0 0.26145119023330071 -0.079000043976386408 0 0.25764566998465072 -0.070071372177431313 0 0.26897876163713708 -0.070467118147906876 0 0.26180167325791431 -0.066706815846455908 0 0.25764566998465072 -0.070071372177431313 0 0.26897876163713708 -0.070467118147906876 0 0.25764566998465072 -0.070071372177431313 0 0.26897876163713708 -0.070467118147906876 0 0.26180167325791431 -0.066706815846455908 0 0.26180167325791431 -0.066706815846455908 0 0.25764566998465072 -0.070071372177431313 0 0.26180167325791431 -0.066706815846455908 0 0.26029261894245981 -0.048826031507571623 0 0.24120587699226881 -0.055916030502087773 0 0.26180167325791431 -0.066706815846455908 0 0.24120587699226881 -0.055916030502087773 0 0.26180167325791431 -0.066706815846455908 0 0.26029261894245981 -0.048826031507571623 0 0.27783686619476677 -0.05372527893061739 0 0.26180167325791431 -0.066706815846455908 0 0.27783686619476677 -0.05372527893061739 0 0.26029261894245981 -0.048826031507571623 0 0.27783686619476677 -0.05372527893061739 0 0.27031708646619812 -0.033638605470610219 0 0.27783686619476677 -0.05372527893061739 0 0.27031708646619812 -0.033638605470610219 0 0.28437966209514692 -0.033534114227583768 0 0.26029261894245981 -0.048826031507571623 0 0.27031708646619812 -0.033638605470610219 0 0.25030159180115191 -0.034143426788088307 0 0.26029261894245981 -0.048826031507571623 0 0.25030159180115191 -0.034143426788088307 0 0.24120587699226881 -0.055916030502087773 0 0.25030159180115191 -0.034143426788088307 0 0.26299580833271302 -0.019789195105520681 0 0.2464198669495459 -0.012097030270161889 0 0.27031708646619812 -0.033638605470610219 0 0.25030159180115191 -0.034143426788088307 0 0.26299580833271302 -0.019789195105520681 0 0.25322369798355371 0.0032948183560677501 0 0.26778398551549509 -0.0036893303100333872 0 0.2464198669495459 -0.012097030270161889 0 0.26299580833271302 -0.019789195105520681 0 0.26778398551549509 -0.0036893303100333872 0 0.2464198669495459 -0.012097030270161889 0 0.26299580833271302 -0.019789195105520681 0 0.26778398551549509 -0.0036893303100333872 0 0.28231604015163769 -0.018351258625531171 0 0.2895407867033607 0.0013395930438658619 0 0.26778398551549509 -0.0036893303100333872 0 0.28231604015163769 -0.018351258625531171 0 0.27031708646619812 -0.033638605470610219 0 0.26299580833271302 -0.019789195105520681 0 0.28231604015163769 -0.018351258625531171 0 0.27031708646619812 -0.033638605470610219 0 0.28231604015163769 -0.018351258625531171 0 0.28437966209514692 -0.033534114227583768 0 0.28231604015163769 -0.018351258625531171 0 0.29600028882747859 -0.03087980289019443 0 0.28437966209514692 -0.033534114227583768 0 0.28231604015163769 -0.018351258625531171 0 0.29600028882747859 -0.03087980289019443 0 0.30132541624728598 -0.01217829343577128 0 0.2895407867033607 0.0013395930438658619 0 0.28231604015163769 -0.018351258625531171 0 0.30132541624728598 -0.01217829343577128 0 0.31046320235639918 0.0067575729804437252 0 0.2895407867033607 0.0013395930438658619 0 0.30132541624728598 -0.01217829343577128 0 0.31046320235639918 0.0067575729804437252 0 0.3153830815233527 -0.0087530987426132929 0 0.30132541624728598 -0.01217829343577128 0 0.31486943567640469 -0.023744993086391868 0 0.3153830815233527 -0.0087530987426132929 0 0.30132541624728598 -0.01217829343577128 0 0.31486943567640469 -0.023744993086391868 0 0.29600028882747859 -0.03087980289019443 0 0.30132541624728598 -0.01217829343577128 0 0.31486943567640469 -0.023744993086391868 0 0.31197137499350902 -0.041008225260955711 0 0.29387205913161968 -0.04074374201477949 0 0.31486943567640469 -0.023744993086391868 0 0.29600028882747859 -0.03087980289019443 0 0.29387205913161968 -0.04074374201477949 0 0.31486943567640469 -0.023744993086391868 0 0.29387205913161968 -0.04074374201477949 0 0.31197137499350902 -0.041008225260955711 0 0.30601744289912669 -0.055409131432484229 0 0.29387205913161968 -0.04074374201477949 0 0.28819319405889499 -0.06706419956831737 0 0.27783686619476677 -0.05372527893061739 0 0.29387205913161968 -0.04074374201477949 0 0.28819319405889499 -0.06706419956831737 0 0.29387205913161968 -0.04074374201477949 0 0.27783686619476677 -0.05372527893061739 0 0.29387205913161968 -0.04074374201477949 0 0.28819319405889499 -0.06706419956831737 0 0.30601744289912669 -0.055409131432484229 0 0.29387205913161968 -0.04074374201477949 0 0.27783686619476677 -0.05372527893061739 0 0.28437966209514692 -0.033534114227583768 0 0.29387205913161968 -0.04074374201477949 0 0.29600028882747859 -0.03087980289019443 0 0.28437966209514692 -0.033534114227583768 0 0.29387205913161968 -0.04074374201477949 0 0.29600028882747859 -0.03087980289019443 0 0.29387205913161968 -0.04074374201477949 0 0.28925369461552242 -0.21547475378801551 0 0.29798535605087828 -0.20438389051808681 0 0.27851755886665591 -0.20371457102860641 0 0.28925369461552242 -0.21547475378801551 0 0.28465086540799672 -0.2254021489655588 0 0.27851755886665591 -0.20371457102860641 0 0.28925369461552242 -0.21547475378801551 0 0.29798535605087828 -0.20438389051808681 0 0.29625974568445868 -0.22722646109941139 0 0.28994099481116897 -0.19128490440727269 0 0.29798535605087828 -0.20438389051808681 0 0.29971096641729777 -0.18154131993676231 0 0.28994099481116897 -0.19128490440727269 0 0.27851755886665591 -0.20371457102860641 0 0.28355009790984409 -0.17549983614563519 0 0.28994099481116897 -0.19128490440727269 0 0.29798535605087828 -0.20438389051808681 0 0.27851755886665591 -0.20371457102860641 0 0.30866677822314281 -0.19370433905286669 0 0.29798535605087828 -0.20438389051808681 0 0.29971096641729777 -0.18154131993676231 0 0.29798535605087828 -0.20438389051808681 0 0.29971096641729777 -0.18154131993676231 0 0.30866677822314281 -0.19370433905286669 0 0.30817512199612251 -0.208018461664154 0 0.29798535605087828 -0.20438389051808681 0 0.29798535605087828 -0.20438389051808681 0 0.29625974568445868 -0.22722646109941139 0 0.30367267472900389 -0.2178556058656746 0 0.31200739898088131 -0.22851072207886541 0 0.31883562653249692 -0.20986103607638071 0 0.29798535605087828 -0.20438389051808681 0 0.30367267472900389 -0.2178556058656746 0 0.29625974568445868 -0.22722646109941139 0 0.30817512199612251 -0.208018461664154 0 0.29798535605087828 -0.20438389051808681 0 0.30367267472900389 -0.2178556058656746 0 0.30817512199612251 -0.208018461664154 0 0.30367267472900389 -0.2178556058656746 0 0.31883562653249692 -0.20986103607638071 0 0.30367267472900389 -0.2178556058656746 0 0.31883562653249692 -0.20986103607638071 0 0.31200739898088131 -0.22851072207886541 0 0.30517917142926537 -0.24716040808135001 0 0.29625974568445868 -0.22722646109941139 0 0.30367267472900389 -0.2178556058656746 0 0.31200739898088131 -0.22851072207886541 0 0.29625974568445868 -0.22722646109941139 0 0.31200739898088131 -0.22851072207886541 0 0.30517917142926537 -0.24716040808135001 0 0.30517917142926537 -0.24716040808135001 0 0.28765229627979871 -0.24304032400626949 0 0.29625974568445868 -0.22722646109941139 0 0.28765229627979871 -0.24304032400626949 0 0.29625974568445868 -0.22722646109941139 0 0.28465086540799672 -0.2254021489655588 0 0.28765229627979871 -0.24304032400626949 0 0.28465086540799672 -0.2254021489655588 0 0.27348501982346762 -0.23192930591157759 0 0.28925369461552242 -0.21547475378801551 0 0.29625974568445868 -0.22722646109941139 0 0.28465086540799672 -0.2254021489655588 0 0.28465086540799672 -0.2254021489655588 0 0.27348501982346762 -0.23192930591157759 0 0.27851755886665591 -0.20371457102860641 0 0.27348501982346762 -0.23192930591157759 0 0.25787859859726192 -0.24372773219337371 0 0.26845248078028039 -0.26014404079454911 0 0.28765229627979871 -0.24304032400626949 0 0.27348501982346762 -0.23192930591157759 0 0.26845248078028039 -0.26014404079454911 0 0.27348501982346762 -0.23192930591157759 0 0.26845248078028039 -0.26014404079454911 0 0.27348501982346762 -0.23192930591157759 0 0.25787859859726192 -0.24372773219337371 0 0.2485278721491469 -0.22983386195931649 0 0.27348501982346762 -0.23192930591157759 0 0.25806059678156651 -0.21160485628964759 0 0.2485278721491469 -0.22983386195931649 0 0.27348501982346762 -0.23192930591157759 0 0.27851755886665591 -0.20371457102860641 0 0.27348501982346762 -0.23192930591157759 0 0.25806059678156651 -0.21160485628964759 0 0.27851755886665591 -0.20371457102860641 0 0.27851755886665591 -0.20371457102860641 0 0.26140201073716351 -0.19316186481753209 0 0.27335445324682811 -0.1824409541049711 0 0.25806059678156651 -0.21160485628964759 0 0.27851755886665591 -0.20371457102860641 0 0.26140201073716351 -0.19316186481753209 0 0.27851755886665591 -0.20371457102860641 0 0.28355009790984409 -0.17549983614563519 0 0.25806059678156651 -0.21160485628964759 0 0.26140201073716351 -0.19316186481753209 0 0.24624710011957149 -0.19756578472926509 0 0.26140201073716351 -0.19316186481753209 0 0.25030889548151403 -0.1837077448593728 0 0.24624710011957149 -0.19756578472926509 0 0.25969225384889538 -0.18295045636353721 0 0.2550208565069661 -0.17514012483034949 0 0.27335445324682811 -0.1824409541049711 0 0.26140201073716351 -0.19316186481753209 0 0.25030889548151403 -0.1837077448593728 0 0.25969225384889538 -0.18295045636353721 0 0.25030889548151403 -0.1837077448593728 0 0.25969225384889538 -0.18295045636353721 0 0.2550208565069661 -0.17514012483034949 0 0.2550208565069661 -0.17514012483034949 0 0.2530488896403309 -0.16079061319898569 0 0.27335445324682811 -0.1824409541049711 0 0.26140201073716351 -0.19316186481753209 0 0.25969225384889538 -0.18295045636353721 0 0.27335445324682811 -0.1824409541049711 0 0.2530488896403309 -0.16079061319898569 0 0.272260185211738 -0.168331689764908 0 0.26878477807763418 -0.16016356734556891 0 0.2530488896403309 -0.16079061319898569 0 0.26878477807763418 -0.16016356734556891 0 0.26293682869207591 -0.15391070786642169 0 0.2530488896403309 -0.16079061319898569 0 0.27335445324682811 -0.1824409541049711 0 0.272260185211738 -0.168331689764908 0 0.27899515764395177 -0.15443660918041571 0 0.28355009790984409 -0.17549983614563519 0 0.2530488896403309 -0.16079061319898569 0 0.272260185211738 -0.168331689764908 0 0.27335445324682811 -0.1824409541049711 0 0.272260185211738 -0.168331689764908 0 0.26878477807763418 -0.16016356734556891 0 0.27899515764395177 -0.15443660918041571 0 0.272260185211738 -0.168331689764908 0 0.27335445324682811 -0.1824409541049711 0 0.28355009790984409 -0.17549983614563519 0 0.27851755886665591 -0.20371457102860641 0 0.27335445324682811 -0.1824409541049711 0 0.28355009790984409 -0.17549983614563519 0 0.25915390151091949 -0.11811210275817149 0 0.25133622254172122 -0.13557462765415079 0 0.27338563510190422 -0.1356944138819183 0 0.25133622254172122 -0.13557462765415079 0 0.27338563510190422 -0.1356944138819183 0 0.25133622254172122 -0.13557462765415079 0 0.25208407187516418 -0.1419613505697605 0 0.27338563510190422 -0.1356944138819183 0 0.26557247671991108 -0.14774187414890411 0 0.25208407187516418 -0.1419613505697605 0 0.27142481771649529 -0.14478242884651979 0 0.25208407187516418 -0.1419613505697605 0 0.27142481771649529 -0.14478242884651979 0 0.2530488896403309 -0.16079061319898569 0 0.25208407187516418 -0.1419613505697605 0 0.26293682869207591 -0.15391070786642169 0 0.26557247671991108 -0.14774187414890411 0 0.25208407187516418 -0.1419613505697605 0 0.26293682869207591 -0.15391070786642169 0 0.27899515764395177 -0.15443660918041571 0 0.27142481771649529 -0.14478242884651979 0 0.28858263695303038 -0.1472851012626637 0 0.25208407187516418 -0.1419613505697605 0 0.27142481771649529 -0.14478242884651979 0 0.27338563510190422 -0.1356944138819183 0 0.27142481771649529 -0.14478242884651979 0 0.28858263695303038 -0.1472851012626637 0 0.27142481771649529 -0.14478242884651979 0 0.27338563510190422 -0.1356944138819183 0 0.28952553314766588 -0.14199879033185039 0 0.26878477807763418 -0.16016356734556891 0 0.27009527632936597 -0.15279308215900331 0 0.27899515764395177 -0.15443660918041571 0 0.26557247671991108 -0.14774187414890411 0 0.27009527632936597 -0.15279308215900331 0 0.27142481771649529 -0.14478242884651979 0 0.26878477807763418 -0.16016356734556891 0 0.26293682869207591 -0.15391070786642169 0 0.27009527632936597 -0.15279308215900331 0 0.26557247671991108 -0.14774187414890411 0 0.26293682869207591 -0.15391070786642169 0 0.27009527632936597 -0.15279308215900331 0 0.27009527632936597 -0.15279308215900331 0 0.27899515764395177 -0.15443660918041571 0 0.27142481771649529 -0.14478242884651979 0 0.27794998204403759 -0.11453953550188679 0 0.27338563510190422 -0.1356944138819183 0 0.27142481771649529 -0.14478242884651979 0 0.27338563510190422 -0.1356944138819183 0 0.27338563510190422 -0.1356944138819183 0 0.30316218715013699 -0.13585617877411299 0 0.29209333803684512 -0.1204183792118467 0 0.27338563510190422 -0.1356944138819183 0 0.30316218715013699 -0.13585617877411299 0 0.27338563510190422 -0.1356944138819183 0 0.28952553314766588 -0.14199879033185039 0 0.30316218715013699 -0.13585617877411299 0 0.27142481771649529 -0.14478242884651979 0 0.28952553314766588 -0.14199879033185039 0 0.28858263695303038 -0.1472851012626637 0 0.28858263695303038 -0.1472851012626637 0 0.30013596324633868 -0.14897029159077979 0 0.28952553314766588 -0.14199879033185039 0 0.28858263695303038 -0.1472851012626637 0 0.30013596324633868 -0.14897029159077979 0 0.28952553314766588 -0.14199879033185039 0 0.28858263695303038 -0.1472851012626637 0 0.28858263695303038 -0.1472851012626637 0 0.30013596324633868 -0.14897029159077979 0 0.29372711844303928 -0.1600295372122347 0 0.30316218715013699 -0.13585617877411299 0 0.30143657678371732 -0.15869874935543771 0 0.30013596324633868 -0.14897029159077979 0 0.30316218715013699 -0.13585617877411299 0 0.30143657678371732 -0.15869874935543771 0 0.30316218715013699 -0.13585617877411299 0 0.30143657678371732 -0.15869874935543771 0 0.31253980123811259 -0.14771969478669131 0 0.30013596324633868 -0.14897029159077979 0 0.29372711844303928 -0.1600295372122347 0 0.30143657678371732 -0.15869874935543771 0 0.30143657678371732 -0.15869874935543771 0 0.31557079919726838 -0.1590044961535387 0 0.31253980123811259 -0.14771969478669131 0 0.28952553314766588 -0.14199879033185039 0 0.30013596324633868 -0.14897029159077979 0 0.30316218715013699 -0.13585617877411299 0 0.30316218715013699 -0.13585617877411299 0 0.31993283661344418 -0.13594728745244961 0 0.31253980123811259 -0.14771969478669131 0 0.30316218715013699 -0.13585617877411299 0 0.31993283661344418 -0.13594728745244961 0 0.28994099481116897 -0.19128490440727269 0 0.28355009790984409 -0.17549983614563519 0 0.29971096641729777 -0.18154131993676231 0 0.28355009790984409 -0.17549983614563519 0 0.29493031732226571 -0.16969370770665679 0 0.29971096641729777 -0.18154131993676231 0 0.27899515764395177 -0.15443660918041571 0 0.28858263695303038 -0.1472851012626637 0 0.28355009790984409 -0.17549983614563519 0 0.28858263695303038 -0.1472851012626637 0 0.28355009790984409 -0.17549983614563519 0 0.28858263695303038 -0.1472851012626637 0 0.28355009790984409 -0.17549983614563519 0 0.29372711844303928 -0.1600295372122347 0 0.29372711844303928 -0.1600295372122347 0 0.29493031732226571 -0.16969370770665679 0 0.30143657678371732 -0.15869874935543771 0 0.28355009790984409 -0.17549983614563519 0 0.29372711844303928 -0.1600295372122347 0 0.29493031732226571 -0.16969370770665679 0 0.30143657678371732 -0.15869874935543771 0 0.29971096641729777 -0.18154131993676231 0 0.30143657678371732 -0.15869874935543771 0 0.30809610970482848 -0.16795036279156811 0 0.29971096641729777 -0.18154131993676231 0 0.29493031732226571 -0.16969370770665679 0 0.30143657678371732 -0.15869874935543771 0 0.29971096641729777 -0.18154131993676231 0 0.30143657678371732 -0.15869874935543771 0 0.30809610970482848 -0.16795036279156811 0 0.31557079919726838 -0.1590044961535387 0 0.29971096641729777 -0.18154131993676231 0 0.31498869866721663 -0.1848028620899877 0 0.3156660964210305 -0.17255688572053399 0 0.30809610970482848 -0.16795036279156811 0 0.29971096641729777 -0.18154131993676231 0 0.3156660964210305 -0.17255688572053399 0 0.30866677822314281 -0.19370433905286669 0 0.29971096641729777 -0.18154131993676231 0 0.31498869866721663 -0.1848028620899877 0 0.32729102930978993 -0.18432716657830939 0 0.3156660964210305 -0.17255688572053399 0 0.33199725769327038 -0.160182781354547 0 0.31498869866721663 -0.1848028620899877 0 0.32729102930978993 -0.18432716657830939 0 0.3156660964210305 -0.17255688572053399 0 0.3156660964210305 -0.17255688572053399 0 0.31557079919726838 -0.1590044961535387 0 0.33199725769327038 -0.160182781354547 0 0.30809610970482848 -0.16795036279156811 0 0.3156660964210305 -0.17255688572053399 0 0.31557079919726838 -0.1590044961535387 0 0.32729102930978993 -0.18432716657830939 0 0.34572674800851178 -0.17666980330527179 0 0.34152908302092871 -0.19789605564194099 0 0.32729102930978993 -0.18432716657830939 0 0.33199725769327038 -0.160182781354547 0 0.34572674800851178 -0.17666980330527179 0 0.32729102930978993 -0.18432716657830939 0 0.33199725769327038 -0.160182781354547 0 0.31854024801571379 -0.1183964408803808 0 0.30316218715013699 -0.13585617877411299 0 0.31993283661344418 -0.13594728745244961 0 0.31993283661344418 -0.13594728745244961 0 0.32334883616376942 -0.1477785311756023 0 0.33670348607675138 -0.13603839613078461 0 0.31854024801571379 -0.1183964408803808 0 0.31993283661344418 -0.13594728745244961 0 0.33718817445421712 -0.13355179710808501 0 0.31854024801571379 -0.1183964408803808 0 0.33718817445421712 -0.13355179710808501 0 0.31557079919726838 -0.1590044961535387 0 0.33199725769327038 -0.160182781354547 0 0.32334883616376942 -0.1477785311756023 0 0.31993283661344418 -0.13594728745244961 0 0.32334883616376942 -0.1477785311756023 0 0.31253980123811259 -0.14771969478669131 0 0.31557079919726838 -0.1590044961535387 0 0.32334883616376942 -0.1477785311756023 0 0.31253980123811259 -0.14771969478669131 0 0.33199725769327038 -0.160182781354547 0 0.34027166502062639 -0.13605778071504529 0 0.33670348607675138 -0.13603839613078461 0 0.33199725769327038 -0.160182781354547 0 0.32334883616376942 -0.1477785311756023 0 0.33670348607675138 -0.13603839613078461 0 0.33199725769327038 -0.160182781354547 0 0.33670348607675138 -0.13603839613078461 0 0.31993283661344418 -0.13594728745244961 0 0.33670348607675138 -0.13603839613078461 0 0.31993283661344418 -0.13594728745244961 0 0.33670348607675138 -0.13603839613078461 0 0.33718817445421712 -0.13355179710808501 0 0.34025414842832208 -0.11782241666052221 0 0.33718817445421712 -0.13355179710808501 0 0.34381162934489939 -0.12854128697128539 0 0.34025414842832208 -0.11782241666052221 0 0.33718817445421712 -0.13355179710808501 0 0.34027166502062639 -0.13605778071504529 0 0.33670348607675138 -0.13603839613078461 0 0.33718817445421712 -0.13355179710808501 0 0.34027166502062639 -0.13605778071504529 0 0.33718817445421712 -0.13355179710808501 0 0.34027166502062639 -0.13605778071504529 0 0.33670348607675138 -0.13603839613078461 0 0.33670348607675138 -0.13603839613078461 0 0.33718817445421712 -0.13355179710808501 0 0.34027166502062639 -0.13605778071504529 0 0.33718817445421712 -0.13355179710808501 0 0.34381162934489939 -0.12854128697128539 0 0.33199725769327038 -0.160182781354547 0 0.34027166502062639 -0.13605778071504529 0 0.36359383050920879 -0.15501193774405861 0 0.35355367174401742 -0.1211945845718113 0 0.34381162934489939 -0.12854128697128539 0 0.34779048707731292 -0.1340798558009649 0 0.34027166502062639 -0.13605778071504529 0 0.34884821061351562 -0.13610437388577321 0 0.35664352332635268 -0.13060513793896061 0 0.34779048707731292 -0.1340798558009649 0 0.34884821061351562 -0.13610437388577321 0 0.34027166502062639 -0.13605778071504529 0 0.34779048707731292 -0.1340798558009649 0 0.34884821061351562 -0.13610437388577321 0 0.34027166502062639 -0.13605778071504529 0 0.34381162934489939 -0.12854128697128539 0 0.34779048707731292 -0.1340798558009649 0 0.35664352332635268 -0.13060513793896061 0 0.34884821061351562 -0.13610437388577321 0 0.36374720336072303 -0.13810563056468389 0 0.34884821061351562 -0.13610437388577321 0 0.36359383050920879 -0.15501193774405861 0 0.36374720336072303 -0.13810563056468389 0 0.34027166502062639 -0.13605778071504529 0 0.36359383050920879 -0.15501193774405861 0 0.34027166502062639 -0.13605778071504529 0 0.34884821061351562 -0.13610437388577321 0 0.36359383050920879 -0.15501193774405861 0 0.36359383050920879 -0.15501193774405861 0 0.36374720336072303 -0.13810563056468389 0 0.37656812491251679 -0.13846106794218549 0 0.3785150876385216 -0.1195111518185689 0 0.36779594019891898 -0.12729788290040461 0 0.37656812491251679 -0.13846106794218549 0 0.36374720336072303 -0.13810563056468389 0 0.36779594019891898 -0.12729788290040461 0 0.37656812491251679 -0.13846106794218549 0 0.35664352332635268 -0.13060513793896061 0 0.36374720336072303 -0.13810563056468389 0 0.36779594019891898 -0.12729788290040461 0 0.33199725769327038 -0.160182781354547 0 0.36359383050920879 -0.15501193774405861 0 0.34572674800851178 -0.17666980330527179 0 0.34572674800851178 -0.17666980330527179 0 0.36422253950936112 -0.1859310752075029 0 0.34152908302092871 -0.19789605564194099 0 0.36359383050920879 -0.15501193774405861 0 0.34572674800851178 -0.17666980330527179 0 0.36422253950936112 -0.1859310752075029 0 0.36359383050920879 -0.15501193774405861 0 0.36422253950936112 -0.1859310752075029 0 0.38691599599779503 -0.1739660947730671 0 0.36422253950936112 -0.1859310752075029 0 0.37220629557919183 -0.19612338441269381 0 0.37910290544765168 -0.18685571494790659 0 0.36422253950936112 -0.1859310752075029 0 0.37220629557919183 -0.19612338441269381 0 0.35685044422528578 -0.20027094664828951 0 0.37220629557919183 -0.19612338441269381 0 0.3556522221671049 -0.2162457527497984 0 0.35685044422528578 -0.20027094664828951 0 0.37220629557919183 -0.19612338441269381 0 0.3556522221671049 -0.2162457527497984 0 0.37273333868611941 -0.2093978965492076 0 0.3556522221671049 -0.2162457527497984 0 0.3731990688381891 -0.2228302363117915 0 0.37220629557919183 -0.19612338441269381 0 0.37273333868611941 -0.2093978965492076 0 0.3556522221671049 -0.2162457527497984 0 0.34913249600123192 -0.20719712371303781 0 0.34152908302092871 -0.19789605564194099 0 0.34144894007629428 -0.2139395960038605 0 0.3556522221671049 -0.2162457527497984 0 0.34913249600123192 -0.20719712371303781 0 0.35685044422528578 -0.20027094664828951 0 0.3556522221671049 -0.2162457527497984 0 0.34913249600123192 -0.20719712371303781 0 0.34144894007629428 -0.2139395960038605 0 0.36422253950936112 -0.1859310752075029 0 0.35685044422528578 -0.20027094664828951 0 0.34152908302092871 -0.19789605564194099 0 0.36422253950936112 -0.1859310752075029 0 0.34152908302092871 -0.19789605564194099 0 0.34913249600123192 -0.20719712371303781 0 0.35685044422528578 -0.20027094664828951 0 0.34152908302092871 -0.19789605564194099 0 0.32729102930978993 -0.18432716657830939 0 0.34152908302092871 -0.19789605564194099 0 0.32289957828838461 -0.19876131457419149 0 0.34152908302092871 -0.19789605564194099 0 0.31883562653249692 -0.20986103607638071 0 0.34152908302092871 -0.19789605564194099 0 0.34144894007629428 -0.2139395960038605 0 0.31883562653249692 -0.20986103607638071 0 0.34144894007629428 -0.2139395960038605 0 0.31883562653249692 -0.20986103607638071 0 0.32331405575278033 -0.23055000204260581 0 0.31883562653249692 -0.20986103607638071 0 0.32289957828838461 -0.19876131457419149 0 0.30817512199612251 -0.208018461664154 0 0.31883562653249692 -0.20986103607638071 0 0.32289957828838461 -0.19876131457419149 0 0.30866677822314281 -0.19370433905286669 0 0.30817512199612251 -0.208018461664154 0 0.32289957828838461 -0.19876131457419149 0 0.34152908302092871 -0.19789605564194099 0 0.31883562653249692 -0.20986103607638071 0 0.32289957828838461 -0.19876131457419149 0 0.30866677822314281 -0.19370433905286669 0 0.31498869866721663 -0.1848028620899877 0 0.32289957828838461 -0.19876131457419149 0 0.31498869866721663 -0.1848028620899877 0 0.32729102930978993 -0.18432716657830939 0 0.32289957828838461 -0.19876131457419149 0 0.30517917142926537 -0.24716040808135001 0 0.32331405575278033 -0.23055000204260581 0 0.30517917142926537 -0.24716040808135001 0 0.32331405575278033 -0.23055000204260581 0 0.322544075342931 -0.25649048942400782 0 0.31200739898088131 -0.22851072207886541 0 0.30517917142926537 -0.24716040808135001 0 0.32331405575278033 -0.23055000204260581 0 0.31200739898088131 -0.22851072207886541 0 0.31883562653249692 -0.20986103607638071 0 0.31200739898088131 -0.22851072207886541 0 0.31883562653249692 -0.20986103607638071 0 0.32331405575278033 -0.23055000204260581 0 0.34144894007629428 -0.2139395960038605 0 0.32331405575278033 -0.23055000204260581 0 0.34144894007629428 -0.2139395960038605 0 0.32331405575278033 -0.23055000204260581 0 0.33909814875501798 -0.23636812108690311 0 0.33909814875501798 -0.23636812108690311 0 0.322544075342931 -0.25649048942400782 0 0.32331405575278033 -0.23055000204260581 0 0.33909814875501798 -0.23636812108690311 0 0.322544075342931 -0.25649048942400782 0 0.33909814875501798 -0.23636812108690311 0 0.35007299243335749 -0.24785688602667111 0 0.33700232267718733 -0.25494009872172468 0 0.33909814875501798 -0.23636812108690311 0 0.322544075342931 -0.25649048942400782 0 0.33700232267718733 -0.25494009872172468 0 0.33909814875501798 -0.23636812108690311 0 0.35007299243335749 -0.24785688602667111 0 0.35471840821638012 -0.232162972911199 0 0.35007299243335749 -0.24785688602667111 0 0.35471840821638012 -0.232162972911199 0 0.36225179838031341 -0.2439392928582107 0 0.35007299243335749 -0.24785688602667111 0 0.36225179838031341 -0.2439392928582107 0 0.36124693131331159 -0.25807728632712912 0 0.3556522221671049 -0.2162457527497984 0 0.33909814875501798 -0.23636812108690311 0 0.3556522221671049 -0.2162457527497984 0 0.33909814875501798 -0.23636812108690311 0 0.35471840821638012 -0.232162972911199 0 0.3556522221671049 -0.2162457527497984 0 0.34144894007629428 -0.2139395960038605 0 0.33909814875501798 -0.23636812108690311 0 0.35471840821638012 -0.232162972911199 0 0.3731990688381891 -0.2228302363117915 0 0.36225179838031341 -0.2439392928582107 0 0.3556522221671049 -0.2162457527497984 0 0.35471840821638012 -0.232162972911199 0 0.3731990688381891 -0.2228302363117915 0 0.3731990688381891 -0.2228302363117915 0 0.36225179838031341 -0.2439392928582107 0 0.3731990688381891 -0.2228302363117915 0 0.36225179838031341 -0.2439392928582107 0 0.38186963046980549 -0.2367879359972051 0 0.36225179838031341 -0.2439392928582107 0 0.38186963046980549 -0.2367879359972051 0 0.37510228513818711 -0.25237727586059511 0 0.38186963046980549 -0.2367879359972051 0 0.39206528024080278 -0.24921397013056479 0 0.37510228513818711 -0.25237727586059511 0 0.39206528024080278 -0.24921397013056479 0 0.40137725565661481 -0.22692044649349019 0 0.4148006158986044 -0.24103970595398019 0 0.39206528024080278 -0.24921397013056479 0 0.4148006158986044 -0.24103970595398019 0 0.40884184876520419 -0.25890250189124958 0 0.38186963046980549 -0.2367879359972051 0 0.39206528024080278 -0.24921397013056479 0 0.40137725565661481 -0.22692044649349019 0 0.40137725565661481 -0.22692044649349019 0 0.39915185452682361 -0.21610044156742811 0 0.41396763236883027 -0.21470461273584779 0 0.40137725565661481 -0.22692044649349019 0 0.38700545273377529 -0.2233412248148075 0 0.39915185452682361 -0.21610044156742811 0 0.38186963046980549 -0.2367879359972051 0 0.40137725565661481 -0.22692044649349019 0 0.38700545273377529 -0.2233412248148075 0 0.3731990688381891 -0.2228302363117915 0 0.38186963046980549 -0.2367879359972051 0 0.38700545273377529 -0.2233412248148075 0 0.3731990688381891 -0.2228302363117915 0 0.38414633929606479 -0.2017211797653724 0 0.37273333868611941 -0.2093978965492076 0 0.3731990688381891 -0.2228302363117915 0 0.38414633929606479 -0.2017211797653724 0 0.3731990688381891 -0.2228302363117915 0 0.38675328488958288 -0.2095276895359276 0 0.38414633929606479 -0.2017211797653724 0 0.3731990688381891 -0.2228302363117915 0 0.38700545273377529 -0.2233412248148075 0 0.38675328488958288 -0.2095276895359276 0 0.38675328488958288 -0.2095276895359276 0 0.38414633929606479 -0.2017211797653724 0 0.39287005569986072 -0.20314648074516001 0 0.38414633929606479 -0.2017211797653724 0 0.38373621375160438 -0.1885238144486111 0 0.39509360975394031 -0.18061212321895309 0 0.38414633929606479 -0.2017211797653724 0 0.39509360975394031 -0.18061212321895309 0 0.37999921147615667 -0.19503406661491049 0 0.38373621375160438 -0.1885238144486111 0 0.37910290544765168 -0.18685571494790659 0 0.37999921147615667 -0.19503406661491049 0 0.38414633929606479 -0.2017211797653724 0 0.38373621375160438 -0.1885238144486111 0 0.37220629557919183 -0.19612338441269381 0 0.37999921147615667 -0.19503406661491049 0 0.37910290544765168 -0.18685571494790659 0 0.37220629557919183 -0.19612338441269381 0 0.37273333868611941 -0.2093978965492076 0 0.38414633929606479 -0.2017211797653724 0 0.37220629557919183 -0.19612338441269381 0 0.37999921147615667 -0.19503406661491049 0 0.38414633929606479 -0.2017211797653724 0 0.38414633929606479 -0.2017211797653724 0 0.39694758591794982 -0.18886739411602391 0 0.39509360975394031 -0.18061212321895309 0 0.39694758591794982 -0.18886739411602391 0 0.3969424320709618 -0.1972324897541754 0 0.40101572763622523 -0.19231380306325679 0 0.38414633929606479 -0.2017211797653724 0 0.39694758591794982 -0.18886739411602391 0 0.3969424320709618 -0.1972324897541754 0 0.38414633929606479 -0.2017211797653724 0 0.3969424320709618 -0.1972324897541754 0 0.39287005569986072 -0.20314648074516001 0 0.3969424320709618 -0.1972324897541754 0 0.400612395600416 -0.20053006859666331 0 0.39287005569986072 -0.20314648074516001 0 0.3969424320709618 -0.1972324897541754 0 0.4059814476455269 -0.19573306963025069 0 0.400612395600416 -0.20053006859666331 0 0.4059814476455269 -0.19573306963025069 0 0.400612395600416 -0.20053006859666331 0 0.40665564698531481 -0.2060082342570673 0 0.3969424320709618 -0.1972324897541754 0 0.4059814476455269 -0.19573306963025069 0 0.40101572763622523 -0.19231380306325679 0 0.4059814476455269 -0.19573306963025069 0 0.40101572763622523 -0.19231380306325679 0 0.40419144491046238 -0.1874222587525772 0 0.39694758591794982 -0.18886739411602391 0 0.40101572763622523 -0.19231380306325679 0 0.40419144491046238 -0.1874222587525772 0 0.38675328488958288 -0.2095276895359276 0 0.40665564698531481 -0.2060082342570673 0 0.38675328488958288 -0.2095276895359276 0 0.39915185452682361 -0.21610044156742811 0 0.40665564698531481 -0.2060082342570673 0 0.38675328488958288 -0.2095276895359276 0 0.39287005569986072 -0.20314648074516001 0 0.40665564698531481 -0.2060082342570673 0 0.38700545273377529 -0.2233412248148075 0 0.38675328488958288 -0.2095276895359276 0 0.39915185452682361 -0.21610044156742811 0 0.400612395600416 -0.20053006859666331 0 0.39287005569986072 -0.20314648074516001 0 0.40665564698531481 -0.2060082342570673 0 0.41396763236883027 -0.21470461273584779 0 0.40665564698531481 -0.2060082342570673 0 0.42655800908104652 -0.20248877897820619 0 0.40665564698531481 -0.2060082342570673 0 0.42655800908104652 -0.20248877897820619 0 0.39915185452682361 -0.21610044156742811 0 0.41396763236883027 -0.21470461273584779 0 0.40665564698531481 -0.2060082342570673 0 0.41396763236883027 -0.21470461273584779 0 0.42655800908104652 -0.20248877897820619 0 0.40665564698531481 -0.2060082342570673 0 0.41640017291144837 -0.19588579121564459 0 0.42655800908104652 -0.20248877897820619 0 0.4059814476455269 -0.19573306963025069 0 0.41640017291144837 -0.19588579121564459 0 0.41453364601533049 -0.1862870086825022 0 0.4059814476455269 -0.19573306963025069 0 0.40419144491046238 -0.1874222587525772 0 0.41453364601533049 -0.1862870086825022 0 0.4059814476455269 -0.19573306963025069 0 0.40665564698531481 -0.2060082342570673 0 0.41640017291144837 -0.19588579121564459 0 0.41640017291144837 -0.19588579121564459 0 0.42581299264578848 -0.18832250896932939 0 0.41453364601533049 -0.1862870086825022 0 0.42655800908104652 -0.20248877897820619 0 0.444302871767289 -0.18527179670816579 0 0.42581299264578848 -0.18832250896932939 0 0.42655800908104652 -0.20248877897820619 0 0.444302871767289 -0.18527179670816579 0 0.41640017291144837 -0.19588579121564459 0 0.42581299264578848 -0.18832250896932939 0 0.42655800908104652 -0.20248877897820619 0 0.42655800908104652 -0.20248877897820619 0 0.43237997939727391 -0.21969514264188619 0 0.44995934289594253 -0.19835057932979169 0 0.41396763236883027 -0.21470461273584779 0 0.42655800908104652 -0.20248877897820619 0 0.43237997939727391 -0.21969514264188619 0 0.43237997939727391 -0.21969514264188619 0 0.43199948472716282 -0.23703470349933331 0 0.4148006158986044 -0.24103970595398019 0 0.43237997939727391 -0.21969514264188619 0 0.4148006158986044 -0.24103970595398019 0 0.43199948472716282 -0.23703470349933331 0 0.4148006158986044 -0.24103970595398019 0 0.42892204251950339 -0.2594807324876427 0 0.43199948472716282 -0.23703470349933331 0 0.44338493428344739 -0.24574379201886831 0 0.42892204251950339 -0.2594807324876427 0 0.43237997939727391 -0.21969514264188619 0 0.4148006158986044 -0.24103970595398019 0 0.41563137083033092 -0.22558997695630109 0 0.41396763236883027 -0.21470461273584779 0 0.43237997939727391 -0.21969514264188619 0 0.41563137083033092 -0.22558997695630109 0 0.40137725565661481 -0.22692044649349019 0 0.4148006158986044 -0.24103970595398019 0 0.41563137083033092 -0.22558997695630109 0 0.40137725565661481 -0.22692044649349019 0 0.41396763236883027 -0.21470461273584779 0 0.40137725565661481 -0.22692044649349019 0 0.41396763236883027 -0.21470461273584779 0 0.41563137083033092 -0.22558997695630109 0 0.39237070121405998 -0.13164091544729051 0 0.39988799210863701 -0.14408364481314989 0 0.41368108829086198 -0.13554811058748131 0 0.40604313277712428 -0.1171380761358455 0 0.39237070121405998 -0.13164091544729051 0 0.41368108829086198 -0.13554811058748131 0 0.39237070121405998 -0.13164091544729051 0 0.37656812491251679 -0.13846106794218549 0 0.38605620033535121 -0.1499684147877679 0 0.3785150876385216 -0.1195111518185689 0 0.39237070121405998 -0.13164091544729051 0 0.37656812491251679 -0.13846106794218549 0 0.36359383050920879 -0.15501193774405861 0 0.37656812491251679 -0.13846106794218549 0 0.38605620033535121 -0.1499684147877679 0 0.39237070121405998 -0.13164091544729051 0 0.38605620033535121 -0.1499684147877679 0 0.39988799210863701 -0.14408364481314989 0 0.38605620033535121 -0.1499684147877679 0 0.39988799210863701 -0.14408364481314989 0 0.39700055726989097 -0.15664682800685811 0 0.39988799210863701 -0.14408364481314989 0 0.39700055726989097 -0.15664682800685811 0 0.40766935758353628 -0.1563629578155839 0 0.40291487034120532 -0.16553079014728059 0 0.39700055726989097 -0.15664682800685811 0 0.38691599599779503 -0.1739660947730671 0 0.40291487034120532 -0.16553079014728059 0 0.38691599599779503 -0.1739660947730671 0 0.40291487034120532 -0.16553079014728059 0 0.39700055726989097 -0.15664682800685811 0 0.40766935758353628 -0.1563629578155839 0 0.40291487034120532 -0.16553079014728059 0 0.40766935758353628 -0.1563629578155839 0 0.38605620033535121 -0.1499684147877679 0 0.39700055726989097 -0.15664682800685811 0 0.38691599599779503 -0.1739660947730671 0 0.36359383050920879 -0.15501193774405861 0 0.38691599599779503 -0.1739660947730671 0 0.36359383050920879 -0.15501193774405861 0 0.38605620033535121 -0.1499684147877679 0 0.38691599599779503 -0.1739660947730671 0 0.36422253950936112 -0.1859310752075029 0 0.38691599599779503 -0.1739660947730671 0 0.37910290544765168 -0.18685571494790659 0 0.36422253950936112 -0.1859310752075029 0 0.38691599599779503 -0.1739660947730671 0 0.38691599599779503 -0.1739660947730671 0 0.38753717637180268 -0.18155585423065651 0 0.39509360975394031 -0.18061212321895309 0 0.38373621375160438 -0.1885238144486111 0 0.38753717637180268 -0.18155585423065651 0 0.39509360975394031 -0.18061212321895309 0 0.38691599599779503 -0.1739660947730671 0 0.37910290544765168 -0.18685571494790659 0 0.38753717637180268 -0.18155585423065651 0 0.38373621375160438 -0.1885238144486111 0 0.37910290544765168 -0.18685571494790659 0 0.38753717637180268 -0.18155585423065651 0 0.40291487034120532 -0.16553079014728059 0 0.38691599599779503 -0.1739660947730671 0 0.39509360975394031 -0.18061212321895309 0 0.39694758591794982 -0.18886739411602391 0 0.39665445354372708 -0.18451779314135289 0 0.39509360975394031 -0.18061212321895309 0 0.39694758591794982 -0.18886739411602391 0 0.39665445354372708 -0.18451779314135289 0 0.40021252966215071 -0.18382207331845951 0 0.39665445354372708 -0.18451779314135289 0 0.39509360975394031 -0.18061212321895309 0 0.40021252966215071 -0.18382207331845951 0 0.38691599599779503 -0.1739660947730671 0 0.39509360975394031 -0.18061212321895309 0 0.40291487034120532 -0.16553079014728059 0 0.39509360975394031 -0.18061212321895309 0 0.40549068313545528 -0.17742909809594989 0 0.40291487034120532 -0.16553079014728059 0 0.39509360975394031 -0.18061212321895309 0 0.40549068313545528 -0.17742909809594989 0 0.40419144491046238 -0.1874222587525772 0 0.40021252966215071 -0.18382207331845951 0 0.39509360975394031 -0.18061212321895309 0 0.40549068313545528 -0.17742909809594989 0 0.40021252966215071 -0.18382207331845951 0 0.39694758591794982 -0.18886739411602391 0 0.40419144491046238 -0.1874222587525772 0 0.40021252966215071 -0.18382207331845951 0 0.42581299264578848 -0.18832250896932939 0 0.41453364601533049 -0.1862870086825022 0 0.42235201908535791 -0.17050045814039369 0 0.40549068313545528 -0.17742909809594989 0 0.41453364601533049 -0.1862870086825022 0 0.42235201908535791 -0.17050045814039369 0 0.40549068313545528 -0.17742909809594989 0 0.40419144491046238 -0.1874222587525772 0 0.41453364601533049 -0.1862870086825022 0 0.42235201908535791 -0.17050045814039369 0 0.44127751826325029 -0.16493106072254701 0 0.444302871767289 -0.18527179670816579 0 0.42581299264578848 -0.18832250896932939 0 0.42235201908535791 -0.17050045814039369 0 0.444302871767289 -0.18527179670816579 0 0.42235201908535791 -0.17050045814039369 0 0.42606808286872072 -0.1533234062687002 0 0.44127751826325029 -0.16493106072254701 0 0.40291487034120532 -0.16553079014728059 0 0.40766935758353628 -0.1563629578155839 0 0.42606808286872072 -0.1533234062687002 0 0.40291487034120532 -0.16553079014728059 0 0.42606808286872072 -0.1533234062687002 0 0.40291487034120532 -0.16553079014728059 0 0.42235201908535791 -0.17050045814039369 0 0.42606808286872072 -0.1533234062687002 0 0.40291487034120532 -0.16553079014728059 0 0.40549068313545528 -0.17742909809594989 0 0.42235201908535791 -0.17050045814039369 0 0.41182663021293903 -0.1473295298712288 0 0.42606808286872072 -0.1533234062687002 0 0.41368108829086198 -0.13554811058748131 0 0.40766935758353628 -0.1563629578155839 0 0.41182663021293903 -0.1473295298712288 0 0.42606808286872072 -0.1533234062687002 0 0.39988799210863701 -0.14408364481314989 0 0.40766935758353628 -0.1563629578155839 0 0.41182663021293903 -0.1473295298712288 0 0.39988799210863701 -0.14408364481314989 0 0.41182663021293903 -0.1473295298712288 0 0.41368108829086198 -0.13554811058748131 0 0.42606808286872072 -0.1533234062687002 0 0.430889964195386 -0.135117951771525 0 0.44922129539623712 -0.14111602239012119 0 0.42606808286872072 -0.1533234062687002 0 0.430889964195386 -0.135117951771525 0 0.41368108829086198 -0.13554811058748131 0 0.42080162445294911 -0.1170697999396166 0 0.430889964195386 -0.135117951771525 0 0.41368108829086198 -0.13554811058748131 0 0.45825176112352212 -0.1171944005084963 0 0.44922129539623712 -0.14111602239012119 0 0.47461064769812122 -0.12772964805397971 0 0.44922129539623712 -0.14111602239012119 0 0.47461064769812122 -0.12772964805397971 0 0.44922129539623712 -0.14111602239012119 0 0.47041229806123103 -0.14236165737458781 0 0.47461064769812122 -0.12772964805397971 0 0.43893170590200609 -0.1195052611799315 0 0.430889964195386 -0.135117951771525 0 0.44922129539623712 -0.14111602239012119 0 0.43893170590200609 -0.1195052611799315 0 0.45825176112352212 -0.1171944005084963 0 0.44922129539623712 -0.14111602239012119 0 0.43893170590200609 -0.1195052611799315 0 0.44922129539623712 -0.14111602239012119 0 0.42606808286872072 -0.1533234062687002 0 0.44922129539623712 -0.14111602239012119 0 0.44127751826325029 -0.16493106072254701 0 0.42606808286872072 -0.1533234062687002 0 0.44922129539623712 -0.14111602239012119 0 0.44922129539623712 -0.14111602239012119 0 0.46204773445353348 -0.16805481443812731 0 0.44922129539623712 -0.14111602239012119 0 0.46204773445353348 -0.16805481443812731 0 0.47041229806123103 -0.14236165737458781 0 0.44922129539623712 -0.14111602239012119 0 0.46204773445353348 -0.16805481443812731 0 0.44127751826325029 -0.16493106072254701 0 0.46204773445353348 -0.16805481443812731 0 0.44127751826325029 -0.16493106072254701 0 0.444302871767289 -0.18527179670816579 0 0.46204773445353348 -0.16805481443812731 0 0.444302871767289 -0.18527179670816579 0 0.46675991992270621 -0.1779516052682695 0 0.47013600328087812 -0.185042241033678 0 0.44995934289594253 -0.19835057932979169 0 0.444302871767289 -0.18527179670816579 0 0.46675991992270621 -0.1779516052682695 0 0.44995934289594253 -0.19835057932979169 0 0.46204773445353348 -0.16805481443812731 0 0.444302871767289 -0.18527179670816579 0 0.46675991992270621 -0.1779516052682695 0 0.46204773445353348 -0.16805481443812731 0 0.46675991992270621 -0.1779516052682695 0 0.46675991992270621 -0.1779516052682695 0 0.47013600328087812 -0.185042241033678 0 0.46675991992270621 -0.1779516052682695 0 0.48388214138120561 -0.17390417728894431 0 0.47927416581767118 -0.18397687174081401 0 0.46675991992270621 -0.1779516052682695 0 0.47013600328087812 -0.185042241033678 0 0.47927416581767118 -0.18397687174081401 0 0.48388214138120561 -0.17390417728894431 0 0.47927416581767118 -0.18397687174081401 0 0.48987334582395858 -0.18140433091368091 0 0.48987334582395858 -0.18140433091368091 0 0.5 -0.16492372169971509 0 0.5 -0.19225537639104809 0 0.48388214138120561 -0.17390417728894431 0 0.48987334582395858 -0.18140433091368091 0 0.5 -0.16492372169971509 0 0.47927416581767118 -0.18397687174081401 0 0.48987334582395858 -0.18140433091368091 0 0.48552241192915191 -0.19206174635411891 0 0.48388214138120561 -0.17390417728894431 0 0.5 -0.16492372169971509 0 0.48337995996135552 -0.1577718361383266 0 0.46675991992270621 -0.1779516052682695 0 0.48388214138120561 -0.17390417728894431 0 0.48337995996135552 -0.1577718361383266 0 0.46204773445353348 -0.16805481443812731 0 0.46675991992270621 -0.1779516052682695 0 0.48337995996135552 -0.1577718361383266 0 0.46204773445353348 -0.16805481443812731 0 0.48337995996135552 -0.1577718361383266 0 0.47713463147989749 -0.15341672773068571 0 0.46675991992270621 -0.1779516052682695 0 0.48337995996135552 -0.1577718361383266 0 0.46204773445353348 -0.16805481443812731 0 0.47713463147989749 -0.15341672773068571 0 0.46204773445353348 -0.16805481443812731 0 0.47041229806123103 -0.14236165737458781 0 0.47713463147989749 -0.15341672773068571 0 0.48337995996135552 -0.1577718361383266 0 0.47713463147989749 -0.15341672773068571 0 0.48456351921585428 -0.1397192317593817 0 0.47041229806123103 -0.14236165737458781 0 0.47713463147989749 -0.15341672773068571 0 0.48456351921585428 -0.1397192317593817 0 0.48337995996135552 -0.1577718361383266 0 0.50000000000000311 -0.1375920670083822 0 0.48456351921585428 -0.1397192317593817 0 0.5 -0.16492372169971509 0 0.48337995996135552 -0.1577718361383266 0 0.50000000000000311 -0.1375920670083822 0 0.48337995996135552 -0.1577718361383266 0 0.50000000000000311 -0.1375920670083822 0 0.50000000000000433 -0.1143432737178363 0 0.50000000000000311 -0.1375920670083822 0 0.48456351921585428 -0.1397192317593817 0 0.50000000000000433 -0.1143432737178363 0 0.48456351921585428 -0.1397192317593817 0 0.47461064769812122 -0.12772964805397971 0 0.47041229806123103 -0.14236165737458781 0 0.48456351921585428 -0.1397192317593817 0 0.47461064769812122 -0.12772964805397971 0 0.46695018322910392 -0.22473955239466681 0 0.44975785303280541 -0.2255898949688982 0 0.46528918090086291 -0.2095084705765255 0 0.46695018322910392 -0.22473955239466681 0 0.46086119099944728 -0.24298014516654151 0 0.44975785303280541 -0.2255898949688982 0 0.46086119099944728 -0.24298014516654151 0 0.44338493428344739 -0.24574379201886831 0 0.44975785303280541 -0.2255898949688982 0 0.43199948472716282 -0.23703470349933331 0 0.44338493428344739 -0.24574379201886831 0 0.44975785303280541 -0.2255898949688982 0 0.46086119099944728 -0.24298014516654151 0 0.44338493428344739 -0.24574379201886831 0 0.45165913482636821 -0.26068325523694041 0 0.43237997939727391 -0.21969514264188619 0 0.43199948472716282 -0.23703470349933331 0 0.44975785303280541 -0.2255898949688982 0 0.43237997939727391 -0.21969514264188619 0 0.44975785303280541 -0.2255898949688982 0 0.44995934289594253 -0.19835057932979169 0 0.43237997939727391 -0.21969514264188619 0 0.44995934289594253 -0.19835057932979169 0 0.42655800908104652 -0.20248877897820619 0 0.444302871767289 -0.18527179670816579 0 0.44995934289594253 -0.19835057932979169 0 0.42655800908104652 -0.20248877897820619 0 0.44995934289594253 -0.19835057932979169 0 0.46675991992270621 -0.1779516052682695 0 0.44995934289594253 -0.19835057932979169 0 0.44995934289594253 -0.19835057932979169 0 0.46774087741254722 -0.19520616284195491 0 0.47013600328087812 -0.185042241033678 0 0.44995934289594253 -0.19835057932979169 0 0.46774087741254722 -0.19520616284195491 0 0.44995934289594253 -0.19835057932979169 0 0.46774087741254722 -0.19520616284195491 0 0.46528918090086291 -0.2095084705765255 0 0.44975785303280541 -0.2255898949688982 0 0.44995934289594253 -0.19835057932979169 0 0.46528918090086291 -0.2095084705765255 0 0.46695018322910392 -0.22473955239466681 0 0.46528918090086291 -0.2095084705765255 0 0.48029579162163721 -0.21558854579597769 0 0.46528918090086291 -0.2095084705765255 0 0.47801733861628259 -0.20339364304417529 0 0.48029579162163721 -0.21558854579597769 0 0.47801733861628259 -0.20339364304417529 0 0.48029579162163721 -0.21558854579597769 0 0.48876710843341442 -0.20457726853354019 0 0.46774087741254722 -0.19520616284195491 0 0.47801733861628259 -0.20339364304417529 0 0.48552241192915191 -0.19206174635411891 0 0.47927416581767118 -0.18397687174081401 0 0.46774087741254722 -0.19520616284195491 0 0.48552241192915191 -0.19206174635411891 0 0.46774087741254722 -0.19520616284195491 0 0.48552241192915191 -0.19206174635411891 0 0.47013600328087812 -0.185042241033678 0 0.47927416581767118 -0.18397687174081401 0 0.46774087741254722 -0.19520616284195491 0 0.46774087741254722 -0.19520616284195491 0 0.46528918090086291 -0.2095084705765255 0 0.47801733861628259 -0.20339364304417529 0 0.47801733861628259 -0.20339364304417529 0 0.48552241192915191 -0.19206174635411891 0 0.48876710843341442 -0.20457726853354019 0 0.48987334582395858 -0.18140433091368091 0 0.48552241192915191 -0.19206174635411891 0 0.5 -0.19225537639104809 0 0.48552241192915191 -0.19206174635411891 0 0.5 -0.19225537639104809 0 0.48876710843341442 -0.20457726853354019 0 0.5 -0.19225537639104809 0 0.48876710843341442 -0.20457726853354019 0 0.5 -0.21958703108238101 0 0.48029579162163721 -0.21558854579597769 0 0.48876710843341442 -0.20457726853354019 0 0.5 -0.21958703108238101 0 0.5 -0.21958703108238101 0 0.48033598971293961 -0.23536730169414519 0 0.5 -0.24691868577371379 0 0.48029579162163721 -0.21558854579597769 0 0.5 -0.21958703108238101 0 0.48033598971293961 -0.23536730169414519 0 0.46695018322910392 -0.22473955239466681 0 0.46086119099944728 -0.24298014516654151 0 0.48033598971293961 -0.23536730169414519 0 0.46695018322910392 -0.22473955239466681 0 0.48029579162163721 -0.21558854579597769 0 0.48033598971293961 -0.23536730169414519 0 0.46086119099944728 -0.24298014516654151 0 0.48033598971293961 -0.23536730169414519 0 0.47450143065275591 -0.2599846894272051 0 0.48033598971293961 -0.23536730169414519 0 0.5 -0.24691868577371379 0 0.47450143065275591 -0.2599846894272051 0 0.5 -0.24691868577371379 0 0.50000000000000222 -0.27425034046504659 0 0.47450143065275591 -0.2599846894272051 0 0.50000000000000222 -0.27425034046504659 0 0.47605513413645029 -0.28008102786359129 0 0.47450143065275591 -0.2599846894272051 0 0.47605513413645029 -0.28008102786359129 0 0.47450143065275591 -0.2599846894272051 0 0.45931845050930209 -0.27772900618102819 0 0.46086119099944728 -0.24298014516654151 0 0.47450143065275591 -0.2599846894272051 0 0.45165913482636821 -0.26068325523694041 0 0.47450143065275591 -0.2599846894272051 0 0.45931845050930209 -0.27772900618102819 0 0.45165913482636821 -0.26068325523694041 0 0.45931845050930209 -0.27772900618102819 0 0.44355941821905998 -0.27577600561597132 0 0.45165913482636821 -0.26068325523694041 0 0.44338493428344739 -0.24574379201886831 0 0.45165913482636821 -0.26068325523694041 0 0.42892204251950339 -0.2594807324876427 0 0.44355941821905998 -0.27577600561597132 0 0.45165913482636821 -0.26068325523694041 0 0.42892204251950339 -0.2594807324876427 0 0.44743457629936911 -0.29125199491084608 0 0.45088585771739531 -0.31517042999936162 0 0.43686388954492023 -0.30206384222820981 0 0.45088585771739531 -0.31517042999936162 0 0.43602078127065758 -0.31524868357114688 0 0.43686388954492023 -0.30206384222820981 0 0.45931845050930209 -0.27772900618102819 0 0.44355941821905998 -0.27577600561597132 0 0.44743457629936911 -0.29125199491084608 0 0.44355941821905998 -0.27577600561597132 0 0.44743457629936911 -0.29125199491084608 0 0.42611848489587972 -0.28658767974219163 0 0.47605513413645029 -0.28008102786359129 0 0.45931845050930209 -0.27772900618102819 0 0.46516191830632447 -0.295844547827811 0 0.45931845050930209 -0.27772900618102819 0 0.44743457629936911 -0.29125199491084608 0 0.46516191830632447 -0.295844547827811 0 0.44743457629936911 -0.29125199491084608 0 0.46516191830632447 -0.295844547827811 0 0.45088585771739531 -0.31517042999936162 0 0.46516191830632447 -0.295844547827811 0 0.47218478901913252 -0.31616939882945228 0 0.45088585771739531 -0.31517042999936162 0 0.4860923945095682 -0.29520986964724988 0 0.47218478901913252 -0.31616939882945228 0 0.50000000000000222 -0.27425034046504659 0 0.4860923945095682 -0.29520986964724988 0 0.5 -0.307151228172029 0 0.46516191830632447 -0.295844547827811 0 0.4860923945095682 -0.29520986964724988 0 0.47218478901913252 -0.31616939882945228 0 0.47605513413645029 -0.28008102786359129 0 0.46516191830632447 -0.295844547827811 0 0.4860923945095682 -0.29520986964724988 0 0.50000000000000222 -0.27425034046504659 0 0.47605513413645029 -0.28008102786359129 0 0.4860923945095682 -0.29520986964724988 0 0.50000000000000222 -0.27425034046504659 0 0.4860923945095682 -0.29520986964724988 0 0.4860923945095682 -0.29520986964724988 0 0.5 -0.307151228172029 0 0.47218478901913252 -0.31616939882945228 0 0.5 -0.307151228172029 0 0.47500442815187882 -0.33618410333150461 0 0.5 -0.35237408365171952 0 0.5 -0.307151228172029 0 0.47500442815187882 -0.33618410333150461 0 0.47218478901913252 -0.31616939882945228 0 0.47500442815187882 -0.33618410333150461 0 0.5 -0.35237408365171952 0 0.46252966193221051 -0.36479181955861489 0 0.5 -0.35237408365171952 0 0.46252966193221051 -0.36479181955861489 0 0.4680243894331878 -0.39009447735167219 0 0.46252966193221051 -0.36479181955861489 0 0.44439653888602387 -0.37108278870097211 0 0.45518384933885458 -0.37953704158418422 0 0.46252966193221051 -0.36479181955861489 0 0.4490308344886651 -0.35295870566956811 0 0.45703493443123322 -0.33948916176555749 0 0.47500442815187882 -0.33618410333150461 0 0.46252966193221051 -0.36479181955861489 0 0.45703493443123322 -0.33948916176555749 0 0.46252966193221051 -0.36479181955861489 0 0.45703493443123322 -0.33948916176555749 0 0.4490308344886651 -0.35295870566956811 0 0.44439653888602387 -0.37108278870097211 0 0.43547581015886039 -0.35374612963373181 0 0.44432011104097457 -0.34600420025309703 0 0.4490308344886651 -0.35295870566956811 0 0.45042795048268808 -0.34263813410543531 0 0.4490308344886651 -0.35295870566956811 0 0.45703493443123322 -0.33948916176555749 0 0.45042795048268808 -0.34263813410543531 0 0.44432011104097457 -0.34600420025309703 0 0.4490308344886651 -0.35295870566956811 0 0.43547581015886039 -0.35374612963373181 0 0.44432011104097457 -0.34600420025309703 0 0.43877314986606192 -0.33818418946214152 0 0.43547581015886039 -0.35374612963373181 0 0.46252966193221051 -0.36479181955861489 0 0.4490308344886651 -0.35295870566956811 0 0.44439653888602387 -0.37108278870097211 0 0.47218478901913252 -0.31616939882945228 0 0.45845081404400378 -0.32484725803309861 0 0.45088585771739531 -0.31517042999936162 0 0.47218478901913252 -0.31616939882945228 0 0.45845081404400378 -0.32484725803309861 0 0.45827718352869679 -0.33712892801165451 0 0.47218478901913252 -0.31616939882945228 0 0.45827718352869679 -0.33712892801165451 0 0.45845081404400378 -0.32484725803309861 0 0.45465012105844921 -0.33200612518688721 0 0.44755831468875862 -0.32470483606049327 0 0.47500442815187882 -0.33618410333150461 0 0.45703493443123322 -0.33948916176555749 0 0.45827718352869679 -0.33712892801165451 0 0.47500442815187882 -0.33618410333150461 0 0.47218478901913252 -0.31616939882945228 0 0.45827718352869679 -0.33712892801165451 0 0.45703493443123322 -0.33948916176555749 0 0.4547926195999189 -0.33699511694280199 0 0.45042795048268808 -0.34263813410543531 0 0.45703493443123322 -0.33948916176555749 0 0.45827718352869679 -0.33712892801165451 0 0.4547926195999189 -0.33699511694280199 0 0.45845081404400378 -0.32484725803309861 0 0.45827718352869679 -0.33712892801165451 0 0.45465012105844921 -0.33200612518688721 0 0.4547926195999189 -0.33699511694280199 0 0.45465012105844921 -0.33200612518688721 0 0.45190540097192972 -0.33615439765103378 0 0.45827718352869679 -0.33712892801165451 0 0.4547926195999189 -0.33699511694280199 0 0.45465012105844921 -0.33200612518688721 0 0.45465012105844921 -0.33200612518688721 0 0.44749393872662357 -0.33307274595813069 0 0.44755831468875862 -0.32470483606049327 0 0.45465012105844921 -0.33200612518688721 0 0.44749393872662357 -0.33307274595813069 0 0.45190540097192972 -0.33615439765103378 0 0.4547926195999189 -0.33699511694280199 0 0.45042795048268808 -0.34263813410543531 0 0.45190540097192972 -0.33615439765103378 0 0.45042795048268808 -0.34263813410543531 0 0.45190540097192972 -0.33615439765103378 0 0.44691761172297523 -0.33872250108465612 0 0.44749393872662357 -0.33307274595813069 0 0.45190540097192972 -0.33615439765103378 0 0.44691761172297523 -0.33872250108465612 0 0.44432011104097457 -0.34600420025309703 0 0.45042795048268808 -0.34263813410543531 0 0.44691761172297523 -0.33872250108465612 0 0.44432011104097457 -0.34600420025309703 0 0.44691761172297523 -0.33872250108465612 0 0.43877314986606192 -0.33818418946214152 0 0.44749393872662357 -0.33307274595813069 0 0.44691761172297523 -0.33872250108465612 0 0.43877314986606192 -0.33818418946214152 0 0.44749393872662357 -0.33307274595813069 0 0.43877314986606192 -0.33818418946214152 0 0.43784837531542259 -0.32788377361433518 0 0.44749393872662357 -0.33307274595813069 0 0.43784837531542259 -0.32788377361433518 0 0.44755831468875862 -0.32470483606049327 0 0.43784837531542259 -0.32788377361433518 0 0.44755831468875862 -0.32470483606049327 0 0.43602078127065758 -0.31524868357114688 0 0.45845081404400378 -0.32484725803309861 0 0.44755831468875862 -0.32470483606049327 0 0.45088585771739531 -0.31517042999936162 0 0.44755831468875862 -0.32470483606049327 0 0.45088585771739531 -0.31517042999936162 0 0.43602078127065758 -0.31524868357114688 0 0.43784837531542259 -0.32788377361433518 0 0.42583518759170652 -0.33528639298719382 0 0.41775460495295358 -0.31793141321765611 0 0.43784837531542259 -0.32788377361433518 0 0.43602078127065758 -0.31524868357114688 0 0.41775460495295358 -0.31793141321765611 0 0.43877314986606192 -0.33818418946214152 0 0.43784837531542259 -0.32788377361433518 0 0.42583518759170652 -0.33528639298719382 0 0.43877314986606192 -0.33818418946214152 0 0.42583518759170652 -0.33528639298719382 0 0.43547581015886039 -0.35374612963373181 0 0.41250416259223432 -0.33960725990233392 0 0.41775460495295358 -0.31793141321765611 0 0.39805431729583179 -0.33510365622952631 0 0.41250416259223432 -0.33960725990233392 0 0.41775460495295358 -0.31793141321765611 0 0.42583518759170652 -0.33528639298719382 0 0.41250416259223432 -0.33960725990233392 0 0.41775460495295358 -0.31793141321765611 0 0.42583518759170652 -0.33528639298719382 0 0.41250416259223432 -0.33960725990233392 0 0.42034794007649889 -0.35298104146800569 0 0.43547581015886039 -0.35374612963373181 0 0.42034794007649889 -0.35298104146800569 0 0.42578668388574042 -0.37577956855813549 0 0.44439653888602387 -0.37108278870097211 0 0.43547581015886039 -0.35374612963373181 0 0.42578668388574042 -0.37577956855813549 0 0.42583518759170652 -0.33528639298719382 0 0.43547581015886039 -0.35374612963373181 0 0.42034794007649889 -0.35298104146800569 0 0.41250416259223432 -0.33960725990233392 0 0.42034794007649889 -0.35298104146800569 0 0.40725372023151529 -0.36128310658701179 0 0.41250416259223432 -0.33960725990233392 0 0.40725372023151529 -0.36128310658701179 0 0.40725372023151529 -0.36128310658701179 0 0.42578668388574042 -0.37577956855813549 0 0.40193856510946419 -0.3832261124550107 0 0.40725372023151529 -0.36128310658701179 0 0.42578668388574042 -0.37577956855813549 0 0.42034794007649889 -0.35298104146800569 0 0.40725372023151529 -0.36128310658701179 0 0.42578668388574042 -0.37577956855813549 0 0.40725372023151529 -0.36128310658701179 0 0.39425043507280438 -0.36432915978129837 0 0.40193856510946419 -0.3832261124550107 0 0.40725372023151529 -0.36128310658701179 0 0.40193856510946419 -0.3832261124550107 0 0.39425043507280438 -0.36432915978129837 0 0.38081427771294768 -0.36737052156009248 0 0.40193856510946419 -0.3832261124550107 0 0.40725372023151529 -0.36128310658701179 0 0.38699517723729038 -0.34543689852307891 0 0.39805431729583179 -0.33510365622952631 0 0.40725372023151529 -0.36128310658701179 0 0.39425043507280438 -0.36432915978129837 0 0.38699517723729038 -0.34543689852307891 0 0.40725372023151529 -0.36128310658701179 0 0.38699517723729038 -0.34543689852307891 0 0.41250416259223432 -0.33960725990233392 0 0.40725372023151529 -0.36128310658701179 0 0.39805431729583179 -0.33510365622952631 0 0.38699517723729038 -0.34543689852307891 0 0.38081427771294768 -0.36737052156009248 0 0.37640125955739012 -0.35149107478397351 0 0.38465179156333151 -0.34360390505586791 0 0.36805061276354478 -0.3427907498460791 0 0.39425043507280438 -0.36432915978129837 0 0.38699517723729038 -0.34543689852307891 0 0.38081427771294768 -0.36737052156009248 0 0.38699517723729038 -0.34543689852307891 0 0.37640125955739012 -0.35149107478397351 0 0.38081427771294768 -0.36737052156009248 0 0.38699517723729038 -0.34543689852307891 0 0.38465179156333151 -0.34360390505586791 0 0.38699517723729038 -0.34543689852307891 0 0.37640125955739012 -0.35149107478397351 0 0.38465179156333151 -0.34360390505586791 0 0.41775460495295358 -0.31793141321765611 0 0.39401776620237461 -0.32051644503610022 0 0.39805431729583179 -0.33510365622952631 0 0.38699517723729038 -0.34543689852307891 0 0.39401776620237461 -0.32051644503610022 0 0.39805431729583179 -0.33510365622952631 0 0.38699517723729038 -0.34543689852307891 0 0.39401776620237461 -0.32051644503610022 0 0.38465179156333151 -0.34360390505586791 0 0.37858644206980091 -0.32769985780377792 0 0.36805061276354478 -0.3427907498460791 0 0.38699517723729038 -0.34543689852307891 0 0.39401776620237461 -0.32051644503610022 0 0.38465179156333151 -0.34360390505586791 0 0.39401776620237461 -0.32051644503610022 0 0.38465179156333151 -0.34360390505586791 0 0.37858644206980091 -0.32769985780377792 0 0.39401776620237461 -0.32051644503610022 0 0.37858644206980091 -0.32769985780377792 0 0.37861767820969228 -0.30691821554646831 0 0.41775460495295358 -0.31793141321765611 0 0.39401776620237461 -0.32051644503610022 0 0.40104035516745928 -0.29559599154912142 0 0.39401776620237461 -0.32051644503610022 0 0.37861767820969228 -0.30691821554646831 0 0.40104035516745928 -0.29559599154912142 0 0.39401776620237461 -0.32051644503610022 0 0.40104035516745928 -0.29559599154912142 0 0.40104035516745928 -0.29559599154912142 0 0.38498320530945151 -0.287592927137584 0 0.39655653748852282 -0.27284147297554762 0 0.38498320530945151 -0.287592927137584 0 0.37764450162479901 -0.26965755496232408 0 0.36873774536035581 -0.28861226174546889 0 0.37861767820969228 -0.30691821554646831 0 0.40104035516745928 -0.29559599154912142 0 0.38498320530945151 -0.287592927137584 0 0.37861767820969228 -0.30691821554646831 0 0.38498320530945151 -0.287592927137584 0 0.36873774536035581 -0.28861226174546889 0 0.38498320530945151 -0.287592927137584 0 0.37764450162479901 -0.26965755496232408 0 0.39655653748852282 -0.27284147297554762 0 0.39206528024080278 -0.24921397013056479 0 0.37764450162479901 -0.26965755496232408 0 0.39655653748852282 -0.27284147297554762 0 0.39206528024080278 -0.24921397013056479 0 0.37764450162479901 -0.26965755496232408 0 0.37510228513818711 -0.25237727586059511 0 0.39206528024080278 -0.24921397013056479 0 0.39655653748852282 -0.27284147297554762 0 0.40884184876520419 -0.25890250189124958 0 0.40104035516745928 -0.29559599154912142 0 0.39655653748852282 -0.27284147297554762 0 0.4136044294752057 -0.2739163227279473 0 0.39655653748852282 -0.27284147297554762 0 0.4136044294752057 -0.2739163227279473 0 0.40884184876520419 -0.25890250189124958 0 0.4148006158986044 -0.24103970595398019 0 0.40884184876520419 -0.25890250189124958 0 0.42892204251950339 -0.2594807324876427 0 0.4136044294752057 -0.2739163227279473 0 0.40884184876520419 -0.25890250189124958 0 0.42892204251950339 -0.2594807324876427 0 0.4136044294752057 -0.2739163227279473 0 0.42892204251950339 -0.2594807324876427 0 0.42611848489587972 -0.28658767974219163 0 0.44355941821905998 -0.27577600561597132 0 0.42892204251950339 -0.2594807324876427 0 0.42611848489587972 -0.28658767974219163 0 0.44743457629936911 -0.29125199491084608 0 0.42611848489587972 -0.28658767974219163 0 0.43686388954492023 -0.30206384222820981 0 0.43602078127065758 -0.31524868357114688 0 0.41775460495295358 -0.31793141321765611 0 0.42179240152309172 -0.30222108271158582 0 0.42611848489587972 -0.28658767974219163 0 0.43686388954492023 -0.30206384222820981 0 0.42179240152309172 -0.30222108271158582 0 0.43602078127065758 -0.31524868357114688 0 0.43686388954492023 -0.30206384222820981 0 0.42179240152309172 -0.30222108271158582 0 0.41775460495295358 -0.31793141321765611 0 0.40104035516745928 -0.29559599154912142 0 0.42179240152309172 -0.30222108271158582 0 0.40104035516745928 -0.29559599154912142 0 0.4136044294752057 -0.2739163227279473 0 0.42611848489587972 -0.28658767974219163 0 0.40104035516745928 -0.29559599154912142 0 0.42611848489587972 -0.28658767974219163 0 0.42179240152309172 -0.30222108271158582 0 0.5 -0.5 0 0.478892924595126 -0.45923392689990328 0 0.5 -0.41454166856117469 0 0.5 -0.5 0 0.47943423265092072 -0.49342116463239621 0 0.40014079662082208 -0.5 0 0.43983937115661631 -0.46972557693384148 0 0.47943423265092072 -0.49342116463239621 0 0.40014079662082208 -0.5 0 0.43983937115661631 -0.46972557693384148 0 0.46715606132834708 -0.47012790102379598 0 0.47943423265092072 -0.49342116463239621 0 0.5 -0.5 0 0.47943423265092072 -0.49342116463239621 0 0.478892924595126 -0.45923392689990328 0 0.46715606132834708 -0.47012790102379598 0 0.47943423265092072 -0.49342116463239621 0 0.478892924595126 -0.45923392689990328 0 0.46715606132834708 -0.47012790102379598 0 0.47943423265092072 -0.49342116463239621 0 0.478892924595126 -0.45923392689990328 0 0.45487789000577361 -0.44683463741519602 0 0.47188936358571532 -0.4304781897668572 0 0.46715606132834708 -0.47012790102379598 0 0.45487789000577361 -0.44683463741519602 0 0.46715606132834708 -0.47012790102379598 0 0.478892924595126 -0.45923392689990328 0 0.45487789000577361 -0.44683463741519602 0 0.43983937115661631 -0.46972557693384148 0 0.46715606132834708 -0.47012790102379598 0 0.45487789000577361 -0.44683463741519602 0 0.43983937115661631 -0.46972557693384148 0 0.45487789000577361 -0.44683463741519602 0 0.43095981599733307 -0.44753658110846528 0 0.45487789000577361 -0.44683463741519602 0 0.43408281430989271 -0.43319973453275151 0 0.43095981599733307 -0.44753658110846528 0 0.45487789000577361 -0.44683463741519602 0 0.44259971868320003 -0.42354137380659601 0 0.45487789000577361 -0.44683463741519602 0 0.44259971868320003 -0.42354137380659601 0 0.43408281430989271 -0.43319973453275151 0 0.45487789000577361 -0.44683463741519602 0 0.44259971868320003 -0.42354137380659601 0 0.45959372781066021 -0.42263882295877442 0 0.44259971868320003 -0.42354137380659601 0 0.45186952978880229 -0.40983589673226128 0 0.45959372781066021 -0.42263882295877442 0 0.44259971868320003 -0.42354137380659601 0 0.45186952978880229 -0.40983589673226128 0 0.44161148704613862 -0.40579593671517361 0 0.44259971868320003 -0.42354137380659601 0 0.44161148704613862 -0.40579593671517361 0 0.43098246877755192 -0.41858878846052949 0 0.45186952978880229 -0.40983589673226128 0 0.45959372781066021 -0.42263882295877442 0 0.46285261119418991 -0.40477249250038388 0 0.45959372781066021 -0.42263882295877442 0 0.4735191169341651 -0.41539713514472942 0 0.46285261119418991 -0.40477249250038388 0 0.45959372781066021 -0.42263882295877442 0 0.47188936358571532 -0.4304781897668572 0 0.4735191169341651 -0.41539713514472942 0 0.45487789000577361 -0.44683463741519602 0 0.45959372781066021 -0.42263882295877442 0 0.47188936358571532 -0.4304781897668572 0 0.5 -0.41454166856117469 0 0.4735191169341651 -0.41539713514472942 0 0.4680243894331878 -0.39009447735167219 0 0.478892924595126 -0.45923392689990328 0 0.47188936358571532 -0.4304781897668572 0 0.5 -0.41454166856117469 0 0.47188936358571532 -0.4304781897668572 0 0.5 -0.41454166856117469 0 0.4735191169341651 -0.41539713514472942 0 0.5 -0.35237408365171952 0 0.5 -0.41454166856117469 0 0.4680243894331878 -0.39009447735167219 0 0.4735191169341651 -0.41539713514472942 0 0.4680243894331878 -0.39009447735167219 0 0.46252966193221051 -0.36479181955861489 0 0.45518384933885458 -0.37953704158418422 0 0.4680243894331878 -0.39009447735167219 0 0.45518384933885458 -0.37953704158418422 0 0.4680243894331878 -0.39009447735167219 0 0.44431964753996511 -0.39027603052925969 0 0.46252966193221051 -0.36479181955861489 0 0.4680243894331878 -0.39009447735167219 0 0.4735191169341651 -0.41539713514472942 0 0.4680243894331878 -0.39009447735167219 0 0.46285261119418991 -0.40477249250038388 0 0.4680243894331878 -0.39009447735167219 0 0.46285261119418991 -0.40477249250038388 0 0.44431964753996511 -0.39027603052925969 0 0.46285261119418991 -0.40477249250038388 0 0.44431964753996511 -0.39027603052925969 0 0.45186952978880229 -0.40983589673226128 0 0.44161148704613862 -0.40579593671517361 0 0.44431964753996511 -0.39027603052925969 0 0.45186952978880229 -0.40983589673226128 0 0.46285261119418991 -0.40477249250038388 0 0.44431964753996511 -0.39027603052925969 0 0.44439653888602387 -0.37108278870097211 0 0.44431964753996511 -0.39027603052925969 0 0.42578668388574042 -0.37577956855813549 0 0.44439653888602387 -0.37108278870097211 0 0.45518384933885458 -0.37953704158418422 0 0.44431964753996511 -0.39027603052925969 0 0.44431964753996511 -0.39027603052925969 0 0.42578668388574042 -0.37577956855813549 0 0.42627525148907153 -0.39512359141131242 0 0.44431964753996511 -0.39027603052925969 0 0.42578668388574042 -0.37577956855813549 0 0.44161148704613862 -0.40579593671517361 0 0.44431964753996511 -0.39027603052925969 0 0.42627525148907153 -0.39512359141131242 0 0.44161148704613862 -0.40579593671517361 0 0.42627525148907153 -0.39512359141131242 0 0.41380476734409732 -0.40903711363024231 0 0.41288573556315727 -0.39366710087554208 0 0.39662340998741341 -0.40516911832300972 0 0.41380476734409732 -0.40903711363024231 0 0.42627525148907153 -0.39512359141131242 0 0.41288573556315727 -0.39366710087554208 0 0.41380476734409732 -0.40903711363024231 0 0.42578668388574042 -0.37577956855813549 0 0.41288573556315727 -0.39366710087554208 0 0.40193856510946419 -0.3832261124550107 0 0.42578668388574042 -0.37577956855813549 0 0.42627525148907153 -0.39512359141131242 0 0.41288573556315727 -0.39366710087554208 0 0.38081427771294768 -0.36737052156009248 0 0.37463337818860382 -0.38930414459710588 0 0.3737028077843495 -0.38742295831448542 0 0.38081427771294768 -0.36737052156009248 0 0.38897026210220897 -0.39170162293651239 0 0.37463337818860382 -0.38930414459710588 0 0.38081427771294768 -0.36737052156009248 0 0.37463337818860382 -0.38930414459710588 0 0.38081427771294768 -0.36737052156009248 0 0.40193856510946419 -0.3832261124550107 0 0.38897026210220897 -0.39170162293651239 0 0.38599804764205609 -0.41227829054531151 0 0.37463337818860382 -0.38930414459710588 0 0.38897026210220897 -0.39170162293651239 0 0.39662340998741341 -0.40516911832300972 0 0.38599804764205609 -0.41227829054531151 0 0.38599804764205609 -0.41227829054531151 0 0.36755341006792419 -0.41442821452601158 0 0.37463337818860382 -0.38930414459710588 0 0.38897026210220897 -0.39170162293651239 0 0.38599804764205609 -0.41227829054531151 0 0.37463337818860382 -0.38930414459710588 0 0.40193856510946419 -0.3832261124550107 0 0.38897026210220897 -0.39170162293651239 0 0.39662340998741341 -0.40516911832300972 0 0.41288573556315727 -0.39366710087554208 0 0.40193856510946419 -0.3832261124550107 0 0.39662340998741341 -0.40516911832300972 0 0.40193856510946419 -0.3832261124550107 0 0.39662340998741341 -0.40516911832300972 0 0.38599804764205609 -0.41227829054531151 0 0.41380476734409732 -0.40903711363024231 0 0.39662340998741341 -0.40516911832300972 0 0.38599804764205609 -0.41227829054531151 0 0.41380476734409732 -0.40903711363024231 0 0.40147331832312588 -0.42054231308375889 0 0.38599804764205609 -0.41227829054531151 0 0.41380476734409732 -0.40903711363024231 0 0.38599804764205609 -0.41227829054531151 0 0.36755341006792419 -0.41442821452601158 0 0.38599804764205609 -0.41227829054531151 0 0.37837193070639508 -0.43074191130029282 0 0.36755341006792419 -0.41442821452601158 0 0.38599804764205609 -0.41227829054531151 0 0.37837193070639508 -0.43074191130029282 0 0.39716653888589531 -0.43485585418744782 0 0.37837193070639508 -0.43074191130029282 0 0.39716653888589531 -0.43485585418744782 0 0.38455236834147782 -0.44235831893697952 0 0.38599804764205609 -0.41227829054531151 0 0.39716653888589531 -0.43485585418744782 0 0.40147331832312588 -0.42054231308375889 0 0.38599804764205609 -0.41227829054531151 0 0.39716653888589531 -0.43485585418744782 0 0.40147331832312588 -0.42054231308375889 0 0.39716653888589531 -0.43485585418744782 0 0.40988830344794153 -0.42850982814637428 0 0.39716653888589531 -0.43485585418744782 0 0.40988830344794153 -0.42850982814637428 0 0.41424956646142452 -0.44145335337101582 0 0.40988830344794153 -0.42850982814637428 0 0.42255857874347952 -0.42798536962106742 0 0.41424956646142452 -0.44145335337101582 0 0.40147331832312588 -0.42054231308375889 0 0.40988830344794153 -0.42850982814637428 0 0.41380476734409732 -0.40903711363024231 0 0.40988830344794153 -0.42850982814637428 0 0.41380476734409732 -0.40903711363024231 0 0.42255857874347952 -0.42798536962106742 0 0.44161148704613862 -0.40579593671517361 0 0.41380476734409732 -0.40903711363024231 0 0.43098246877755192 -0.41858878846052949 0 0.44161148704613862 -0.40579593671517361 0 0.41380476734409732 -0.40903711363024231 0 0.41380476734409732 -0.40903711363024231 0 0.43098246877755192 -0.41858878846052949 0 0.42255857874347952 -0.42798536962106742 0 0.43408281430989271 -0.43319973453275151 0 0.42255857874347952 -0.42798536962106742 0 0.43095981599733307 -0.44753658110846528 0 0.44259971868320003 -0.42354137380659601 0 0.43098246877755192 -0.41858878846052949 0 0.43408281430989271 -0.43319973453275151 0 0.43098246877755192 -0.41858878846052949 0 0.43408281430989271 -0.43319973453275151 0 0.42255857874347952 -0.42798536962106742 0 0.42255857874347952 -0.42798536962106742 0 0.43095981599733307 -0.44753658110846528 0 0.41424956646142452 -0.44145335337101582 0 0.43983937115661631 -0.46972557693384148 0 0.42706067288056998 -0.45966910190407051 0 0.41707216494033877 -0.46659444091922031 0 0.43983937115661631 -0.46972557693384148 0 0.43095981599733307 -0.44753658110846528 0 0.42706067288056998 -0.45966910190407051 0 0.43095981599733307 -0.44753658110846528 0 0.42706067288056998 -0.45966910190407051 0 0.42037133942799187 -0.45481980865475502 0 0.42037133942799187 -0.45481980865475502 0 0.41707216494033877 -0.46659444091922031 0 0.40833503012973449 -0.45743341782958391 0 0.42706067288056998 -0.45966910190407051 0 0.42037133942799187 -0.45481980865475502 0 0.41707216494033877 -0.46659444091922031 0 0.41707216494033877 -0.46659444091922031 0 0.40833503012973449 -0.45743341782958391 0 0.39424227281986102 -0.46676003377889269 0 0.43095981599733307 -0.44753658110846528 0 0.42037133942799187 -0.45481980865475502 0 0.41424956646142452 -0.44145335337101582 0 0.42037133942799187 -0.45481980865475502 0 0.40833503012973449 -0.45743341782958391 0 0.41424956646142452 -0.44145335337101582 0 0.39716653888589531 -0.43485585418744782 0 0.40833503012973449 -0.45743341782958391 0 0.41424956646142452 -0.44145335337101582 0 0.39716653888589531 -0.43485585418744782 0 0.39345157537004599 -0.45057062730194619 0 0.38455236834147782 -0.44235831893697952 0 0.39716653888589531 -0.43485585418744782 0 0.40833503012973449 -0.45743341782958391 0 0.39345157537004599 -0.45057062730194619 0 0.39716653888589531 -0.43485585418744782 0 0.40833503012973449 -0.45743341782958391 0 0.39345157537004599 -0.45057062730194619 0 0.38455236834147782 -0.44235831893697952 0 0.38182359321740972 -0.45292134106576409 0 0.38455236834147782 -0.44235831893697952 0 0.38182359321740972 -0.45292134106576409 0 0.37194820352764257 -0.4427018608294464 0 0.37837193070639508 -0.43074191130029282 0 0.38455236834147782 -0.44235831893697952 0 0.37194820352764257 -0.4427018608294464 0 0.38182359321740972 -0.45292134106576409 0 0.39424227281986102 -0.46676003377889269 0 0.37141238069938332 -0.46692562663856529 0 0.39345157537004599 -0.45057062730194619 0 0.38182359321740972 -0.45292134106576409 0 0.39424227281986102 -0.46676003377889269 0 0.39424227281986102 -0.46676003377889269 0 0.37141238069938332 -0.46692562663856529 0 0.40833503012973449 -0.45743341782958391 0 0.39345157537004599 -0.45057062730194619 0 0.39424227281986102 -0.46676003377889269 0 0.41707216494033877 -0.46659444091922031 0 0.39424227281986102 -0.46676003377889269 0 0.41707216494033877 -0.46659444091922031 0 0.39424227281986102 -0.46676003377889269 0 0.40014079662082208 -0.5 0 0.39424227281986102 -0.46676003377889269 0 0.40014079662082208 -0.5 0 0.37141238069938332 -0.46692562663856529 0 0.43983937115661631 -0.46972557693384148 0 0.41707216494033877 -0.46659444091922031 0 0.40014079662082208 -0.5 0 0.40014079662082208 -0.5 0 0.32546065004022617 -0.5 0 0.3462765218470546 -0.48033279556006703 0 0.32546065004022617 -0.5 0 0.3462765218470546 -0.48033279556006703 0 0.30631021868456298 -0.48072311486568892 0 0.3462765218470546 -0.48033279556006703 0 0.32575259645842791 -0.46725681235791028 0 0.30631021868456298 -0.48072311486568892 0 0.3462765218470546 -0.48033279556006703 0 0.3485824885789055 -0.46709121949823779 0 0.32575259645842791 -0.46725681235791028 0 0.40014079662082208 -0.5 0 0.3462765218470546 -0.48033279556006703 0 0.37141238069938332 -0.46692562663856529 0 0.3462765218470546 -0.48033279556006703 0 0.3485824885789055 -0.46709121949823779 0 0.37141238069938332 -0.46692562663856529 0 0.3485824885789055 -0.46709121949823779 0 0.37141238069938332 -0.46692562663856529 0 0.35324569388809701 -0.44989359131069062 0 0.3485824885789055 -0.46709121949823779 0 0.35324569388809701 -0.44989359131069062 0 0.33806214337105372 -0.45777686618061397 0 0.38182359321740972 -0.45292134106576409 0 0.37141238069938332 -0.46692562663856529 0 0.35324569388809701 -0.44989359131069062 0 0.3485824885789055 -0.46709121949823779 0 0.37141238069938332 -0.46692562663856529 0 0.36060935802898147 -0.43906997082244181 0 0.37194820352764257 -0.4427018608294464 0 0.35324569388809701 -0.44989359131069062 0 0.38182359321740972 -0.45292134106576409 0 0.35324569388809701 -0.44989359131069062 0 0.37837193070639508 -0.43074191130029282 0 0.36060935802898147 -0.43906997082244181 0 0.37194820352764257 -0.4427018608294464 0 0.38182359321740972 -0.45292134106576409 0 0.37194820352764257 -0.4427018608294464 0 0.35324569388809701 -0.44989359131069062 0 0.36060935802898147 -0.43906997082244181 0 0.35324569388809701 -0.44989359131069062 0 0.34315104194743368 -0.43483422324315929 0 0.32466779455878442 -0.44686584155561709 0 0.32761501992215097 -0.43116249501185328 0 0.34315104194743368 -0.43483422324315929 0 0.35324569388809701 -0.44989359131069062 0 0.33806214337105372 -0.45777686618061397 0 0.32466779455878442 -0.44686584155561709 0 0.35324569388809701 -0.44989359131069062 0 0.32466779455878442 -0.44686584155561709 0 0.34315104194743368 -0.43483422324315929 0 0.35324569388809701 -0.44989359131069062 0 0.32466779455878442 -0.44686584155561709 0 0.3485824885789055 -0.46709121949823779 0 0.32575259645842791 -0.46725681235791028 0 0.3485824885789055 -0.46709121949823779 0 0.33806214337105372 -0.45777686618061397 0 0.32575259645842791 -0.46725681235791028 0 0.33806214337105372 -0.45777686618061397 0 0.32575259645842791 -0.46725681235791028 0 0.32466779455878442 -0.44686584155561709 0 0.32575259645842791 -0.46725681235791028 0 0.30904716904302271 -0.45792120175055678 0 0.30631021868456298 -0.48072311486568892 0 0.32575259645842791 -0.46725681235791028 0 0.32466779455878442 -0.44686584155561709 0 0.30904716904302271 -0.45792120175055678 0 0.32466779455878442 -0.44686584155561709 0 0.31800868577585262 -0.43516031519895321 0 0.30735360635596409 -0.43632211706289747 0 0.32466779455878442 -0.44686584155561709 0 0.32761501992215097 -0.43116249501185328 0 0.31800868577585262 -0.43516031519895321 0 0.32761501992215097 -0.43116249501185328 0 0.32339131420283213 -0.41656724990055422 0 0.31239832226651099 -0.42629080716544471 0 0.32761501992215097 -0.43116249501185328 0 0.31800868577585262 -0.43516031519895321 0 0.31239832226651099 -0.42629080716544471 0 0.31800868577585262 -0.43516031519895321 0 0.31239832226651099 -0.42629080716544471 0 0.30735360635596409 -0.43632211706289747 0 0.32339131420283213 -0.41656724990055422 0 0.31120060169272079 -0.4133373498197 0 0.31239832226651099 -0.42629080716544471 0 0.32339131420283213 -0.41656724990055422 0 0.319673984964159 -0.40346676889879052 0 0.31120060169272079 -0.4133373498197 0 0.319673984964159 -0.40346676889879052 0 0.30884060304287331 -0.40229515593698711 0 0.31120060169272079 -0.4133373498197 0 0.32339131420283213 -0.41656724990055422 0 0.33281994217864741 -0.40778505865636938 0 0.319673984964159 -0.40346676889879052 0 0.32761501992215097 -0.43116249501185328 0 0.32339131420283213 -0.41656724990055422 0 0.33796042338316851 -0.41787760036937549 0 0.32339131420283213 -0.41656724990055422 0 0.33281994217864741 -0.40778505865636938 0 0.33796042338316851 -0.41787760036937549 0 0.33281994217864741 -0.40778505865636938 0 0.33796042338316851 -0.41787760036937549 0 0.34601675315157321 -0.40486547886918423 0 0.32761501992215097 -0.43116249501185328 0 0.33796042338316851 -0.41787760036937549 0 0.34315104194743368 -0.43483422324315929 0 0.33796042338316851 -0.41787760036937549 0 0.34315104194743368 -0.43483422324315929 0 0.35231855835687692 -0.42655250224024699 0 0.36060935802898147 -0.43906997082244181 0 0.34315104194743368 -0.43483422324315929 0 0.35231855835687692 -0.42655250224024699 0 0.37837193070639508 -0.43074191130029282 0 0.36060935802898147 -0.43906997082244181 0 0.36755341006792419 -0.41442821452601158 0 0.36060935802898147 -0.43906997082244181 0 0.35231855835687692 -0.42655250224024699 0 0.36755341006792419 -0.41442821452601158 0 0.36060935802898147 -0.43906997082244181 0 0.36755341006792419 -0.41442821452601158 0 0.33796042338316851 -0.41787760036937549 0 0.35231855835687692 -0.42655250224024699 0 0.36755341006792419 -0.41442821452601158 0 0.33796042338316851 -0.41787760036937549 0 0.36755341006792419 -0.41442821452601158 0 0.34601675315157321 -0.40486547886918423 0 0.33796042338316851 -0.41787760036937549 0 0.36755341006792419 -0.41442821452601158 0 0.36755341006792419 -0.41442821452601158 0 0.34601675315157321 -0.40486547886918423 0 0.35566250251704978 -0.3975177511027051 0 0.34601675315157321 -0.40486547886918423 0 0.34667365318154342 -0.39629832909528578 0 0.35566250251704978 -0.3975177511027051 0 0.34667365318154342 -0.39629832909528578 0 0.34795812186604658 -0.38666189116531141 0 0.33705723519150399 -0.3961481952439429 0 0.34667365318154342 -0.39629832909528578 0 0.35566250251704978 -0.3975177511027051 0 0.34795812186604658 -0.38666189116531141 0 0.36755341006792419 -0.41442821452601158 0 0.35566250251704978 -0.3975177511027051 0 0.36706103815962848 -0.39187921332532882 0 0.36755341006792419 -0.41442821452601158 0 0.37463337818860382 -0.38930414459710588 0 0.36755341006792419 -0.41442821452601158 0 0.36706103815962848 -0.39187921332532882 0 0.37463337818860382 -0.38930414459710588 0 0.35566250251704978 -0.3975177511027051 0 0.36706103815962848 -0.39187921332532882 0 0.35924801608749379 -0.38543857686598643 0 0.38081427771294768 -0.36737052156009248 0 0.36848073339739068 -0.37517807712711049 0 0.3737028077843495 -0.38742295831448542 0 0.36848073339739068 -0.37517807712711049 0 0.3737028077843495 -0.38742295831448542 0 0.36599997940964812 -0.38379980358563692 0 0.36706103815962848 -0.39187921332532882 0 0.3737028077843495 -0.38742295831448542 0 0.36599997940964812 -0.38379980358563692 0 0.36706103815962848 -0.39187921332532882 0 0.37463337818860382 -0.38930414459710588 0 0.3737028077843495 -0.38742295831448542 0 0.37463337818860382 -0.38930414459710588 0 0.3737028077843495 -0.38742295831448542 0 0.36706103815962848 -0.39187921332532882 0 0.36599997940964812 -0.38379980358563692 0 0.35924801608749379 -0.38543857686598643 0 0.36599997940964812 -0.38379980358563692 0 0.36207090148421361 -0.37959838259465167 0 0.35924801608749379 -0.38543857686598643 0 0.36848073339739068 -0.37517807712711049 0 0.36599997940964812 -0.38379980358563692 0 0.36207090148421361 -0.37959838259465167 0 0.36848073339739068 -0.37517807712711049 0 0.36207090148421361 -0.37959838259465167 0 0.3554566368260581 -0.37480617727887811 0 0.36207090148421361 -0.37959838259465167 0 0.35924801608749379 -0.38543857686598643 0 0.3554566368260581 -0.37480617727887811 0 0.35924801608749379 -0.38543857686598643 0 0.34795812186604658 -0.38666189116531141 0 0.3554566368260581 -0.37480617727887811 0 0.35566250251704978 -0.3975177511027051 0 0.35924801608749379 -0.38543857686598643 0 0.34795812186604658 -0.38666189116531141 0 0.34795812186604658 -0.38666189116531141 0 0.34537995690420659 -0.3737828605913362 0 0.3554566368260581 -0.37480617727887811 0 0.34795812186604658 -0.38666189116531141 0 0.33323562740676532 -0.37769939737979058 0 0.34537995690420659 -0.3737828605913362 0 0.34795812186604658 -0.38666189116531141 0 0.33323562740676532 -0.37769939737979058 0 0.33705723519150399 -0.3961481952439429 0 0.33323562740676532 -0.37769939737979058 0 0.33705723519150399 -0.3961481952439429 0 0.319673984964159 -0.40346676889879052 0 0.33281994217864741 -0.40778505865636938 0 0.33705723519150399 -0.3961481952439429 0 0.319673984964159 -0.40346676889879052 0 0.33281994217864741 -0.40778505865636938 0 0.34601675315157321 -0.40486547886918423 0 0.33705723519150399 -0.3961481952439429 0 0.34601675315157321 -0.40486547886918423 0 0.34667365318154342 -0.39629832909528578 0 0.33705723519150399 -0.3961481952439429 0 0.33323562740676532 -0.37769939737979058 0 0.319673984964159 -0.40346676889879052 0 0.31422368515007948 -0.393427126581603 0 0.319673984964159 -0.40346676889879052 0 0.31422368515007948 -0.393427126581603 0 0.30884060304287331 -0.40229515593698711 0 0.33323562740676532 -0.37769939737979058 0 0.319673984964159 -0.40346676889879052 0 0.31422368515007948 -0.393427126581603 0 0.30591552541026101 -0.37751124227982003 0 0.32002671755222051 -0.36641101040373808 0 0.33323562740676532 -0.37769939737979058 0 0.31422368515007948 -0.393427126581603 0 0.32002671755222051 -0.36641101040373808 0 0.31422368515007948 -0.393427126581603 0 0.32002671755222051 -0.36641101040373808 0 0.30591552541026101 -0.37751124227982003 0 0.29934269892459558 -0.39453707190143028 0 0.28871394442674109 -0.38265385864092483 0 0.31422368515007948 -0.393427126581603 0 0.30591552541026101 -0.37751124227982003 0 0.29934269892459558 -0.39453707190143028 0 0.31422368515007948 -0.393427126581603 0 0.30884060304287331 -0.40229515593698711 0 0.29934269892459558 -0.39453707190143028 0 0.30884060304287331 -0.40229515593698711 0 0.29934269892459558 -0.39453707190143028 0 0.29896657827583012 -0.40866065312134409 0 0.28871394442674109 -0.38265385864092483 0 0.27786210523133942 -0.40981541802129928 0 0.29934269892459558 -0.39453707190143028 0 0.27786210523133942 -0.40981541802129928 0 0.29896657827583012 -0.40866065312134409 0 0.29934269892459558 -0.39453707190143028 0 0.28871394442674109 -0.38265385864092483 0 0.27786210523133942 -0.40981541802129928 0 0.28871394442674109 -0.38265385864092483 0 0.26416245427686541 -0.38049931320234009 0 0.26125098829365018 -0.39969694482297641 0 0.28871394442674109 -0.38265385864092483 0 0.26416245427686541 -0.38049931320234009 0 0.27571190406721402 -0.36345127203525351 0 0.26416245427686541 -0.38049931320234009 0 0.24971336314328341 -0.36520417674804972 0 0.24502858373403441 -0.39146921073642488 0 0.26416245427686541 -0.38049931320234009 0 0.26125098829365018 -0.39969694482297641 0 0.24502858373403441 -0.39146921073642488 0 0.28871394442674109 -0.38265385864092483 0 0.26125098829365018 -0.39969694482297641 0 0.27786210523133942 -0.40981541802129928 0 0.26125098829365018 -0.39969694482297641 0 0.25610826383841628 -0.42120346698794331 0 0.2333640889907381 -0.41241884790723538 0 0.26125098829365018 -0.39969694482297641 0 0.27786210523133942 -0.40981541802129928 0 0.25610826383841628 -0.42120346698794331 0 0.25610826383841628 -0.42120346698794331 0 0.26701026603593758 -0.43697697740167368 0 0.2518592606704963 -0.43815060111373921 0 0.27786210523133942 -0.40981541802129928 0 0.26701026603593758 -0.43697697740167368 0 0.28078102790119369 -0.4274552938509788 0 0.27786210523133942 -0.40981541802129928 0 0.26701026603593758 -0.43697697740167368 0 0.27786210523133942 -0.40981541802129928 0 0.25610826383841628 -0.42120346698794331 0 0.26701026603593758 -0.43697697740167368 0 0.26701026603593758 -0.43697697740167368 0 0.28078102790119369 -0.4274552938509788 0 0.27712236562531017 -0.4375193999175232 0 0.28078102790119369 -0.4274552938509788 0 0.28865243891263809 -0.43215364344327012 0 0.27712236562531017 -0.4375193999175232 0 0.28865243891263809 -0.43215364344327012 0 0.28959476197880307 -0.44168956347039928 0 0.27712236562531017 -0.4375193999175232 0 0.28865243891263809 -0.43215364344327012 0 0.29503220707493127 -0.43614369036708622 0 0.29829711678041942 -0.42866378264525379 0 0.28865243891263809 -0.43215364344327012 0 0.29503220707493127 -0.43614369036708622 0 0.28959476197880307 -0.44168956347039928 0 0.28865243891263809 -0.43215364344327012 0 0.29108715411517122 -0.42145013040837909 0 0.29829711678041942 -0.42866378264525379 0 0.28078102790119369 -0.4274552938509788 0 0.28865243891263809 -0.43215364344327012 0 0.29108715411517122 -0.42145013040837909 0 0.27786210523133942 -0.40981541802129928 0 0.28078102790119369 -0.4274552938509788 0 0.29108715411517122 -0.42145013040837909 0 0.27786210523133942 -0.40981541802129928 0 0.29108715411517122 -0.42145013040837909 0 0.29896657827583012 -0.40866065312134409 0 0.29108715411517122 -0.42145013040837909 0 0.30377653118007591 -0.4205559058691733 0 0.29896657827583012 -0.40866065312134409 0 0.30377653118007591 -0.4205559058691733 0 0.29896657827583012 -0.40866065312134409 0 0.31120060169272079 -0.4133373498197 0 0.30884060304287331 -0.40229515593698711 0 0.29896657827583012 -0.40866065312134409 0 0.31120060169272079 -0.4133373498197 0 0.30377653118007591 -0.4205559058691733 0 0.31120060169272079 -0.4133373498197 0 0.31239832226651099 -0.42629080716544471 0 0.30377653118007591 -0.4205559058691733 0 0.31239832226651099 -0.42629080716544471 0 0.29829711678041942 -0.42866378264525379 0 0.31239832226651099 -0.42629080716544471 0 0.30735360635596409 -0.43632211706289747 0 0.29829711678041942 -0.42866378264525379 0 0.29503220707493127 -0.43614369036708622 0 0.30735360635596409 -0.43632211706289747 0 0.29829711678041942 -0.42866378264525379 0 0.29108715411517122 -0.42145013040837909 0 0.30377653118007591 -0.4205559058691733 0 0.29829711678041942 -0.42866378264525379 0 0.32466779455878442 -0.44686584155561709 0 0.30904716904302271 -0.45792120175055678 0 0.29608989522947149 -0.44383809180054362 0 0.32466779455878442 -0.44686584155561709 0 0.29608989522947149 -0.44383809180054362 0 0.32466779455878442 -0.44686584155561709 0 0.30735360635596409 -0.43632211706289747 0 0.29608989522947149 -0.44383809180054362 0 0.30904716904302271 -0.45792120175055678 0 0.29860320416278402 -0.45529674645956592 0 0.29608989522947149 -0.44383809180054362 0 0.29503220707493127 -0.43614369036708622 0 0.30735360635596409 -0.43632211706289747 0 0.29608989522947149 -0.44383809180054362 0 0.30904716904302271 -0.45792120175055678 0 0.29721119201091789 -0.46522563712477349 0 0.30631021868456298 -0.48072311486568892 0 0.30904716904302271 -0.45792120175055678 0 0.29721119201091789 -0.46522563712477349 0 0.29860320416278402 -0.45529674645956592 0 0.28932919617959602 -0.45338424297023883 0 0.27756010650442758 -0.45518222858252849 0 0.28072062580449653 -0.47155582870540619 0 0.29721119201091789 -0.46522563712477349 0 0.28932919617959602 -0.45338424297023883 0 0.28072062580449653 -0.47155582870540619 0 0.29721119201091789 -0.46522563712477349 0 0.29860320416278402 -0.45529674645956592 0 0.28932919617959602 -0.45338424297023883 0 0.28932919617959602 -0.45338424297023883 0 0.28959476197880307 -0.44168956347039928 0 0.27756010650442758 -0.45518222858252849 0 0.29860320416278402 -0.45529674645956592 0 0.28932919617959602 -0.45338424297023883 0 0.29608989522947149 -0.44383809180054362 0 0.28932919617959602 -0.45338424297023883 0 0.29608989522947149 -0.44383809180054362 0 0.28959476197880307 -0.44168956347039928 0 0.29503220707493127 -0.43614369036708622 0 0.29608989522947149 -0.44383809180054362 0 0.28959476197880307 -0.44168956347039928 0 0.28959476197880307 -0.44168956347039928 0 0.26138620688844749 -0.44792543592233808 0 0.26701026603593758 -0.43697697740167368 0 0.27712236562531017 -0.4375193999175232 0 0.26138620688844749 -0.44792543592233808 0 0.28959476197880307 -0.44168956347039928 0 0.26138620688844749 -0.44792543592233808 0 0.27756010650442758 -0.45518222858252849 0 0.28959476197880307 -0.44168956347039928 0 0.27712236562531017 -0.4375193999175232 0 0.26138620688844749 -0.44792543592233808 0 0.26701026603593758 -0.43697697740167368 0 0.26138620688844749 -0.44792543592233808 0 0.2518592606704963 -0.43815060111373921 0 0.26138620688844749 -0.44792543592233808 0 0.26339579246569877 -0.46312143350125029 0 0.23317765179809191 -0.45416130837427687 0 0.26138620688844749 -0.44792543592233808 0 0.26339579246569877 -0.46312143350125029 0 0.27756010650442758 -0.45518222858252849 0 0.26339579246569877 -0.46312143350125029 0 0.27756010650442758 -0.45518222858252849 0 0.28072062580449653 -0.47155582870540619 0 0.28072062580449653 -0.47155582870540619 0 0.2532296876789632 -0.47497352743918242 0 0.27004646425256568 -0.5 0 0.26339579246569877 -0.46312143350125029 0 0.28072062580449653 -0.47155582870540619 0 0.2532296876789632 -0.47497352743918242 0 0.32546065004022617 -0.5 0 0.27004646425256568 -0.5 0 0.30631021868456298 -0.48072311486568892 0 0.28072062580449653 -0.47155582870540619 0 0.27004646425256568 -0.5 0 0.30631021868456298 -0.48072311486568892 0 0.29721119201091789 -0.46522563712477349 0 0.28072062580449653 -0.47155582870540619 0 0.30631021868456298 -0.48072311486568892 0 0.33743581475864359 -0.28536266187014298 0 0.3388307833371127 -0.27886836189579028 0 0.34706744656536048 -0.28007479224216619 0 0.33743581475864359 -0.28536266187014298 0 0.3388307833371127 -0.27886836189579028 0 0.33743581475864359 -0.28536266187014298 0 0.33163278235650262 -0.31237877804800812 0 0.33743581475864359 -0.28536266187014298 0 0.33163278235650262 -0.31237877804800812 0 0.34308905326158867 -0.30070827197480321 0 0.33743581475864359 -0.28536266187014298 0 0.33163278235650262 -0.31237877804800812 0 0.32364365619397351 -0.29600562892690968 0 0.33163278235650262 -0.31237877804800812 0 0.32364365619397351 -0.29600562892690968 0 0.30954970221622308 -0.30462347215273478 0 0.31296692944630888 -0.29314018565426941 0 0.32364365619397351 -0.29600562892690968 0 0.30954970221622308 -0.30462347215273478 0 0.31296692944630888 -0.29314018565426941 0 0.32364365619397351 -0.29600562892690968 0 0.31569414790308259 -0.28159305760617132 0 0.33743581475864359 -0.28536266187014298 0 0.32364365619397351 -0.29600562892690968 0 0.31569414790308259 -0.28159305760617132 0 0.33743581475864359 -0.28536266187014298 0 0.31569414790308259 -0.28159305760617132 0 0.33743581475864359 -0.28536266187014298 0 0.31569414790308259 -0.28159305760617132 0 0.32852563272885182 -0.27784073863383552 0 0.31569414790308259 -0.28159305760617132 0 0.31275786215232049 -0.27168837282467972 0 0.32066228436037369 -0.27402337931129878 0 0.31275786215232049 -0.27168837282467972 0 0.32001527731196461 -0.26686042829596718 0 0.31054181011664339 -0.26140137874582919 0 0.31275786215232049 -0.27168837282467972 0 0.32001527731196461 -0.26686042829596718 0 0.32066228436037369 -0.27402337931129878 0 0.32001527731196461 -0.26686042829596718 0 0.32631850170564902 -0.27213429919584042 0 0.32066228436037369 -0.27402337931129878 0 0.32001527731196461 -0.26686042829596718 0 0.32631850170564902 -0.27213429919584042 0 0.32861545200372733 -0.26431566092564712 0 0.32631850170564902 -0.27213429919584042 0 0.32066228436037369 -0.27402337931129878 0 0.32852563272885182 -0.27784073863383552 0 0.31569414790308259 -0.28159305760617132 0 0.32066228436037369 -0.27402337931129878 0 0.32852563272885182 -0.27784073863383552 0 0.30517917142926537 -0.24716040808135001 0 0.322544075342931 -0.25649048942400782 0 0.31054181011664339 -0.26140137874582919 0 0.32001527731196461 -0.26686042829596718 0 0.322544075342931 -0.25649048942400782 0 0.31054181011664339 -0.26140137874582919 0 0.32001527731196461 -0.26686042829596718 0 0.322544075342931 -0.25649048942400782 0 0.32861545200372733 -0.26431566092564712 0 0.322544075342931 -0.25649048942400782 0 0.32861545200372733 -0.26431566092564712 0 0.33700232267718733 -0.25494009872172468 0 0.32861545200372733 -0.26431566092564712 0 0.33700232267718733 -0.25494009872172468 0 0.3370936559567923 -0.26597622971595652 0 0.33700232267718733 -0.25494009872172468 0 0.3370936559567923 -0.26597622971595652 0 0.34612034525793539 -0.26165354425485998 0 0.32852563272885182 -0.27784073863383552 0 0.33374486488877292 -0.2728357791174113 0 0.3388307833371127 -0.27886836189579028 0 0.33743581475864359 -0.28536266187014298 0 0.32852563272885182 -0.27784073863383552 0 0.3388307833371127 -0.27886836189579028 0 0.32631850170564902 -0.27213429919584042 0 0.32852563272885182 -0.27784073863383552 0 0.33374486488877292 -0.2728357791174113 0 0.32631850170564902 -0.27213429919584042 0 0.32861545200372733 -0.26431566092564712 0 0.33374486488877292 -0.2728357791174113 0 0.32861545200372733 -0.26431566092564712 0 0.33374486488877292 -0.2728357791174113 0 0.3370936559567923 -0.26597622971595652 0 0.34349817463331772 -0.27223575233246988 0 0.3370936559567923 -0.26597622971595652 0 0.34612034525793539 -0.26165354425485998 0 0.33374486488877292 -0.2728357791174113 0 0.34349817463331772 -0.27223575233246988 0 0.3370936559567923 -0.26597622971595652 0 0.33374486488877292 -0.2728357791174113 0 0.34349817463331772 -0.27223575233246988 0 0.3388307833371127 -0.27886836189579028 0 0.34349817463331772 -0.27223575233246988 0 0.3388307833371127 -0.27886836189579028 0 0.34706744656536048 -0.28007479224216619 0 0.34349817463331772 -0.27223575233246988 0 0.34706744656536048 -0.28007479224216619 0 0.35711558672006172 -0.27354793744083078 0 0.34349817463331772 -0.27223575233246988 0 0.35711558672006172 -0.27354793744083078 0 0.34612034525793539 -0.26165354425485998 0 0.34706744656536048 -0.28007479224216619 0 0.35711558672006172 -0.27354793744083078 0 0.35357832102308678 -0.28816147489813743 0 0.35007299243335749 -0.24785688602667111 0 0.33700232267718733 -0.25494009872172468 0 0.34612034525793539 -0.26165354425485998 0 0.35711558672006172 -0.27354793744083078 0 0.34612034525793539 -0.26165354425485998 0 0.36124693131331159 -0.25807728632712912 0 0.35007299243335749 -0.24785688602667111 0 0.34612034525793539 -0.26165354425485998 0 0.36124693131331159 -0.25807728632712912 0 0.37764450162479901 -0.26965755496232408 0 0.37510228513818711 -0.25237727586059511 0 0.36124693131331159 -0.25807728632712912 0 0.36225179838031341 -0.2439392928582107 0 0.37510228513818711 -0.25237727586059511 0 0.36124693131331159 -0.25807728632712912 0 0.37764450162479901 -0.26965755496232408 0 0.35711558672006172 -0.27354793744083078 0 0.36124693131331159 -0.25807728632712912 0 0.37764450162479901 -0.26965755496232408 0 0.35711558672006172 -0.27354793744083078 0 0.36873774536035581 -0.28861226174546889 0 0.36873774536035581 -0.28861226174546889 0 0.35357832102308678 -0.28816147489813743 0 0.36087634202934032 -0.30211297570133377 0 0.35711558672006172 -0.27354793744083078 0 0.36873774536035581 -0.28861226174546889 0 0.35357832102308678 -0.28816147489813743 0 0.33743581475864359 -0.28536266187014298 0 0.35357832102308678 -0.28816147489813743 0 0.33743581475864359 -0.28536266187014298 0 0.34706744656536048 -0.28007479224216619 0 0.35357832102308678 -0.28816147489813743 0 0.33743581475864359 -0.28536266187014298 0 0.34308905326158867 -0.30070827197480321 0 0.35357832102308678 -0.28816147489813743 0 0.34308905326158867 -0.30070827197480321 0 0.36087634202934032 -0.30211297570133377 0 0.3603589122919777 -0.32616465434179109 0 0.34308905326158867 -0.30070827197480321 0 0.35357832102308678 -0.28816147489813743 0 0.36087634202934032 -0.30211297570133377 0 0.37861767820969228 -0.30691821554646831 0 0.36873774536035581 -0.28861226174546889 0 0.36087634202934032 -0.30211297570133377 0 0.37861767820969228 -0.30691821554646831 0 0.36087634202934032 -0.30211297570133377 0 0.3603589122919777 -0.32616465434179109 0 0.37858644206980091 -0.32769985780377792 0 0.37861767820969228 -0.30691821554646831 0 0.3603589122919777 -0.32616465434179109 0 0.37858644206980091 -0.32769985780377792 0 0.3603589122919777 -0.32616465434179109 0 0.36805061276354478 -0.3427907498460791 0 0.3603589122919777 -0.32616465434179109 0 0.34679726984937148 -0.35193202586079081 0 0.3603589122919777 -0.32616465434179109 0 0.34679726984937148 -0.35193202586079081 0 0.3423644242317993 -0.33453707324987059 0 0.3603589122919777 -0.32616465434179109 0 0.36805061276354478 -0.3427907498460791 0 0.34679726984937148 -0.35193202586079081 0 0.33163278235650262 -0.31237877804800812 0 0.34308905326158867 -0.30070827197480321 0 0.3603589122919777 -0.32616465434179109 0 0.33163278235650262 -0.31237877804800812 0 0.3603589122919777 -0.32616465434179109 0 0.3423644242317993 -0.33453707324987059 0 0.37640125955739012 -0.35149107478397351 0 0.38081427771294768 -0.36737052156009248 0 0.36600013168445039 -0.36059477107615401 0 0.36848073339739068 -0.37517807712711049 0 0.36600013168445039 -0.36059477107615401 0 0.3554566368260581 -0.37480617727887811 0 0.38081427771294768 -0.36737052156009248 0 0.36848073339739068 -0.37517807712711049 0 0.36600013168445039 -0.36059477107615401 0 0.36805061276354478 -0.3427907498460791 0 0.36600013168445039 -0.36059477107615401 0 0.34679726984937148 -0.35193202586079081 0 0.37640125955739012 -0.35149107478397351 0 0.36805061276354478 -0.3427907498460791 0 0.36600013168445039 -0.36059477107615401 0 0.36600013168445039 -0.36059477107615401 0 0.34679726984937148 -0.35193202586079081 0 0.3554566368260581 -0.37480617727887811 0 0.34679726984937148 -0.35193202586079081 0 0.34537995690420659 -0.3737828605913362 0 0.3554566368260581 -0.37480617727887811 0 0.33323562740676532 -0.37769939737979058 0 0.33171275220581908 -0.35441984147836231 0 0.32002671755222051 -0.36641101040373808 0 0.33323562740676532 -0.37769939737979058 0 0.34679726984937148 -0.35193202586079081 0 0.33323562740676532 -0.37769939737979058 0 0.34679726984937148 -0.35193202586079081 0 0.34537995690420659 -0.3737828605913362 0 0.33323562740676532 -0.37769939737979058 0 0.34679726984937148 -0.35193202586079081 0 0.33171275220581908 -0.35441984147836231 0 0.34679726984937148 -0.35193202586079081 0 0.33171275220581908 -0.35441984147836231 0 0.3423644242317993 -0.33453707324987059 0 0.33171275220581908 -0.35441984147836231 0 0.32002671755222051 -0.36641101040373808 0 0.32582974995436148 -0.33939489422587321 0 0.32002671755222051 -0.36641101040373808 0 0.32582974995436148 -0.33939489422587321 0 0.31500009593534162 -0.35119999692538878 0 0.32002671755222051 -0.36641101040373808 0 0.32582974995436148 -0.33939489422587321 0 0.33163278235650262 -0.31237877804800812 0 0.32582974995436148 -0.33939489422587321 0 0.33163278235650262 -0.31237877804800812 0 0.3423644242317993 -0.33453707324987059 0 0.32582974995436148 -0.33939489422587321 0 0.33171275220581908 -0.35441984147836231 0 0.3423644242317993 -0.33453707324987059 0 0.32582974995436148 -0.33939489422587321 0 0.31500009593534162 -0.35119999692538878 0 0.32582974995436148 -0.33939489422587321 0 0.31041762281754448 -0.32833073988017608 0 0.33163278235650262 -0.31237877804800812 0 0.32582974995436148 -0.33939489422587321 0 0.31041762281754448 -0.32833073988017608 0 0.33163278235650262 -0.31237877804800812 0 0.31041762281754448 -0.32833073988017608 0 0.30954970221622308 -0.30462347215273478 0 0.31041762281754448 -0.32833073988017608 0 0.29592063247569211 -0.31558436997640987 0 0.30954970221622308 -0.30462347215273478 0 0.31041762281754448 -0.32833073988017608 0 0.29132656616613523 -0.33188180257029998 0 0.29592063247569211 -0.31558436997640987 0 0.31041762281754448 -0.32833073988017608 0 0.29132656616613523 -0.33188180257029998 0 0.29956578362214281 -0.35549229926055048 0 0.31041762281754448 -0.32833073988017608 0 0.29956578362214281 -0.35549229926055048 0 0.29132656616613523 -0.33188180257029998 0 0.28219501787468609 -0.34702129220438421 0 0.27282035448602859 -0.33554085100614839 0 0.29132656616613523 -0.33188180257029998 0 0.29592063247569211 -0.31558436997640987 0 0.27986439667319313 -0.31630171845149863 0 0.29132656616613523 -0.33188180257029998 0 0.27986439667319313 -0.31630171845149863 0 0.27282035448602859 -0.33554085100614839 0 0.30591552541026101 -0.37751124227982003 0 0.28871394442674109 -0.38265385864092483 0 0.29956578362214281 -0.35549229926055048 0 0.30591552541026101 -0.37751124227982003 0 0.32002671755222051 -0.36641101040373808 0 0.29956578362214281 -0.35549229926055048 0 0.31500009593534162 -0.35119999692538878 0 0.32002671755222051 -0.36641101040373808 0 0.29956578362214281 -0.35549229926055048 0 0.31500009593534162 -0.35119999692538878 0 0.31041762281754448 -0.32833073988017608 0 0.29956578362214281 -0.35549229926055048 0 0.29956578362214281 -0.35549229926055048 0 0.28219501787468609 -0.34702129220438421 0 0.27571190406721402 -0.36345127203525351 0 0.29132656616613523 -0.33188180257029998 0 0.29956578362214281 -0.35549229926055048 0 0.28219501787468609 -0.34702129220438421 0 0.28871394442674109 -0.38265385864092483 0 0.29956578362214281 -0.35549229926055048 0 0.27571190406721402 -0.36345127203525351 0 0.28871394442674109 -0.38265385864092483 0 0.29956578362214281 -0.35549229926055048 0 0.28219501787468609 -0.34702129220438421 0 0.27571190406721402 -0.36345127203525351 0 0.2669677564247489 -0.35003134695070198 0 0.28219501787468609 -0.34702129220438421 0 0.2669677564247489 -0.35003134695070198 0 0.27282035448602859 -0.33554085100614839 0 0.2669677564247489 -0.35003134695070198 0 0.2543981425525324 -0.33893914275967452 0 0.24971336314328341 -0.36520417674804972 0 0.2543981425525324 -0.33893914275967452 0 0.24971336314328341 -0.36520417674804972 0 0.26416245427686541 -0.38049931320234009 0 0.27571190406721402 -0.36345127203525351 0 0.24971336314328341 -0.36520417674804972 0 0.27571190406721402 -0.36345127203525351 0 0.2669677564247489 -0.35003134695070198 0 0.24971336314328341 -0.36520417674804972 0 0.27986439667319313 -0.31630171845149863 0 0.27282035448602859 -0.33554085100614839 0 0.27986439667319313 -0.31630171845149863 0 0.27282035448602859 -0.33554085100614839 0 0.2590829219617814 -0.31267410877129931 0 0.2669677564247489 -0.35003134695070198 0 0.27282035448602859 -0.33554085100614839 0 0.2543981425525324 -0.33893914275967452 0 0.27282035448602859 -0.33554085100614839 0 0.2543981425525324 -0.33893914275967452 0 0.2590829219617814 -0.31267410877129931 0 0.2543981425525324 -0.33893914275967452 0 0.2590829219617814 -0.31267410877129931 0 0.24087195768162309 -0.32614810142562012 0 0.2543981425525324 -0.33893914275967452 0 0.2590829219617814 -0.31267410877129931 0 0.2590829219617814 -0.31267410877129931 0 0.26376770137103039 -0.2864090747829241 0 0.27385105082646688 -0.29718155094811333 0 0.2590829219617814 -0.31267410877129931 0 0.26376770137103039 -0.2864090747829241 0 0.24821325608307901 -0.29522124281265988 0 0.2590829219617814 -0.31267410877129931 0 0.26376770137103039 -0.2864090747829241 0 0.26376770137103039 -0.2864090747829241 0 0.24785603391849151 -0.27709942466880599 0 0.24821325608307901 -0.29522124281265988 0 0.26376770137103039 -0.2864090747829241 0 0.27275834958840189 -0.28372268528309152 0 0.2724225943816766 -0.27409056785933389 0 0.26376770137103039 -0.2864090747829241 0 0.27275834958840189 -0.28372268528309152 0 0.27385105082646688 -0.29718155094811333 0 0.28072449650403741 -0.28691913250301798 0 0.27385105082646688 -0.29718155094811333 0 0.2869084388603575 -0.29706258589684881 0 0.27275834958840189 -0.28372268528309152 0 0.28072449650403741 -0.28691913250301798 0 0.27385105082646688 -0.29718155094811333 0 0.27275834958840189 -0.28372268528309152 0 0.28072449650403741 -0.28691913250301798 0 0.27996448038040939 -0.28063895974691061 0 0.27986439667319313 -0.31630171845149863 0 0.2590829219617814 -0.31267410877129931 0 0.27385105082646688 -0.29718155094811333 0 0.27986439667319313 -0.31630171845149863 0 0.27385105082646688 -0.29718155094811333 0 0.2869084388603575 -0.29706258589684881 0 0.27986439667319313 -0.31630171845149863 0 0.2869084388603575 -0.29706258589684881 0 0.29592063247569211 -0.31558436997640987 0 0.27986439667319313 -0.31630171845149863 0 0.2869084388603575 -0.29706258589684881 0 0.2869084388603575 -0.29706258589684881 0 0.30298021147195658 -0.29033858393126172 0 0.29395248104752192 -0.27782345334219888 0 0.28072449650403741 -0.28691913250301798 0 0.2869084388603575 -0.29706258589684881 0 0.29395248104752192 -0.27782345334219888 0 0.2869084388603575 -0.29706258589684881 0 0.29395248104752192 -0.27782345334219888 0 0.28072449650403741 -0.28691913250301798 0 0.29395248104752192 -0.27782345334219888 0 0.27996448038040939 -0.28063895974691061 0 0.31569414790308259 -0.28159305760617132 0 0.30298021147195658 -0.29033858393126172 0 0.29395248104752192 -0.27782345334219888 0 0.31296692944630888 -0.29314018565426941 0 0.31569414790308259 -0.28159305760617132 0 0.30298021147195658 -0.29033858393126172 0 0.31296692944630888 -0.29314018565426941 0 0.30298021147195658 -0.29033858393126172 0 0.30954970221622308 -0.30462347215273478 0 0.2869084388603575 -0.29706258589684881 0 0.30298021147195658 -0.29033858393126172 0 0.30954970221622308 -0.30462347215273478 0 0.29592063247569211 -0.31558436997640987 0 0.2869084388603575 -0.29706258589684881 0 0.30954970221622308 -0.30462347215273478 0 0.30517917142926537 -0.24716040808135001 0 0.31054181011664339 -0.26140137874582919 0 0.2976408850071105 -0.26774945168120262 0 0.30517917142926537 -0.24716040808135001 0 0.2976408850071105 -0.26774945168120262 0 0.31275786215232049 -0.27168837282467972 0 0.2976408850071105 -0.26774945168120262 0 0.29395248104752192 -0.27782345334219888 0 0.31275786215232049 -0.27168837282467972 0 0.2976408850071105 -0.26774945168120262 0 0.31275786215232049 -0.27168837282467972 0 0.31054181011664339 -0.26140137874582919 0 0.2976408850071105 -0.26774945168120262 0 0.31569414790308259 -0.28159305760617132 0 0.29395248104752192 -0.27782345334219888 0 0.31569414790308259 -0.28159305760617132 0 0.31275786215232049 -0.27168837282467972 0 0.29395248104752192 -0.27782345334219888 0 0.2976408850071105 -0.26774945168120262 0 0.28600938745522969 -0.26471871668720698 0 0.2976408850071105 -0.26774945168120262 0 0.29395248104752192 -0.27782345334219888 0 0.29395248104752192 -0.27782345334219888 0 0.27996448038040939 -0.28063895974691061 0 0.2724225943816766 -0.27409056785933389 0 0.29395248104752192 -0.27782345334219888 0 0.28600938745522969 -0.26471871668720698 0 0.27658132089261911 -0.27335422882897692 0 0.2976408850071105 -0.26774945168120262 0 0.29395248104752192 -0.27782345334219888 0 0.28600938745522969 -0.26471871668720698 0 0.29395248104752192 -0.27782345334219888 0 0.2724225943816766 -0.27409056785933389 0 0.28600938745522969 -0.26471871668720698 0 0.27658132089261911 -0.27335422882897692 0 0.30517917142926537 -0.24716040808135001 0 0.28600938745522969 -0.26471871668720698 0 0.30517917142926537 -0.24716040808135001 0 0.2976408850071105 -0.26774945168120262 0 0.28600938745522969 -0.26471871668720698 0 0.30517917142926537 -0.24716040808135001 0 0.28765229627979871 -0.24304032400626949 0 0.28600938745522969 -0.26471871668720698 0 0.28600938745522969 -0.26471871668720698 0 0.26845248078028039 -0.26014404079454911 0 0.28765229627979871 -0.24304032400626949 0 0.28600938745522969 -0.26471871668720698 0 0.26845248078028039 -0.26014404079454911 0 0.26376770137103039 -0.2864090747829241 0 0.26845248078028039 -0.26014404079454911 0 0.2724225943816766 -0.27409056785933389 0 0.28600938745522969 -0.26471871668720698 0 0.26845248078028039 -0.26014404079454911 0 0.27658132089261911 -0.27335422882897692 0 0.26376770137103039 -0.2864090747829241 0 0.26845248078028039 -0.26014404079454911 0 0.29395248104752192 -0.27782345334219888 0 0.27658132089261911 -0.27335422882897692 0 0.2724225943816766 -0.27409056785933389 0 0.27275834958840189 -0.28372268528309152 0 0.27996448038040939 -0.28063895974691061 0 0.2724225943816766 -0.27409056785933389 0 0.26845248078028039 -0.26014404079454911 0 0.27658132089261911 -0.27335422882897692 0 0.2724225943816766 -0.27409056785933389 0 0.26376770137103039 -0.2864090747829241 0 0.26845248078028039 -0.26014404079454911 0 0.24785603391849151 -0.27709942466880599 0 0.26845248078028039 -0.26014404079454911 0 0.2410490216361528 -0.25300372010805161 0 0.26845248078028039 -0.26014404079454911 0 0.2410490216361528 -0.25300372010805161 0 0.24785603391849151 -0.27709942466880599 0 0.25787859859726192 -0.24372773219337371 0 0.26845248078028039 -0.26014404079454911 0 0.2410490216361528 -0.25300372010805161 0 0.2410490216361528 -0.25300372010805161 0 0.24785603391849151 -0.27709942466880599 0 0.23139485578507429 -0.27647983237136509 0 0.23139485578507429 -0.27647983237136509 0 0.2171028506536257 -0.26700629366950379 0 0.21674952071488601 -0.28686299221921707 0 0.2410490216361528 -0.25300372010805161 0 0.23139485578507429 -0.27647983237136509 0 0.2171028506536257 -0.26700629366950379 0 0.2410490216361528 -0.25300372010805161 0 0.2171028506536257 -0.26700629366950379 0 0.2136455624920251 -0.24586339942155419 0 0.2171028506536257 -0.26700629366950379 0 0.1960217485778272 -0.26205501631648559 0 0.2136455624920251 -0.24586339942155419 0 0.2171028506536257 -0.26700629366950379 0 0.2037572178097509 -0.27803645254629672 0 0.1960217485778272 -0.26205501631648559 0 0.2171028506536257 -0.26700629366950379 0 0.2037572178097509 -0.27803645254629672 0 0.21674952071488601 -0.28686299221921707 0 0.2037572178097509 -0.27803645254629672 0 0.1960217485778272 -0.26205501631648559 0 0.18672217274589489 -0.28463667424064248 0 0.1960217485778272 -0.26205501631648559 0 0.2136455624920251 -0.24586339942155419 0 0.1970165427207646 -0.2431475676051908 0 0.1960217485778272 -0.26205501631648559 0 0.1970165427207646 -0.2431475676051908 0 0.18013525364959199 -0.24590787480667409 0 0.19163287831415901 -0.30538761534618902 0 0.20219697373587131 -0.29192032270869461 0 0.2153952098199983 -0.30425933719731207 0 0.2037572178097509 -0.27803645254629672 0 0.20219697373587131 -0.29192032270869461 0 0.18672217274589489 -0.28463667424064248 0 0.19163287831415901 -0.30538761534618902 0 0.20219697373587131 -0.29192032270869461 0 0.18672217274589489 -0.28463667424064248 0 0.20219697373587131 -0.29192032270869461 0 0.21674952071488601 -0.28686299221921707 0 0.2153952098199983 -0.30425933719731207 0 0.2037572178097509 -0.27803645254629672 0 0.20219697373587131 -0.29192032270869461 0 0.21674952071488601 -0.28686299221921707 0 0.19163287831415901 -0.30538761534618902 0 0.2153952098199983 -0.30425933719731207 0 0.20381788977078771 -0.32236963909420019 0 0.2153952098199983 -0.30425933719731207 0 0.2333373149176502 -0.29099433783704243 0 0.2370223082464416 -0.30892926800322767 0 0.2153952098199983 -0.30425933719731207 0 0.2370223082464416 -0.30892926800322767 0 0.22300958304019269 -0.32335118517261402 0 0.21674952071488601 -0.28686299221921707 0 0.2153952098199983 -0.30425933719731207 0 0.2333373149176502 -0.29099433783704243 0 0.23139485578507429 -0.27647983237136509 0 0.21674952071488601 -0.28686299221921707 0 0.2333373149176502 -0.29099433783704243 0 0.24785603391849151 -0.27709942466880599 0 0.2333373149176502 -0.29099433783704243 0 0.24821325608307901 -0.29522124281265988 0 0.24785603391849151 -0.27709942466880599 0 0.23139485578507429 -0.27647983237136509 0 0.2333373149176502 -0.29099433783704243 0 0.2333373149176502 -0.29099433783704243 0 0.24821325608307901 -0.29522124281265988 0 0.2370223082464416 -0.30892926800322767 0 0.2590829219617814 -0.31267410877129931 0 0.24821325608307901 -0.29522124281265988 0 0.2370223082464416 -0.30892926800322767 0 0.2590829219617814 -0.31267410877129931 0 0.2370223082464416 -0.30892926800322767 0 0.24087195768162309 -0.32614810142562012 0 0.2543981425525324 -0.33893914275967452 0 0.24087195768162309 -0.32614810142562012 0 0.2308468326071676 -0.34684680242128502 0 0.24087195768162309 -0.32614810142562012 0 0.22300958304019269 -0.32335118517261402 0 0.2308468326071676 -0.34684680242128502 0 0.22300958304019269 -0.32335118517261402 0 0.2308468326071676 -0.34684680242128502 0 0.21275128108028149 -0.33749920242868869 0 0.2370223082464416 -0.30892926800322767 0 0.24087195768162309 -0.32614810142562012 0 0.22300958304019269 -0.32335118517261402 0 0.24971336314328341 -0.36520417674804972 0 0.2308468326071676 -0.34684680242128502 0 0.229200177642885 -0.36995291413531828 0 0.2543981425525324 -0.33893914275967452 0 0.24971336314328341 -0.36520417674804972 0 0.2308468326071676 -0.34684680242128502 0 0.229200177642885 -0.36995291413531828 0 0.20725651587090471 -0.36571099534901208 0 0.22031030243082139 -0.38906492162812378 0 0.2308468326071676 -0.34684680242128502 0 0.229200177642885 -0.36995291413531828 0 0.20725651587090471 -0.36571099534901208 0 0.2308468326071676 -0.34684680242128502 0 0.20725651587090471 -0.36571099534901208 0 0.21275128108028149 -0.33749920242868869 0 0.20725651587090471 -0.36571099534901208 0 0.21275128108028149 -0.33749920242868869 0 0.194202729310988 -0.34235706906990038 0 0.20725651587090471 -0.36571099534901208 0 0.194202729310988 -0.34235706906990038 0 0.180238718969634 -0.3612454971324468 0 0.20725651587090471 -0.36571099534901208 0 0.194202729310988 -0.34235706906990038 0 0.20725651587090471 -0.36571099534901208 0 0.19261827162763251 -0.374541644607297 0 0.180238718969634 -0.3612454971324468 0 0.22300958304019269 -0.32335118517261402 0 0.20381788977078771 -0.32236963909420019 0 0.21275128108028149 -0.33749920242868869 0 0.2153952098199983 -0.30425933719731207 0 0.22300958304019269 -0.32335118517261402 0 0.20381788977078771 -0.32236963909420019 0 0.20381788977078771 -0.32236963909420019 0 0.21275128108028149 -0.33749920242868869 0 0.194202729310988 -0.34235706906990038 0 0.20381788977078771 -0.32236963909420019 0 0.194202729310988 -0.34235706906990038 0 0.18384400034678741 -0.32250280289756078 0 0.19163287831415901 -0.30538761534618902 0 0.20381788977078771 -0.32236963909420019 0 0.18384400034678741 -0.32250280289756078 0 0.18384400034678741 -0.32250280289756078 0 0.17702055828029431 -0.33666004199980942 0 0.15719449589681389 -0.32866913917705798 0 0.194202729310988 -0.34235706906990038 0 0.18384400034678741 -0.32250280289756078 0 0.17702055828029431 -0.33666004199980942 0 0.15719449589681389 -0.32866913917705798 0 0.16581699513551909 -0.35306125248096398 0 0.17702055828029431 -0.33666004199980942 0 0.15719449589681389 -0.32866913917705798 0 0.16581699513551909 -0.35306125248096398 0 0.18384400034678741 -0.32250280289756078 0 0.15719449589681389 -0.32866913917705798 0 0.17186855286937899 -0.30453082832045192 0 0.180238718969634 -0.3612454971324468 0 0.1834568796589737 -0.38583095226508418 0 0.17443949437422429 -0.37745336578486988 0 0.180238718969634 -0.3612454971324468 0 0.16581699513551909 -0.35306125248096398 0 0.17443949437422429 -0.37745336578486988 0 0.180238718969634 -0.3612454971324468 0 0.1834568796589737 -0.38583095226508418 0 0.19261827162763251 -0.374541644607297 0 0.180238718969634 -0.3612454971324468 0 0.1834568796589737 -0.38583095226508418 0 0.17702055828029431 -0.33666004199980942 0 0.180238718969634 -0.3612454971324468 0 0.16581699513551909 -0.35306125248096398 0 0.17702055828029431 -0.33666004199980942 0 0.180238718969634 -0.3612454971324468 0 0.194202729310988 -0.34235706906990038 0 0.17702055828029431 -0.33666004199980942 0 0.180238718969634 -0.3612454971324468 0 0.16581699513551909 -0.35306125248096398 0 0.1602354860011011 -0.36875954027416918 0 0.14952990885070691 -0.36034775620209553 0 0.16581699513551909 -0.35306125248096398 0 0.17443949437422429 -0.37745336578486988 0 0.16581699513551909 -0.35306125248096398 0 0.1602354860011011 -0.36875954027416918 0 0.17443949437422429 -0.37745336578486988 0 0.1602354860011011 -0.36875954027416918 0 0.14673951295096799 -0.37363029079717242 0 0.14952990885070691 -0.36034775620209553 0 0.16581699513551909 -0.35306125248096398 0 0.14952990885070691 -0.36034775620209553 0 0.144826286403443 -0.34676284914488159 0 0.14952990885070691 -0.36034775620209553 0 0.144826286403443 -0.34676284914488159 0 0.12334710111447229 -0.36406834251145731 0 0.144826286403443 -0.34676284914488159 0 0.12334710111447229 -0.36406834251145731 0 0.144826286403443 -0.34676284914488159 0 0.12334710111447229 -0.36406834251145731 0 0.11573058637367541 -0.34380091622275832 0 0.13273239812562251 -0.3803535413873157 0 0.1208593498238435 -0.38006314209191833 0 0.12334710111447229 -0.36406834251145731 0 0.14673951295096799 -0.37363029079717242 0 0.14952990885070691 -0.36034775620209553 0 0.12334710111447229 -0.36406834251145731 0 0.14673951295096799 -0.37363029079717242 0 0.13273239812562251 -0.3803535413873157 0 0.12334710111447229 -0.36406834251145731 0 0.15719449589681389 -0.32866913917705798 0 0.13978194378111039 -0.33004063130878142 0 0.14857199665810869 -0.30427702587315197 0 0.15719449589681389 -0.32866913917705798 0 0.14857199665810869 -0.30427702587315197 0 0.15719449589681389 -0.32866913917705798 0 0.144826286403443 -0.34676284914488159 0 0.13978194378111039 -0.33004063130878142 0 0.15719449589681389 -0.32866913917705798 0 0.16581699513551909 -0.35306125248096398 0 0.144826286403443 -0.34676284914488159 0 0.13978194378111039 -0.33004063130878142 0 0.1249111379911398 -0.32186001205002218 0 0.11573058637367541 -0.34380091622275832 0 0.144826286403443 -0.34676284914488159 0 0.13978194378111039 -0.33004063130878142 0 0.11573058637367541 -0.34380091622275832 0 0.13978194378111039 -0.33004063130878142 0 0.14857199665810869 -0.30427702587315197 0 0.1249111379911398 -0.32186001205002218 0 0.14857199665810869 -0.30427702587315197 0 0.13584279120622419 -0.29064916595208462 0 0.1212075847983899 -0.30357596212866123 0 0.14857199665810869 -0.30427702587315197 0 0.1212075847983899 -0.30357596212866123 0 0.1249111379911398 -0.32186001205002218 0 0.14857199665810869 -0.30427702587315197 0 0.14941647374314521 -0.28066083506566319 0 0.1659314811884508 -0.28303851802095531 0 0.14857199665810869 -0.30427702587315197 0 0.13584279120622419 -0.29064916595208462 0 0.14941647374314521 -0.28066083506566319 0 0.13554841089854469 -0.28148943716570812 0 0.13584279120622419 -0.29064916595208462 0 0.14941647374314521 -0.28066083506566319 0 0.13554841089854469 -0.28148943716570812 0 0.13584279120622419 -0.29064916595208462 0 0.1176113560141319 -0.2851589593963586 0 0.1376178273856396 -0.2676878026278281 0 0.13932302263067731 -0.26948878824872591 0 0.1176113560141319 -0.2851589593963586 0 0.13554841089854469 -0.28148943716570812 0 0.13932302263067731 -0.26948878824872591 0 0.1176113560141319 -0.2851589593963586 0 0.13932302263067731 -0.26948878824872591 0 0.1176113560141319 -0.2851589593963586 0 0.1376178273856396 -0.2676878026278281 0 0.1200034520355143 -0.24749468667538321 0 0.1376178273856396 -0.2676878026278281 0 0.1200034520355143 -0.24749468667538321 0 0.1412434604122122 -0.24631040783256791 0 0.1376178273856396 -0.2676878026278281 0 0.16103468924722281 -0.25381861710109321 0 0.1412434604122122 -0.24631040783256791 0 0.1376178273856396 -0.2676878026278281 0 0.13932302263067731 -0.26948878824872591 0 0.16103468924722281 -0.25381861710109321 0 0.13932302263067731 -0.26948878824872591 0 0.16103468924722281 -0.25381861710109321 0 0.13932302263067731 -0.26948878824872591 0 0.14941647374314521 -0.28066083506566319 0 0.16103468924722281 -0.25381861710109321 0 0.13554841089854469 -0.28148943716570812 0 0.13932302263067731 -0.26948878824872591 0 0.14941647374314521 -0.28066083506566319 0 0.14941647374314521 -0.28066083506566319 0 0.16103468924722281 -0.25381861710109321 0 0.1659314811884508 -0.28303851802095531 0 0.16103468924722281 -0.25381861710109321 0 0.1779690690817976 -0.26589134009717008 0 0.1659314811884508 -0.28303851802095531 0 0.16103468924722281 -0.25381861710109321 0 0.1779690690817976 -0.26589134009717008 0 0.18013525364959199 -0.24590787480667409 0 0.1960217485778272 -0.26205501631648559 0 0.1779690690817976 -0.26589134009717008 0 0.18013525364959199 -0.24590787480667409 0 0.1960217485778272 -0.26205501631648559 0 0.1779690690817976 -0.26589134009717008 0 0.18672217274589489 -0.28463667424064248 0 0.1779690690817976 -0.26589134009717008 0 0.18672217274589489 -0.28463667424064248 0 0.1659314811884508 -0.28303851802095531 0 0.18672217274589489 -0.28463667424064248 0 0.17186855286937899 -0.30453082832045192 0 0.1659314811884508 -0.28303851802095531 0 0.19163287831415901 -0.30538761534618902 0 0.18384400034678741 -0.32250280289756078 0 0.17186855286937899 -0.30453082832045192 0 0.19163287831415901 -0.30538761534618902 0 0.18672217274589489 -0.28463667424064248 0 0.17186855286937899 -0.30453082832045192 0 0.14857199665810869 -0.30427702587315197 0 0.17186855286937899 -0.30453082832045192 0 0.1659314811884508 -0.28303851802095531 0 0.15719449589681389 -0.32866913917705798 0 0.14857199665810869 -0.30427702587315197 0 0.17186855286937899 -0.30453082832045192 0 0.27004646425256568 -0.5 0 0.19840125792562099 -0.499999999999995 0 0.2258071254777905 -0.47806137695806639 0 0.19840125792562099 -0.499999999999995 0 0.1955652389629654 -0.47833395417678298 0 0.19840125792562099 -0.499999999999995 0 0.1955652389629654 -0.47833395417678298 0 0.1857239970351309 -0.48926605560099218 0 0.1955652389629654 -0.47833395417678298 0 0.2258071254777905 -0.47806137695806639 0 0.20496909670773639 -0.46039718082621561 0 0.19840125792562099 -0.499999999999995 0 0.1955652389629654 -0.47833395417678298 0 0.2258071254777905 -0.47806137695806639 0 0.2532296876789632 -0.47497352743918242 0 0.27004646425256568 -0.5 0 0.2258071254777905 -0.47806137695806639 0 0.2532296876789632 -0.47497352743918242 0 0.2258071254777905 -0.47806137695806639 0 0.23317765179809191 -0.45416130837427687 0 0.2258071254777905 -0.47806137695806639 0 0.23317765179809191 -0.45416130837427687 0 0.20496909670773639 -0.46039718082621561 0 0.23317765179809191 -0.45416130837427687 0 0.20496909670773639 -0.46039718082621561 0 0.26339579246569877 -0.46312143350125029 0 0.2532296876789632 -0.47497352743918242 0 0.23317765179809191 -0.45416130837427687 0 0.26138620688844749 -0.44792543592233808 0 0.2518592606704963 -0.43815060111373921 0 0.23317765179809191 -0.45416130837427687 0 0.26138620688844749 -0.44792543592233808 0 0.23317765179809191 -0.45416130837427687 0 0.2518592606704963 -0.43815060111373921 0 0.23317765179809191 -0.45416130837427687 0 0.24161391479158839 -0.43048581688246368 0 0.23317765179809191 -0.45416130837427687 0 0.21274467024756119 -0.44537306322652892 0 0.22596778666418391 -0.43195218695593612 0 0.23317765179809191 -0.45416130837427687 0 0.22596778666418391 -0.43195218695593612 0 0.24161391479158839 -0.43048581688246368 0 0.20738663592967541 -0.43977689630152639 0 0.21274467024756119 -0.44537306322652892 0 0.21231789143938981 -0.43260924517595267 0 0.20738663592967541 -0.43977689630152639 0 0.20306963394956029 -0.44528763306514119 0 0.2014143480821905 -0.43583764373848299 0 0.20738663592967541 -0.43977689630152639 0 0.21274467024756119 -0.44537306322652892 0 0.20306963394956029 -0.44528763306514119 0 0.21274467024756119 -0.44537306322652892 0 0.20306963394956029 -0.44528763306514119 0 0.20202636709778779 -0.45196992376671852 0 0.21274467024756119 -0.44537306322652892 0 0.20496909670773639 -0.46039718082621561 0 0.20202636709778779 -0.45196992376671852 0 0.23317765179809191 -0.45416130837427687 0 0.21274467024756119 -0.44537306322652892 0 0.20496909670773639 -0.46039718082621561 0 0.1955652389629654 -0.47833395417678298 0 0.20496909670773639 -0.46039718082621561 0 0.1927292200003092 -0.45666790835357102 0 0.1955652389629654 -0.47833395417678298 0 0.1927292200003092 -0.45666790835357102 0 0.1955652389629654 -0.47833395417678298 0 0.19047701204926121 -0.46094242075341862 0 0.1927292200003092 -0.45666790835357102 0 0.20496909670773639 -0.46039718082621561 0 0.1927292200003092 -0.45666790835357102 0 0.20202636709778779 -0.45196992376671852 0 0.19047701204926121 -0.46094242075341862 0 0.1927292200003092 -0.45666790835357102 0 0.1876592352144193 -0.45673372923780892 0 0.1927292200003092 -0.45666790835357102 0 0.1876592352144193 -0.45673372923780892 0 0.18777566972406101 -0.44981142861604279 0 0.1927292200003092 -0.45666790835357102 0 0.19595067699787469 -0.4453334870477933 0 0.18989320103765239 -0.43500186253035911 0 0.1927292200003092 -0.45666790835357102 0 0.18989320103765239 -0.43500186253035911 0 0.1927292200003092 -0.45666790835357102 0 0.18777566972406101 -0.44981142861604279 0 0.18989320103765239 -0.43500186253035911 0 0.19521760998379711 -0.43854214036159178 0 0.19595067699787469 -0.4453334870477933 0 0.1916906899727929 -0.43609695451772118 0 0.19595067699787469 -0.4453334870477933 0 0.1916906899727929 -0.43609695451772118 0 0.18989320103765239 -0.43500186253035911 0 0.19521760998379711 -0.43854214036159178 0 0.19821003569121751 -0.44088076654097252 0 0.19595067699787469 -0.4453334870477933 0 0.19821003569121751 -0.44088076654097252 0 0.20306963394956029 -0.44528763306514119 0 0.19595067699787469 -0.4453334870477933 0 0.19821003569121751 -0.44088076654097252 0 0.20306963394956029 -0.44528763306514119 0 0.2014143480821905 -0.43583764373848299 0 0.19521760998379711 -0.43854214036159178 0 0.19821003569121751 -0.44088076654097252 0 0.19632921389935129 -0.43529695882979857 0 0.20306963394956029 -0.44528763306514119 0 0.20202636709778779 -0.45196992376671852 0 0.19595067699787469 -0.4453334870477933 0 0.1927292200003092 -0.45666790835357102 0 0.20202636709778779 -0.45196992376671852 0 0.19595067699787469 -0.4453334870477933 0 0.18989320103765239 -0.43500186253035911 0 0.193210065479164 -0.42351508711829272 0 0.18667504034831339 -0.41041640739772162 0 0.18989320103765239 -0.43500186253035911 0 0.18667504034831339 -0.41041640739772162 0 0.1973860855611401 -0.42692030526330021 0 0.193210065479164 -0.42351508711829272 0 0.19846083006015189 -0.42045811652912207 0 0.1973860855611401 -0.42692030526330021 0 0.19846083006015189 -0.42045811652912207 0 0.20326441538295181 -0.42746054266679712 0 0.1973860855611401 -0.42692030526330021 0 0.19826447490927249 -0.43151164360587502 0 0.20326441538295181 -0.42746054266679712 0 0.2014143480821905 -0.43583764373848299 0 0.19826447490927249 -0.43151164360587502 0 0.20326441538295181 -0.42746054266679712 0 0.19821003569121751 -0.44088076654097252 0 0.2014143480821905 -0.43583764373848299 0 0.19632921389935129 -0.43529695882979857 0 0.2014143480821905 -0.43583764373848299 0 0.19632921389935129 -0.43529695882979857 0 0.19826447490927249 -0.43151164360587502 0 0.19632921389935129 -0.43529695882979857 0 0.19826447490927249 -0.43151164360587502 0 0.1929283116207289 -0.43204276753099607 0 0.1973860855611401 -0.42692030526330021 0 0.19826447490927249 -0.43151164360587502 0 0.1929283116207289 -0.43204276753099607 0 0.1929283116207289 -0.43204276753099607 0 0.18989320103765239 -0.43500186253035911 0 0.193210065479164 -0.42351508711829272 0 0.19521760998379711 -0.43854214036159178 0 0.19632921389935129 -0.43529695882979857 0 0.19377820557052011 -0.43520734882518619 0 0.19521760998379711 -0.43854214036159178 0 0.19377820557052011 -0.43520734882518619 0 0.1916906899727929 -0.43609695451772118 0 0.19632921389935129 -0.43529695882979857 0 0.1929283116207289 -0.43204276753099607 0 0.19377820557052011 -0.43520734882518619 0 0.1929283116207289 -0.43204276753099607 0 0.19210490899723079 -0.4345610298626873 0 0.18989320103765239 -0.43500186253035911 0 0.19377820557052011 -0.43520734882518619 0 0.19210490899723079 -0.4345610298626873 0 0.1916906899727929 -0.43609695451772118 0 0.1929283116207289 -0.43204276753099607 0 0.19377820557052011 -0.43520734882518619 0 0.19210490899723079 -0.4345610298626873 0 0.1916906899727929 -0.43609695451772118 0 0.18989320103765239 -0.43500186253035911 0 0.19210490899723079 -0.4345610298626873 0 0.1916906899727929 -0.43609695451772118 0 0.18989320103765239 -0.43500186253035911 0 0.1973860855611401 -0.42692030526330021 0 0.1929283116207289 -0.43204276753099607 0 0.193210065479164 -0.42351508711829272 0 0.193210065479164 -0.42351508711829272 0 0.1939169242469973 -0.41625106345825691 0 0.18667504034831339 -0.41041640739772162 0 0.193210065479164 -0.42351508711829272 0 0.1939169242469973 -0.41625106345825691 0 0.19846083006015189 -0.42045811652912207 0 0.1968341740193896 -0.41150644481021997 0 0.19418069224578771 -0.40518464808912641 0 0.18667504034831339 -0.41041640739772162 0 0.1939169242469973 -0.41625106345825691 0 0.1968341740193896 -0.41150644481021997 0 0.18667504034831339 -0.41041640739772162 0 0.1968341740193896 -0.41150644481021997 0 0.20469814770209749 -0.41520386531910081 0 0.20485234226760879 -0.40188257102108682 0 0.19846083006015189 -0.42045811652912207 0 0.20469814770209749 -0.41520386531910081 0 0.20326441538295181 -0.42746054266679712 0 0.1939169242469973 -0.41625106345825691 0 0.1968341740193896 -0.41150644481021997 0 0.19846083006015189 -0.42045811652912207 0 0.1968341740193896 -0.41150644481021997 0 0.19846083006015189 -0.42045811652912207 0 0.20469814770209749 -0.41520386531910081 0 0.20469814770209749 -0.41520386531910081 0 0.21626227209603979 -0.41615869782113413 0 0.20326441538295181 -0.42746054266679712 0 0.20469814770209749 -0.41520386531910081 0 0.21626227209603979 -0.41615869782113413 0 0.20485234226760879 -0.40188257102108682 0 0.21626227209603979 -0.41615869782113413 0 0.20326441538295181 -0.42746054266679712 0 0.21231789143938981 -0.43260924517595267 0 0.21626227209603979 -0.41615869782113413 0 0.21231789143938981 -0.43260924517595267 0 0.22596778666418391 -0.43195218695593612 0 0.20738663592967541 -0.43977689630152639 0 0.2014143480821905 -0.43583764373848299 0 0.21231789143938981 -0.43260924517595267 0 0.2014143480821905 -0.43583764373848299 0 0.20326441538295181 -0.42746054266679712 0 0.21231789143938981 -0.43260924517595267 0 0.21274467024756119 -0.44537306322652892 0 0.21231789143938981 -0.43260924517595267 0 0.22596778666418391 -0.43195218695593612 0 0.22596778666418391 -0.43195218695593612 0 0.24161391479158839 -0.43048581688246368 0 0.2333640889907381 -0.41241884790723538 0 0.25610826383841628 -0.42120346698794331 0 0.2518592606704963 -0.43815060111373921 0 0.24161391479158839 -0.43048581688246368 0 0.25610826383841628 -0.42120346698794331 0 0.24161391479158839 -0.43048581688246368 0 0.2333640889907381 -0.41241884790723538 0 0.21626227209603979 -0.41615869782113413 0 0.22596778666418391 -0.43195218695593612 0 0.2333640889907381 -0.41241884790723538 0 0.2333640889907381 -0.41241884790723538 0 0.24502858373403441 -0.39146921073642488 0 0.22031030243082139 -0.38906492162812378 0 0.21626227209603979 -0.41615869782113413 0 0.2333640889907381 -0.41241884790723538 0 0.22031030243082139 -0.38906492162812378 0 0.2333640889907381 -0.41241884790723538 0 0.22031030243082139 -0.38906492162812378 0 0.26125098829365018 -0.39969694482297641 0 0.2333640889907381 -0.41241884790723538 0 0.24502858373403441 -0.39146921073642488 0 0.24971336314328341 -0.36520417674804972 0 0.24502858373403441 -0.39146921073642488 0 0.24971336314328341 -0.36520417674804972 0 0.229200177642885 -0.36995291413531828 0 0.24502858373403441 -0.39146921073642488 0 0.229200177642885 -0.36995291413531828 0 0.24502858373403441 -0.39146921073642488 0 0.22031030243082139 -0.38906492162812378 0 0.20725651587090471 -0.36571099534901208 0 0.22031030243082139 -0.38906492162812378 0 0.19952097201101759 -0.38537913368264481 0 0.20725651587090471 -0.36571099534901208 0 0.22031030243082139 -0.38906492162812378 0 0.21626227209603979 -0.41615869782113413 0 0.22031030243082139 -0.38906492162812378 0 0.20485234226760879 -0.40188257102108682 0 0.22031030243082139 -0.38906492162812378 0 0.20485234226760879 -0.40188257102108682 0 0.19952097201101759 -0.38537913368264481 0 0.20485234226760879 -0.40188257102108682 0 0.19159455078491761 -0.39726910731705511 0 0.19952097201101759 -0.38537913368264481 0 0.1968341740193896 -0.41150644481021997 0 0.20485234226760879 -0.40188257102108682 0 0.19418069224578771 -0.40518464808912641 0 0.20485234226760879 -0.40188257102108682 0 0.19418069224578771 -0.40518464808912641 0 0.19159455078491761 -0.39726910731705511 0 0.19418069224578771 -0.40518464808912641 0 0.19159455078491761 -0.39726910731705511 0 0.18667504034831339 -0.41041640739772162 0 0.20725651587090471 -0.36571099534901208 0 0.19261827162763251 -0.374541644607297 0 0.19952097201101759 -0.38537913368264481 0 0.19261827162763251 -0.374541644607297 0 0.19952097201101759 -0.38537913368264481 0 0.1834568796589737 -0.38583095226508418 0 0.19159455078491761 -0.39726910731705511 0 0.19952097201101759 -0.38537913368264481 0 0.1834568796589737 -0.38583095226508418 0 0.17443949437422429 -0.37745336578486988 0 0.18306199361292941 -0.40184547908877583 0 0.1834568796589737 -0.38583095226508418 0 0.17443949437422429 -0.37745336578486988 0 0.18306199361292941 -0.40184547908877583 0 0.17443949437422429 -0.37745336578486988 0 0.18306199361292941 -0.40184547908877583 0 0.1699565165384864 -0.39219147373696051 0 0.19159455078491761 -0.39726910731705511 0 0.1834568796589737 -0.38583095226508418 0 0.18667504034831339 -0.41041640739772162 0 0.1834568796589737 -0.38583095226508418 0 0.18667504034831339 -0.41041640739772162 0 0.1834568796589737 -0.38583095226508418 0 0.18306199361292941 -0.40184547908877583 0 0.18667504034831339 -0.41041640739772162 0 0.18306199361292941 -0.40184547908877583 0 0.1699565165384864 -0.39219147373696051 0 0.17103987791038719 -0.40450309618882169 0 0.18306199361292941 -0.40184547908877583 0 0.17103987791038719 -0.40450309618882169 0 0.1814131781600461 -0.40758752999736902 0 0.1699565165384864 -0.39219147373696051 0 0.17103987791038719 -0.40450309618882169 0 0.15993177942481909 -0.39557864441750712 0 0.17103987791038719 -0.40450309618882169 0 0.15993177942481909 -0.39557864441750712 0 0.14638679418839309 -0.40849626541203388 0 0.1699565165384864 -0.39219147373696051 0 0.15993177942481909 -0.39557864441750712 0 0.1595700277473481 -0.38298567724053401 0 0.17443949437422429 -0.37745336578486988 0 0.1699565165384864 -0.39219147373696051 0 0.1595700277473481 -0.38298567724053401 0 0.1602354860011011 -0.36875954027416918 0 0.17443949437422429 -0.37745336578486988 0 0.1595700277473481 -0.38298567724053401 0 0.1602354860011011 -0.36875954027416918 0 0.14673951295096799 -0.37363029079717242 0 0.1595700277473481 -0.38298567724053401 0 0.14673951295096799 -0.37363029079717242 0 0.1595700277473481 -0.38298567724053401 0 0.14586341328622179 -0.39002728499933198 0 0.14673951295096799 -0.37363029079717242 0 0.14586341328622179 -0.39002728499933198 0 0.13273239812562251 -0.3803535413873157 0 0.15993177942481909 -0.39557864441750712 0 0.1595700277473481 -0.38298567724053401 0 0.14586341328622179 -0.39002728499933198 0 0.14586341328622179 -0.39002728499933198 0 0.13273239812562251 -0.3803535413873157 0 0.12412735500694751 -0.39493505064503392 0 0.13273239812562251 -0.3803535413873157 0 0.12412735500694751 -0.39493505064503392 0 0.1208593498238435 -0.38006314209191833 0 0.14586341328622179 -0.39002728499933198 0 0.14638679418839309 -0.40849626541203388 0 0.12412735500694751 -0.39493505064503392 0 0.14638679418839309 -0.40849626541203388 0 0.1185943653130178 -0.41089393958744808 0 0.12412735500694751 -0.39493505064503392 0 0.14638679418839309 -0.40849626541203388 0 0.12412735500694751 -0.39493505064503392 0 0.15993177942481909 -0.39557864441750712 0 0.14586341328622179 -0.39002728499933198 0 0.14638679418839309 -0.40849626541203388 0 0.14638679418839309 -0.40849626541203388 0 0.12945713117598301 -0.42527718494859718 0 0.1185943653130178 -0.41089393958744808 0 0.12945713117598301 -0.42527718494859718 0 0.1521605439778134 -0.43517333823265708 0 0.13567485458578729 -0.448289196286278 0 0.14638679418839309 -0.40849626541203388 0 0.12945713117598301 -0.42527718494859718 0 0.1521605439778134 -0.43517333823265708 0 0.14638679418839309 -0.40849626541203388 0 0.1521605439778134 -0.43517333823265708 0 0.16864623336983819 -0.42205748017903449 0 0.1521605439778134 -0.43517333823265708 0 0.16864623336983819 -0.42205748017903449 0 0.1521605439778134 -0.43517333823265708 0 0.16864623336983819 -0.42205748017903449 0 0.16573483381671769 -0.43911683261624462 0 0.16864623336983819 -0.42205748017903449 0 0.17670256027174869 -0.43608133600128551 0 0.16573483381671769 -0.43911683261624462 0 0.17103987791038719 -0.40450309618882169 0 0.14638679418839309 -0.40849626541203388 0 0.16962733287145829 -0.41306172809692981 0 0.14638679418839309 -0.40849626541203388 0 0.16864623336983819 -0.42205748017903449 0 0.14638679418839309 -0.40849626541203388 0 0.16864623336983819 -0.42205748017903449 0 0.16962733287145829 -0.41306172809692981 0 0.16864623336983819 -0.42205748017903449 0 0.17965678171287719 -0.41329759239238029 0 0.18989320103765239 -0.43500186253035911 0 0.17965678171287719 -0.41329759239238029 0 0.18667504034831339 -0.41041640739772162 0 0.16864623336983819 -0.42205748017903449 0 0.16962733287145829 -0.41306172809692981 0 0.17965678171287719 -0.41329759239238029 0 0.17103987791038719 -0.40450309618882169 0 0.16962733287145829 -0.41306172809692981 0 0.17965678171287719 -0.41329759239238029 0 0.17103987791038719 -0.40450309618882169 0 0.17965678171287719 -0.41329759239238029 0 0.1814131781600461 -0.40758752999736902 0 0.18306199361292941 -0.40184547908877583 0 0.1814131781600461 -0.40758752999736902 0 0.18667504034831339 -0.41041640739772162 0 0.17965678171287719 -0.41329759239238029 0 0.1814131781600461 -0.40758752999736902 0 0.18667504034831339 -0.41041640739772162 0 0.18989320103765239 -0.43500186253035911 0 0.16864623336983819 -0.42205748017903449 0 0.18989320103765239 -0.43500186253035911 0 0.16864623336983819 -0.42205748017903449 0 0.17965678171287719 -0.41329759239238029 0 0.18989320103765239 -0.43500186253035911 0 0.16864623336983819 -0.42205748017903449 0 0.17670256027174869 -0.43608133600128551 0 0.18989320103765239 -0.43500186253035911 0 0.17670256027174869 -0.43608133600128551 0 0.18208037526260021 -0.440172852945236 0 0.17851738694434799 -0.45081987712854771 0 0.17618275988476059 -0.44374183802639611 0 0.18401323307134959 -0.44581129240036288 0 0.17851738694434799 -0.45081987712854771 0 0.1776998484129505 -0.456552179461992 0 0.17120073938054131 -0.45123220200337888 0 0.17851738694434799 -0.45081987712854771 0 0.17618275988476059 -0.44374183802639611 0 0.17120073938054131 -0.45123220200337888 0 0.17670256027174869 -0.43608133600128551 0 0.17618275988476059 -0.44374183802639611 0 0.16573483381671769 -0.43911683261624462 0 0.17670256027174869 -0.43608133600128551 0 0.17618275988476059 -0.44374183802639611 0 0.18208037526260021 -0.440172852945236 0 0.18989320103765239 -0.43500186253035911 0 0.18208037526260021 -0.440172852945236 0 0.18401323307134959 -0.44581129240036288 0 0.18777566972406101 -0.44981142861604279 0 0.18989320103765239 -0.43500186253035911 0 0.18401323307134959 -0.44581129240036288 0 0.17618275988476059 -0.44374183802639611 0 0.18208037526260021 -0.440172852945236 0 0.18401323307134959 -0.44581129240036288 0 0.18777566972406101 -0.44981142861604279 0 0.18401323307134959 -0.44581129240036288 0 0.18385690407389799 -0.45446609953290928 0 0.17851738694434799 -0.45081987712854771 0 0.18401323307134959 -0.44581129240036288 0 0.18385690407389799 -0.45446609953290928 0 0.19047701204926121 -0.46094242075341862 0 0.1876592352144193 -0.45673372923780892 0 0.1806900259799068 -0.46227126151247672 0 0.1876592352144193 -0.45673372923780892 0 0.18777566972406101 -0.44981142861604279 0 0.18385690407389799 -0.45446609953290928 0 0.19047701204926121 -0.46094242075341862 0 0.1806900259799068 -0.46227126151247672 0 0.17298031468751371 -0.48047121037671059 0 0.1876592352144193 -0.45673372923780892 0 0.18385690407389799 -0.45446609953290928 0 0.1806900259799068 -0.46227126151247672 0 0.18385690407389799 -0.45446609953290928 0 0.1806900259799068 -0.46227126151247672 0 0.1776998484129505 -0.456552179461992 0 0.17851738694434799 -0.45081987712854771 0 0.18385690407389799 -0.45446609953290928 0 0.1776998484129505 -0.456552179461992 0 0.1806900259799068 -0.46227126151247672 0 0.1776998484129505 -0.456552179461992 0 0.17146684144139809 -0.46446192971202138 0 0.1776998484129505 -0.456552179461992 0 0.17146684144139809 -0.46446192971202138 0 0.17120073938054131 -0.45123220200337888 0 0.17146684144139809 -0.46446192971202138 0 0.15759213853868431 -0.45113306297151079 0 0.14900727366634989 -0.46501884712825781 0 0.17146684144139809 -0.46446192971202138 0 0.15759213853868431 -0.45113306297151079 0 0.17120073938054131 -0.45123220200337888 0 0.1521605439778134 -0.43517333823265708 0 0.15759213853868431 -0.45113306297151079 0 0.16573483381671769 -0.43911683261624462 0 0.15759213853868431 -0.45113306297151079 0 0.17120073938054131 -0.45123220200337888 0 0.16573483381671769 -0.43911683261624462 0 0.17618275988476059 -0.44374183802639611 0 0.17120073938054131 -0.45123220200337888 0 0.16573483381671769 -0.43911683261624462 0 0.1521605439778134 -0.43517333823265708 0 0.15759213853868431 -0.45113306297151079 0 0.13567485458578729 -0.448289196286278 0 0.1521605439778134 -0.43517333823265708 0 0.13567485458578729 -0.448289196286278 0 0.13567485458578729 -0.448289196286278 0 0.1191891651937612 -0.46140505433989892 0 0.12203304576274319 -0.43975504748265359 0 0.12945713117598301 -0.42527718494859718 0 0.13567485458578729 -0.448289196286278 0 0.12203304576274319 -0.43975504748265359 0 0.13567485458578729 -0.448289196286278 0 0.1191891651937612 -0.46140505433989892 0 0.13567485458578729 -0.448289196286278 0 0.13480127744719991 -0.46410976413563299 0 0.1191891651937612 -0.46140505433989892 0 0.13567485458578729 -0.448289196286278 0 0.13480127744719991 -0.46410976413563299 0 0.14900727366634989 -0.46501884712825781 0 0.15759213853868431 -0.45113306297151079 0 0.13567485458578729 -0.448289196286278 0 0.14900727366634989 -0.46501884712825781 0 0.14900727366634989 -0.46501884712825781 0 0.15577652408963519 -0.48266000469618581 0 0.13873200589539489 -0.47945912496791759 0 0.13480127744719991 -0.46410976413563299 0 0.14900727366634989 -0.46501884712825781 0 0.13873200589539489 -0.47945912496791759 0 0.13480127744719991 -0.46410976413563299 0 0.13873200589539489 -0.47945912496791759 0 0.11801755443736479 -0.48060781756800708 0 0.13873200589539489 -0.47945912496791759 0 0.13581988522262109 -0.50000000000000244 0 0.11801755443736479 -0.48060781756800708 0 0.13581988522262109 -0.50000000000000244 0 0.11801755443736479 -0.48060781756800708 0 0.15577652408963519 -0.48266000469618581 0 0.13873200589539489 -0.47945912496791759 0 0.13581988522262109 -0.50000000000000244 0 0.15577652408963519 -0.48266000469618581 0 0.13581988522262109 -0.50000000000000244 0 0.15548361732576529 -0.50000000000000178 0 0.15577652408963519 -0.48266000469618581 0 0.15548361732576529 -0.50000000000000178 0 0.17298031468751371 -0.48047121037671059 0 0.15548361732576529 -0.50000000000000178 0 0.17298031468751371 -0.48047121037671059 0 0.1769424376256932 -0.5 0 0.15548361732576529 -0.50000000000000178 0 0.17298031468751371 -0.48047121037671059 0 0.17146684144139809 -0.46446192971202138 0 0.15577652408963519 -0.48266000469618581 0 0.17298031468751371 -0.48047121037671059 0 0.17146684144139809 -0.46446192971202138 0 0.14900727366634989 -0.46501884712825781 0 0.15577652408963519 -0.48266000469618581 0 0.19047701204926121 -0.46094242075341862 0 0.17298031468751371 -0.48047121037671059 0 0.1806900259799068 -0.46227126151247672 0 0.17146684144139809 -0.46446192971202138 0 0.17298031468751371 -0.48047121037671059 0 0.1955652389629654 -0.47833395417678298 0 0.19047701204926121 -0.46094242075341862 0 0.17298031468751371 -0.48047121037671059 0 0.1955652389629654 -0.47833395417678298 0 0.17298031468751371 -0.48047121037671059 0 0.1857239970351309 -0.48926605560099218 0 0.19840125792562099 -0.499999999999995 0 0.1857239970351309 -0.48926605560099218 0 0.1769424376256932 -0.5 0 0.17298031468751371 -0.48047121037671059 0 0.1857239970351309 -0.48926605560099218 0 0.1769424376256932 -0.5 0 0.074737975103940479 -0.48487994098964171 0 0.071046826552429457 -0.50000000000000733 0 0.059434139084113012 -0.47963991399004141 0 0.071046826552429457 -0.50000000000000733 0 0.059434139084113012 -0.47963991399004141 0 0.074737975103940479 -0.48487994098964171 0 0.05802097188470097 -0.46975988197928431 0 0.059434139084113012 -0.47963991399004141 0 0.074737975103940479 -0.48487994098964171 0 0.071955909258469009 -0.46877079283141743 0 0.05802097188470097 -0.46975988197928431 0 0.074737975103940479 -0.48487994098964171 0 0.071955909258469009 -0.46877079283141743 0 0.082737354296077953 -0.47427357099325013 0 0.074737975103940479 -0.48487994098964171 0 0.05802097188470097 -0.46975988197928431 0 0.074737975103940479 -0.48487994098964171 0 0.082737354296077953 -0.47427357099325013 0 0.094811061721812542 -0.48112121468145302 0 0.082737354296077953 -0.47427357099325013 0 0.094811061721812542 -0.48112121468145302 0 0.1002152236521098 -0.46121563513601083 0 0.074737975103940479 -0.48487994098964171 0 0.091454978323179614 -0.49999999999999939 0 0.094811061721812542 -0.48112121468145302 0 0.074737975103940479 -0.48487994098964171 0 0.091454978323179614 -0.49999999999999939 0 0.074737975103940479 -0.48487994098964171 0 0.071046826552429457 -0.50000000000000733 0 0.091454978323179614 -0.49999999999999939 0 0.1136374317729003 -0.5 0 0.11801755443736479 -0.48060781756800708 0 0.094811061721812542 -0.48112121468145302 0 0.091454978323179614 -0.49999999999999939 0 0.1136374317729003 -0.5 0 0.094811061721812542 -0.48112121468145302 0 0.13581988522262109 -0.50000000000000244 0 0.1136374317729003 -0.5 0 0.11801755443736479 -0.48060781756800708 0 0.11801755443736479 -0.48060781756800708 0 0.094811061721812542 -0.48112121468145302 0 0.1002152236521098 -0.46121563513601083 0 0.11801755443736479 -0.48060781756800708 0 0.1002152236521098 -0.46121563513601083 0 0.1002152236521098 -0.46121563513601083 0 0.1191891651937612 -0.46140505433989892 0 0.1082504500781146 -0.44478934181291102 0 0.11801755443736479 -0.48060781756800708 0 0.1002152236521098 -0.46121563513601083 0 0.1191891651937612 -0.46140505433989892 0 0.13480127744719991 -0.46410976413563299 0 0.11801755443736479 -0.48060781756800708 0 0.1191891651937612 -0.46140505433989892 0 0.1191891651937612 -0.46140505433989892 0 0.12203304576274319 -0.43975504748265359 0 0.1082504500781146 -0.44478934181291102 0 0.1002152236521098 -0.46121563513601083 0 0.1082504500781146 -0.44478934181291102 0 0.082412892866854714 -0.44182345270401441 0 0.1002152236521098 -0.46121563513601083 0 0.082412892866854714 -0.44182345270401441 0 0.082737354296077953 -0.47427357099325013 0 0.1002152236521098 -0.46121563513601083 0 0.07989865607697158 -0.46093656822545309 0 0.1002152236521098 -0.46121563513601083 0 0.082412892866854714 -0.44182345270401441 0 0.07989865607697158 -0.46093656822545309 0 0.071955909258469009 -0.46877079283141743 0 0.082737354296077953 -0.47427357099325013 0 0.07989865607697158 -0.46093656822545309 0 0.071955909258469009 -0.46877079283141743 0 0.07989865607697158 -0.46093656822545309 0 0.064942869781788204 -0.45298741250561531 0 0.071955909258469009 -0.46877079283141743 0 0.064942869781788204 -0.45298741250561531 0 0.05802097188470097 -0.46975988197928431 0 0.082412892866854714 -0.44182345270401441 0 0.07989865607697158 -0.46093656822545309 0 0.064942869781788204 -0.45298741250561531 0 0.082412892866854714 -0.44182345270401441 0 0.064942869781788204 -0.45298741250561531 0 0.064610562081599654 -0.42243127027201799 0 0.082412892866854714 -0.44182345270401441 0 0.064610562081599654 -0.42243127027201799 0 0.085410796704641828 -0.41553833344022301 0 0.082412892866854714 -0.44182345270401441 0 0.064610562081599654 -0.42243127027201799 0 0.064610562081599654 -0.42243127027201799 0 0.085410796704641828 -0.41553833344022301 0 0.071260751408415451 -0.40583032332525898 0 0.082412892866854714 -0.44182345270401441 0 0.085410796704641828 -0.41553833344022301 0 0.10565257718969159 -0.42402980380391259 0 0.1082504500781146 -0.44478934181291102 0 0.10565257718969159 -0.42402980380391259 0 0.1082504500781146 -0.44478934181291102 0 0.082412892866854714 -0.44182345270401441 0 0.10565257718969159 -0.42402980380391259 0 0.12203304576274319 -0.43975504748265359 0 0.1082504500781146 -0.44478934181291102 0 0.10565257718969159 -0.42402980380391259 0 0.12945713117598301 -0.42527718494859718 0 0.12203304576274319 -0.43975504748265359 0 0.10565257718969159 -0.42402980380391259 0 0.12945713117598301 -0.42527718494859718 0 0.10565257718969159 -0.42402980380391259 0 0.1185943653130178 -0.41089393958744808 0 0.10565257718969159 -0.42402980380391259 0 0.10305470430126849 -0.40327026579491432 0 0.10565257718969159 -0.42402980380391259 0 0.1185943653130178 -0.41089393958744808 0 0.10305470430126849 -0.40327026579491432 0 0.085410796704641828 -0.41553833344022301 0 0.10565257718969159 -0.42402980380391259 0 0.10305470430126849 -0.40327026579491432 0 0.10305470430126849 -0.40327026579491432 0 0.1092296532162271 -0.39195520602732847 0 0.1018679158255022 -0.38137383587803358 0 0.10305470430126849 -0.40327026579491432 0 0.1018679158255022 -0.38137383587803358 0 0.084827885114816814 -0.39510276155480978 0 0.10305470430126849 -0.40327026579491432 0 0.1018679158255022 -0.38137383587803358 0 0.1185943653130178 -0.41089393958744808 0 0.10305470430126849 -0.40327026579491432 0 0.1092296532162271 -0.39195520602732847 0 0.1185943653130178 -0.41089393958744808 0 0.1092296532162271 -0.39195520602732847 0 0.12412735500694751 -0.39493505064503392 0 0.12412735500694751 -0.39493505064503392 0 0.1208593498238435 -0.38006314209191833 0 0.1018679158255022 -0.38137383587803358 0 0.1092296532162271 -0.39195520602732847 0 0.12412735500694751 -0.39493505064503392 0 0.1018679158255022 -0.38137383587803358 0 0.12412735500694751 -0.39493505064503392 0 0.1018679158255022 -0.38137383587803358 0 0.1208593498238435 -0.38006314209191833 0 0.1018679158255022 -0.38137383587803358 0 0.12334710111447229 -0.36406834251145731 0 0.1018679158255022 -0.38137383587803358 0 0.1001863568717406 -0.38034937241650962 0 0.10879209213087419 -0.36797725762153549 0 0.1018679158255022 -0.38137383587803358 0 0.1001863568717406 -0.38034937241650962 0 0.092680417082859706 -0.38189565836938699 0 0.1018679158255022 -0.38137383587803358 0 0.1001863568717406 -0.38034937241650962 0 0.1001863568717406 -0.38034937241650962 0 0.092680417082859706 -0.38189565836938699 0 0.078941289569781151 -0.36740614783332631 0 0.1018679158255022 -0.38137383587803358 0 0.084827885114816814 -0.39510276155480978 0 0.1018679158255022 -0.38137383587803358 0 0.092680417082859706 -0.38189565836938699 0 0.084827885114816814 -0.39510276155480978 0 0.083667078469080447 -0.3817485906143725 0 0.076461538166658155 -0.38231907318138902 0 0.078941289569781151 -0.36740614783332631 0 0.092680417082859706 -0.38189565836938699 0 0.083667078469080447 -0.3817485906143725 0 0.078941289569781151 -0.36740614783332631 0 0.084827885114816814 -0.39510276155480978 0 0.073546264855348126 -0.39398280964304111 0 0.076461538166658155 -0.38231907318138902 0 0.083667078469080447 -0.3817485906143725 0 0.084827885114816814 -0.39510276155480978 0 0.076461538166658155 -0.38231907318138902 0 0.092680417082859706 -0.38189565836938699 0 0.083667078469080447 -0.3817485906143725 0 0.084827885114816814 -0.39510276155480978 0 0.085410796704641828 -0.41553833344022301 0 0.10305470430126849 -0.40327026579491432 0 0.084827885114816814 -0.39510276155480978 0 0.085410796704641828 -0.41553833344022301 0 0.084827885114816814 -0.39510276155480978 0 0.071260751408415451 -0.40583032332525898 0 0.084827885114816814 -0.39510276155480978 0 0.073546264855348126 -0.39398280964304111 0 0.071260751408415451 -0.40583032332525898 0 0.073546264855348126 -0.39398280964304111 0 0.071260751408415451 -0.40583032332525898 0 0.061634884731502082 -0.39267908051070671 0 0.076461538166658155 -0.38231907318138902 0 0.061634884731502082 -0.39267908051070671 0 0.076461538166658155 -0.38231907318138902 0 0.061634884731502082 -0.39267908051070671 0 0.061904282875925747 -0.37237526148823941 0 0.073546264855348126 -0.39398280964304111 0 0.076461538166658155 -0.38231907318138902 0 0.061634884731502082 -0.39267908051070671 0 0.051370350477500881 -0.3764161884637201 0 0.045801185216693012 -0.38580832539780119 0 0.043663507306638913 -0.36868104746756258 0 0.051370350477500881 -0.3764161884637201 0 0.061634884731502082 -0.39267908051070671 0 0.045801185216693012 -0.38580832539780119 0 0.051370350477500881 -0.3764161884637201 0 0.061634884731502082 -0.39267908051070671 0 0.061904282875925747 -0.37237526148823941 0 0.071260751408415451 -0.40583032332525898 0 0.061634884731502082 -0.39267908051070671 0 0.04680823129634433 -0.40303908784002201 0 0.061634884731502082 -0.39267908051070671 0 0.04680823129634433 -0.40303908784002201 0 0.045801185216693012 -0.38580832539780119 0 0.061634884731502082 -0.39267908051070671 0 0.04680823129634433 -0.40303908784002201 0 0.04680823129634433 -0.40303908784002201 0 0.02837172461734 -0.38295609391969199 0 0.04680823129634433 -0.40303908784002201 0 0.02837172461734 -0.38295609391969199 0 0.028215565298714249 -0.40094151263492078 0 0.045801185216693012 -0.38580832539780119 0 0.02837172461734 -0.38295609391969199 0 0.043663507306638913 -0.36868104746756258 0 0.04680823129634433 -0.40303908784002201 0 0.045801185216693012 -0.38580832539780119 0 0.02837172461734 -0.38295609391969199 0 0.02837172461734 -0.38295609391969199 0 0.0122991559467155 -0.37891225603134221 0 0.011208636448502229 -0.39508796301279092 0 -0.002178803782163227 -0.37161627006544062 0 0.0122991559467155 -0.37891225603134221 0 0.011208636448502229 -0.39508796301279092 0 -0.002178803782163227 -0.37161627006544062 0 0.011208636448502229 -0.39508796301279092 0 -0.002178803782163227 -0.37161627006544062 0 -0.0066930742226519926 -0.39143820132839208 0 0.011208636448502229 -0.39508796301279092 0 -0.001728596279610697 -0.40597762003102339 0 0.011208636448502229 -0.39508796301279092 0 0.0082246319185010179 -0.41465428951275207 0 -0.0066930742226519926 -0.39143820132839208 0 -0.001728596279610697 -0.40597762003102339 0 0.011208636448502229 -0.39508796301279092 0 0.011208636448502229 -0.39508796301279092 0 0.028215565298714249 -0.40094151263492078 0 0.024596076679173799 -0.41855965596013778 0 0.02837172461734 -0.38295609391969199 0 0.011208636448502229 -0.39508796301279092 0 0.028215565298714249 -0.40094151263492078 0 0.011208636448502229 -0.39508796301279092 0 0.024596076679173799 -0.41855965596013778 0 0.011208636448502229 -0.39508796301279092 0 0.024596076679173799 -0.41855965596013778 0 0.0082246319185010179 -0.41465428951275207 0 0.024596076679173799 -0.41855965596013778 0 0.0082246319185010179 -0.41465428951275207 0 0.01039378864355619 -0.42848339288335913 0 -0.009537301248459449 -0.42510302968362512 0 0.0082246319185010179 -0.41465428951275207 0 0.01039378864355619 -0.42848339288335913 0 0.024596076679173799 -0.41855965596013778 0 0.036208764147486278 -0.43891974197010591 0 0.024596076679173799 -0.41855965596013778 0 0.036208764147486278 -0.43891974197010591 0 0.020713539006084219 -0.44010250100644183 0 0.024596076679173799 -0.41855965596013778 0 0.01039378864355619 -0.42848339288335913 0 0.020713539006084219 -0.44010250100644183 0 0.024596076679173799 -0.41855965596013778 0 0.01039378864355619 -0.42848339288335913 0 0.024596076679173799 -0.41855965596013778 0 0.043950702345966319 -0.42295947833088071 0 0.036208764147486278 -0.43891974197010591 0 0.043950702345966319 -0.42295947833088071 0 0.051347790295756007 -0.43901682978775403 0 0.036208764147486278 -0.43891974197010591 0 0.04680823129634433 -0.40303908784002201 0 0.024596076679173799 -0.41855965596013778 0 0.04680823129634433 -0.40303908784002201 0 0.028215565298714249 -0.40094151263492078 0 0.024596076679173799 -0.41855965596013778 0 0.04680823129634433 -0.40303908784002201 0 0.024596076679173799 -0.41855965596013778 0 0.043950702345966319 -0.42295947833088071 0 0.064610562081599654 -0.42243127027201799 0 0.071260751408415451 -0.40583032332525898 0 0.04680823129634433 -0.40303908784002201 0 0.064610562081599654 -0.42243127027201799 0 0.04680823129634433 -0.40303908784002201 0 0.064610562081599654 -0.42243127027201799 0 0.04680823129634433 -0.40303908784002201 0 0.043950702345966319 -0.42295947833088071 0 0.064610562081599654 -0.42243127027201799 0 0.043950702345966319 -0.42295947833088071 0 0.051347790295756007 -0.43901682978775403 0 0.064942869781788204 -0.45298741250561531 0 0.064610562081599654 -0.42243127027201799 0 0.051347790295756007 -0.43901682978775403 0 0.064942869781788204 -0.45298741250561531 0 0.051347790295756007 -0.43901682978775403 0 0.047821451615799627 -0.45927982798007361 0 0.064942869781788204 -0.45298741250561531 0 0.047821451615799627 -0.45927982798007361 0 0.05802097188470097 -0.46975988197928431 0 0.047821451615799627 -0.45927982798007361 0 0.023714967739582489 -0.4565662814222432 0 0.032020960621095843 -0.47777188036233098 0 0.047821451615799627 -0.45927982798007361 0 0.036208764147486278 -0.43891974197010591 0 0.051347790295756007 -0.43901682978775403 0 0.047821451615799627 -0.45927982798007361 0 0.036208764147486278 -0.43891974197010591 0 0.047821451615799627 -0.45927982798007361 0 0.036208764147486278 -0.43891974197010591 0 0.023714967739582489 -0.4565662814222432 0 0.036208764147486278 -0.43891974197010591 0 0.020713539006084219 -0.44010250100644183 0 0.023714967739582489 -0.4565662814222432 0 -0.0013374034004768371 -0.44947558896604423 0 0.01039378864355619 -0.42848339288335913 0 0.020713539006084219 -0.44010250100644183 0 -0.0013374034004768371 -0.44947558896604423 0 0.020713539006084219 -0.44010250100644183 0 0.023714967739582489 -0.4565662814222432 0 -0.0013374034004768371 -0.44947558896604423 0 0.0068624944475057766 -0.47384814824846327 0 -0.0013374034004768371 -0.44947558896604423 0 0.023714967739582489 -0.4565662814222432 0 0.0068624944475057766 -0.47384814824846327 0 0.023714967739582489 -0.4565662814222432 0 0.0068624944475057766 -0.47384814824846327 0 0.032020960621095843 -0.47777188036233098 0 0.0068624944475057766 -0.47384814824846327 0 0.0150623922954884 -0.49822070753088238 0 0.032020960621095843 -0.47777188036233098 0 -0.015217900669161011 -0.5 0 0.0024053695883212941 -0.48891336768777249 0 0.013537008404702511 -0.5 0 0.0068624944475057766 -0.47384814824846327 0 0.0024053695883212941 -0.48891336768777249 0 0.0150623922954884 -0.49822070753088238 0 0.0068624944475057766 -0.47384814824846327 0 0.0150623922954884 -0.49822070753088238 0 0.0024053695883212941 -0.48891336768777249 0 0.0150623922954884 -0.49822070753088238 0 0.013537008404702511 -0.5 0 0.0150623922954884 -0.49822070753088238 0 0.013537008404702511 -0.5 0 0.042291917478565873 -0.5 0 0.0150623922954884 -0.49822070753088238 0 0.042291917478565873 -0.5 0 0.032020960621095843 -0.47777188036233098 0 0.042291917478565873 -0.5 0 0.032020960621095843 -0.47777188036233098 0 0.059434139084113012 -0.47963991399004141 0 0.047821451615799627 -0.45927982798007361 0 0.032020960621095843 -0.47777188036233098 0 0.059434139084113012 -0.47963991399004141 0 0.047821451615799627 -0.45927982798007361 0 0.05802097188470097 -0.46975988197928431 0 0.059434139084113012 -0.47963991399004141 0 0.047821451615799627 -0.45927982798007361 0 0.059434139084113012 -0.47963991399004141 0 0.071046826552429457 -0.50000000000000733 0 0.042291917478565873 -0.5 0 0.059434139084113012 -0.47963991399004141 0 0.078456545354339768 -0.28525100698693651 0 0.075192778843485145 -0.3004755496101415 0 0.095899689397586599 -0.3008291305439913 0 0.078456545354339768 -0.28525100698693651 0 0.095711127176573443 -0.2751242682777974 0 0.095899689397586599 -0.3008291305439913 0 0.075192778843485145 -0.3004755496101415 0 0.095899689397586599 -0.3008291305439913 0 0.074188022781041252 -0.31649930169162399 0 0.095899689397586599 -0.3008291305439913 0 0.074188022781041252 -0.31649930169162399 0 0.075192778843485145 -0.3004755496101415 0 0.074188022781041252 -0.31649930169162399 0 0.058270312985904418 -0.30816514798469019 0 0.075192778843485145 -0.3004755496101415 0 0.068995976747761104 -0.2945131319279734 0 0.058270312985904418 -0.30816514798469019 0 0.068995976747761104 -0.2945131319279734 0 0.064064269807315097 -0.28416082313012542 0 0.058270312985904418 -0.30816514798469019 0 0.078456545354339768 -0.28525100698693651 0 0.075192778843485145 -0.3004755496101415 0 0.068995976747761104 -0.2945131319279734 0 0.078456545354339768 -0.28525100698693651 0 0.068995976747761104 -0.2945131319279734 0 0.064064269807315097 -0.28416082313012542 0 0.064064269807315097 -0.28416082313012542 0 0.069858226628725775 -0.26015649827556059 0 0.078456545354339768 -0.28525100698693651 0 0.064064269807315097 -0.28416082313012542 0 0.069858226628725775 -0.26015649827556059 0 0.069858226628725775 -0.26015649827556059 0 0.095711127176573443 -0.2751242682777974 0 0.096521476943682558 -0.25181800011133371 0 0.078456545354339768 -0.28525100698693651 0 0.069858226628725775 -0.26015649827556059 0 0.095711127176573443 -0.2751242682777974 0 0.095711127176573443 -0.2751242682777974 0 0.114720785939063 -0.26575264298982931 0 0.1176113560141319 -0.2851589593963586 0 0.095711127176573443 -0.2751242682777974 0 0.096521476943682558 -0.25181800011133371 0 0.114720785939063 -0.26575264298982931 0 0.1376178273856396 -0.2676878026278281 0 0.114720785939063 -0.26575264298982931 0 0.1200034520355143 -0.24749468667538321 0 0.096521476943682558 -0.25181800011133371 0 0.114720785939063 -0.26575264298982931 0 0.1200034520355143 -0.24749468667538321 0 0.1376178273856396 -0.2676878026278281 0 0.114720785939063 -0.26575264298982931 0 0.1176113560141319 -0.2851589593963586 0 0.13584279120622419 -0.29064916595208462 0 0.1176113560141319 -0.2851589593963586 0 0.1212075847983899 -0.30357596212866123 0 0.1176113560141319 -0.2851589593963586 0 0.095899689397586599 -0.3008291305439913 0 0.1212075847983899 -0.30357596212866123 0 0.1176113560141319 -0.2851589593963586 0 0.095899689397586599 -0.3008291305439913 0 0.095711127176573443 -0.2751242682777974 0 0.1176113560141319 -0.2851589593963586 0 0.095899689397586599 -0.3008291305439913 0 0.095899689397586599 -0.3008291305439913 0 0.1212075847983899 -0.30357596212866123 0 0.1047724191350739 -0.31963875894108951 0 0.1212075847983899 -0.30357596212866123 0 0.1249111379911398 -0.32186001205002218 0 0.1047724191350739 -0.31963875894108951 0 0.1249111379911398 -0.32186001205002218 0 0.1047724191350739 -0.31963875894108951 0 0.11573058637367541 -0.34380091622275832 0 0.094619564876377599 -0.33586527524184762 0 0.1047724191350739 -0.31963875894108951 0 0.11573058637367541 -0.34380091622275832 0 0.094619564876377599 -0.33586527524184762 0 0.1047724191350739 -0.31963875894108951 0 0.086339338786571823 -0.32698567366184278 0 0.095899689397586599 -0.3008291305439913 0 0.1047724191350739 -0.31963875894108951 0 0.086339338786571823 -0.32698567366184278 0 0.1018679158255022 -0.38137383587803358 0 0.12334710111447229 -0.36406834251145731 0 0.1018679158255022 -0.38137383587803358 0 0.12334710111447229 -0.36406834251145731 0 0.10879209213087419 -0.36797725762153549 0 0.12334710111447229 -0.36406834251145731 0 0.11573058637367541 -0.34380091622275832 0 0.10879209213087419 -0.36797725762153549 0 0.11573058637367541 -0.34380091622275832 0 0.097402960874061584 -0.35810732382917831 0 0.10879209213087419 -0.36797725762153549 0 0.094619564876377599 -0.33586527524184762 0 0.11573058637367541 -0.34380091622275832 0 0.097402960874061584 -0.35810732382917831 0 0.094619564876377599 -0.33586527524184762 0 0.097402960874061584 -0.35810732382917831 0 0.1001863568717406 -0.38034937241650962 0 0.097402960874061584 -0.35810732382917831 0 0.1001863568717406 -0.38034937241650962 0 0.097402960874061584 -0.35810732382917831 0 0.10879209213087419 -0.36797725762153549 0 0.1001863568717406 -0.38034937241650962 0 0.097402960874061584 -0.35810732382917831 0 0.078941289569781151 -0.36740614783332631 0 0.1001863568717406 -0.38034937241650962 0 0.078941289569781151 -0.36740614783332631 0 0.094619564876377599 -0.33586527524184762 0 0.097402960874061584 -0.35810732382917831 0 0.084740357312199394 -0.34701535865000288 0 0.078941289569781151 -0.36740614783332631 0 0.084740357312199394 -0.34701535865000288 0 0.072564810466095128 -0.35396504242622201 0 0.097402960874061584 -0.35810732382917831 0 0.078941289569781151 -0.36740614783332631 0 0.084740357312199394 -0.34701535865000288 0 0.078941289569781151 -0.36740614783332631 0 0.072564810466095128 -0.35396504242622201 0 0.057696222267823373 -0.35446292325014028 0 0.084740357312199394 -0.34701535865000288 0 0.072564810466095128 -0.35396504242622201 0 0.073102422775426085 -0.33909783780230318 0 0.064643683218506637 -0.34920539315333932 0 0.072564810466095128 -0.35396504242622201 0 0.073102422775426085 -0.33909783780230318 0 0.064643683218506637 -0.34920539315333932 0 0.072564810466095128 -0.35396504242622201 0 0.057696222267823373 -0.35446292325014028 0 0.078941289569781151 -0.36740614783332631 0 0.057696222267823373 -0.35446292325014028 0 0.076461538166658155 -0.38231907318138902 0 0.078941289569781151 -0.36740614783332631 0 0.061904282875925747 -0.37237526148823941 0 0.078941289569781151 -0.36740614783332631 0 0.061904282875925747 -0.37237526148823941 0 0.057696222267823373 -0.35446292325014028 0 0.095899689397586599 -0.3008291305439913 0 0.086339338786571823 -0.32698567366184278 0 0.074188022781041252 -0.31649930169162399 0 0.094619564876377599 -0.33586527524184762 0 0.084740357312199394 -0.34701535865000288 0 0.086339338786571823 -0.32698567366184278 0 0.084740357312199394 -0.34701535865000288 0 0.086339338786571823 -0.32698567366184278 0 0.073102422775426085 -0.33909783780230318 0 0.073102422775426085 -0.33909783780230318 0 0.074188022781041252 -0.31649930169162399 0 0.052476356164494947 -0.33216947283925541 0 0.064643683218506637 -0.34920539315333932 0 0.073102422775426085 -0.33909783780230318 0 0.060945063747813971 -0.34285112352430303 0 0.074188022781041252 -0.31649930169162399 0 0.052476356164494947 -0.33216947283925541 0 0.086339338786571823 -0.32698567366184278 0 0.073102422775426085 -0.33909783780230318 0 0.074188022781041252 -0.31649930169162399 0 0.052476356164494947 -0.33216947283925541 0 0.058270312985904418 -0.30816514798469019 0 0.052476356164494947 -0.33216947283925541 0 0.044648526871603783 -0.31770081170742831 0 0.058270312985904418 -0.30816514798469019 0 0.074188022781041252 -0.31649930169162399 0 0.052476356164494947 -0.33216947283925541 0 0.058270312985904418 -0.30816514798469019 0 0.052476356164494947 -0.33216947283925541 0 0.047583047975914103 -0.35244241635483559 0 0.073102422775426085 -0.33909783780230318 0 0.060945063747813971 -0.34285112352430303 0 0.052476356164494947 -0.33216947283925541 0 0.060945063747813971 -0.34285112352430303 0 0.052476356164494947 -0.33216947283925541 0 0.054181307711507642 -0.34983992205818981 0 0.052476356164494947 -0.33216947283925541 0 0.04071506683574927 -0.34065806194451792 0 0.047583047975914103 -0.35244241635483559 0 0.052476356164494947 -0.33216947283925541 0 0.04071506683574927 -0.34065806194451792 0 0.044648526871603783 -0.31770081170742831 0 0.04071506683574927 -0.34065806194451792 0 0.03015636661650286 -0.3225410253719756 0 0.04071506683574927 -0.34065806194451792 0 0.03015636661650286 -0.3225410253719756 0 0.02636863849756152 -0.33688388254537838 0 0.052476356164494947 -0.33216947283925541 0 0.04071506683574927 -0.34065806194451792 0 0.04071506683574927 -0.34065806194451792 0 0.044648526871603783 -0.31770081170742831 0 0.03015636661650286 -0.3225410253719756 0 0.044648526871603783 -0.31770081170742831 0 0.03015636661650286 -0.3225410253719756 0 0.034491627806478041 -0.30853974567073322 0 0.061904282875925747 -0.37237526148823941 0 0.053259535722039633 -0.3641180164926533 0 0.057696222267823373 -0.35446292325014028 0 0.051370350477500881 -0.3764161884637201 0 0.053259535722039633 -0.3641180164926533 0 0.043663507306638913 -0.36868104746756258 0 0.051370350477500881 -0.3764161884637201 0 0.061904282875925747 -0.37237526148823941 0 0.053259535722039633 -0.3641180164926533 0 0.053259535722039633 -0.3641180164926533 0 0.048773826387857627 -0.3544856011778737 0 0.043663507306638913 -0.36868104746756258 0 0.052476356164494947 -0.33216947283925541 0 0.047583047975914103 -0.35244241635483559 0 0.054181307711507642 -0.34983992205818981 0 0.053259535722039633 -0.3641180164926533 0 0.053244657324237762 -0.3582642649149802 0 0.048773826387857627 -0.3544856011778737 0 0.053244657324237762 -0.3582642649149802 0 0.048773826387857627 -0.3544856011778737 0 0.054181307711507642 -0.34983992205818981 0 0.048773826387857627 -0.3544856011778737 0 0.047583047975914103 -0.35244241635483559 0 0.054181307711507642 -0.34983992205818981 0 0.048773826387857627 -0.3544856011778737 0 0.047583047975914103 -0.35244241635483559 0 0.053259535722039633 -0.3641180164926533 0 0.053244657324237762 -0.3582642649149802 0 0.057696222267823373 -0.35446292325014028 0 0.053244657324237762 -0.3582642649149802 0 0.057696222267823373 -0.35446292325014028 0 0.054181307711507642 -0.34983992205818981 0 0.064643683218506637 -0.34920539315333932 0 0.057696222267823373 -0.35446292325014028 0 0.054181307711507642 -0.34983992205818981 0 0.064643683218506637 -0.34920539315333932 0 0.060945063747813971 -0.34285112352430303 0 0.054181307711507642 -0.34983992205818981 0 0.048773826387857627 -0.3544856011778737 0 0.047583047975914103 -0.35244241635483559 0 0.043663507306638913 -0.36868104746756258 0 0.04071506683574927 -0.34065806194451792 0 0.047583047975914103 -0.35244241635483559 0 0.04071506683574927 -0.34065806194451792 0 0.047583047975914103 -0.35244241635483559 0 0.03985573710467899 -0.35136837444597901 0 0.04071506683574927 -0.34065806194451792 0 0.03985573710467899 -0.35136837444597901 0 0.03205896378917665 -0.35434441690964041 0 0.04071506683574927 -0.34065806194451792 0 0.03205896378917665 -0.35434441690964041 0 0.025431496553892478 -0.35168882095041942 0 0.04071506683574927 -0.34065806194451792 0 0.025431496553892478 -0.35168882095041942 0 0.03985573710467899 -0.35136837444597901 0 0.03205896378917665 -0.35434441690964041 0 0.039065869817875902 -0.35802860257492208 0 0.047583047975914103 -0.35244241635483559 0 0.03985573710467899 -0.35136837444597901 0 0.039065869817875902 -0.35802860257492208 0 0.02837172461734 -0.38295609391969199 0 0.033371525452051833 -0.36592480980272157 0 0.043663507306638913 -0.36868104746756258 0 0.047583047975914103 -0.35244241635483559 0 0.039065869817875902 -0.35802860257492208 0 0.043663507306638913 -0.36868104746756258 0 0.047583047975914103 -0.35244241635483559 0 0.043663507306638913 -0.36868104746756258 0 0.039065869817875902 -0.35802860257492208 0 0.033371525452051833 -0.36592480980272157 0 0.043663507306638913 -0.36868104746756258 0 0.03205896378917665 -0.35434441690964041 0 0.039065869817875902 -0.35802860257492208 0 0.033371525452051833 -0.36592480980272157 0 0.02837172461734 -0.38295609391969199 0 0.0099352179383349771 -0.36287309999936251 0 0.02837172461734 -0.38295609391969199 0 0.023697561729227701 -0.3656138881417908 0 0.0099352179383349771 -0.36287309999936251 0 0.02837172461734 -0.38295609391969199 0 0.033371525452051833 -0.36592480980272157 0 0.023697561729227701 -0.3656138881417908 0 0.02837172461734 -0.38295609391969199 0 0.0122991559467155 -0.37891225603134221 0 0.0099352179383349771 -0.36287309999936251 0 0.03205896378917665 -0.35434441690964041 0 0.033371525452051833 -0.36592480980272157 0 0.023697561729227701 -0.3656138881417908 0 0.023697561729227701 -0.3656138881417908 0 0.025431496553892478 -0.35168882095041942 0 0.0099352179383349771 -0.36287309999936251 0 0.025431496553892478 -0.35168882095041942 0 0.0075807645751098419 -0.34453611388615663 0 0.025431496553892478 -0.35168882095041942 0 0.0075807645751098419 -0.34453611388615663 0 0.02636863849756152 -0.33688388254537838 0 0.025431496553892478 -0.35168882095041942 0 0.0099352179383349771 -0.36287309999936251 0 0.03205896378917665 -0.35434441690964041 0 0.023697561729227701 -0.3656138881417908 0 0.025431496553892478 -0.35168882095041942 0 0.03205896378917665 -0.35434441690964041 0 0.025431496553892478 -0.35168882095041942 0 -0.0096343958099064687 -0.34155580596031437 0 0.0099352179383349771 -0.36287309999936251 0 -0.0096343958099064687 -0.34155580596031437 0 0.0075807645751098419 -0.34453611388615663 0 0.0099352179383349771 -0.36287309999936251 0 0.025431496553892478 -0.35168882095041942 0 0.0075807645751098419 -0.34453611388615663 0 0.0099352179383349771 -0.36287309999936251 0 -0.002178803782163227 -0.37161627006544062 0 0.0122991559467155 -0.37891225603134221 0 0.0099352179383349771 -0.36287309999936251 0 -0.0070150904897389628 -0.35875101633193152 0 -0.002178803782163227 -0.37161627006544062 0 0.0099352179383349771 -0.36287309999936251 0 -0.002178803782163227 -0.37161627006544062 0 0.0099352179383349771 -0.36287309999936251 0 0.03015636661650286 -0.3225410253719756 0 0.019597666397256509 -0.30442398879943339 0 0.03015636661650286 -0.3225410253719756 0 0.014793392922354411 -0.31628120652474823 0 0.019597666397256509 -0.30442398879943339 0 0.03015636661650286 -0.3225410253719756 0 0.01453256369494863 -0.32953892791496292 0 0.014793392922354411 -0.31628120652474823 0 0.03015636661650286 -0.3225410253719756 0 0.02636863849756152 -0.33688388254537838 0 0.01453256369494863 -0.32953892791496292 0 0.0075807645751098419 -0.34453611388615663 0 0.02636863849756152 -0.33688388254537838 0 0.01453256369494863 -0.32953892791496292 0 0.04071506683574927 -0.34065806194451792 0 0.025431496553892478 -0.35168882095041942 0 0.02636863849756152 -0.33688388254537838 0 0.0075807645751098419 -0.34453611388615663 0 0.01453256369494863 -0.32953892791496292 0 0.0034794820758208261 -0.33361449123698089 0 -0.010269967403673339 -0.33738340682189533 0 0.0075807645751098419 -0.34453611388615663 0 0.0034794820758208261 -0.33361449123698089 0 0.01453256369494863 -0.32953892791496292 0 0.0034794820758208261 -0.33361449123698089 0 0.001904989571353899 -0.32214434476741449 0 0.001904989571353899 -0.32214434476741449 0 0.014793392922354411 -0.31628120652474823 0 0.0019518825097332619 -0.30029273945570772 0 0.01453256369494863 -0.32953892791496292 0 0.001904989571353899 -0.32214434476741449 0 0.014793392922354411 -0.31628120652474823 0 0.0019518825097332619 -0.30029273945570772 0 0.0090389661780101715 -0.28630695222689118 0 0.019597666397256509 -0.30442398879943339 0 0.014793392922354411 -0.31628120652474823 0 0.0019518825097332619 -0.30029273945570772 0 0.019597666397256509 -0.30442398879943339 0 -0.0020851015340006161 -0.28052611142458661 0 0.0019518825097332619 -0.30029273945570772 0 0.0090389661780101715 -0.28630695222689118 0 0.0090389661780101715 -0.28630695222689118 0 0.019597666397256509 -0.30442398879943339 0 0.0090389661780101715 -0.28630695222689118 0 0.019597666397256509 -0.30442398879943339 0 0.033821918158706138 -0.27707393290215671 0 0.03015636661650286 -0.3225410253719756 0 0.019597666397256509 -0.30442398879943339 0 0.034491627806478041 -0.30853974567073322 0 0.019597666397256509 -0.30442398879943339 0 0.034491627806478041 -0.30853974567073322 0 0.043330632548044458 -0.29475484461045087 0 0.044648526871603783 -0.31770081170742831 0 0.034491627806478041 -0.30853974567073322 0 0.043330632548044458 -0.29475484461045087 0 0.019597666397256509 -0.30442398879943339 0 0.043330632548044458 -0.29475484461045087 0 0.033821918158706138 -0.27707393290215671 0 0.043330632548044458 -0.29475484461045087 0 0.062049371387241412 -0.28749956346879602 0 0.033821918158706138 -0.27707393290215671 0 0.064064269807315097 -0.28416082313012542 0 0.058270312985904418 -0.30816514798469019 0 0.062049371387241412 -0.28749956346879602 0 0.033821918158706138 -0.27707393290215671 0 0.064064269807315097 -0.28416082313012542 0 0.062049371387241412 -0.28749956346879602 0 0.058270312985904418 -0.30816514798469019 0 0.043330632548044458 -0.29475484461045087 0 0.062049371387241412 -0.28749956346879602 0 0.058270312985904418 -0.30816514798469019 0 0.044648526871603783 -0.31770081170742831 0 0.043330632548044458 -0.29475484461045087 0 0.058270312985904418 -0.30816514798469019 0 0.069858226628725775 -0.26015649827556059 0 0.051624075113339378 -0.26919050519125598 0 0.046498349670861652 -0.24826912251879649 0 0.064064269807315097 -0.28416082313012542 0 0.069858226628725775 -0.26015649827556059 0 0.051624075113339378 -0.26919050519125598 0 0.062049371387241412 -0.28749956346879602 0 0.051624075113339378 -0.26919050519125598 0 0.033821918158706138 -0.27707393290215671 0 0.064064269807315097 -0.28416082313012542 0 0.062049371387241412 -0.28749956346879602 0 0.051624075113339378 -0.26919050519125598 0 0.051624075113339378 -0.26919050519125598 0 0.033821918158706138 -0.27707393290215671 0 0.034240698289148337 -0.25967273023798509 0 0.051624075113339378 -0.26919050519125598 0 0.034240698289148337 -0.25967273023798509 0 0.046498349670861652 -0.24826912251879649 0 0.034240698289148337 -0.25967273023798509 0 0.02296875629887114 -0.2464092256209898 0 0.046498349670861652 -0.24826912251879649 0 0.034240698289148337 -0.25967273023798509 0 0.0055944649301708496 -0.26664830233551728 0 0.02296875629887114 -0.2464092256209898 0 0.0090389661780101715 -0.28630695222689118 0 0.033821918158706138 -0.27707393290215671 0 0.0055944649301708496 -0.26664830233551728 0 0.033821918158706138 -0.27707393290215671 0 0.034240698289148337 -0.25967273023798509 0 0.0055944649301708496 -0.26664830233551728 0 0.033821918158706138 -0.27707393290215671 0 0.0055944649301708496 -0.26664830233551728 0 -0.0020851015340006161 -0.28052611142458661 0 0.0090389661780101715 -0.28630695222689118 0 0.0055944649301708496 -0.26664830233551728 0 0.0055944649301708496 -0.26664830233551728 0 0.0055632338660241776 -0.24332209518663511 0 0.02296875629887114 -0.2464092256209898 0 -0.0080727856436109482 -0.2481099565327444 0 0.0055944649301708496 -0.26664830233551728 0 0.0055632338660241776 -0.24332209518663511 0 0.0055632338660241776 -0.24332209518663511 0 0.0032521440618358652 -0.23009641691855939 0 0.019268989126464159 -0.2308348024940351 0 -0.0084819670471955304 -0.2367225590632196 0 0.0055632338660241776 -0.24332209518663511 0 0.0032521440618358652 -0.23009641691855939 0 -0.0075276580997289226 -0.21896018305478171 0 0.0032521440618358652 -0.23009641691855939 0 0.012041166441398349 -0.21677938876306921 0 0.0032521440618358652 -0.23009641691855939 0 0.019268989126464159 -0.2308348024940351 0 0.012041166441398349 -0.21677938876306921 0 0.019268989126464159 -0.2308348024940351 0 0.028464877365028059 -0.21915571909051779 0 0.012041166441398349 -0.21677938876306921 0 0.019268989126464159 -0.2308348024940351 0 0.028464877365028059 -0.21915571909051779 0 0.041174919052571327 -0.22964645066930789 0 0.0055632338660241776 -0.24332209518663511 0 0.019268989126464159 -0.2308348024940351 0 0.02296875629887114 -0.2464092256209898 0 0.019268989126464159 -0.2308348024940351 0 0.02296875629887114 -0.2464092256209898 0 0.041174919052571327 -0.22964645066930789 0 -0.0075276580997289226 -0.21896018305478171 0 0.003555539334036632 -0.19934620758084881 0 0.012041166441398349 -0.21677938876306921 0 0.003555539334036632 -0.19934620758084881 0 0.012041166441398349 -0.21677938876306921 0 0.02523310686075431 -0.20228300343967229 0 0.028464877365028059 -0.21915571909051779 0 0.012041166441398349 -0.21677938876306921 0 0.02523310686075431 -0.20228300343967229 0 0.02523310686075431 -0.20228300343967229 0 0.033125333554059701 -0.1865598477748947 0 0.018588522793563201 -0.18166153924030251 0 0.003555539334036632 -0.19934620758084881 0 0.02523310686075431 -0.20228300343967229 0 0.018588522793563201 -0.18166153924030251 0 0.048648578511840943 -0.20623258170594561 0 0.049880579816306267 -0.17970719815632741 0 0.033125333554059701 -0.1865598477748947 0 0.02523310686075431 -0.20228300343967229 0 0.048648578511840943 -0.20623258170594561 0 0.033125333554059701 -0.1865598477748947 0 0.028464877365028059 -0.21915571909051779 0 0.02523310686075431 -0.20228300343967229 0 0.048648578511840943 -0.20623258170594561 0 0.028464877365028059 -0.21915571909051779 0 0.048648578511840943 -0.20623258170594561 0 0.041174919052571327 -0.22964645066930789 0 0.048648578511840943 -0.20623258170594561 0 0.059757914812518881 -0.22869522271940709 0 0.066598585428591164 -0.21133354617687591 0 0.048648578511840943 -0.20623258170594561 0 0.067160325985138131 -0.18691533881804831 0 0.049880579816306267 -0.17970719815632741 0 0.048648578511840943 -0.20623258170594561 0 0.066598585428591164 -0.21133354617687591 0 0.067160325985138131 -0.18691533881804831 0 0.069858226628725775 -0.26015649827556059 0 0.046498349670861652 -0.24826912251879649 0 0.059757914812518881 -0.22869522271940709 0 0.02296875629887114 -0.2464092256209898 0 0.046498349670861652 -0.24826912251879649 0 0.041174919052571327 -0.22964645066930789 0 0.048648578511840943 -0.20623258170594561 0 0.041174919052571327 -0.22964645066930789 0 0.059757914812518881 -0.22869522271940709 0 0.046498349670861652 -0.24826912251879649 0 0.041174919052571327 -0.22964645066930789 0 0.059757914812518881 -0.22869522271940709 0 0.069858226628725775 -0.26015649827556059 0 0.059757914812518881 -0.22869522271940709 0 0.080941623453078815 -0.2334444244951252 0 0.069858226628725775 -0.26015649827556059 0 0.096521476943682558 -0.25181800011133371 0 0.080941623453078815 -0.2334444244951252 0 0.096521476943682558 -0.25181800011133371 0 0.080941623453078815 -0.2334444244951252 0 0.102389076685389 -0.22730157072293841 0 0.080941623453078815 -0.2334444244951252 0 0.084774701335263575 -0.20710845477049339 0 0.102389076685389 -0.22730157072293841 0 0.059757914812518881 -0.22869522271940709 0 0.080941623453078815 -0.2334444244951252 0 0.066598585428591164 -0.21133354617687591 0 0.080941623453078815 -0.2334444244951252 0 0.066598585428591164 -0.21133354617687591 0 0.084774701335263575 -0.20710845477049339 0 0.084774701335263575 -0.20710845477049339 0 0.067160325985138131 -0.18691533881804831 0 0.066598585428591164 -0.21133354617687591 0 0.084774701335263575 -0.20710845477049339 0 0.067160325985138131 -0.18691533881804831 0 0.092537347032927528 -0.18889969997864839 0 0.084774701335263575 -0.20710845477049339 0 0.067160325985138131 -0.18691533881804831 0 0.084774701335263575 -0.20710845477049339 0 0.102389076685389 -0.22730157072293841 0 0.084774701335263575 -0.20710845477049339 0 0.10575093398731179 -0.20517541990618701 0 0.102389076685389 -0.22730157072293841 0 0.092537347032927528 -0.18889969997864839 0 0.10575093398731179 -0.20517541990618701 0 0.11404320040195411 -0.17785048998131209 0 0.092537347032927528 -0.18889969997864839 0 0.084774701335263575 -0.20710845477049339 0 0.10575093398731179 -0.20517541990618701 0 0.10575093398731179 -0.20517541990618701 0 0.11404320040195411 -0.17785048998131209 0 0.12592289232087811 -0.19910656028939411 0 0.10575093398731179 -0.20517541990618701 0 0.1284413173888232 -0.22347585252773641 0 0.12592289232087811 -0.19910656028939411 0 0.10575093398731179 -0.20517541990618701 0 0.102389076685389 -0.22730157072293841 0 0.1284413173888232 -0.22347585252773641 0 0.1200034520355143 -0.24749468667538321 0 0.102389076685389 -0.22730157072293841 0 0.1284413173888232 -0.22347585252773641 0 0.1200034520355143 -0.24749468667538321 0 0.102389076685389 -0.22730157072293841 0 0.096521476943682558 -0.25181800011133371 0 0.1200034520355143 -0.24749468667538321 0 0.102389076685389 -0.22730157072293841 0 0.099885875260422058 -0.15149088269105351 0 0.1161887790728692 -0.1476769396888597 0 0.1105045846919957 -0.16013033574144619 0 0.099885875260422058 -0.15149088269105351 0 0.099597293261818404 -0.1347502866929414 0 0.1161887790728692 -0.1476769396888597 0 0.099597293261818404 -0.1347502866929414 0 0.1161887790728692 -0.1476769396888597 0 0.099597293261818404 -0.1347502866929414 0 0.1047785765018954 -0.13712350701568179 0 0.1161887790728692 -0.1476769396888597 0 0.099597293261818404 -0.1347502866929414 0 0.093527805260815264 -0.13002146576964491 0 0.104312872852085 -0.12243825994362539 0 0.099597293261818404 -0.1347502866929414 0 0.093527805260815264 -0.13002146576964491 0 0.099597293261818404 -0.1347502866929414 0 0.093527805260815264 -0.13002146576964491 0 0.092996203934319052 -0.1329056080468716 0 0.099597293261818404 -0.1347502866929414 0 0.1088944047617572 -0.13480079442927331 0 0.104312872852085 -0.12243825994362539 0 0.099597293261818404 -0.1347502866929414 0 0.1047785765018954 -0.13712350701568179 0 0.1088944047617572 -0.13480079442927331 0 0.099597293261818404 -0.1347502866929414 0 0.1088944047617572 -0.13480079442927331 0 0.1047785765018954 -0.13712350701568179 0 0.1088944047617572 -0.13480079442927331 0 0.1088944047617572 -0.13480079442927331 0 0.1161887790728692 -0.1476769396888597 0 0.13638976604354719 -0.13495016646355951 0 0.1088944047617572 -0.13480079442927331 0 0.12800820934211829 -0.12401417466047961 0 0.13638976604354719 -0.13495016646355951 0 0.1047785765018954 -0.13712350701568179 0 0.1088944047617572 -0.13480079442927331 0 0.1161887790728692 -0.1476769396888597 0 0.1088944047617572 -0.13480079442927331 0 0.104312872852085 -0.12243825994362539 0 0.12800820934211829 -0.12401417466047961 0 0.1088944047617572 -0.13480079442927331 0 0.12800820934211829 -0.12401417466047961 0 0.1088944047617572 -0.13480079442927331 0 0.13638976604354719 -0.13495016646355951 0 0.1161887790728692 -0.1476769396888597 0 0.1105045846919957 -0.16013033574144619 0 0.1305387904294309 -0.15561497697083931 0 0.1105045846919957 -0.16013033574144619 0 0.11404320040195411 -0.17785048998131209 0 0.1305387904294309 -0.15561497697083931 0 0.092537347032927528 -0.18889969997864839 0 0.11404320040195411 -0.17785048998131209 0 0.090957573454969964 -0.1674487964172009 0 0.1105045846919957 -0.16013033574144619 0 0.11404320040195411 -0.17785048998131209 0 0.090957573454969964 -0.1674487964172009 0 0.099885875260422058 -0.15149088269105351 0 0.1105045846919957 -0.16013033574144619 0 0.090957573454969964 -0.1674487964172009 0 0.099885875260422058 -0.15149088269105351 0 0.090957573454969964 -0.1674487964172009 0 0.080257725164813276 -0.1505404030764457 0 0.090957573454969964 -0.1674487964172009 0 0.065342325237630991 -0.1650228072456788 0 0.080257725164813276 -0.1505404030764457 0 0.092537347032927528 -0.18889969997864839 0 0.090957573454969964 -0.1674487964172009 0 0.067160325985138131 -0.18691533881804831 0 0.090957573454969964 -0.1674487964172009 0 0.067160325985138131 -0.18691533881804831 0 0.065342325237630991 -0.1650228072456788 0 0.065342325237630991 -0.1650228072456788 0 0.080257725164813276 -0.1505404030764457 0 0.056224073158944461 -0.14994265306170279 0 0.080257725164813276 -0.1505404030764457 0 0.069539210615093855 -0.1345869923500955 0 0.056224073158944461 -0.14994265306170279 0 0.099885875260422058 -0.15149088269105351 0 0.099597293261818404 -0.1347502866929414 0 0.080257725164813276 -0.1505404030764457 0 0.099597293261818404 -0.1347502866929414 0 0.080257725164813276 -0.1505404030764457 0 0.069539210615093855 -0.1345869923500955 0 0.099597293261818404 -0.1347502866929414 0 0.092996203934319052 -0.1329056080468716 0 0.069539210615093855 -0.1345869923500955 0 0.099597293261818404 -0.1347502866929414 0 0.069539210615093855 -0.1345869923500955 0 0.092996203934319052 -0.1329056080468716 0 0.069539210615093855 -0.1345869923500955 0 0.079322302472514483 -0.11895376470488229 0 0.093527805260815264 -0.13002146576964491 0 0.092996203934319052 -0.1329056080468716 0 0.079322302472514483 -0.11895376470488229 0 0.093527805260815264 -0.13002146576964491 0 0.092996203934319052 -0.1329056080468716 0 0.069539210615093855 -0.1345869923500955 0 0.052298963826290519 -0.1211548808236817 0 0.066569319149528045 -0.1206454253796948 0 0.069539210615093855 -0.1345869923500955 0 0.039481127968369292 -0.1344236980072451 0 0.052298963826290519 -0.1211548808236817 0 0.069539210615093855 -0.1345869923500955 0 0.056224073158944461 -0.14994265306170279 0 0.039481127968369292 -0.1344236980072451 0 0.069539210615093855 -0.1345869923500955 0 0.039481127968369292 -0.1344236980072451 0 0.056224073158944461 -0.14994265306170279 0 0.038811693183881758 -0.15444647348478721 0 0.047368807546727579 -0.16279517251764489 0 0.056224073158944461 -0.14994265306170279 0 0.038811693183881758 -0.15444647348478721 0 0.039481127968369292 -0.1344236980072451 0 0.038811693183881758 -0.15444647348478721 0 0.039481127968369292 -0.1344236980072451 0 0.019056913867763529 -0.155566515408149 0 0.034777770017858589 -0.1343981464191871 0 0.039481127968369292 -0.1344236980072451 0 0.022320289212787989 -0.1422177528203018 0 0.034777770017858589 -0.1343981464191871 0 0.039481127968369292 -0.1344236980072451 0 0.034777770017858589 -0.1343981464191871 0 0.029299678594365521 -0.12697140115214181 0 0.037800108132664212 -0.12348471533883321 0 0.034777770017858589 -0.1343981464191871 0 0.039481127968369292 -0.1344236980072451 0 0.037800108132664212 -0.12348471533883321 0 0.039481127968369292 -0.1344236980072451 0 0.052298963826290519 -0.1211548808236817 0 0.039481127968369292 -0.1344236980072451 0 0.052298963826290519 -0.1211548808236817 0 0.037800108132664212 -0.12348471533883321 0 0.067160325985138131 -0.18691533881804831 0 0.065342325237630991 -0.1650228072456788 0 0.049880579816306267 -0.17970719815632741 0 0.065342325237630991 -0.1650228072456788 0 0.049880579816306267 -0.17970719815632741 0 0.047368807546727579 -0.16279517251764489 0 0.065342325237630991 -0.1650228072456788 0 0.056224073158944461 -0.14994265306170279 0 0.047368807546727579 -0.16279517251764489 0 0.049880579816306267 -0.17970719815632741 0 0.047368807546727579 -0.16279517251764489 0 0.031927543377605602 -0.16950432842919569 0 0.038811693183881758 -0.15444647348478721 0 0.047368807546727579 -0.16279517251764489 0 0.031927543377605602 -0.16950432842919569 0 0.049880579816306267 -0.17970719815632741 0 0.031927543377605602 -0.16950432842919569 0 0.033125333554059701 -0.1865598477748947 0 0.031927543377605602 -0.16950432842919569 0 0.033125333554059701 -0.1865598477748947 0 0.018588522793563201 -0.18166153924030251 0 0.031927543377605602 -0.16950432842919569 0 0.018588522793563201 -0.18166153924030251 0 0.019056913867763529 -0.155566515408149 0 0.038811693183881758 -0.15444647348478721 0 0.031927543377605602 -0.16950432842919569 0 0.019056913867763529 -0.155566515408149 0 -0.0013673002328405961 -0.1767093328090546 0 0.018588522793563201 -0.18166153924030251 0 0.019056913867763529 -0.155566515408149 0 -0.0013673002328405961 -0.1767093328090546 0 0.019056913867763529 -0.155566515408149 0 -0.0013673002328405961 -0.1767093328090546 0 0.019056913867763529 -0.155566515408149 0 0.0027310736070901482 -0.15493719994590471 0 -0.0013673002328405961 -0.1767093328090546 0 0.003555539334036632 -0.19934620758084881 0 0.018588522793563201 -0.18166153924030251 0 0.020222670022858619 -0.12863691797839069 0 0.022320289212787989 -0.1422177528203018 0 0.0088678229424013627 -0.13941235935176011 0 0.020222670022858619 -0.12863691797839069 0 0.02665510196196769 -0.1330560545925053 0 0.022320289212787989 -0.1422177528203018 0 0.034777770017858589 -0.1343981464191871 0 0.029299678594365521 -0.12697140115214181 0 0.02665510196196769 -0.1330560545925053 0 0.020222670022858619 -0.12863691797839069 0 0.029299678594365521 -0.12697140115214181 0 0.02665510196196769 -0.1330560545925053 0 0.034777770017858589 -0.1343981464191871 0 0.02665510196196769 -0.1330560545925053 0 0.022320289212787989 -0.1422177528203018 0 0.039481127968369292 -0.1344236980072451 0 0.019056913867763529 -0.155566515408149 0 0.019056913867763529 -0.155566515408149 0 0.022320289212787989 -0.1422177528203018 0 0.0088678229424013627 -0.13941235935176011 0 0.039481127968369292 -0.1344236980072451 0 0.019056913867763529 -0.155566515408149 0 0.022320289212787989 -0.1422177528203018 0 0.019056913867763529 -0.155566515408149 0 0.0027310736070901482 -0.15493719994590471 0 0.0088678229424013627 -0.13941235935176011 0 0.020222670022858619 -0.12863691797839069 0 0.0088678229424013627 -0.13941235935176011 0 0.0015243557028834459 -0.11711868301268021 0 0.020222670022858619 -0.12863691797839069 0 0.0015243557028834459 -0.11711868301268021 0 0.0144479962461943 -0.1082343501681014 0 0.020222670022858619 -0.12863691797839069 0 0.02728947708542654 -0.1146689930447462 0 0.0144479962461943 -0.1082343501681014 0 0.020222670022858619 -0.12863691797839069 0 0.029299678594365521 -0.12697140115214181 0 0.02728947708542654 -0.1146689930447462 0 0.0144479962461943 -0.1082343501681014 0 0.01674231050701382 -0.093658367309864349 0 0.03170108987002046 -0.10050694789866579 0 0.02728947708542654 -0.1146689930447462 0 0.0144479962461943 -0.1082343501681014 0 0.03170108987002046 -0.10050694789866579 0 0.01674231050701382 -0.093658367309864349 0 0.02745527456064175 -0.089089442263575569 0 0.03170108987002046 -0.10050694789866579 0 0.0144479962461943 -0.1082343501681014 0 0.001856719827670471 -0.098182337095309047 0 0.01674231050701382 -0.093658367309864349 0 0.0015243557028834459 -0.11711868301268021 0 0.0144479962461943 -0.1082343501681014 0 0.001856719827670471 -0.098182337095309047 0 0.001856719827670471 -0.098182337095309047 0 0.0065051428120863272 -0.082127796022149757 0 0.01674231050701382 -0.093658367309864349 0 0.0065051428120863272 -0.082127796022149757 0 0.018539693253586439 -0.071597204448153262 0 0.01731060528333208 -0.084118202510935727 0 0.0065051428120863272 -0.082127796022149757 0 0.01674231050701382 -0.093658367309864349 0 0.01731060528333208 -0.084118202510935727 0 0.0065051428120863272 -0.082127796022149757 0 0.018539693253586439 -0.071597204448153262 0 0.00035237720396625368 -0.061086817302918282 0 0.018539693253586439 -0.071597204448153262 0 0.00035237720396625368 -0.061086817302918282 0 0.029337839486141829 -0.062098975348790997 0 0.018539693253586439 -0.071597204448153262 0 0.036998616429076953 -0.080413518666692163 0 0.029337839486141829 -0.062098975348790997 0 0.018539693253586439 -0.071597204448153262 0 0.039278739387756327 -0.087755278287702396 0 0.018539693253586439 -0.071597204448153262 0 0.02745527456064175 -0.089089442263575569 0 0.039278739387756327 -0.087755278287702396 0 0.018539693253586439 -0.071597204448153262 0 0.01731060528333208 -0.084118202510935727 0 0.02745527456064175 -0.089089442263575569 0 0.01674231050701382 -0.093658367309864349 0 0.01731060528333208 -0.084118202510935727 0 0.02745527456064175 -0.089089442263575569 0 0.018539693253586439 -0.071597204448153262 0 0.036998616429076953 -0.080413518666692163 0 0.039278739387756327 -0.087755278287702396 0 0.02745527456064175 -0.089089442263575569 0 0.039278739387756327 -0.087755278287702396 0 0.036114206476440321 -0.094502097047588079 0 0.036998616429076953 -0.080413518666692163 0 0.039278739387756327 -0.087755278287702396 0 0.050747139898636717 -0.081209848062237813 0 0.058323301768317432 -0.063111133394663815 0 0.029337839486141829 -0.062098975348790997 0 0.036998616429076953 -0.080413518666692163 0 0.058323301768317432 -0.063111133394663815 0 0.029337839486141829 -0.062098975348790997 0 0.036998616429076953 -0.080413518666692163 0 0.058323301768317432 -0.063111133394663815 0 0.058323301768317432 -0.063111133394663815 0 0.050747139898636717 -0.081209848062237813 0 0.060228637404373828 -0.081759239016750626 0 0.036998616429076953 -0.080413518666692163 0 0.058323301768317432 -0.063111133394663815 0 0.050747139898636717 -0.081209848062237813 0 0.039278739387756327 -0.087755278287702396 0 0.050747139898636717 -0.081209848062237813 0 0.060818353003097771 -0.090653503469919336 0 0.050747139898636717 -0.081209848062237813 0 0.060228637404373828 -0.081759239016750626 0 0.060818353003097771 -0.090653503469919336 0 0.060017785521926562 -0.10391335212725129 0 0.042153090511964017 -0.099193769589441219 0 0.043653631303676513 -0.1092911725859987 0 0.060017785521926562 -0.10391335212725129 0 0.043653631303676513 -0.1092911725859987 0 0.039278739387756327 -0.087755278287702396 0 0.060818353003097771 -0.090653503469919336 0 0.060017785521926562 -0.10391335212725129 0 0.060017785521926562 -0.10391335212725129 0 0.053375718786791107 -0.1112883554404277 0 0.043653631303676513 -0.1092911725859987 0 0.039278739387756327 -0.087755278287702396 0 0.060017785521926562 -0.10391335212725129 0 0.039278739387756327 -0.087755278287702396 0 0.060017785521926562 -0.10391335212725129 0 0.042153090511964017 -0.099193769589441219 0 0.060017785521926562 -0.10391335212725129 0 0.053375718786791107 -0.1112883554404277 0 0.065116799684213397 -0.10788606364011991 0 0.052298963826290519 -0.1211548808236817 0 0.066569319149528045 -0.1206454253796948 0 0.065116799684213397 -0.10788606364011991 0 0.052298963826290519 -0.1211548808236817 0 0.065116799684213397 -0.10788606364011991 0 0.052298963826290519 -0.1211548808236817 0 0.053375718786791107 -0.1112883554404277 0 0.065116799684213397 -0.10788606364011991 0 0.052298963826290519 -0.1211548808236817 0 0.053375718786791107 -0.1112883554404277 0 0.043653631303676513 -0.1092911725859987 0 0.02728947708542654 -0.1146689930447462 0 0.037800108132664212 -0.12348471533883321 0 0.043653631303676513 -0.1092911725859987 0 0.02728947708542654 -0.1146689930447462 0 0.043653631303676513 -0.1092911725859987 0 0.052298963826290519 -0.1211548808236817 0 0.037800108132664212 -0.12348471533883321 0 0.043653631303676513 -0.1092911725859987 0 0.029299678594365521 -0.12697140115214181 0 0.02728947708542654 -0.1146689930447462 0 0.037800108132664212 -0.12348471533883321 0 0.02728947708542654 -0.1146689930447462 0 0.03170108987002046 -0.10050694789866579 0 0.043653631303676513 -0.1092911725859987 0 0.036114206476440321 -0.094502097047588079 0 0.03170108987002046 -0.10050694789866579 0 0.042153090511964017 -0.099193769589441219 0 0.02745527456064175 -0.089089442263575569 0 0.036114206476440321 -0.094502097047588079 0 0.03170108987002046 -0.10050694789866579 0 0.039278739387756327 -0.087755278287702396 0 0.036114206476440321 -0.094502097047588079 0 0.042153090511964017 -0.099193769589441219 0 0.03170108987002046 -0.10050694789866579 0 0.042153090511964017 -0.099193769589441219 0 0.043653631303676513 -0.1092911725859987 0 0.025695344612614111 0.0095801541182225364 0 0.02812452509478746 -0.0099579005571815878 0 0.006935528729737548 -0.0054826371559186567 0 0.02812452509478746 -0.0099579005571815878 0 0.006935528729737548 -0.0054826371559186567 0 0.01889941714368459 -0.025130787452367569 0 0.006935528729737548 -0.0054826371559186567 0 0.0027408304473846411 -0.028176541972939319 0 0.01889941714368459 -0.025130787452367569 0 0.02812452509478746 -0.0099579005571815878 0 0.01889941714368459 -0.025130787452367569 0 0.035567370731091272 -0.02454493013615917 0 0.01889941714368459 -0.025130787452367569 0 0.02846567832778216 -0.042756626880165419 0 0.035567370731091272 -0.02454493013615917 0 0.01889941714368459 -0.025130787452367569 0 0.02846567832778216 -0.042756626880165419 0 0.0096258971738255473 -0.043108802377643002 0 0.02846567832778216 -0.042756626880165419 0 0.0096258971738255473 -0.043108802377643002 0 0.016945448047928951 -0.052262805477379423 0 0.01889941714368459 -0.025130787452367569 0 0.0096258971738255473 -0.043108802377643002 0 -0.01026660782967455 -0.041229232136501717 0 0.0027408304473846411 -0.028176541972939319 0 0.0096258971738255473 -0.043108802377643002 0 0.0027408304473846411 -0.028176541972939319 0 0.01889941714368459 -0.025130787452367569 0 0.0096258971738255473 -0.043108802377643002 0 0.0096258971738255473 -0.043108802377643002 0 0.00035237720396625368 -0.061086817302918282 0 0.016945448047928951 -0.052262805477379423 0 0.00035237720396625368 -0.061086817302918282 0 0.016945448047928951 -0.052262805477379423 0 0.029337839486141829 -0.062098975348790997 0 0.0096258971738255473 -0.043108802377643002 0 0.00035237720396625368 -0.061086817302918282 0 0.00035237720396625368 -0.061086817302918282 0 0.029337839486141829 -0.062098975348790997 0 0.02846567832778216 -0.042756626880165419 0 0.016945448047928951 -0.052262805477379423 0 0.029337839486141829 -0.062098975348790997 0 0.02846567832778216 -0.042756626880165419 0 0.029337839486141829 -0.062098975348790997 0 0.044041605111135473 -0.049431168693685697 0 0.058323301768317432 -0.063111133394663815 0 0.029337839486141829 -0.062098975348790997 0 0.044041605111135473 -0.049431168693685697 0 0.058323301768317432 -0.063111133394663815 0 0.044041605111135473 -0.049431168693685697 0 0.059903341899081253 -0.040049795258846832 0 0.059903341899081253 -0.040049795258846832 0 0.045154502468205723 -0.035444412579530127 0 0.052999286202529479 -0.022291816621987929 0 0.044041605111135473 -0.049431168693685697 0 0.059903341899081253 -0.040049795258846832 0 0.045154502468205723 -0.035444412579530127 0 0.02846567832778216 -0.042756626880165419 0 0.044041605111135473 -0.049431168693685697 0 0.045154502468205723 -0.035444412579530127 0 0.02846567832778216 -0.042756626880165419 0 0.045154502468205723 -0.035444412579530127 0 0.035567370731091272 -0.02454493013615917 0 0.045154502468205723 -0.035444412579530127 0 0.035567370731091272 -0.02454493013615917 0 0.052999286202529479 -0.022291816621987929 0 0.035567370731091272 -0.02454493013615917 0 0.052999286202529479 -0.022291816621987929 0 0.04138045704507981 -0.013293391242584921 0 0.02812452509478746 -0.0099579005571815878 0 0.035567370731091272 -0.02454493013615917 0 0.04138045704507981 -0.013293391242584921 0 0.059903341899081253 -0.040049795258846832 0 0.052999286202529479 -0.022291816621987929 0 0.073093181043766914 -0.026775388104941698 0 0.052999286202529479 -0.022291816621987929 0 0.049896637954744763 -0.0073960790217490677 0 0.04138045704507981 -0.013293391242584921 0 0.052999286202529479 -0.022291816621987929 0 0.049896637954744763 -0.0073960790217490677 0 0.066530330394949447 -0.012320269852860621 0 0.049896637954744763 -0.0073960790217490677 0 0.040314465242246092 -0.002276229875846851 0 0.04138045704507981 -0.013293391242584921 0 0.025695344612614111 0.0095801541182225364 0 0.02812452509478746 -0.0099579005571815878 0 0.040314465242246092 -0.002276229875846851 0 0.046640351189982193 0.001482106492276504 0 0.049896637954744763 -0.0073960790217490677 0 0.040314465242246092 -0.002276229875846851 0 0.02812452509478746 -0.0099579005571815878 0 0.040314465242246092 -0.002276229875846851 0 0.04138045704507981 -0.013293391242584921 0 0.075461568133428525 0.0044331687040122013 0 0.081703970602104437 -0.011974759962048749 0 0.098011391193308373 -0.0056982583262641584 0 0.075461568133428525 0.0044331687040122013 0 0.049896637954744763 -0.0073960790217490677 0 0.075461568133428525 0.0044331687040122013 0 0.049896637954744763 -0.0073960790217490677 0 0.066530330394949447 -0.012320269852860621 0 0.075461568133428525 0.0044331687040122013 0 0.081703970602104437 -0.011974759962048749 0 0.066530330394949447 -0.012320269852860621 0 0.081703970602104437 -0.011974759962048749 0 0.066530330394949447 -0.012320269852860621 0 0.073093181043766914 -0.026775388104941698 0 0.052999286202529479 -0.022291816621987929 0 0.066530330394949447 -0.012320269852860621 0 0.073093181043766914 -0.026775388104941698 0 0.081703970602104437 -0.011974759962048749 0 0.097837743661838034 -0.031049975793767819 0 0.098011391193308373 -0.0056982583262641584 0 0.081703970602104437 -0.011974759962048749 0 0.073093181043766914 -0.026775388104941698 0 0.097837743661838034 -0.031049975793767819 0 0.078080522715077566 -0.047080554594215653 0 0.097861902682226248 -0.045151270938537998 0 0.097837743661838034 -0.031049975793767819 0 0.073093181043766914 -0.026775388104941698 0 0.078080522715077566 -0.047080554594215653 0 0.097837743661838034 -0.031049975793767819 0 0.078080522715077566 -0.047080554594215653 0 0.097837743661838034 -0.031049975793767819 0 0.059903341899081253 -0.040049795258846832 0 0.073093181043766914 -0.026775388104941698 0 0.078080522715077566 -0.047080554594215653 0 0.058323301768317432 -0.063111133394663815 0 0.078080522715077566 -0.047080554594215653 0 0.058323301768317432 -0.063111133394663815 0 0.059903341899081253 -0.040049795258846832 0 0.078080522715077566 -0.047080554594215653 0 0.058323301768317432 -0.063111133394663815 0 0.078080522715077566 -0.047080554594215653 0 0.081939961595450139 -0.063935815506958552 0 0.078080522715077566 -0.047080554594215653 0 0.094142039140793971 -0.055881476276546937 0 0.081939961595450139 -0.063935815506958552 0 0.078080522715077566 -0.047080554594215653 0 0.094142039140793971 -0.055881476276546937 0 0.097861902682226248 -0.045151270938537998 0 0.094142039140793971 -0.055881476276546937 0 0.081939961595450139 -0.063935815506958552 0 0.1067368008806147 -0.064801708903802782 0 0.094142039140793971 -0.055881476276546937 0 0.1075629424949773 -0.053875431803618333 0 0.097861902682226248 -0.045151270938537998 0 0.094142039140793971 -0.055881476276546937 0 0.1075629424949773 -0.053875431803618333 0 0.1067368008806147 -0.064801708903802782 0 0.1075629424949773 -0.053875431803618333 0 0.1067368008806147 -0.064801708903802782 0 0.1075629424949773 -0.053875431803618333 0 0.1232921759667842 -0.047663851323270827 0 0.1067368008806147 -0.064801708903802782 0 0.1232921759667842 -0.047663851323270827 0 0.1067368008806147 -0.064801708903802782 0 0.1075629424949773 -0.053875431803618333 0 0.1232921759667842 -0.047663851323270827 0 0.1109518143893137 -0.039435966374661548 0 0.1232921759667842 -0.047663851323270827 0 0.1067368008806147 -0.064801708903802782 0 0.13548767730717889 -0.06580567532731052 0 0.1232921759667842 -0.047663851323270827 0 0.1109518143893137 -0.039435966374661548 0 0.124582941869709 -0.030507807285028901 0 0.1109518143893137 -0.039435966374661548 0 0.097861902682226248 -0.045151270938537998 0 0.097837743661838034 -0.031049975793767819 0 0.1075629424949773 -0.053875431803618333 0 0.1109518143893137 -0.039435966374661548 0 0.097861902682226248 -0.045151270938537998 0 0.097837743661838034 -0.031049975793767819 0 0.1175949646085984 -0.015019396993320021 0 0.097837743661838034 -0.031049975793767819 0 0.1175949646085984 -0.015019396993320021 0 0.098011391193308373 -0.0056982583262641584 0 0.1109518143893137 -0.039435966374661548 0 0.097837743661838034 -0.031049975793767819 0 0.1175949646085984 -0.015019396993320021 0 0.1109518143893137 -0.039435966374661548 0 0.124582941869709 -0.030507807285028901 0 0.1175949646085984 -0.015019396993320021 0 0.124582941869709 -0.030507807285028901 0 0.1175949646085984 -0.015019396993320021 0 0.13165260102391191 -0.019660205177744808 0 0.11882011836095251 0.0065886106746579649 0 0.1175949646085984 -0.015019396993320021 0 0.098011391193308373 -0.0056982583262641584 0 0.11882011836095251 0.0065886106746579649 0 0.13735218555535891 0.001011181807127467 0 0.1175949646085984 -0.015019396993320021 0 0.073111172643960082 -0.099610417542301155 0 0.10058413041743761 -0.090581864498492995 0 0.088608598291174498 -0.101420796185217 0 0.073111172643960082 -0.099610417542301155 0 0.10058413041743761 -0.090581864498492995 0 0.083297568291202648 -0.10670285905343881 0 0.088608598291174498 -0.101420796185217 0 0.073111172643960082 -0.099610417542301155 0 0.083297568291202648 -0.10670285905343881 0 0.088608598291174498 -0.101420796185217 0 0.097441521812097198 -0.10878804364663471 0 0.093527805260815264 -0.13002146576964491 0 0.079322302472514483 -0.11895376470488229 0 0.097441521812097198 -0.10878804364663471 0 0.083297568291202648 -0.10670285905343881 0 0.079322302472514483 -0.11895376470488229 0 0.097441521812097198 -0.10878804364663471 0 0.093527805260815264 -0.13002146576964491 0 0.079322302472514483 -0.11895376470488229 0 0.079322302472514483 -0.11895376470488229 0 0.065116799684213397 -0.10788606364011991 0 0.083297568291202648 -0.10670285905343881 0 0.079322302472514483 -0.11895376470488229 0 0.065116799684213397 -0.10788606364011991 0 0.079322302472514483 -0.11895376470488229 0 0.066569319149528045 -0.1206454253796948 0 0.065116799684213397 -0.10788606364011991 0 0.069539210615093855 -0.1345869923500955 0 0.079322302472514483 -0.11895376470488229 0 0.066569319149528045 -0.1206454253796948 0 0.060017785521926562 -0.10391335212725129 0 0.065116799684213397 -0.10788606364011991 0 0.060017785521926562 -0.10391335212725129 0 0.073111172643960082 -0.099610417542301155 0 0.065116799684213397 -0.10788606364011991 0 0.073111172643960082 -0.099610417542301155 0 0.083297568291202648 -0.10670285905343881 0 0.065116799684213397 -0.10788606364011991 0 0.073111172643960082 -0.099610417542301155 0 0.060017785521926562 -0.10391335212725129 0 0.065116799684213397 -0.10788606364011991 0 0.073111172643960082 -0.099610417542301155 0 0.060818353003097771 -0.090653503469919336 0 0.060017785521926562 -0.10391335212725129 0 0.073111172643960082 -0.099610417542301155 0 0.060818353003097771 -0.090653503469919336 0 0.073111172643960082 -0.099610417542301155 0 0.074211161232423301 -0.082716200610011378 0 0.060228637404373828 -0.081759239016750626 0 0.060818353003097771 -0.090653503469919336 0 0.074211161232423301 -0.082716200610011378 0 0.058323301768317432 -0.063111133394663815 0 0.081939961595450139 -0.063935815506958552 0 0.058323301768317432 -0.063111133394663815 0 0.074211161232423301 -0.082716200610011378 0 0.081939961595450139 -0.063935815506958552 0 0.058323301768317432 -0.063111133394663815 0 0.060228637404373828 -0.081759239016750626 0 0.074211161232423301 -0.082716200610011378 0 0.074211161232423301 -0.082716200610011378 0 0.081939961595450139 -0.063935815506958552 0 0.089190063779311518 -0.082965808471458069 0 0.081939961595450139 -0.063935815506958552 0 0.089190063779311518 -0.082965808471458069 0 0.1052689549146623 -0.0663211994006144 0 0.073111172643960082 -0.099610417542301155 0 0.074211161232423301 -0.082716200610011378 0 0.089190063779311518 -0.082965808471458069 0 0.073111172643960082 -0.099610417542301155 0 0.089190063779311518 -0.082965808471458069 0 0.073111172643960082 -0.099610417542301155 0 0.089190063779311518 -0.082965808471458069 0 0.10058413041743761 -0.090581864498492995 0 0.089190063779311518 -0.082965808471458069 0 0.1017080788123951 -0.087804556385465471 0 0.1052689549146623 -0.0663211994006144 0 0.089190063779311518 -0.082965808471458069 0 0.10058413041743761 -0.090581864498492995 0 0.1017080788123951 -0.087804556385465471 0 0.1017080788123951 -0.087804556385465471 0 0.1084674426683357 -0.077888137089068013 0 0.1052689549146623 -0.0663211994006144 0 0.089190063779311518 -0.082965808471458069 0 0.1052689549146623 -0.0663211994006144 0 0.081939961595450139 -0.063935815506958552 0 0.1067368008806147 -0.064801708903802782 0 0.1052689549146623 -0.0663211994006144 0 0.081939961595450139 -0.063935815506958552 0 0.1067368008806147 -0.064801708903802782 0 0.1017080788123951 -0.087804556385465471 0 0.1052689549146623 -0.0663211994006144 0 0.1084674426683357 -0.077888137089068013 0 0.1067368008806147 -0.064801708903802782 0 0.1052689549146623 -0.0663211994006144 0 0.1067368008806147 -0.064801708903802782 0 0.1052689549146623 -0.0663211994006144 0 0.1067368008806147 -0.064801708903802782 0 0.13548767730717889 -0.06580567532731052 0 0.1084674426683357 -0.077888137089068013 0 0.1067368008806147 -0.064801708903802782 0 0.1232061248222129 -0.075206297362028066 0 0.1067368008806147 -0.064801708903802782 0 0.1232061248222129 -0.075206297362028066 0 0.13548767730717889 -0.06580567532731052 0 0.1017080788123951 -0.087804556385465471 0 0.1084674426683357 -0.077888137089068013 0 0.1272797878356694 -0.088593758706814907 0 0.1017080788123951 -0.087804556385465471 0 0.1272797878356694 -0.088593758706814907 0 0.1084674426683357 -0.077888137089068013 0 0.1232061248222129 -0.075206297362028066 0 0.1272797878356694 -0.088593758706814907 0 0.1017080788123951 -0.087804556385465471 0 0.11567178204704499 -0.10568275569041199 0 0.1272797878356694 -0.088593758706814907 0 0.1017080788123951 -0.087804556385465471 0 0.11567178204704499 -0.10568275569041199 0 0.097441521812097198 -0.10878804364663471 0 0.1017080788123951 -0.087804556385465471 0 0.097441521812097198 -0.10878804364663471 0 0.088608598291174498 -0.101420796185217 0 0.10058413041743761 -0.090581864498492995 0 0.097441521812097198 -0.10878804364663471 0 0.10058413041743761 -0.090581864498492995 0 0.1017080788123951 -0.087804556385465471 0 0.097441521812097198 -0.10878804364663471 0 0.093527805260815264 -0.13002146576964491 0 0.097441521812097198 -0.10878804364663471 0 0.104312872852085 -0.12243825994362539 0 0.093527805260815264 -0.13002146576964491 0 0.097441521812097198 -0.10878804364663471 0 0.11567178204704499 -0.10568275569041199 0 0.097441521812097198 -0.10878804364663471 0 0.104312872852085 -0.12243825994362539 0 0.11567178204704499 -0.10568275569041199 0 0.104312872852085 -0.12243825994362539 0 0.12800820934211829 -0.12401417466047961 0 0.12800820934211829 -0.12401417466047961 0 0.14712201392247631 -0.1132275548916801 0 0.13655559816636781 -0.1031347463460832 0 0.12800820934211829 -0.12401417466047961 0 0.14712201392247631 -0.1132275548916801 0 0.11567178204704499 -0.10568275569041199 0 0.12800820934211829 -0.12401417466047961 0 0.13655559816636781 -0.1031347463460832 0 0.12800820934211829 -0.12401417466047961 0 0.14712201392247631 -0.1132275548916801 0 0.1486045981545247 -0.12747252536747111 0 0.14712201392247631 -0.1132275548916801 0 0.16095359288685571 -0.1184472051676727 0 0.1486045981545247 -0.12747252536747111 0 0.15146120268426411 -0.099532086410862586 0 0.13655559816636781 -0.1031347463460832 0 0.1528514968589437 -0.089382961028164357 0 0.14712201392247631 -0.1132275548916801 0 0.15146120268426411 -0.099532086410862586 0 0.16623581850283431 -0.10244093512288061 0 0.14712201392247631 -0.1132275548916801 0 0.15146120268426411 -0.099532086410862586 0 0.13655559816636781 -0.1031347463460832 0 0.11567178204704499 -0.10568275569041199 0 0.13655559816636781 -0.1031347463460832 0 0.1272797878356694 -0.088593758706814907 0 0.1272797878356694 -0.088593758706814907 0 0.13805891541926751 -0.078942206783145619 0 0.1528514968589437 -0.089382961028164357 0 0.1272797878356694 -0.088593758706814907 0 0.1528514968589437 -0.089382961028164357 0 0.13655559816636781 -0.1031347463460832 0 0.1272797878356694 -0.088593758706814907 0 0.1528514968589437 -0.089382961028164357 0 0.1232061248222129 -0.075206297362028066 0 0.1272797878356694 -0.088593758706814907 0 0.13805891541926751 -0.078942206783145619 0 0.1232061248222129 -0.075206297362028066 0 0.13805891541926751 -0.078942206783145619 0 0.13548767730717889 -0.06580567532731052 0 0.13548767730717889 -0.06580567532731052 0 0.16423855373374319 -0.066809641750814969 0 0.13548767730717889 -0.06580567532731052 0 0.1516507619880918 -0.076739651506421189 0 0.16423855373374319 -0.066809641750814969 0 0.13548767730717889 -0.06580567532731052 0 0.16423855373374319 -0.066809641750814969 0 0.16004124225532049 -0.061841453839887157 0 0.13805891541926751 -0.078942206783145619 0 0.13548767730717889 -0.06580567532731052 0 0.1516507619880918 -0.076739651506421189 0 0.13805891541926751 -0.078942206783145619 0 0.1516507619880918 -0.076739651506421189 0 0.1528514968589437 -0.089382961028164357 0 0.15146120268426411 -0.099532086410862586 0 0.1528514968589437 -0.089382961028164357 0 0.15581646250916109 -0.090151240212135456 0 0.1528514968589437 -0.089382961028164357 0 0.15581646250916109 -0.090151240212135456 0 0.17842320588221819 -0.090172163349513806 0 0.1528514968589437 -0.089382961028164357 0 0.17842320588221819 -0.090172163349513806 0 0.15581646250916109 -0.090151240212135456 0 0.16859491992305889 -0.093070393687126218 0 0.17842320588221819 -0.090172163349513806 0 0.1528514968589437 -0.089382961028164357 0 0.1653897445003264 -0.079862578323319361 0 0.17842320588221819 -0.090172163349513806 0 0.1516507619880918 -0.076739651506421189 0 0.1528514968589437 -0.089382961028164357 0 0.1653897445003264 -0.079862578323319361 0 0.1516507619880918 -0.076739651506421189 0 0.1653897445003264 -0.079862578323319361 0 0.16423855373374319 -0.066809641750814969 0 0.1653897445003264 -0.079862578323319361 0 0.16423855373374319 -0.066809641750814969 0 0.17833356117891219 -0.077628002067558224 0 0.16423855373374319 -0.066809641750814969 0 0.1727598808088672 -0.056322389892066158 0 0.1929894301603077 -0.067813608174319001 0 0.16423855373374319 -0.066809641750814969 0 0.1929894301603077 -0.067813608174319001 0 0.16423855373374319 -0.066809641750814969 0 0.17833356117891219 -0.077628002067558224 0 0.1929894301603077 -0.067813608174319001 0 0.17833356117891219 -0.077628002067558224 0 0.19040307974074269 -0.080139672987034255 0 0.1929894301603077 -0.067813608174319001 0 0.16859491992305889 -0.093070393687126218 0 0.17842320588221819 -0.090172163349513806 0 0.17335524666804841 -0.094081054567607611 0 0.17842320588221819 -0.090172163349513806 0 0.17824607109877541 -0.095663109832525739 0 0.17335524666804841 -0.094081054567607611 0 0.1653897445003264 -0.079862578323319361 0 0.17833356117891219 -0.077628002067558224 0 0.17842320588221819 -0.090172163349513806 0 0.17833356117891219 -0.077628002067558224 0 0.1854866420256687 -0.084161575248007242 0 0.19040307974074269 -0.080139672987034255 0 0.17833356117891219 -0.077628002067558224 0 0.17842320588221819 -0.090172163349513806 0 0.1854866420256687 -0.084161575248007242 0 0.18404025852736719 -0.096743595743047278 0 0.18504385230606449 -0.10434071571553651 0 0.19243594079672521 -0.096163448387799222 0 0.17824607109877541 -0.095663109832525739 0 0.18504385230606449 -0.10434071571553651 0 0.16623581850283431 -0.10244093512288061 0 0.18504385230606449 -0.10434071571553651 0 0.18014950107347269 -0.1188522098678762 0 0.16623581850283431 -0.10244093512288061 0 0.18404025852736719 -0.096743595743047278 0 0.17824607109877541 -0.095663109832525739 0 0.18504385230606449 -0.10434071571553651 0 0.17842320588221819 -0.090172163349513806 0 0.18404025852736719 -0.096743595743047278 0 0.19243594079672521 -0.096163448387799222 0 0.17842320588221819 -0.090172163349513806 0 0.18404025852736719 -0.096743595743047278 0 0.17824607109877541 -0.095663109832525739 0 0.17824607109877541 -0.095663109832525739 0 0.17335524666804841 -0.094081054567607611 0 0.16623581850283431 -0.10244093512288061 0 0.17824607109877541 -0.095663109832525739 0 0.16623581850283431 -0.10244093512288061 0 0.18504385230606449 -0.10434071571553651 0 0.18014950107347269 -0.1188522098678762 0 0.1922879604253335 -0.1099500278873989 0 0.18014950107347269 -0.1188522098678762 0 0.16623581850283431 -0.10244093512288061 0 0.18014950107347269 -0.1188522098678762 0 0.16095359288685571 -0.1184472051676727 0 0.16623581850283431 -0.10244093512288061 0 0.14712201392247631 -0.1132275548916801 0 0.16095359288685571 -0.1184472051676727 0 0.16623581850283431 -0.10244093512288061 0 0.18014950107347269 -0.1188522098678762 0 0.16095359288685571 -0.1184472051676727 0 0.16265603278097029 -0.1302428005884553 0 0.14712201392247631 -0.1132275548916801 0 0.16623581850283431 -0.10244093512288061 0 0.15581646250916109 -0.090151240212135456 0 0.16859491992305889 -0.093070393687126218 0 0.16623581850283431 -0.10244093512288061 0 0.15146120268426411 -0.099532086410862586 0 0.15581646250916109 -0.090151240212135456 0 0.16623581850283431 -0.10244093512288061 0 0.15581646250916109 -0.090151240212135456 0 0.16623581850283431 -0.10244093512288061 0 0.16859491992305889 -0.093070393687126218 0 0.17335524666804841 -0.094081054567607611 0 0.16623581850283431 -0.10244093512288061 0 0.13735218555535891 0.001011181807127467 0 0.1449152044553462 -0.019939696741877431 0 0.14216046477152491 0.0049125148476896544 0 0.15727218843160701 -0.01758578836774349 0 0.15849764294065671 -0.0060544572746906826 0 0.14216046477152491 0.0049125148476896544 0 0.15727218843160701 -0.01758578836774349 0 0.14216046477152491 0.0049125148476896544 0 0.1449152044553462 -0.019939696741877431 0 0.15727218843160701 -0.01758578836774349 0 0.14216046477152491 0.0049125148476896544 0 0.13735218555535891 0.001011181807127467 0 0.1449152044553462 -0.019939696741877431 0 0.13735218555535891 0.001011181807127467 0 0.1175949646085984 -0.015019396993320021 0 0.13735218555535891 0.001011181807127467 0 0.1175949646085984 -0.015019396993320021 0 0.13165260102391191 -0.019660205177744808 0 0.13735218555535891 0.001011181807127467 0 0.13165260102391191 -0.019660205177744808 0 0.1449152044553462 -0.019939696741877431 0 0.13165260102391191 -0.019660205177744808 0 0.13984755105295521 -0.030525993742740402 0 0.1449152044553462 -0.019939696741877431 0 0.124582941869709 -0.030507807285028901 0 0.13165260102391191 -0.019660205177744808 0 0.13984755105295521 -0.030525993742740402 0 0.1449152044553462 -0.019939696741877431 0 0.15247822335533329 -0.040890575290882317 0 0.15727218843160701 -0.01758578836774349 0 0.13984755105295521 -0.030525993742740402 0 0.1449152044553462 -0.019939696741877431 0 0.15247822335533329 -0.040890575290882317 0 0.1449152044553462 -0.019939696741877431 0 0.15247822335533329 -0.040890575290882317 0 0.15247822335533329 -0.040890575290882317 0 0.1379109625223634 -0.045605004272587249 0 0.14629243763992239 -0.054068479542427092 0 0.13984755105295521 -0.030525993742740402 0 0.15247822335533329 -0.040890575290882317 0 0.1379109625223634 -0.045605004272587249 0 0.1232921759667842 -0.047663851323270827 0 0.13984755105295521 -0.030525993742740402 0 0.1379109625223634 -0.045605004272587249 0 0.1232921759667842 -0.047663851323270827 0 0.124582941869709 -0.030507807285028901 0 0.13984755105295521 -0.030525993742740402 0 0.1232921759667842 -0.047663851323270827 0 0.13984755105295521 -0.030525993742740402 0 0.1232921759667842 -0.047663851323270827 0 0.13548767730717889 -0.06580567532731052 0 0.1379109625223634 -0.045605004272587249 0 0.13548767730717889 -0.06580567532731052 0 0.1379109625223634 -0.045605004272587249 0 0.14629243763992239 -0.054068479542427092 0 0.13548767730717889 -0.06580567532731052 0 0.14629243763992239 -0.054068479542427092 0 0.16004124225532049 -0.061841453839887157 0 0.15247822335533329 -0.040890575290882317 0 0.14629243763992239 -0.054068479542427092 0 0.16004124225532049 -0.061841453839887157 0 0.15247822335533329 -0.040890575290882317 0 0.16004124225532049 -0.061841453839887157 0 0.1644158146278025 -0.049784627651503079 0 0.1644158146278025 -0.049784627651503079 0 0.1727598808088672 -0.056322389892066158 0 0.1723839120916891 -0.040084091583176683 0 0.15247822335533329 -0.040890575290882317 0 0.16004124225532049 -0.061841453839887157 0 0.16423855373374319 -0.066809641750814969 0 0.16004124225532049 -0.061841453839887157 0 0.1727598808088672 -0.056322389892066158 0 0.16004124225532049 -0.061841453839887157 0 0.1644158146278025 -0.049784627651503079 0 0.1727598808088672 -0.056322389892066158 0 0.1727598808088672 -0.056322389892066158 0 0.18434240851125541 -0.050289724698312777 0 0.1723839120916891 -0.040084091583176683 0 0.1727598808088672 -0.056322389892066158 0 0.18434240851125541 -0.050289724698312777 0 0.1929894301603077 -0.067813608174319001 0 0.1723839120916891 -0.040084091583176683 0 0.18077822909658589 -0.032018797610549231 0 0.17598651952492231 -0.0227560541305885 0 0.18434240851125541 -0.050289724698312777 0 0.1723839120916891 -0.040084091583176683 0 0.18674227588606429 -0.037749552466939278 0 0.1723839120916891 -0.040084091583176683 0 0.18674227588606429 -0.037749552466939278 0 0.18077822909658589 -0.032018797610549231 0 0.18674227588606429 -0.037749552466939278 0 0.18077822909658589 -0.032018797610549231 0 0.18610830639217099 -0.030062433202775862 0 0.15247822335533329 -0.040890575290882317 0 0.1723839120916891 -0.040084091583176683 0 0.15727218843160701 -0.01758578836774349 0 0.15247822335533329 -0.040890575290882317 0 0.1644158146278025 -0.049784627651503079 0 0.1723839120916891 -0.040084091583176683 0 0.1723839120916891 -0.040084091583176683 0 0.15727218843160701 -0.01758578836774349 0 0.1723839120916891 -0.040084091583176683 0 0.1668946229318731 -0.019675061199070819 0 0.17598651952492231 -0.0227560541305885 0 0.1723839120916891 -0.040084091583176683 0 0.15727218843160701 -0.01758578836774349 0 0.1668946229318731 -0.019675061199070819 0 0.1668946229318731 -0.019675061199070819 0 0.17598651952492231 -0.0227560541305885 0 0.16985348277487761 -0.0099868764823510571 0 0.18077822909658589 -0.032018797610549231 0 0.18438258456793261 -0.021379302004443181 0 0.17598651952492231 -0.0227560541305885 0 0.18077822909658589 -0.032018797610549231 0 0.18610830639217099 -0.030062433202775862 0 0.18438258456793261 -0.021379302004443181 0 0.18438258456793261 -0.021379302004443181 0 0.17598651952492231 -0.0227560541305885 0 0.17878486519392331 -0.011645355321630489 0 0.17598651952492231 -0.0227560541305885 0 0.17878486519392331 -0.011645355321630489 0 0.16985348277487761 -0.0099868764823510571 0 0.17878486519392331 -0.011645355321630489 0 0.17506184651935949 -0.0021247232161890161 0 0.16985348277487761 -0.0099868764823510571 0 0.18438258456793261 -0.021379302004443181 0 0.17878486519392331 -0.011645355321630489 0 0.18863989258252481 -0.001979820774580698 0 0.17878486519392331 -0.011645355321630489 0 0.17506184651935949 -0.0021247232161890161 0 0.18863989258252481 -0.001979820774580698 0 0.1628037813635097 0.0015330777282007481 0 0.17506184651935949 -0.0021247232161890161 0 0.16985348277487761 -0.0099868764823510571 0 0.1668946229318731 -0.019675061199070819 0 0.16985348277487761 -0.0099868764823510571 0 0.15849764294065671 -0.0060544572746906826 0 0.15727218843160701 -0.01758578836774349 0 0.1668946229318731 -0.019675061199070819 0 0.15849764294065671 -0.0060544572746906826 0 0.1628037813635097 0.0015330777282007481 0 0.16985348277487761 -0.0099868764823510571 0 0.15849764294065671 -0.0060544572746906826 0 0.1628037813635097 0.0015330777282007481 0 0.15453230216132671 0.0032055715019124438 0 0.15849764294065671 -0.0060544572746906826 0 0.21174544862736719 0.0096628206364345465 0 0.20589386385567829 -0.0063134785331596111 0 0.2185782736923042 -0.0038367730406402641 0 0.20589386385567829 -0.0063134785331596111 0 0.2185782736923042 -0.0038367730406402641 0 0.2199828155312514 -0.0225516893132638 0 0.20589386385567829 -0.0063134785331596111 0 0.18863989258252481 -0.001979820774580698 0 0.1936475112771239 -0.030998707124919651 0 0.20589386385567829 -0.0063134785331596111 0 0.1936475112771239 -0.030998707124919651 0 0.20001428446098229 -0.034334459813343092 0 0.18863989258252481 -0.001979820774580698 0 0.1936475112771239 -0.030998707124919651 0 0.20589386385567829 -0.0063134785331596111 0 0.20001428446098229 -0.034334459813343092 0 0.18438258456793261 -0.021379302004443181 0 0.18863989258252481 -0.001979820774580698 0 0.1936475112771239 -0.030998707124919651 0 0.18610830639217099 -0.030062433202775862 0 0.18438258456793261 -0.021379302004443181 0 0.1936475112771239 -0.030998707124919651 0 0.20589386385567829 -0.0063134785331596111 0 0.20001428446098229 -0.034334459813343092 0 0.2199828155312514 -0.0225516893132638 0 0.20001428446098229 -0.034334459813343092 0 0.22061008072662569 -0.045125245157715169 0 0.20001428446098229 -0.034334459813343092 0 0.22061008072662569 -0.045125245157715169 0 0.2199828155312514 -0.0225516893132638 0 0.20001428446098229 -0.034334459813343092 0 0.19683654360934791 -0.049478981375062181 0 0.22061008072662569 -0.045125245157715169 0 0.1936475112771239 -0.030998707124919651 0 0.19683654360934791 -0.049478981375062181 0 0.18674227588606429 -0.037749552466939278 0 0.1936475112771239 -0.030998707124919651 0 0.19683654360934791 -0.049478981375062181 0 0.1936475112771239 -0.030998707124919651 0 0.20001428446098229 -0.034334459813343092 0 0.19683654360934791 -0.049478981375062181 0 0.1936475112771239 -0.030998707124919651 0 0.20001428446098229 -0.034334459813343092 0 0.18674227588606429 -0.037749552466939278 0 0.18610830639217099 -0.030062433202775862 0 0.1936475112771239 -0.030998707124919651 0 0.18434240851125541 -0.050289724698312777 0 0.18674227588606429 -0.037749552466939278 0 0.19683654360934791 -0.049478981375062181 0 0.20001428446098229 -0.034334459813343092 0 0.19683654360934791 -0.049478981375062181 0 0.19683654360934791 -0.049478981375062181 0 0.1929894301603077 -0.067813608174319001 0 0.2000429458732931 -0.068059913463883598 0 0.19683654360934791 -0.049478981375062181 0 0.21158346953455981 -0.057932445704329483 0 0.2000429458732931 -0.068059913463883598 0 0.19683654360934791 -0.049478981375062181 0 0.2000429458732931 -0.068059913463883598 0 0.19683654360934791 -0.049478981375062181 0 0.1929894301603077 -0.067813608174319001 0 0.18434240851125541 -0.050289724698312777 0 0.19683654360934791 -0.049478981375062181 0 0.1929894301603077 -0.067813608174319001 0 0.19683654360934791 -0.049478981375062181 0 0.21158346953455981 -0.057932445704329483 0 0.22061008072662569 -0.045125245157715169 0 0.24120587699226881 -0.055916030502087773 0 0.22061008072662569 -0.045125245157715169 0 0.2288443079289719 -0.069065642820655804 0 0.21158346953455981 -0.057932445704329483 0 0.22061008072662569 -0.045125245157715169 0 0.2288443079289719 -0.069065642820655804 0 0.24120587699226881 -0.055916030502087773 0 0.22061008072662569 -0.045125245157715169 0 0.25030159180115191 -0.034143426788088307 0 0.24120587699226881 -0.055916030502087773 0 0.23430517811137791 -0.037629801295311363 0 0.25030159180115191 -0.034143426788088307 0 0.23430517811137791 -0.037629801295311363 0 0.23651070060392609 -0.023431292744830981 0 0.22061008072662569 -0.045125245157715169 0 0.23430517811137791 -0.037629801295311363 0 0.2199828155312514 -0.0225516893132638 0 0.24120587699226881 -0.055916030502087773 0 0.22061008072662569 -0.045125245157715169 0 0.23430517811137791 -0.037629801295311363 0 0.2199828155312514 -0.0225516893132638 0 0.23651070060392609 -0.023431292744830981 0 0.2300866381754704 -0.0072438550720441714 0 0.23430517811137791 -0.037629801295311363 0 0.2199828155312514 -0.0225516893132638 0 0.23651070060392609 -0.023431292744830981 0 0.25030159180115191 -0.034143426788088307 0 0.23651070060392609 -0.023431292744830981 0 0.2464198669495459 -0.012097030270161889 0 0.23790413247208811 0.0091049515404343275 0 0.2464198669495459 -0.012097030270161889 0 0.2300866381754704 -0.0072438550720441714 0 0.23651070060392609 -0.023431292744830981 0 0.2464198669495459 -0.012097030270161889 0 0.2300866381754704 -0.0072438550720441714 0 0.2185782736923042 -0.0038367730406402641 0 0.2199828155312514 -0.0225516893132638 0 0.2300866381754704 -0.0072438550720441714 0 0.22518260227175371 0.0072623370788317187 0 0.2185782736923042 -0.0038367730406402641 0 0.2300866381754704 -0.0072438550720441714 0 0.20666963866093291 -0.1113398018781358 0 0.20399491490549271 -0.090961365670864353 0 0.20666963866093291 -0.1113398018781358 0 0.23081911420975029 -0.091789222750733895 0 0.20666963866093291 -0.1113398018781358 0 0.20399491490549271 -0.090961365670864353 0 0.23081911420975029 -0.091789222750733895 0 0.2184940671700534 -0.12394732724419751 0 0.20666963866093291 -0.1113398018781358 0 0.22056261316880149 -0.1108234873110058 0 0.2184940671700534 -0.12394732724419751 0 0.20975191972323501 -0.12432290509972491 0 0.20666963866093291 -0.1113398018781358 0 0.2184940671700534 -0.12394732724419751 0 0.20666963866093291 -0.1113398018781358 0 0.20975191972323501 -0.12432290509972491 0 0.20666963866093291 -0.1113398018781358 0 0.1971408692894723 -0.1190539635876471 0 0.20975191972323501 -0.12432290509972491 0 0.20666963866093291 -0.1113398018781358 0 0.18014950107347269 -0.1188522098678762 0 0.1971408692894723 -0.1190539635876471 0 0.19406318364410949 -0.13526348461287321 0 0.20666963866093291 -0.1113398018781358 0 0.1971408692894723 -0.1190539635876471 0 0.18014950107347269 -0.1188522098678762 0 0.1971408692894723 -0.1190539635876471 0 0.1922879604253335 -0.1099500278873989 0 0.20666963866093291 -0.1113398018781358 0 0.1971408692894723 -0.1190539635876471 0 0.1922879604253335 -0.1099500278873989 0 0.20666963866093291 -0.1113398018781358 0 0.19243594079672521 -0.096163448387799222 0 0.20399491490549271 -0.090961365670864353 0 0.18504385230606449 -0.10434071571553651 0 0.1922879604253335 -0.1099500278873989 0 0.19243594079672521 -0.096163448387799222 0 0.20666963866093291 -0.1113398018781358 0 0.1922879604253335 -0.1099500278873989 0 0.19243594079672521 -0.096163448387799222 0 0.20666963866093291 -0.1113398018781358 0 0.19243594079672521 -0.096163448387799222 0 0.1854866420256687 -0.084161575248007242 0 0.19040307974074269 -0.080139672987034255 0 0.20399491490549271 -0.090961365670864353 0 0.17842320588221819 -0.090172163349513806 0 0.19243594079672521 -0.096163448387799222 0 0.20399491490549271 -0.090961365670864353 0 0.17842320588221819 -0.090172163349513806 0 0.20399491490549271 -0.090961365670864353 0 0.17842320588221819 -0.090172163349513806 0 0.1854866420256687 -0.084161575248007242 0 0.20399491490549271 -0.090961365670864353 0 0.2000429458732931 -0.068059913463883598 0 0.20399491490549271 -0.090961365670864353 0 0.19040307974074269 -0.080139672987034255 0 0.2000429458732931 -0.068059913463883598 0 0.20399491490549271 -0.090961365670864353 0 0.19040307974074269 -0.080139672987034255 0 0.1929894301603077 -0.067813608174319001 0 0.2000429458732931 -0.068059913463883598 0 0.19040307974074269 -0.080139672987034255 0 0.1929894301603077 -0.067813608174319001 0 0.1929894301603077 -0.067813608174319001 0 0.2000429458732931 -0.068059913463883598 0 0.2000429458732931 -0.068059913463883598 0 0.2288443079289719 -0.069065642820655804 0 0.2000429458732931 -0.068059913463883598 0 0.21771238563745279 -0.081480669998114597 0 0.2288443079289719 -0.069065642820655804 0 0.21158346953455981 -0.057932445704329483 0 0.2000429458732931 -0.068059913463883598 0 0.2288443079289719 -0.069065642820655804 0 0.2000429458732931 -0.068059913463883598 0 0.20399491490549271 -0.090961365670864353 0 0.21771238563745279 -0.081480669998114597 0 0.20399491490549271 -0.090961365670864353 0 0.21771238563745279 -0.081480669998114597 0 0.23081911420975029 -0.091789222750733895 0 0.20399491490549271 -0.090961365670864353 0 0.23081911420975029 -0.091789222750733895 0 0.21771238563745279 -0.081480669998114597 0 0.23081911420975029 -0.091789222750733895 0 0.2288443079289719 -0.069065642820655804 0 0.25764566998465072 -0.070071372177431313 0 0.24120587699226881 -0.055916030502087773 0 0.2288443079289719 -0.069065642820655804 0 0.25764566998465072 -0.070071372177431313 0 0.2288443079289719 -0.069065642820655804 0 0.25764566998465072 -0.070071372177431313 0 0.2288443079289719 -0.069065642820655804 0 0.24423239209720191 -0.080930297464084477 0 0.25666672159796139 -0.092586939936295867 0 0.23081911420975029 -0.091789222750733895 0 0.23081911420975029 -0.091789222750733895 0 0.2288443079289719 -0.069065642820655804 0 0.24423239209720191 -0.080930297464084477 0 0.25666672159796139 -0.092586939936295867 0 0.23081911420975029 -0.091789222750733895 0 0.24423239209720191 -0.080930297464084477 0 0.23081911420975029 -0.091789222750733895 0 0.24423239209720191 -0.080930297464084477 0 0.25666672159796139 -0.092586939936295867 0 0.23081911420975029 -0.091789222750733895 0 0.23839025179526999 -0.1151992729885977 0 0.20666963866093291 -0.1113398018781358 0 0.23081911420975029 -0.091789222750733895 0 0.22056261316880149 -0.1108234873110058 0 0.23081911420975029 -0.091789222750733895 0 0.22056261316880149 -0.1108234873110058 0 0.23839025179526999 -0.1151992729885977 0 0.2184940671700534 -0.12394732724419751 0 0.22056261316880149 -0.1108234873110058 0 0.23839025179526999 -0.1151992729885977 0 0.2184940671700534 -0.12394732724419751 0 0.23839025179526999 -0.1151992729885977 0 0.22928680998153819 -0.13545484142638689 0 0.25915390151091949 -0.11811210275817149 0 0.25133622254172122 -0.13557462765415079 0 0.23839025179526999 -0.1151992729885977 0 0.25133622254172122 -0.13557462765415079 0 0.25208407187516418 -0.1419613505697605 0 0.23274332603383319 -0.13914027229300069 0 0.25133622254172122 -0.13557462765415079 0 0.23839025179526999 -0.1151992729885977 0 0.22928680998153819 -0.13545484142638689 0 0.25133622254172122 -0.13557462765415079 0 0.22928680998153819 -0.13545484142638689 0 0.25133622254172122 -0.13557462765415079 0 0.23274332603383319 -0.13914027229300069 0 0.22928680998153819 -0.13545484142638689 0 0.25208407187516418 -0.1419613505697605 0 0.23274332603383319 -0.13914027229300069 0 0.2530488896403309 -0.16079061319898569 0 0.23274332603383319 -0.13914027229300069 0 0.2530488896403309 -0.16079061319898569 0 0.23274332603383319 -0.13914027229300069 0 0.2334622085995452 -0.15779257262933219 0 0.2530488896403309 -0.16079061319898569 0 0.25208407187516418 -0.1419613505697605 0 0.23274332603383319 -0.13914027229300069 0 0.22694604844669111 -0.15137512496012309 0 0.2202725953444182 -0.1456731206256075 0 0.22100128495381829 -0.16152072110389429 0 0.22694604844669111 -0.15137512496012309 0 0.23274332603383319 -0.13914027229300069 0 0.2334622085995452 -0.15779257262933219 0 0.22694604844669111 -0.15137512496012309 0 0.2202725953444182 -0.1456731206256075 0 0.23274332603383319 -0.13914027229300069 0 0.23274332603383319 -0.13914027229300069 0 0.20959101376118139 -0.13576323162740581 0 0.22928680998153819 -0.13545484142638689 0 0.2116749968128239 -0.1353591630196288 0 0.23274332603383319 -0.13914027229300069 0 0.22928680998153819 -0.13545484142638689 0 0.2116749968128239 -0.1353591630196288 0 0.2184940671700534 -0.12394732724419751 0 0.22928680998153819 -0.13545484142638689 0 0.2116749968128239 -0.1353591630196288 0 0.2202725953444182 -0.1456731206256075 0 0.23274332603383319 -0.13914027229300069 0 0.20959101376118139 -0.13576323162740581 0 0.23274332603383319 -0.13914027229300069 0 0.22928680998153819 -0.13545484142638689 0 0.2184940671700534 -0.12394732724419751 0 0.22928680998153819 -0.13545484142638689 0 0.23274332603383319 -0.13914027229300069 0 0.20959101376118139 -0.13576323162740581 0 0.2116749968128239 -0.1353591630196288 0 0.20975191972323501 -0.12432290509972491 0 0.2116749968128239 -0.1353591630196288 0 0.19406318364410949 -0.13526348461287321 0 0.2184940671700534 -0.12394732724419751 0 0.20975191972323501 -0.12432290509972491 0 0.2116749968128239 -0.1353591630196288 0 0.20959101376118139 -0.13576323162740581 0 0.2116749968128239 -0.1353591630196288 0 0.19406318364410949 -0.13526348461287321 0 0.2202725953444182 -0.1456731206256075 0 0.21077041390333781 -0.15496976615408631 0 0.22100128495381829 -0.16152072110389429 0 0.2202725953444182 -0.1456731206256075 0 0.20959101376118139 -0.13576323162740581 0 0.21077041390333781 -0.15496976615408631 0 0.20959101376118139 -0.13576323162740581 0 0.21077041390333781 -0.15496976615408631 0 0.19406318364410949 -0.13526348461287321 0 0.21077041390333781 -0.15496976615408631 0 0.19019323353294471 -0.15547991582157239 0 0.19406318364410949 -0.13526348461287321 0 0.21077041390333781 -0.15496976615408631 0 0.19406318364410949 -0.13526348461287321 0 0.20975191972323501 -0.12432290509972491 0 0.1971408692894723 -0.1190539635876471 0 0.19406318364410949 -0.13526348461287321 0 0.2116749968128239 -0.1353591630196288 0 0.19406318364410949 -0.13526348461287321 0 0.2064216300685435 -0.1763378775815001 0 0.19333004299069351 -0.19482382871724169 0 0.185888281266576 -0.1738959907954824 0 0.21077041390333781 -0.15496976615408631 0 0.19019323353294471 -0.15547991582157239 0 0.2064216300685435 -0.1763378775815001 0 0.19019323353294471 -0.15547991582157239 0 0.2064216300685435 -0.1763378775815001 0 0.185888281266576 -0.1738959907954824 0 0.21077041390333781 -0.15496976615408631 0 0.2064216300685435 -0.1763378775815001 0 0.22100128495381829 -0.16152072110389429 0 0.2064216300685435 -0.1763378775815001 0 0.22637928715471201 -0.1750627007060517 0 0.22100128495381829 -0.16152072110389429 0 0.2064216300685435 -0.1763378775815001 0 0.22637928715471201 -0.1750627007060517 0 0.2213864998634191 -0.19074186604973761 0 0.22637928715471201 -0.1750627007060517 0 0.2363010186387848 -0.18586727398715949 0 0.2213864998634191 -0.19074186604973761 0 0.22637928715471201 -0.1750627007060517 0 0.22100128495381829 -0.16152072110389429 0 0.2334622085995452 -0.15779257262933219 0 0.22637928715471201 -0.1750627007060517 0 0.2334622085995452 -0.15779257262933219 0 0.24133419147104179 -0.17110858194103351 0 0.22694604844669111 -0.15137512496012309 0 0.22100128495381829 -0.16152072110389429 0 0.2334622085995452 -0.15779257262933219 0 0.2530488896403309 -0.16079061319898569 0 0.2334622085995452 -0.15779257262933219 0 0.24133419147104179 -0.17110858194103351 0 0.2550208565069661 -0.17514012483034949 0 0.2530488896403309 -0.16079061319898569 0 0.24133419147104179 -0.17110858194103351 0 0.22637928715471201 -0.1750627007060517 0 0.24133419147104179 -0.17110858194103351 0 0.2363010186387848 -0.18586727398715949 0 0.25030889548151403 -0.1837077448593728 0 0.2550208565069661 -0.17514012483034949 0 0.24133419147104179 -0.17110858194103351 0 0.25030889548151403 -0.1837077448593728 0 0.24133419147104179 -0.17110858194103351 0 0.2363010186387848 -0.18586727398715949 0 0.25030889548151403 -0.1837077448593728 0 0.2363010186387848 -0.18586727398715949 0 0.24624710011957149 -0.19756578472926509 0 0.2363010186387848 -0.18586727398715949 0 0.24624710011957149 -0.19756578472926509 0 0.23232272155890341 -0.19906227567560569 0 0.24624710011957149 -0.19756578472926509 0 0.2390873575194972 -0.2119906927462733 0 0.23232272155890341 -0.19906227567560569 0 0.25806059678156651 -0.21160485628964759 0 0.24624710011957149 -0.19756578472926509 0 0.2390873575194972 -0.2119906927462733 0 0.25806059678156651 -0.21160485628964759 0 0.2390873575194972 -0.2119906927462733 0 0.2485278721491469 -0.22983386195931649 0 0.22156570902884701 -0.2081716276760221 0 0.2275965143199381 -0.22680811778712909 0 0.21130945108473639 -0.22000441216527869 0 0.2390873575194972 -0.2119906927462733 0 0.22156570902884701 -0.2081716276760221 0 0.23232272155890341 -0.19906227567560569 0 0.2390873575194972 -0.2119906927462733 0 0.22156570902884701 -0.2081716276760221 0 0.2275965143199381 -0.22680811778712909 0 0.22156570902884701 -0.2081716276760221 0 0.2213864998634191 -0.19074186604973761 0 0.23232272155890341 -0.19906227567560569 0 0.2363010186387848 -0.18586727398715949 0 0.2213864998634191 -0.19074186604973761 0 0.23232272155890341 -0.19906227567560569 0 0.2410490216361528 -0.25300372010805161 0 0.2485278721491469 -0.22983386195931649 0 0.2275965143199381 -0.22680811778712909 0 0.25787859859726192 -0.24372773219337371 0 0.2410490216361528 -0.25300372010805161 0 0.2485278721491469 -0.22983386195931649 0 0.2390873575194972 -0.2119906927462733 0 0.2485278721491469 -0.22983386195931649 0 0.2275965143199381 -0.22680811778712909 0 0.2410490216361528 -0.25300372010805161 0 0.2275965143199381 -0.22680811778712909 0 0.2136455624920251 -0.24586339942155419 0 0.2410490216361528 -0.25300372010805161 0 0.2136455624920251 -0.24586339942155419 0 0.2136455624920251 -0.24586339942155419 0 0.1995187067769538 -0.22648505830905971 0 0.1970165427207646 -0.2431475676051908 0 0.2275965143199381 -0.22680811778712909 0 0.2136455624920251 -0.24586339942155419 0 0.21130945108473639 -0.22000441216527869 0 0.2136455624920251 -0.24586339942155419 0 0.21130945108473639 -0.22000441216527869 0 0.1995187067769538 -0.22648505830905971 0 0.1995187067769538 -0.22648505830905971 0 0.1970165427207646 -0.2431475676051908 0 0.1843931124890181 -0.23269732176232691 0 0.21130945108473639 -0.22000441216527869 0 0.1995187067769538 -0.22648505830905971 0 0.19847161958806309 -0.21206345826637629 0 0.2064216300685435 -0.1763378775815001 0 0.2213864998634191 -0.19074186604973761 0 0.20705859430259141 -0.20063481153153051 0 0.22156570902884701 -0.2081716276760221 0 0.2213864998634191 -0.19074186604973761 0 0.20705859430259141 -0.20063481153153051 0 0.22156570902884701 -0.2081716276760221 0 0.21130945108473639 -0.22000441216527869 0 0.20705859430259141 -0.20063481153153051 0 0.21130945108473639 -0.22000441216527869 0 0.20705859430259141 -0.20063481153153051 0 0.19847161958806309 -0.21206345826637629 0 0.19847161958806309 -0.21206345826637629 0 0.19333004299069351 -0.19482382871724169 0 0.184507054165965 -0.21658659277756609 0 0.1995187067769538 -0.22648505830905971 0 0.19847161958806309 -0.21206345826637629 0 0.184507054165965 -0.21658659277756609 0 0.20705859430259141 -0.20063481153153051 0 0.19847161958806309 -0.21206345826637629 0 0.19333004299069351 -0.19482382871724169 0 0.2064216300685435 -0.1763378775815001 0 0.20705859430259141 -0.20063481153153051 0 0.19333004299069351 -0.19482382871724169 0 0.1776330785524223 -0.18942424135099509 0 0.184507054165965 -0.21658659277756609 0 0.16837846483810831 -0.20319749351435479 0 0.19333004299069351 -0.19482382871724169 0 0.1776330785524223 -0.18942424135099509 0 0.184507054165965 -0.21658659277756609 0 0.1776330785524223 -0.18942424135099509 0 0.184507054165965 -0.21658659277756609 0 0.184507054165965 -0.21658659277756609 0 0.1749867686249286 -0.21735889230250449 0 0.16837846483810831 -0.20319749351435479 0 0.1749867686249286 -0.21735889230250449 0 0.16837846483810831 -0.20319749351435479 0 0.15045483047290331 -0.2082327262959493 0 0.1749867686249286 -0.21735889230250449 0 0.15045483047290331 -0.2082327262959493 0 0.1749867686249286 -0.21735889230250449 0 0.16226861639455931 -0.22172210758959859 0 0.15045483047290331 -0.2082327262959493 0 0.16837846483810831 -0.20319749351435479 0 0.15045483047290331 -0.2082327262959493 0 0.15431059237432221 -0.18438501484475869 0 0.1776330785524223 -0.18942424135099509 0 0.16837846483810831 -0.20319749351435479 0 0.15431059237432221 -0.18438501484475869 0 0.1970165427207646 -0.2431475676051908 0 0.18013525364959199 -0.24590787480667409 0 0.1843931124890181 -0.23269732176232691 0 0.18013525364959199 -0.24590787480667409 0 0.1843931124890181 -0.23269732176232691 0 0.17030829067285161 -0.2305872157882054 0 0.1995187067769538 -0.22648505830905971 0 0.1749867686249286 -0.21735889230250449 0 0.1995187067769538 -0.22648505830905971 0 0.1749867686249286 -0.21735889230250449 0 0.1843931124890181 -0.23269732176232691 0 0.1995187067769538 -0.22648505830905971 0 0.184507054165965 -0.21658659277756609 0 0.1749867686249286 -0.21735889230250449 0 0.1749867686249286 -0.21735889230250449 0 0.1843931124890181 -0.23269732176232691 0 0.17030829067285161 -0.2305872157882054 0 0.16226861639455931 -0.22172210758959859 0 0.17030829067285161 -0.2305872157882054 0 0.15332457580755371 -0.23070959597173549 0 0.1749867686249286 -0.21735889230250449 0 0.16226861639455931 -0.22172210758959859 0 0.17030829067285161 -0.2305872157882054 0 0.16103468924722281 -0.25381861710109321 0 0.18013525364959199 -0.24590787480667409 0 0.17030829067285161 -0.2305872157882054 0 0.16103468924722281 -0.25381861710109321 0 0.17030829067285161 -0.2305872157882054 0 0.15332457580755371 -0.23070959597173549 0 0.16103468924722281 -0.25381861710109321 0 0.1412434604122122 -0.24631040783256791 0 0.15332457580755371 -0.23070959597173549 0 0.1412434604122122 -0.24631040783256791 0 0.15332457580755371 -0.23070959597173549 0 0.1284413173888232 -0.22347585252773641 0 0.15332457580755371 -0.23070959597173549 0 0.1284413173888232 -0.22347585252773641 0 0.15045483047290331 -0.2082327262959493 0 0.16226861639455931 -0.22172210758959859 0 0.15332457580755371 -0.23070959597173549 0 0.15045483047290331 -0.2082327262959493 0 0.1200034520355143 -0.24749468667538321 0 0.1412434604122122 -0.24631040783256791 0 0.1284413173888232 -0.22347585252773641 0 0.15045483047290331 -0.2082327262959493 0 0.12592289232087811 -0.19910656028939411 0 0.15431059237432221 -0.18438501484475869 0 0.15045483047290331 -0.2082327262959493 0 0.12592289232087811 -0.19910656028939411 0 0.1284413173888232 -0.22347585252773641 0 0.15045483047290331 -0.2082327262959493 0 0.12592289232087811 -0.19910656028939411 0 0.11404320040195411 -0.17785048998131209 0 0.12592289232087811 -0.19910656028939411 0 0.1362427207560932 -0.1734399905344442 0 0.12592289232087811 -0.19910656028939411 0 0.1362427207560932 -0.1734399905344442 0 0.15431059237432221 -0.18438501484475869 0 0.1362427207560932 -0.1734399905344442 0 0.15431059237432221 -0.18438501484475869 0 0.1498051255961938 -0.157092757972084 0 0.11404320040195411 -0.17785048998131209 0 0.1362427207560932 -0.1734399905344442 0 0.1305387904294309 -0.15561497697083931 0 0.1362427207560932 -0.1734399905344442 0 0.1498051255961938 -0.157092757972084 0 0.1305387904294309 -0.15561497697083931 0 0.1498051255961938 -0.157092757972084 0 0.1305387904294309 -0.15561497697083931 0 0.13638976604354719 -0.13495016646355951 0 0.1161887790728692 -0.1476769396888597 0 0.1305387904294309 -0.15561497697083931 0 0.13638976604354719 -0.13495016646355951 0 0.12800820934211829 -0.12401417466047961 0 0.13638976604354719 -0.13495016646355951 0 0.1486045981545247 -0.12747252536747111 0 0.13638976604354719 -0.13495016646355951 0 0.16388512732533739 -0.13509953849785281 0 0.13638976604354719 -0.13495016646355951 0 0.1486045981545247 -0.12747252536747111 0 0.16388512732533739 -0.13509953849785281 0 0.1498051255961938 -0.157092757972084 0 0.13638976604354719 -0.13495016646355951 0 0.16388512732533739 -0.13509953849785281 0 0.16388512732533739 -0.13509953849785281 0 0.17075910293887969 -0.16226188992442411 0 0.1498051255961938 -0.157092757972084 0 0.16388512732533739 -0.13509953849785281 0 0.17075910293887969 -0.16226188992442411 0 0.18014950107347269 -0.1188522098678762 0 0.16265603278097029 -0.1302428005884553 0 0.16388512732533739 -0.13509953849785281 0 0.16095359288685571 -0.1184472051676727 0 0.1486045981545247 -0.12747252536747111 0 0.16265603278097029 -0.1302428005884553 0 0.1486045981545247 -0.12747252536747111 0 0.16265603278097029 -0.1302428005884553 0 0.16388512732533739 -0.13509953849785281 0 0.16265603278097029 -0.1302428005884553 0 0.16388512732533739 -0.13509953849785281 0 0.19406318364410949 -0.13526348461287321 0 0.16388512732533739 -0.13509953849785281 0 0.18014950107347269 -0.1188522098678762 0 0.19406318364410949 -0.13526348461287321 0 0.18014950107347269 -0.1188522098678762 0 0.19406318364410949 -0.13526348461287321 0 0.16388512732533739 -0.13509953849785281 0 0.19019323353294471 -0.15547991582157239 0 0.16388512732533739 -0.13509953849785281 0 0.17075910293887969 -0.16226188992442411 0 0.19019323353294471 -0.15547991582157239 0 0.19406318364410949 -0.13526348461287321 0 0.16388512732533739 -0.13509953849785281 0 0.19019323353294471 -0.15547991582157239 0 0.185888281266576 -0.1738959907954824 0 0.17075910293887969 -0.16226188992442411 0 0.1776330785524223 -0.18942424135099509 0 0.185888281266576 -0.1738959907954824 0 0.17075910293887969 -0.16226188992442411 0 0.1776330785524223 -0.18942424135099509 0 0.17075910293887969 -0.16226188992442411 0 0.19333004299069351 -0.19482382871724169 0 0.1776330785524223 -0.18942424135099509 0 0.185888281266576 -0.1738959907954824 0 0.1776330785524223 -0.18942424135099509 0 0.15431059237432221 -0.18438501484475869 0 0.17075910293887969 -0.16226188992442411 0 0.15431059237432221 -0.18438501484475869 0 0.1498051255961938 -0.157092757972084 0 0.17075910293887969 -0.16226188992442411 0 
</DataArray>
</Points>
<Cells>
<DataArray type="UInt32" Name="connectivity" format="ascii">
0 1 2 3 4 5 6 7 8 9 10 11 12 13 14 15 16 17 18 19 20 21 22 23 24 25 26 27 28 29 30 31 32 33 34 35 36 37 38 39 40 41 42 43 44 45 46 47 48 49 50 51 52 53 54 55 56 57 58 59 60 61 62 63 64 65 66 67 68 69 70 71 72 73 74 75 76 77 78 79 80 81 82 83 84 85 86 87 88 89 90 91 92 93 94 95 96 97 98 99 100 101 102 103 104 105 106 107 108 109 110 111 112 113 114 115 116 117 118 119 120 121 122 123 124 125 126 127 128 129 130 131 132 133 134 135 136 137 138 139 140 141 142 143 144 145 146 147 148 149 150 151 152 153 154 155 156 157 158 159 160 161 162 163 164 165 166 167 168 169 170 171 172 173 174 175 176 177 178 179 180 181 182 183 184 185 186 187 188 189 190 191 192 193 194 195 196 197 198 199 200 201 202 203 204 205 206 207 208 209 210 211 212 213 214 215 216 217 218 219 220 221 222 223 224 225 226 227 228 229 230 231 232 233 234 235 236 237 238 239 240 241 242 243 244 245 246 247 248 249 250 251 252 253 254 255 256 257 258 259 260 261 262 263 264 265 266 267 268 269 270 271 272 273 274 275 276 277 278 279 280 281 282 283 284 285 286 287 288 289 290 291 292 293 294 295 296 297 298 299 300 301 302 303 304 305 306 307 308 309 310 311 312 313 314 315 316 317 318 319 320 321 322 323 324 325 326 327 328 329 330 331 332 333 334 335 336 337 338 339 340 341 342 343 344 345 346 347 348 349 350 351 352 353 354 355 356 357 358 359 360 361 362 363 364 365 366 367 368 369 370 371 372 373 374 375 376 377 378 379 380 381 382 383 384 385 386 387 388 389 390 391 392 393 394 395 396 397 398 399 400 401 402 403 404 405 406 407 408 409 410 411 412 413 414 415 416 417 418 419 420 421 422 423 424 425 426 427 428 429 430 431 432 433 434 435 436 437 438 439 440 441 442 443 444 445 446 447 448 449 450 451 452 453 454 455 456 457 458 459 460 461 462 463 464 465 466 467 468 469 470 471 472 473 474 475 476 477 478 479 480 481 482 483 484 485 486 487 488 489 490 491 492 493 494 495 496 497 498 499 500 501 502 503 504 505 506 507 508 509 510 511 512 513 514 515 516 517 518 519 520 521 522 523 524 525 526 527 528 529 530 531 532 533 534 535 536 537 538 539 540 541 542 543 544 545 546 547 548 549 550 551 552 553 554 555 556 557 558 559 560 561 562 563 564 565 566 567 568 569 570 571 572 573 574 575 576 577 578 579 580 581 582 583 584 585 586 587 588 589 590 591 592 593 594 595 596 597 598 599 600 601 602 603 604 605 606 607 608 609 610 611 612 613 614 615 616 617 618 619 620 621 622 623 624 625 626 627 628 629 630 631 632 633 634 635 636 637 638 639 640 641 642 643 644 645 646 647 648 649 650 651 652 653 654 655 656 657 658 659 660 661 662 663 664 665 666 667 668 669 670 671 672 673 674 675 676 677 678 679 680 681 682 683 684 685 686 687 688 689 690 691 692 693 694 695 696 697 698 699 700 701 702 703 704 705 706 707 708 709 710 711 712 713 714 715 716 717 718 719 720 721 722 723 724 725 726 727 728 729 730 731 732 733 734 735 736 737 738 739 740 741 742 743 744 745 746 747 748 749 750 751 752 753 754 755 756 757 758 759 760 761 762 763 764 765 766 767 768 769 770 771 772 773 774 775 776 777 778 779 780 781 782 783 784 785 786 787 788 789 790 791 792 793 794 795 796 797 798 799 800 801 802 803 804 805 806 807 808 809 810 811 812 813 814 815 816 817 818 819 820 821 822 823 824 825 826 827 828 829 830 831 832 833 834 835 836 837 838 839 840 841 842 843 844 845 846 847 848 849 850 851 852 853 854 855 856 857 858 859 860 861 862 863 864 865 866 867 868 869 870 871 872 873 874 875 876 877 878 879 880 881 882 883 884 885 886 887 888 889 890 891 892 893 894 895 896 897 898 899 900 901 902 903 904 905 906 907 908 909 910 911 912 913 914 915 916 917 918 919 920 921 922 923 924 925 926 927 928 929 930 931 932 933 934 935 936 937 938 939 940 941 942 943 944 945 946 947 948 949 950 951 952 953 954 955 956 957 958 959 960 961 962 963 964 965 966 967 968 969 970 971 972 973 974 975 976 977 978 979 980 981 982 983 984 985 986 987 988 989 990 991 992 993 994 995 996 997 998 999 1000 1001 1002 1003 1004 1005 1006 1007 1008 1009 1010 1011 1012 1013 1014 1015 1016 1017 1018 1019 1020 1021 1022 1023 1024 1025 1026 1027 1028 1029 1030 1031 1032 1033 1034 1035 1036 1037 1038 1039 1040 1041 1042 1043 1044 1045 1046 1047 1048 1049 1050 1051 1052 1053 1054 1055 1056 1057 1058 1059 1060 1061 1062 1063 1064 1065 1066 1067 1068 1069 1070 1071 1072 1073 1074 1075 1076 1077 1078 1079 1080 1081 1082 1083 1084 1085 1086 1087 1088 1089 1090 1091 1092 1093 1094 1095 1096 1097 1098 1099 1100 1101 1102 1103 1104 1105 1106 1107 1108 1109 1110 1111 1112 1113 1114 1115 1116 1117 1118 1119 1120 1121 1122 1123 1124 1125 1126 1127 1128 1129 1130 1131 1132 1133 1134 1135 1136 1137 1138 1139 1140 1141 1142 1143 1144 1145 1146 1147 1148 1149 1150 1151 1152 1153 1154 1155 1156 1157 1158 1159 1160 1161 1162 1163 1164 1165 1166 1167 1168 1169 1170 1171 1172 1173 1174 1175 1176 1177 1178 1179 1180 1181 1182 1183 1184 1185 1186 1187 1188 1189 1190 1191 1192 1193 1194 1195 1196 1197 1198 1199 1200 1201 1202 1203 1204 1205 1206 1207 1208 1209 1210 1211 1212 1213 1214 1215 1216 1217 1218 1219 1220 1221 1222 1223 1224 1225 1226 1227 1228 1229 1230 1231 1232 1233 1234 1235 1236 1237 1238 1239 1240 1241 1242 1243 1244 1245 1246 1247 1248 1249 1250 1251 1252 1253 1254 1255 1256 1257 1258 1259 1260 1261 1262 1263 1264 1265 1266 1267 1268 1269 1270 1271 1272 1273 1274 1275 1276 1277 1278 1279 1280 1281 1282 1283 1284 1285 1286 1287 1288 1289 1290 1291 1292 1293 1294 1295 1296 1297 1298 1299 1300 1301 1302 1303 1304 1305 1306 1307 1308 1309 1310 1311 1312 1313 1314 1315 1316 1317 1318 1319 1320 1321 1322 1323 1324 1325 1326 1327 1328 1329 1330 1331 1332 1333 1334 1335 1336 1337 1338 1339 1340 1341 1342 1343 1344 1345 1346 1347 1348 1349 1350 1351 1352 1353 1354 1355 1356 1357 1358 1359 1360 1361 1362 1363 1364 1365 1366 1367 1368 1369 1370 1371 1372 1373 1374 1375 1376 1377 1378 1379 1380 1381 1382 1383 1384 1385 1386 1387 1388 1389 1390 1391 1392 1393 1394 1395 1396 1397 1398 1399 1400 1401 1402 1403 1404 1405 1406 1407 1408 1409 1410 1411 1412 1413 1414 1415 1416 1417 1418 1419 1420 1421 1422 1423 1424 1425 1426 1427 1428 1429 1430 1431 1432 1433 1434 1435 1436 1437 1438 1439 1440 1441 1442 1443 1444 1445 1446 1447 1448 1449 1450 1451 1452 1453 1454 1455 1456 1457 1458 1459 1460 1461 1462 1463 1464 1465 1466 1467 1468 1469 1470 1471 1472 1473 1474 1475 1476 1477 1478 1479 1480 1481 1482 1483 1484 1485 1486 1487 1488 1489 1490 1491 1492 1493 1494 1495 1496 1497 1498 1499 1500 1501 1502 1503 1504 1505 1506 1507 1508 1509 1510 1511 1512 1513 1514 1515 1516 1517 1518 1519 1520 1521 1522 1523 1524 1525 1526 1527 1528 1529 1530 1531 1532 1533 1534 1535 1536 1537 1538 1539 1540 1541 1542 1543 1544 1545 1546 1547 1548 1549 1550 1551 1552 1553 1554 1555 1556 1557 1558 1559 1560 1561 1562 1563 1564 1565 1566 1567 1568 1569 1570 1571 1572 1573 1574 1575 1576 1577 1578 1579 1580 1581 1582 1583 1584 1585 1586 1587 1588 1589 1590 1591 1592 1593 1594 1595 1596 1597 1598 1599 1600 1601 1602 1603 1604 1605 1606 1607 1608 1609 1610 1611 1612 1613 1614 1615 1616 1617 1618 1619 1620 1621 1622 1623 1624 1625 1626 1627 1628 1629 1630 1631 1632 1633 1634 1635 1636 1637 1638 1639 1640 1641 1642 1643 1644 1645 1646 1647 1648 1649 1650 1651 1652 1653 1654 1655 1656 1657 1658 1659 1660 1661 1662 1663 1664 1665 1666 1667 1668 1669 1670 1671 1672 1673 1674 1675 1676 1677 1678 1679 1680 1681 1682 1683 1684 1685 1686 1687 1688 1689 1690 1691 1692 1693 1694 1695 1696 1697 1698 1699 1700 1701 1702 1703 1704 1705 1706 1707 1708 1709 1710 1711 1712 1713 1714 1715 1716 1717 1718 1719 1720 1721 1722 1723 1724 1725 1726 1727 1728 1729 1730 1731 1732 1733 1734 1735 1736 1737 1738 1739 1740 1741 1742 1743 1744 1745 1746 1747 1748 1749 1750 1751 1752 1753 1754 1755 1756 1757 1758 1759 1760 1761 1762 1763 1764 1765 1766 1767 1768 1769 1770 1771 1772 1773 1774 1775 1776 1777 1778 1779 1780 1781 1782 1783 1784 1785 1786 1787 1788 1789 1790 1791 1792 1793 1794 1795 1796 1797 1798 1799 1800 1801 1802 1803 1804 1805 1806 1807 1808 1809 1810 1811 1812 1813 1814 1815 1816 1817 1818 1819 1820 1821 1822 1823 1824 1825 1826 1827 1828 1829 1830 1831 1832 1833 1834 1835 1836 1837 1838 1839 1840 1841 1842 1843 1844 1845 1846 1847 1848 1849 1850 1851 1852 1853 1854 1855 1856 1857 1858 1859 1860 1861 1862 1863 1864 1865 1866 1867 1868 1869 1870 1871 1872 1873 1874 1875 1876 1877 1878 1879 1880 1881 1882 1883 1884 1885 1886 1887 1888 1889 1890 1891 1892 1893 1894 1895 1896 1897 1898 1899 1900 1901 1902 1903 1904 1905 1906 1907 1908 1909 1910 1911 1912 1913 1914 1915 1916 1917 1918 1919 1920 1921 1922 1923 1924 1925 1926 1927 1928 1929 1930 1931 1932 1933 1934 1935 1936 1937 1938 1939 1940 1941 1942 1943 1944 1945 1946 1947 1948 1949 1950 1951 1952 1953 1954 1955 1956 1957 1958 1959 1960 1961 1962 1963 1964 1965 1966 1967 1968 1969 1970 1971 1972 1973 1974 1975 1976 1977 1978 1979 1980 1981 1982 1983 1984 1985 1986 1987 1988 1989 1990 1991 1992 1993 1994 1995 1996 1997 1998 1999 2000 2001 2002 2003 2004 2005 2006 2007 2008 2009 2010 2011 2012 2013 2014 2015 2016 2017 2018 2019 2020 2021 2022 2023 2024 2025 2026 2027 2028 2029 2030 2031 2032 2033 2034 2035 2036 2037 2038 2039 2040 2041 2042 2043 2044 2045 2046 2047 2048 2049 2050 2051 2052 2053 2054 2055 2056 2057 2058 2059 2060 2061 2062 2063 2064 2065 2066 2067 2068 2069 2070 2071 2072 2073 2074 2075 2076 2077 2078 2079 2080 2081 2082 2083 2084 2085 2086 2087 2088 2089 2090 2091 2092 2093 2094 2095 2096 2097 2098 2099 2100 2101 2102 2103 2104 2105 2106 2107 2108 2109 2110 2111 2112 2113 2114 2115 2116 2117 2118 2119 2120 2121 2122 2123 2124 2125 2126 2127 2128 2129 2130 2131 2132 2133 2134 2135 2136 2137 2138 2139 2140 2141 2142 2143 2144 2145 2146 2147 2148 2149 2150 2151 2152 2153 2154 2155 2156 2157 2158 2159 2160 2161 2162 2163 2164 2165 2166 2167 2168 2169 2170 2171 2172 2173 2174 2175 2176 2177 2178 2179 2180 2181 2182 2183 2184 2185 2186 2187 2188 2189 2190 2191 2192 2193 2194 2195 2196 2197 2198 2199 2200 2201 2202 2203 2204 2205 2206 2207 2208 2209 2210 2211 2212 2213 2214 2215 2216 2217 2218 2219 2220 2221 2222 2223 2224 2225 2226 2227 2228 2229 2230 2231 2232 2233 2234 2235 2236 2237 2238 2239 2240 2241 2242 2243 2244 2245 2246 2247 2248 2249 2250 2251 2252 2253 2254 2255 2256 2257 2258 2259 2260 2261 2262 2263 2264 2265 2266 2267 2268 2269 2270 2271 2272 2273 2274 2275 2276 2277 2278 2279 2280 2281 2282 2283 2284 2285 2286 2287 2288 2289 2290 2291 2292 2293 2294 2295 2296 2297 2298 2299 2300 2301 2302 2303 2304 2305 2306 2307 2308 2309 2310 2311 2312 2313 2314 2315 2316 2317 2318 2319 2320 2321 2322 2323 2324 2325 2326 2327 2328 2329 2330 2331 2332 2333 2334 2335 2336 2337 2338 2339 2340 2341 2342 2343 2344 2345 2346 2347 2348 2349 2350 2351 2352 2353 2354 2355 2356 2357 2358 2359 2360 2361 2362 2363 2364 2365 2366 2367 2368 2369 2370 2371 2372 2373 2374 2375 2376 2377 2378 2379 2380 2381 2382 2383 2384 2385 2386 2387 2388 2389 2390 2391 2392 2393 2394 2395 2396 2397 2398 2399 2400 2401 2402 2403 2404 2405 2406 2407 2408 2409 2410 2411 2412 2413 2414 2415 2416 2417 2418 2419 2420 2421 2422 2423 2424 2425 2426 2427 2428 2429 2430 2431 2432 2433 2434 2435 2436 2437 2438 2439 2440 2441 2442 2443 2444 2445 2446 2447 2448 2449 2450 2451 2452 2453 2454 2455 2456 2457 2458 2459 2460 2461 2462 2463 2464 2465 2466 2467 2468 2469 2470 2471 2472 2473 2474 2475 2476 2477 2478 2479 2480 2481 2482 2483 2484 2485 2486 2487 2488 2489 2490 2491 2492 2493 2494 2495 2496 2497 2498 2499 2500 2501 2502 2503 2504 2505 2506 2507 2508 2509 2510 2511 2512 2513 2514 2515 2516 2517 2518 2519 2520 2521 2522 2523 2524 2525 2526 2527 2528 2529 2530 2531 2532 2533 2534 2535 2536 2537 2538 2539 2540 2541 2542 2543 2544 2545 2546 2547 2548 2549 2550 2551 2552 2553 2554 2555 2556 2557 2558 2559 2560 2561 2562 2563 2564 2565 2566 2567 2568 2569 2570 2571 2572 2573 2574 2575 2576 2577 2578 2579 2580 2581 2582 2583 2584 2585 2586 2587 2588 2589 2590 2591 2592 2593 2594 2595 2596 2597 2598 2599 2600 2601 2602 2603 2604 2605 2606 2607 2608 2609 2610 2611 2612 2613 2614 2615 2616 2617 2618 2619 2620 2621 2622 2623 2624 2625 2626 2627 2628 2629 2630 2631 2632 2633 2634 2635 2636 2637 2638 2639 2640 2641 2642 2643 2644 2645 2646 2647 2648 2649 2650 2651 2652 2653 2654 2655 2656 2657 2658 2659 2660 2661 2662 2663 2664 2665 2666 2667 2668 2669 2670 2671 2672 2673 2674 2675 2676 2677 2678 2679 2680 2681 2682 2683 2684 2685 2686 2687 2688 2689 2690 2691 2692 2693 2694 2695 2696 2697 2698 2699 2700 2701 2702 2703 2704 2705 2706 2707 2708 2709 2710 2711 2712 2713 2714 2715 2716 2717 2718 2719 2720 2721 2722 2723 2724 2725 2726 2727 2728 2729 2730 2731 2732 2733 2734 2735 2736 2737 2738 2739 2740 2741 2742 2743 2744 2745 2746 2747 2748 2749 2750 2751 2752 2753 2754 2755 2756 2757 2758 2759 2760 2761 2762 2763 2764 2765 2766 2767 2768 2769 2770 2771 2772 2773 2774 2775 2776 2777 2778 2779 2780 2781 2782 2783 2784 2785 2786 2787 2788 2789 2790 2791 2792 2793 2794 2795 2796 2797 2798 2799 2800 2801 2802 2803 2804 2805 2806 2807 2808 2809 2810 2811 2812 2813 2814 2815 2816 2817 2818 2819 2820 2821 2822 2823 2824 2825 2826 2827 2828 2829 2830 2831 2832 2833 2834 2835 2836 2837 2838 2839 2840 2841 2842 2843 2844 2845 2846 2847 2848 2849 2850 2851 2852 2853 2854 2855 2856 2857 2858 2859 2860 2861 2862 2863 2864 2865 2866 2867 2868 2869 2870 2871 2872 2873 2874 2875 2876 2877 2878 2879 2880 2881 2882 2883 2884 2885 2886 2887 2888 2889 2890 2891 2892 2893 2894 2895 2896 2897 2898 2899 2900 2901 2902 2903 2904 2905 2906 2907 2908 2909 2910 2911 2912 2913 2914 2915 2916 2917 2918 2919 2920 2921 2922 2923 2924 2925 2926 2927 2928 2929 2930 2931 2932 2933 2934 2935 2936 2937 2938 2939 2940 2941 2942 2943 2944 2945 2946 2947 2948 2949 2950 2951 2952 2953 2954 2955 2956 2957 2958 2959 2960 2961 2962 2963 2964 2965 2966 2967 2968 2969 2970 2971 2972 2973 2974 2975 2976 2977 2978 2979 2980 2981 2982 2983 2984 2985 2986 2987 2988 2989 2990 2991 2992 2993 2994 2995 2996 2997 2998 2999 3000 3001 3002 3003 3004 3005 3006 3007 3008 3009 3010 3011 3012 3013 3014 3015 3016 3017 3018 3019 3020 3021 3022 3023 3024 3025 3026 3027 3028 3029 3030 3031 3032 3033 3034 3035 3036 3037 3038 3039 3040 3041 3042 3043 3044 3045 3046 3047 3048 3049 3050 3051 3052 3053 3054 3055 3056 3057 3058 3059 3060 3061 3062 3063 3064 3065 3066 3067 3068 3069 3070 3071 3072 3073 3074 3075 3076 3077 3078 3079 3080 3081 3082 3083 3084 3085 3086 3087 3088 3089 3090 3091 3092 3093 3094 3095 3096 3097 3098 3099 3100 3101 3102 3103 3104 3105 3106 3107 3108 3109 3110 3111 3112 3113 3114 3115 3116 3117 3118 3119 3120 3121 3122 3123 3124 3125 3126 3127 3128 3129 3130 3131 3132 3133 3134 3135 3136 3137 3138 3139 3140 3141 3142 3143 3144 3145 3146 3147 3148 3149 3150 3151 3152 3153 3154 3155 3156 3157 3158 3159 3160 3161 3162 3163 3164 3165 3166 3167 3168 3169 3170 3171 3172 3173 3174 3175 3176 3177 3178 3179 3180 3181 3182 3183 3184 3185 3186 3187 3188 3189 3190 3191 3192 3193 3194 3195 3196 3197 3198 3199 3200 3201 3202 3203 3204 3205 3206 3207 3208 3209 3210 3211 3212 3213 3214 3215 3216 3217 3218 3219 3220 3221 3222 3223 3224 3225 3226 3227 3228 3229 3230 3231 3232 3233 3234 3235 3236 3237 3238 3239 3240 3241 3242 3243 3244 3245 3246 3247 3248 3249 3250 3251 3252 3253 3254 3255 3256 3257 3258 3259 3260 3261 3262 3263 3264 3265 3266 3267 3268 3269 3270 3271 3272 3273 3274 3275 3276 3277 3278 3279 3280 3281 3282 3283 3284 3285 3286 3287 3288 3289 3290 3291 3292 3293 3294 3295 3296 3297 3298 3299 3300 3301 3302 3303 3304 3305 3306 3307 3308 3309 3310 3311 3312 3313 3314 3315 3316 3317 3318 3319 3320 3321 3322 3323 3324 3325 3326 3327 3328 3329 3330 3331 3332 3333 3334 3335 3336 3337 3338 3339 3340 3341 3342 3343 3344 3345 3346 3347 3348 3349 3350 3351 3352 3353 3354 3355 3356 3357 3358 3359 3360 3361 3362 3363 3364 3365 3366 3367 3368 3369 3370 3371 3372 3373 3374 3375 3376 3377 3378 3379 3380 3381 3382 3383 3384 3385 3386 3387 3388 3389 3390 3391 3392 3393 3394 3395 3396 3397 3398 3399 3400 3401 3402 3403 3404 3405 3406 3407 3408 3409 3410 3411 3412 3413 3414 3415 3416 3417 3418 3419 3420 3421 3422 3423 3424 3425 3426 3427 3428 3429 3430 3431 3432 3433 3434 3435 3436 3437 3438 3439 3440 3441 3442 3443 3444 3445 3446 3447 3448 3449 3450 3451 3452 3453 3454 3455 3456 3457 3458 3459 3460 3461 3462 3463 3464 3465 3466 3467 3468 3469 3470 3471 3472 3473 3474 3475 3476 3477 3478 3479 3480 3481 3482 3483 3484 3485 3486 3487 3488 3489 3490 3491 3492 3493 3494 3495 3496 3497 3498 3499 3500 3501 3502 3503 3504 3505 3506 3507 3508 3509 3510 3511 3512 3513 3514 3515 3516 3517 3518 3519 3520 3521 3522 3523 3524 3525 3526 3527 3528 3529 3530 3531 3532 3533 3534 3535 3536 3537 3538 3539 3540 3541 3542 3543 3544 3545 3546 3547 3548 3549 3550 3551 3552 3553 3554 3555 3556 3557 3558 3559 3560 3561 3562 3563 3564 3565 3566 3567 3568 3569 3570 3571 3572 3573 3574 3575 3576 3577 3578 3579 3580 3581 3582 3583 3584 3585 3586 3587 3588 3589 3590 3591 3592 3593 3594 3595 3596 3597 3598 3599 3600 3601 3602 3603 3604 3605 3606 3607 3608 3609 3610 3611 3612 3613 3614 3615 3616 3617 3618 3619 3620 3621 3622 3623 3624 3625 3626 3627 3628 3629 3630 3631 3632 3633 3634 3635 3636 3637 3638 3639 3640 3641 3642 3643 3644 3645 3646 3647 3648 3649 3650 3651 3652 3653 3654 3655 3656 3657 3658 3659 3660 3661 3662 3663 3664 3665 3666 3667 3668 3669 3670 3671 3672 3673 3674 3675 3676 3677 3678 3679 3680 3681 3682 3683 3684 3685 3686 3687 3688 3689 3690 3691 3692 3693 3694 3695 3696 3697 3698 3699 3700 3701 3702 3703 3704 3705 3706 3707 3708 3709 3710 3711 3712 3713 3714 3715 3716 3717 3718 3719 3720 3721 3722 3723 3724 3725 3726 3727 3728 3729 3730 3731 3732 3733 3734 3735 3736 3737 3738 3739 3740 3741 3742 3743 3744 3745 3746 3747 3748 3749 3750 3751 3752 3753 3754 3755 3756 3757 3758 3759 3760 3761 3762 3763 3764 3765 3766 3767 3768 3769 3770 3771 3772 3773 3774 3775 3776 3777 3778 3779 3780 3781 3782 3783 3784 3785 3786 3787 3788 3789 3790 3791 3792 3793 3794 3795 3796 3797 3798 3799 3800 3801 3802 3803 3804 3805 3806 3807 3808 3809 3810 3811 3812 3813 3814 3815 3816 3817 3818 3819 3820 3821 3822 3823 3824 3825 3826 3827 3828 3829 3830 3831 3832 3833 3834 3835 3836 3837 3838 3839 3840 3841 3842 3843 3844 3845 3846 3847 3848 3849 3850 3851 3852 3853 3854 3855 3856 3857 3858 3859 3860 3861 3862 3863 3864 3865 3866 3867 3868 3869 3870 3871 3872 3873 3874 3875 3876 3877 3878 3879 3880 3881 3882 3883 3884 3885 3886 3887 3888 3889 3890 3891 3892 3893 3894 3895 3896 3897 3898 3899 3900 3901 3902 3903 3904 3905 3906 3907 3908 3909 3910 3911 3912 3913 3914 3915 3916 3917 3918 3919 3920 3921 3922 3923 3924 3925 3926 3927 3928 3929 3930 3931 3932 3933 3934 3935 3936 3937 3938 3939 3940 3941 3942 3943 3944 3945 3946 3947 3948 3949 3950 3951 3952 3953 3954 3955 3956 3957 3958 3959 3960 3961 3962 3963 3964 3965 3966 3967 3968 3969 3970 3971 3972 3973 3974 3975 3976 3977 3978 3979 3980 3981 3982 3983 3984 3985 3986 3987 3988 3989 3990 3991 3992 3993 3994 3995 3996 3997 3998 3999 4000 4001 4002 4003 4004 4005 4006 4007 4008 4009 4010 4011 4012 4013 4014 4015 4016 4017 4018 4019 4020 4021 4022 4023 4024 4025 4026 4027 4028 4029 4030 4031 4032 4033 4034 4035 4036 4037 4038 4039 4040 4041 4042 4043 4044 4045 4046 4047 4048 4049 4050 4051 4052 4053 4054 4055 4056 4057 4058 4059 4060 4061 4062 4063 4064 4065 4066 4067 4068 4069 4070 4071 4072 4073 4074 4075 4076 4077 4078 4079 4080 4081 4082 4083 4084 4085 4086 4087 4088 4089 4090 4091 4092 4093 4094 4095 4096 4097 4098 4099 4100 4101 4102 4103 4104 4105 4106 4107 4108 4109 4110 4111 4112 4113 4114 4115 4116 4117 4118 4119 4120 4121 4122 4123 4124 4125 4126 4127 4128 4129 4130 4131 4132 4133 4134 4135 4136 4137 4138 4139 4140 4141 4142 4143 4144 4145 4146 4147 4148 4149 4150 4151 4152 4153 4154 4155 4156 4157 4158 4159 4160 4161 4162 4163 4164 4165 4166 4167 4168 4169 4170 4171 4172 4173 4174 4175 4176 4177 4178 4179 4180 4181 4182 4183 4184 4185 4186 4187 4188 4189 4190 4191 4192 4193 4194 4195 4196 4197 4198 4199 4200 4201 4202 4203 4204 4205 4206 4207 4208 4209 4210 4211 4212 4213 4214 4215 4216 4217 4218 4219 4220 4221 4222 4223 4224 4225 4226 4227 4228 4229 4230 4231 4232 4233 4234 4235 4236 4237 4238 4239 4240 4241 4242 4243 4244 4245 4246 4247 4248 4249 4250 4251 4252 4253 4254 4255 4256 4257 4258 4259 4260 4261 4262 4263 4264 4265 4266 4267 4268 4269 4270 4271 4272 4273 4274 4275 4276 4277 4278 4279 4280 4281 4282 4283 4284 4285 4286 4287 4288 4289 4290 4291 4292 4293 4294 4295 4296 4297 4298 4299 4300 4301 4302 4303 4304 4305 4306 4307 4308 4309 4310 4311 4312 4313 4314 4315 4316 4317 4318 4319 4320 4321 4322 4323 4324 4325 4326 4327 4328 4329 4330 4331 4332 4333 4334 4335 4336 4337 4338 4339 4340 4341 4342 4343 4344 4345 4346 4347 4348 4349 4350 4351 4352 4353 4354 4355 4356 4357 4358 4359 4360 4361 4362 4363 4364 4365 4366 4367 4368 4369 4370 4371 4372 4373 4374 4375 4376 4377 4378 4379 4380 4381 4382 4383 4384 4385 4386 4387 4388 4389 4390 4391 4392 4393 4394 4395 4396 4397 4398 4399 4400 4401 4402 4403 4404 4405 4406 4407 4408 4409 4410 4411 4412 4413 4414 4415 4416 4417 4418 4419 4420 4421 4422 4423 4424 4425 4426 4427 4428 4429 4430 4431 4432 4433 4434 4435 4436 4437 4438 4439 4440 4441 4442 4443 4444 4445 4446 4447 4448 4449 4450 4451 4452 4453 4454 4455 4456 4457 4458 4459 4460 4461 4462 4463 4464 4465 4466 4467 4468 4469 4470 4471 4472 4473 4474 4475 4476 4477 4478 4479 4480 4481 4482 4483 4484 4485 4486 4487 4488 4489 4490 4491 4492 4493 4494 4495 4496 4497 4498 4499 4500 4501 4502 4503 4504 4505 4506 4507 4508 4509 4510 4511 4512 4513 4514 4515 4516 4517 4518 4519 4520 4521 4522 4523 4524 4525 4526 4527 4528 4529 4530 4531 4532 4533 4534 4535 4536 4537 4538 4539 4540 4541 4542 4543 4544 4545 4546 4547 4548 4549 4550 4551 4552 4553 4554 4555 4556 4557 4558 4559 4560 4561 4562 4563 4564 4565 4566 4567 4568 4569 4570 4571 4572 4573 4574 4575 4576 4577 4578 4579 4580 4581 4582 4583 4584 4585 4586 4587 4588 4589 4590 4591 4592 4593 4594 4595 4596 4597 4598 4599 4600 4601 4602 4603 4604 4605 4606 4607 4608 4609 4610 4611 4612 4613 4614 4615 4616 4617 4618 4619 4620 4621 4622 4623 4624 4625 4626 4627 4628 4629 4630 4631 4632 4633 4634 4635 4636 4637 4638 4639 4640 4641 4642 4643 4644 4645 4646 4647 4648 4649 4650 4651 4652 4653 4654 4655 4656 4657 4658 4659 4660 4661 4662 4663 4664 4665 4666 4667 4668 4669 4670 4671 4672 4673 4674 4675 4676 4677 4678 4679 4680 4681 4682 4683 4684 4685 4686 4687 4688 4689 4690 4691 4692 4693 4694 4695 4696 4697 4698 4699 4700 4701 4702 4703 4704 4705 4706 4707 4708 4709 4710 4711 4712 4713 4714 4715 4716 4717 4718 4719 4720 4721 4722 4723 4724 4725 4726 4727 4728 4729 4730 4731 4732 4733 4734 4735 4736 4737 4738 4739 4740 4741 4742 4743 4744 4745 4746 4747 4748 4749 4750 4751 4752 4753 4754 4755 4756 4757 4758 4759 4760 4761 4762 4763 4764 4765 4766 4767 4768 4769 4770 4771 4772 4773 4774 4775 4776 4777 4778 4779 4780 4781 4782 4783 4784 4785 4786 4787 4788 4789 4790 4791 4792 4793 4794 4795 4796 4797 4798 4799 4800 4801 4802 4803 4804 4805 4806 4807 4808 4809 4810 4811 4812 4813 4814 4815 4816 4817 4818 4819 4820 4821 4822 4823 4824 4825 4826 4827 4828 4829 4830 4831 4832 4833 4834 4835 4836 4837 4838 4839 4840 4841 4842 4843 4844 4845 4846 4847 4848 4849 4850 4851 4852 4853 4854 4855 4856 4857 4858 4859 4860 4861 4862 4863 4864 4865 4866 4867 4868 4869 4870 4871 4872 4873 4874 4875 4876 4877 4878 4879 4880 4881 4882 4883 4884 4885 4886 4887 4888 4889 4890 4891 4892 4893 4894 4895 4896 4897 4898 4899 4900 4901 4902 4903 4904 4905 4906 4907 4908 4909 4910 4911 4912 4913 4914 4915 4916 4917 4918 4919 4920 4921 4922 4923 4924 4925 4926 4927 4928 4929 4930 4931 4932 4933 4934 4935 4936 4937 4938 4939 4940 4941 4942 4943 4944 4945 4946 4947 4948 4949 4950 4951 4952 4953 4954 4955 4956 4957 4958 4959 4960 4961 4962 4963 4964 4965 4966 4967 4968 4969 4970 4971 4972 4973 4974 4975 4976 4977 4978 4979 4980 4981 4982 4983 4984 4985 4986 4987 4988 4989 4990 4991 4992 4993 4994 4995 4996 4997 4998 4999 5000 5001 5002 5003 5004 5005 5006 5007 5008 5009 5010 5011 5012 5013 5014 5015 5016 5017 5018 5019 5020 5021 5022 5023 5024 5025 5026 5027 5028 5029 5030 5031 5032 5033 5034 5035 5036 5037 5038 5039 5040 5041 5042 5043 5044 5045 5046 5047 5048 5049 5050 5051 5052 5053 5054 5055 5056 5057 5058 5059 5060 5061 5062 5063 5064 5065 5066 5067 5068 5069 5070 5071 5072 5073 5074 5075 5076 5077 5078 5079 5080 5081 5082 5083 5084 5085 5086 5087 5088 5089 5090 5091 5092 5093 5094 5095 5096 5097 5098 5099 5100 5101 5102 5103 5104 5105 5106 5107 5108 5109 5110 5111 5112 5113 5114 5115 5116 5117 5118 5119 5120 5121 5122 5123 5124 5125 5126 5127 5128 5129 5130 5131 5132 5133 5134 5135 5136 5137 5138 5139 5140 5141 5142 5143 5144 5145 5146 5147 5148 5149 5150 5151 5152 5153 5154 5155 5156 5157 5158 5159 5160 5161 5162 5163 5164 5165 5166 5167 5168 5169 5170 5171 5172 5173 5174 5175 5176 5177 5178 5179 5180 5181 5182 5183 5184 5185 5186 5187 5188 5189 5190 5191 5192 5193 5194 5195 5196 5197 5198 5199 5200 5201 5202 5203 5204 5205 5206 5207 5208 5209 5210 5211 5212 5213 5214 5215 5216 5217 5218 5219 5220 5221 5222 5223 5224 5225 5226 5227 5228 5229 5230 5231 5232 5233 5234 5235 5236 5237 5238 5239 5240 5241 5242 5243 5244 5245 5246 5247 5248 5249 5250 5251 5252 5253 5254 5255 5256 5257 5258 5259 5260 5261 5262 5263 5264 5265 5266 5267 5268 5269 5270 5271 5272 5273 5274 5275 5276 5277 5278 5279 5280 5281 5282 5283 5284 5285 5286 5287 5288 5289 5290 5291 5292 5293 5294 5295 5296 5297 5298 5299 5300 5301 5302 5303 5304 5305 5306 5307 5308 5309 5310 5311 5312 5313 5314 5315 5316 5317 5318 5319 5320 5321 5322 5323 5324 5325 5326 5327 5328 5329 5330 5331 5332 5333 5334 5335 5336 5337 5338 5339 5340 5341 5342 5343 5344 5345 5346 5347 5348 5349 5350 5351 5352 5353 5354 5355 5356 5357 5358 5359 5360 5361 5362 5363 5364 5365 5366 5367 5368 5369 5370 5371 5372 5373 5374 5375 5376 5377 5378 5379 5380 5381 5382 5383 5384 5385 5386 5387 5388 5389 5390 5391 5392 5393 5394 5395 5396 5397 5398 5399 5400 5401 5402 5403 5404 5405 5406 5407 5408 5409 5410 5411 5412 5413 5414 5415 5416 5417 5418 5419 5420 5421 5422 5423 5424 5425 5426 5427 5428 5429 5430 5431 5432 5433 5434 5435 5436 5437 5438 5439 5440 5441 5442 5443 5444 5445 5446 5447 5448 5449 5450 5451 5452 5453 5454 5455 5456 5457 5458 5459 5460 5461 5462 5463 5464 5465 5466 5467 5468 5469 5470 5471 5472 5473 5474 5475 5476 5477 5478 5479 5480 5481 5482 5483 5484 5485 5486 5487 5488 5489 5490 5491 5492 5493 5494 5495 5496 5497 5498 5499 5500 5501 5502 5503 5504 5505 5506 5507 5508 5509 5510 5511 5512 5513 5514 5515 5516 5517 5518 5519 5520 5521 5522 5523 5524 5525 5526 5527 5528 5529 5530 5531 5532 5533 5534 5535 5536 5537 5538 5539 5540 5541 5542 5543 5544 5545 5546 5547 5548 5549 5550 5551 5552 5553 5554 5555 5556 5557 5558 5559 5560 5561 5562 5563 5564 5565 5566 5567 5568 5569 5570 5571 5572 5573 5574 5575 5576 5577 5578 5579 5580 5581 5582 5583 5584 5585 5586 5587 5588 5589 5590 5591 5592 5593 5594 5595 5596 5597 5598 5599 5600 5601 5602 5603 5604 5605 5606 5607 5608 5609 5610 5611 5612 5613 5614 5615 5616 5617 5618 5619 5620 5621 5622 5623 5624 5625 5626 5627 5628 5629 5630 5631 5632 5633 5634 5635 5636 5637 5638 5639 5640 5641 5642 5643 5644 5645 5646 5647 5648 5649 5650 5651 5652 5653 5654 5655 5656 5657 5658 5659 5660 5661 5662 5663 5664 5665 5666 5667 5668 5669 5670 5671 5672 5673 5674 5675 5676 5677 5678 5679 5680 5681 5682 5683 5684 5685 5686 5687 5688 5689 5690 5691 5692 5693 5694 5695 5696 5697 5698 5699 5700 5701 5702 5703 5704 5705 5706 5707 5708 5709 5710 5711 5712 5713 5714 5715 5716 5717 5718 5719 5720 5721 5722 5723 5724 5725 5726 5727 5728 5729 5730 5731 5732 5733 5734 5735 5736 5737 5738 5739 5740 5741 5742 5743 5744 5745 5746 5747 5748 5749 5750 5751 5752 5753 5754 5755 5756 5757 5758 5759 5760 5761 5762 5763 5764 5765 5766 5767 5768 5769 5770 5771 5772 5773 5774 5775 5776 5777 5778 5779 5780 5781 5782 5783 5784 5785 5786 5787 5788 5789 5790 5791 5792 5793 5794 5795 5796 5797 5798 5799 5800 5801 5802 5803 5804 5805 5806 5807 5808 5809 5810 5811 5812 5813 5814 5815 5816 5817 5818 5819 5820 5821 5822 5823 5824 5825 5826 5827 5828 5829 5830 5831 5832 5833 5834 5835 5836 5837 5838 5839 5840 5841 5842 5843 5844 5845 5846 5847 5848 5849 5850 5851 5852 5853 5854 5855 5856 5857 5858 5859 5860 5861 5862 5863 5864 5865 5866 5867 5868 5869 5870 5871 5872 5873 5874 5875 5876 5877 5878 5879 5880 5881 5882 5883 5884 5885 5886 5887 5888 5889 5890 5891 5892 5893 5894 5895 5896 5897 5898 5899 5900 5901 5902 5903 5904 5905 5906 5907 5908 5909 5910 5911 5912 5913 5914 5915 5916 5917 5918 5919 5920 5921 5922 5923 5924 5925 5926 5927 5928 5929 5930 5931 5932 5933 5934 5935 5936 5937 5938 5939 5940 5941 5942 5943 5944 5945 5946 5947 5948 5949 5950 5951 5952 5953 5954 5955 5956 5957 5958 5959 5960 5961 5962 5963 5964 5965 5966 5967 5968 5969 5970 5971 5972 5973 5974 5975 5976 5977 5978 5979 5980 5981 5982 5983 5984 5985 5986 5987 5988 5989 5990 5991 5992 5993 5994 5995 5996 5997 5998 5999 6000 6001 6002 6003 6004 6005 6006 6007 6008 6009 6010 6011 6012 6013 6014 6015 6016 6017 6018 6019 6020 6021 6022 6023 6024 6025 6026 6027 6028 6029 6030 6031 6032 6033 6034 6035 6036 6037 6038 6039 6040 6041 6042 6043 6044 6045 6046 6047 6048 6049 6050 6051 6052 6053 6054 6055 6056 6057 6058 6059 6060 6061 6062 6063 6064 6065 6066 6067 6068 6069 6070 6071 6072 6073 6074 6075 6076 6077 6078 6079 6080 6081 6082 6083 6084 6085 6086 6087 6088 6089 6090 6091 6092 6093 6094 6095 6096 6097 6098 6099 6100 6101 6102 6103 6104 6105 6106 6107 6108 6109 6110 6111 6112 6113 6114 6115 6116 6117 6118 6119 6120 6121 6122 6123 6124 6125 6126 6127 6128 6129 6130 6131 6132 6133 6134 6135 6136 6137 6138 6139 6140 6141 6142 6143 6144 6145 6146 6147 6148 6149 6150 6151 6152 6153 6154 6155 6156 6157 6158 6159 6160 6161 6162 6163 6164 6165 6166 6167 6168 6169 6170 6171 6172 6173 6174 6175 6176 6177 6178 6179 6180 6181 6182 6183 6184 6185 6186 6187 6188 6189 6190 6191 6192 6193 6194 6195 6196 6197 6198 6199 6200 6201 6202 6203 6204 6205 6206 6207 6208 6209 6210 6211 6212 6213 6214 6215 6216 6217 6218 6219 6220 6221 6222 6223 6224 6225 6226 6227 6228 6229 6230 6231 6232 6233 6234 6235 6236 6237 6238 6239 6240 6241 6242 6243 6244 6245 6246 6247 6248 6249 6250 6251 6252 6253 6254 6255 6256 6257 6258 6259 6260 6261 6262 6263 6264 6265 6266 6267 6268 6269 6270 6271 6272 6273 6274 6275 6276 6277 6278 6279 6280 6281 6282 6283 6284 6285 6286 6287 6288 6289 6290 6291 6292 6293 6294 6295 6296 6297 6298 6299 6300 6301 6302 6303 6304 6305 6306 6307 6308 6309 6310 6311 6312 6313 6314 6315 6316 6317 6318 6319 6320 6321 6322 6323 6324 6325 6326 6327 6328 6329 6330 6331 6332 6333 6334 6335 6336 6337 6338 6339 6340 6341 6342 6343 6344 6345 6346 6347 6348 6349 6350 6351 6352 6353 6354 6355 6356 6357 6358 6359 6360 6361 6362 6363 6364 6365 6366 6367 6368 6369 6370 6371 6372 6373 6374 6375 6376 6377 6378 6379 6380 6381 6382 6383 6384 6385 6386 6387 6388 6389 6390 6391 6392 6393 6394 6395 6396 6397 6398 6399 6400 6401 6402 6403 6404 6405 6406 6407 6408 6409 6410 6411 6412 6413 6414 6415 6416 6417 6418 6419 6420 6421 6422 6423 6424 6425 6426 6427 6428 6429 6430 6431 6432 6433 6434 6435 6436 6437 6438 6439 6440 6441 6442 6443 6444 6445 6446 6447 6448 6449 6450 6451 6452 6453 6454 6455 6456 6457 6458 6459 6460 6461 6462 6463 6464 6465 6466 6467 6468 6469 6470 6471 6472 6473 6474 6475 6476 6477 6478 6479 6480 6481 6482 6483 6484 6485 6486 6487 6488 6489 6490 6491 6492 6493 6494 6495 6496 6497 6498 6499 6500 6501 6502 6503 6504 6505 6506 6507 6508 6509 6510 6511 6512 6513 6514 6515 6516 6517 6518 6519 6520 6521 6522 6523 6524 6525 6526 6527 6528 6529 6530 6531 6532 6533 6534 6535 6536 6537 6538 6539 6540 6541 6542 6543 6544 6545 6546 6547 6548 6549 6550 6551 6552 6553 6554 6555 6556 6557 6558 6559 6560 6561 6562 6563 6564 6565 6566 6567 6568 6569 6570 6571 6572 6573 6574 6575 6576 6577 6578 6579 6580 6581 6582 6583 6584 6585 6586 6587 6588 6589 6590 6591 6592 6593 6594 6595 6596 6597 6598 6599 6600 6601 6602 6603 6604 6605 6606 6607 6608 6609 6610 6611 6612 6613 6614 6615 6616 6617 6618 6619 6620 6621 6622 6623 6624 6625 6626 6627 6628 6629 6630 6631 6632 6633 6634 6635 6636 6637 6638 6639 6640 6641 6642 6643 6644 6645 6646 6647 6648 6649 6650 6651 6652 6653 6654 6655 6656 6657 6658 6659 6660 6661 6662 6663 6664 6665 6666 6667 6668 6669 6670 6671 6672 6673 6674 6675 6676 6677 6678 6679 6680 6681 6682 6683 6684 6685 6686 6687 6688 6689 6690 6691 6692 6693 6694 6695 6696 6697 6698 6699 6700 6701 6702 6703 6704 6705 6706 6707 6708 6709 6710 6711 6712 6713 6714 6715 6716 6717 6718 6719 6720 6721 6722 6723 6724 6725 6726 6727 6728 6729 6730 6731 6732 6733 6734 6735 6736 6737 6738 6739 6740 6741 6742 6743 6744 6745 6746 6747 6748 6749 6750 6751 6752 6753 6754 6755 6756 6757 6758 6759 6760 6761 6762 6763 6764 6765 6766 6767 6768 6769 6770 6771 6772 6773 6774 6775 6776 6777 6778 6779 6780 6781 6782 6783 6784 6785 6786 6787 6788 6789 6790 6791 6792 6793 6794 6795 6796 6797 6798 6799 6800 6801 6802 6803 6804 6805 6806 6807 6808 6809 6810 6811 6812 6813 6814 6815 6816 6817 6818 6819 6820 6821 6822 6823 6824 6825 6826 6827 6828 6829 6830 6831 6832 6833 6834 6835 6836 6837 6838 6839 6840 6841 6842 6843 6844 6845 6846 6847 6848 6849 6850 6851 6852 6853 6854 6855 6856 6857 6858 6859 6860 6861 6862 6863 6864 6865 6866 6867 6868 6869 6870 6871 6872 6873 6874 6875 6876 6877 6878 6879 6880 6881 6882 6883 6884 6885 6886 6887 6888 6889 6890 6891 6892 6893 6894 6895 6896 6897 6898 6899 6900 6901 6902 6903 6904 6905 6906 6907 6908 6909 6910 6911 6912 6913 6914 6915 6916 6917 6918 6919 6920 6921 6922 6923 6924 6925 6926 6927 6928 6929 6930 6931 6932 6933 6934 6935 6936 6937 6938 6939 6940 6941 6942 6943 6944 6945 6946 6947 6948 6949 6950 6951 6952 6953 6954 6955 6956 6957 6958 6959 6960 6961 6962 6963 6964 6965 6966 6967 6968 6969 6970 6971 6972 6973 6974 6975 6976 6977 6978 6979 6980 6981 6982 6983 6984 6985 6986 6987 6988 6989 6990 6991 6992 6993 6994 6995 6996 6997 6998 6999 7000 7001 7002 7003 7004 7005 7006 7007 7008 7009 7010 7011 7012 7013 7014 7015 7016 7017 7018 7019 7020 7021 7022 7023 7024 7025 7026 7027 7028 7029 7030 7031 7032 7033 7034 7035 7036 7037 7038 7039 7040 7041 7042 7043 7044 7045 7046 7047 7048 7049 7050 7051 7052 7053 7054 7055 7056 7057 7058 7059 7060 7061 7062 7063 7064 7065 7066 7067 7068 7069 7070 7071 7072 7073 7074 7075 7076 7077 7078 7079 7080 7081 7082 7083 7084 7085 7086 7087 7088 7089 7090 7091 7092 7093 7094 7095 7096 7097 7098 7099 7100 7101 7102 7103 7104 7105 7106 7107 7108 7109 7110 7111 7112 7113 7114 7115 7116 7117 7118 7119 7120 7121 7122 7123 7124 7125 7126 7127 7128 7129 7130 7131 7132 7133 7134 7135 7136 7137 7138 7139 7140 7141 7142 7143 7144 7145 7146 7147 7148 7149 7150 7151 7152 7153 7154 7155 7156 7157 7158 7159 7160 7161 7162 7163 7164 7165 7166 7167 7168 7169 7170 7171 7172 7173 7174 7175 7176 7177 7178 7179 7180 7181 7182 7183 7184 7185 7186 7187 7188 7189 7190 7191 7192 7193 7194 7195 7196 7197 7198 7199 7200 7201 7202 7203 7204 7205 7206 7207 7208 7209 7210 7211 7212 7213 7214 7215 7216 7217 7218 7219 7220 7221 7222 7223 7224 7225 7226 7227 7228 7229 7230 7231 7232 7233 7234 7235 7236 7237 7238 7239 7240 7241 7242 7243 7244 7245 7246 7247 7248 7249 7250 7251 7252 7253 7254 7255 7256 7257 7258 7259 7260 7261 7262 7263 7264 7265 7266 7267 7268 7269 7270 7271 7272 7273 7274 7275 7276 7277 7278 7279 7280 7281 7282 7283 7284 7285 7286 7287 7288 7289 7290 7291 7292 7293 7294 7295 7296 7297 7298 7299 7300 7301 7302 7303 7304 7305 7306 7307 7308 7309 7310 7311 7312 7313 7314 7315 7316 7317 7318 7319 7320 7321 7322 7323 7324 7325 7326 7327 7328 7329 7330 7331 7332 7333 7334 7335 7336 7337 7338 7339 7340 7341 7342 7343 7344 7345 7346 7347 7348 7349 7350 7351 7352 7353 7354 7355 7356 7357 7358 7359 7360 7361 7362 7363 7364 7365 7366 7367 7368 7369 7370 7371 7372 7373 7374 7375 7376 7377 7378 7379 7380 7381 7382 7383 7384 7385 7386 7387 7388 7389 7390 7391 7392 7393 7394 7395 7396 7397 7398 7399 7400 7401 7402 7403 7404 7405 7406 7407 7408 7409 7410 7411 7412 7413 7414 7415 7416 7417 7418 7419 7420 7421 7422 7423 7424 7425 7426 7427 7428 7429 7430 7431 7432 7433 7434 7435 7436 7437 7438 7439 7440 7441 7442 7443 7444 7445 7446 7447 7448 7449 7450 7451 7452 7453 7454 7455 7456 7457 7458 7459 7460 7461 7462 7463 7464 7465 7466 7467 7468 7469 7470 7471 7472 7473 7474 7475 7476 7477 7478 7479 7480 7481 7482 7483 7484 7485 7486 7487 7488 7489 7490 7491 7492 7493 7494 7495 7496 7497 7498 7499 7500 7501 7502 7503 7504 7505 7506 7507 7508 7509 7510 7511 7512 7513 7514 7515 7516 7517 7518 7519 7520 7521 7522 7523 7524 7525 7526 7527 7528 7529 7530 7531 7532 7533 7534 7535 7536 7537 7538 7539 7540 7541 7542 7543 7544 7545 7546 7547 7548 7549 7550 7551 7552 7553 7554 7555 7556 7557 7558 7559 7560 7561 7562 7563 7564 7565 7566 7567 7568 7569 7570 7571 7572 7573 7574 7575 7576 7577 7578 7579 7580 7581 7582 7583 7584 7585 7586 7587 7588 7589 7590 7591 7592 7593 7594 7595 7596 7597 7598 7599 7600 7601 7602 7603 7604 7605 7606 7607 7608 7609 7610 7611 7612 7613 7614 7615 7616 7617 7618 7619 7620 7621 7622 7623 7624 7625 7626 7627 7628 7629 7630 7631 7632 7633 7634 7635 7636 7637 7638 7639 7640 7641 7642 7643 7644 7645 7646 7647 7648 7649 7650 7651 7652 7653 7654 7655 7656 7657 7658 7659 7660 7661 7662 7663 7664 7665 7666 7667 7668 7669 7670 7671 7672 7673 7674 7675 7676 7677 7678 7679 7680 7681 7682 7683 7684 7685 7686 7687 7688 7689 7690 7691 7692 7693 7694 7695 7696 7697 7698 7699 7700 7701 7702 7703 7704 7705 7706 7707 7708 7709 7710 7711 7712 7713 7714 7715 7716 7717 7718 7719 7720 7721 7722 7723 7724 7725 7726 7727 7728 7729 7730 7731 7732 7733 7734 7735 7736 7737 7738 7739 7740 7741 7742 7743 7744 7745 7746 7747 7748 7749 7750 7751 7752 7753 7754 7755 7756 7757 7758 7759 7760 7761 7762 7763 7764 7765 7766 7767 7768 7769 7770 7771 7772 7773 7774 7775 7776 7777 7778 7779 7780 7781 7782 7783 7784 7785 7786 7787 7788 7789 7790 7791 7792 7793 7794 7795 7796 7797 7798 7799 7800 7801 7802 7803 7804 7805 7806 7807 7808 7809 7810 7811 7812 7813 7814 7815 7816 7817 7818 7819 7820 7821 7822 7823 7824 7825 7826 7827 7828 7829 7830 7831 7832 7833 7834 7835 7836 7837 7838 7839 7840 7841 7842 7843 7844 7845 7846 7847 7848 7849 7850 7851 7852 7853 7854 7855 7856 7857 7858 7859 7860 7861 7862 7863 7864 7865 7866 7867 7868 7869 7870 7871 7872 7873 7874 7875 7876 7877 7878 7879 7880 7881 7882 7883 7884 7885 7886 7887 7888 7889 7890 7891 7892 7893 7894 7895 7896 7897 7898 7899 7900 7901 7902 7903 7904 7905 7906 7907 7908 7909 7910 7911 7912 7913 7914 7915 7916 7917 7918 7919 7920 7921 7922 7923 7924 7925 7926 7927 7928 7929 7930 7931 7932 7933 7934 7935 7936 7937 7938 7939 7940 7941 7942 7943 7944 7945 7946 7947 7948 7949 7950 7951 7952 7953 7954 7955 7956 7957 7958 7959 7960 7961 7962 7963 7964 7965 7966 7967 7968 7969 7970 7971 7972 7973 7974 7975 7976 7977 7978 7979 7980 7981 7982 7983 7984 7985 7986 7987 7988 7989 7990 7991 7992 7993 7994 7995 7996 7997 7998 7999 8000 8001 8002 8003 8004 8005 8006 8007 8008 8009 8010 8011 8012 8013 8014 8015 8016 8017 8018 8019 8020 8021 8022 8023 8024 8025 8026 8027 8028 8029 8030 8031 8032 8033 8034 8035 8036 8037 8038 8039 8040 8041 8042 8043 8044 8045 8046 8047 8048 8049 8050 8051 8052 8053 8054 8055 8056 8057 8058 8059 8060 8061 8062 8063 8064 8065 8066 8067 8068 8069 8070 8071 8072 8073 8074 8075 8076 8077 8078 8079 8080 8081 8082 8083 8084 8085 8086 8087 8088 8089 8090 8091 8092 8093 8094 8095 8096 8097 8098 8099 8100 8101 8102 8103 8104 8105 8106 8107 8108 8109 8110 8111 8112 8113 8114 8115 8116 8117 8118 8119 8120 8121 8122 8123 8124 8125 8126 8127 8128 8129 8130 8131 8132 8133 8134 8135 8136 8137 8138 8139 8140 8141 8142 8143 8144 8145 8146 8147 8148 8149 8150 8151 8152 8153 8154 8155 8156 8157 8158 8159 8160 8161 8162 8163 8164 8165 8166 8167 8168 8169 8170 8171 8172 8173 8174 8175 8176 8177 8178 8179 8180 8181 8182 8183 8184 8185 8186 8187 8188 8189 8190 8191 8192 8193 8194 8195 8196 8197 8198 8199 8200 8201 8202 8203 8204 8205 8206 8207 8208 8209 8210 8211 8212 8213 8214 8215 8216 8217 8218 8219 8220 8221 8222 8223 8224 8225 8226 8227 8228 8229 8230 8231 8232 8233 8234 8235 8236 8237 8238 8239 8240 8241 8242 8243 8244 8245 8246 8247 8248 8249 8250 8251 8252 8253 8254 8255 8256 8257 8258 8259 8260 8261 8262 8263 8264 8265 8266 8267 8268 8269 8270 8271 8272 8273 8274 8275 8276 8277 8278 8279 8280 8281 8282 8283 8284 8285 8286 8287 8288 8289 8290 8291 8292 8293 8294 8295 8296 8297 8298 8299 8300 8301 8302 8303 8304 8305 8306 8307 8308 8309 8310 8311 8312 8313 8314 8315 8316 8317 8318 8319 8320 8321 8322 8323 8324 8325 8326 8327 8328 8329 8330 8331 8332 8333 8334 8335 8336 8337 8338 8339 8340 8341 8342 8343 8344 8345 8346 8347 8348 8349 8350 8351 8352 8353 8354 8355 8356 8357 8358 8359 8360 8361 8362 8363 8364 8365 8366 8367 8368 8369 8370 8371 8372 8373 8374 8375 8376 8377 8378 8379 8380 8381 8382 8383 8384 8385 8386 8387 8388 8389 8390 8391 8392 8393 8394 8395 8396 8397 8398 8399 8400 8401 8402 8403 8404 8405 8406 8407 8408 8409 8410 8411 8412 8413 8414 8415 8416 8417 8418 8419 8420 8421 8422 8423 8424 8425 8426 8427 8428 8429 8430 8431 8432 8433 8434 8435 8436 8437 8438 8439 8440 8441 8442 8443 8444 8445 8446 8447 8448 8449 8450 8451 8452 8453 8454 8455 8456 8457 8458 8459 8460 8461 8462 8463 8464 8465 8466 8467 8468 8469 8470 8471 8472 8473 8474 8475 8476 8477 8478 8479 8480 8481 8482 8483 8484 8485 8486 8487 8488 8489 8490 8491 8492 8493 8494 8495 8496 8497 8498 8499 8500 8501 8502 8503 8504 8505 8506 8507 8508 8509 8510 8511 8512 8513 8514 8515 8516 8517 8518 8519 8520 8521 8522 8523 8524 8525 8526 8527 8528 8529 8530 8531 8532 8533 8534 8535 8536 8537 8538 8539 8540 8541 8542 8543 8544 8545 8546 8547 8548 8549 8550 8551 8552 8553 8554 8555 8556 8557 8558 8559 8560 8561 8562 8563 8564 8565 8566 8567 8568 8569 8570 8571 8572 8573 8574 8575 8576 8577 8578 8579 8580 8581 8582 8583 8584 8585 8586 8587 8588 8589 8590 8591 8592 8593 8594 8595 8596 8597 8598 8599 8600 8601 8602 8603 8604 8605 8606 8607 8608 8609 8610 8611 8612 8613 8614 8615 8616 8617 8618 8619 8620 8621 8622 8623 8624 8625 8626 8627 8628 8629 8630 8631 8632 8633 8634 8635 8636 8637 8638 8639 8640 8641 8642 8643 8644 8645 8646 8647 8648 8649 8650 8651 8652 8653 8654 8655 8656 8657 8658 8659 8660 8661 8662 8663 8664 8665 8666 8667 8668 8669 8670 8671 8672 8673 8674 8675 8676 8677 8678 8679 8680 8681 8682 8683 8684 8685 8686 8687 8688 8689 8690 8691 8692 8693 8694 8695 8696 8697 8698 8699 8700 8701 8702 8703 8704 8705 8706 8707 8708 8709 8710 8711 8712 8713 8714 8715 8716 8717 8718 8719 8720 8721 8722 8723 8724 8725 8726 8727 8728 8729 8730 8731 8732 8733 8734 8735 8736 8737 8738 8739 8740 8741 8742 8743 8744 8745 8746 8747 8748 8749 8750 8751 8752 8753 8754 8755 8756 8757 8758 8759 8760 8761 8762 8763 8764 8765 8766 8767 8768 8769 8770 8771 8772 8773 8774 8775 8776 8777 8778 8779 8780 8781 8782 8783 8784 8785 8786 8787 8788 8789 8790 8791 8792 8793 8794 8795 8796 8797 8798 8799 8800 8801 8802 8803 8804 8805 8806 8807 8808 8809 8810 8811 8812 8813 8814 8815 8816 8817 8818 8819 8820 8821 8822 8823 8824 8825 8826 8827 8828 8829 8830 8831 8832 8833 8834 8835 8836 8837 8838 8839 8840 8841 8842 8843 8844 8845 8846 8847 8848 8849 8850 8851 8852 8853 8854 8855 8856 8857 8858 8859 8860 8861 8862 8863 8864 8865 8866 8867 8868 8869 8870 8871 8872 8873 8874 8875 8876 8877 8878 8879 8880 8881 8882 8883 8884 8885 8886 8887 8888 8889 8890 8891 8892 8893 8894 8895 8896 8897 8898 8899 8900 8901 8902 8903 8904 8905 8906 8907 8908 8909 8910 8911 8912 8913 8914 8915 8916 8917 8918 8919 8920 8921 8922 8923 8924 8925 8926 8927 8928 8929 8930 8931 8932 8933 8934 8935 8936 8937 8938 8939 8940 8941 8942 8943 8944 8945 8946 8947 8948 8949 8950 8951 8952 8953 8954 8955 8956 8957 8958 8959 8960 8961 8962 8963 8964 8965 8966 8967 8968 8969 8970 8971 8972 8973 8974 8975 8976 8977 8978 8979 8980 8981 8982 8983 8984 8985 8986 8987 8988 8989 8990 8991 8992 8993 8994 8995 8996 8997 8998 8999 9000 9001 9002 9003 9004 9005 9006 9007 9008 9009 9010 9011 9012 9013 9014 9015 9016 9017 9018 9019 9020 9021 9022 9023 9024 9025 9026 9027 9028 9029 9030 9031 9032 9033 9034 9035 9036 9037 9038 9039 9040 9041 9042 9043 9044 9045 9046 9047 9048 9049 9050 9051 9052 9053 9054 9055 9056 9057 9058 9059 9060 9061 9062 9063 9064 9065 9066 9067 9068 9069 9070 9071 9072 9073 9074 9075 9076 9077 9078 9079 9080 9081 9082 9083 9084 9085 9086 9087 9088 9089 9090 9091 9092 9093 9094 9095 9096 9097 9098 9099 9100 9101 9102 9103 9104 9105 9106 9107 9108 9109 9110 9111 9112 9113 9114 9115 9116 9117 9118 9119 9120 9121 9122 9123 9124 9125 9126 9127 9128 9129 9130 9131 9132 9133 9134 9135 9136 9137 9138 9139 9140 9141 9142 9143 9144 9145 9146 9147 9148 9149 9150 9151 9152 9153 9154 9155 9156 9157 9158 9159 9160 9161 9162 9163 9164 9165 9166 9167 9168 9169 9170 9171 9172 9173 9174 9175 9176 9177 9178 9179 9180 9181 9182 9183 9184 9185 9186 9187 9188 9189 9190 9191 9192 9193 9194 9195 9196 9197 9198 9199 9200 9201 9202 9203 9204 9205 9206 9207 9208 9209 9210 9211 9212 9213 9214 9215 9216 9217 9218 9219 9220 9221 9222 9223 9224 9225 9226 9227 9228 9229 9230 9231 9232 9233 9234 9235 9236 9237 9238 9239 9240 9241 9242 9243 9244 9245 9246 9247 9248 9249 9250 9251 9252 9253 9254 9255 9256 9257 9258 9259 9260 9261 9262 9263 9264 9265 9266 9267 9268 9269 9270 9271 9272 9273 9274 9275 9276 9277 9278 9279 9280 9281 9282 9283 9284 9285 9286 9287 9288 9289 9290 9291 9292 9293 9294 9295 9296 9297 9298 9299 9300 9301 9302 9303 9304 9305 9306 9307 9308 9309 9310 9311 9312 9313 9314 9315 9316 9317 9318 9319 9320 9321 9322 9323 9324 9325 9326 9327 9328 9329 9330 9331 9332 9333 9334 9335 9336 9337 9338 9339 9340 9341 9342 9343 9344 9345 9346 9347 9348 9349 9350 9351 9352 9353 9354 9355 9356 9357 9358 9359 9360 9361 9362 9363 9364 9365 9366 9367 9368 9369 9370 9371 9372 9373 9374 9375 9376 9377 9378 9379 9380 9381 9382 9383 9384 9385 9386 9387 9388 9389 9390 9391 9392 9393 9394 9395 9396 9397 9398 9399 9400 9401 9402 9403 9404 9405 9406 9407 9408 9409 9410 9411 9412 9413 9414 9415 9416 9417 9418 9419 9420 9421 9422 9423 9424 9425 9426 9427 9428 9429 9430 9431 9432 9433 9434 9435 9436 9437 9438 9439 9440 9441 9442 9443 9444 9445 9446 9447 9448 9449 9450 9451 9452 9453 9454 9455 9456 9457 9458 9459 9460 9461 9462 9463 9464 9465 9466 9467 9468 9469 9470 9471 9472 9473 9474 9475 9476 9477 9478 9479 9480 9481 9482 9483 9484 9485 9486 9487 9488 9489 9490 9491 9492 9493 9494 9495 9496 9497 9498 9499 9500 9501 9502 9503 9504 9505 9506 9507 9508 9509 9510 9511 9512 9513 9514 9515 9516 9517 9518 9519 9520 9521 9522 9523 9524 9525 9526 9527 9528 9529 9530 9531 9532 9533 9534 9535 9536 9537 9538 9539 9540 9541 9542 9543 9544 9545 9546 9547 9548 9549 9550 9551 9552 9553 9554 9555 9556 9557 9558 9559 9560 9561 9562 9563 9564 9565 9566 9567 9568 9569 9570 9571 9572 9573 9574 9575 9576 9577 9578 9579 9580 9581 9582 9583 9584 9585 9586 9587 9588 9589 9590 9591 9592 9593 9594 9595 9596 9597 9598 9599 9600 9601 9602 9603 9604 9605 9606 9607 9608 9609 9610 9611 9612 9613 9614 9615 9616 9617 9618 9619 9620 9621 9622 9623 9624 9625 9626 9627 9628 9629 9630 9631 9632 9633 9634 9635 9636 9637 9638 9639 9640 9641 9642 9643 9644 9645 9646 9647 9648 9649 9650 9651 9652 9653 9654 9655 9656 9657 9658 9659 9660 9661 9662 9663 9664 9665 9666 9667 9668 9669 9670 9671 9672 9673 9674 9675 9676 9677 9678 9679 9680 9681 9682 9683 9684 9685 9686 9687 9688 9689 9690 9691 9692 9693 9694 9695 9696 9697 9698 9699 9700 9701 9702 9703 9704 9705 9706 9707 9708 9709 9710 9711 9712 9713 9714 9715 9716 9717 9718 9719 9720 9721 9722 9723 9724 9725 9726 9727 9728 9729 9730 9731 9732 9733 9734 9735 9736 9737 9738 9739 9740 9741 9742 9743 9744 9745 9746 9747 9748 9749 9750 9751 9752 9753 9754 9755 9756 9757 9758 9759 9760 9761 9762 9763 9764 9765 9766 9767 9768 9769 9770 9771 9772 9773 9774 9775 9776 9777 9778 9779 9780 9781 9782 9783 9784 9785 9786 9787 9788 9789 9790 9791 9792 9793 9794 9795 9796 9797 9798 9799 9800 9801 9802 9803 9804 9805 9806 9807 9808 9809 9810 9811 9812 9813 9814 9815 9816 9817 9818 9819 9820 9821 9822 9823 9824 9825 9826 9827 9828 9829 9830 9831 9832 9833 9834 9835 9836 9837 9838 9839 9840 9841 9842 9843 9844 9845 9846 9847 9848 9849 9850 9851 9852 9853 9854 9855 9856 9857 9858 9859 9860 9861 9862 9863 9864 9865 9866 9867 9868 9869 9870 9871 9872 9873 9874 9875 9876 9877 9878 9879 9880 9881 9882 9883 9884 9885 9886 9887 9888 9889 9890 9891 9892 9893 9894 9895 9896 9897 9898 9899 9900 9901 9902 9903 9904 9905 9906 9907 9908 9909 9910 9911 9912 9913 9914 9915 9916 9917 9918 9919 9920 9921 9922 9923 9924 9925 9926 9927 9928 9929 9930 9931 9932 9933 9934 9935 9936 9937 9938 9939 9940 9941 9942 9943 9944 9945 9946 9947 9948 9949 9950 9951 9952 9953 9954 9955 9956 9957 9958 9959 9960 9961 9962 9963 9964 9965 9966 9967 9968 9969 9970 9971 9972 9973 9974 9975 9976 9977 9978 9979 9980 9981 9982 9983 9984 9985 9986 9987 9988 9989 9990 9991 9992 9993 9994 9995 9996 9997 9998 9999 10000 10001 10002 10003 10004 10005 10006 10007 10008 10009 10010 10011 10012 10013 10014 10015 10016 10017 10018 10019 10020 10021 10022 10023 10024 10025 10026 10027 10028 10029 10030 10031 10032 10033 10034 10035 10036 10037 10038 10039 10040 10041 10042 10043 10044 10045 10046 10047 10048 10049 10050 10051 10052 10053 10054 10055 10056 10057 10058 10059 10060 10061 10062 10063 10064 10065 10066 10067 10068 10069 10070 10071 10072 10073 10074 10075 10076 10077 10078 10079 10080 10081 10082 10083 10084 10085 10086 10087 10088 10089 10090 10091 10092 10093 10094 10095 10096 10097 10098 10099 10100 10101 10102 10103 10104 10105 10106 10107 10108 10109 10110 10111 10112 10113 10114 10115 10116 10117 10118 10119 10120 10121 10122 10123 10124 10125 10126 10127 10128 10129 10130 10131 10132 10133 10134 10135 10136 10137 10138 10139 10140 10141 10142 10143 10144 10145 10146 10147 10148 10149 10150 10151 10152 10153 10154 10155 10156 10157 10158 10159 10160 10161 10162 10163 10164 10165 10166 10167 10168 10169 10170 10171 10172 10173 10174 10175 10176 10177 10178 10179 10180 10181 10182 10183 10184 10185 10186 10187 10188 10189 10190 10191 10192 10193 10194 10195 10196 10197 10198 10199 10200 10201 10202 10203 10204 10205 10206 10207 10208 10209 10210 10211 10212 10213 10214 10215 10216 10217 10218 10219 10220 10221 10222 10223 10224 10225 10226 10227 10228 10229 10230 10231 10232 10233 10234 10235 10236 10237 10238 10239 10240 10241 10242 10243 10244 10245 10246 10247 10248 10249 10250 10251 10252 10253 10254 10255 10256 10257 10258 10259 10260 10261 10262 10263 10264 10265 10266 10267 10268 10269 10270 10271 10272 10273 10274 10275 10276 10277 10278 10279 10280 10281 10282 10283 10284 10285 10286 10287 10288 10289 10290 10291 10292 10293 10294 10295 10296 10297 10298 10299 10300 10301 10302 10303 10304 10305 10306 10307 10308 10309 10310 10311 10312 10313 10314 10315 10316 10317 10318 10319 10320 10321 10322 10323 10324 10325 10326 10327 10328 10329 10330 10331 10332 10333 10334 10335 10336 10337 10338 10339 10340 10341 10342 10343 10344 10345 10346 10347 10348 10349 10350 10351 10352 10353 10354 10355 10356 10357 10358 10359 10360 10361 10362 10363 10364 10365 10366 10367 10368 10369 10370 10371 10372 10373 10374 10375 10376 10377 10378 10379 10380 10381 10382 10383 10384 10385 10386 10387 10388 10389 10390 10391 10392 10393 10394 10395 10396 10397 10398 10399 10400 10401 10402 10403 10404 10405 10406 10407 10408 10409 10410 10411 10412 10413 10414 10415 10416 10417 10418 10419 10420 10421 10422 10423 10424 10425 10426 10427 10428 10429 10430 10431 10432 10433 10434 10435 10436 10437 10438 10439 10440 10441 10442 10443 10444 10445 10446 10447 10448 10449 10450 10451 10452 10453 10454 10455 10456 10457 10458 10459 10460 10461 10462 10463 10464 10465 10466 10467 10468 10469 10470 10471 10472 10473 10474 10475 10476 10477 10478 10479 10480 10481 10482 10483 10484 10485 10486 10487 10488 10489 10490 10491 10492 10493 10494 10495 10496 10497 10498 10499 10500 10501 10502 10503 10504 10505 10506 10507 10508 10509 10510 10511 10512 10513 10514 10515 10516 10517 10518 10519 10520 10521 10522 10523 10524 10525 10526 10527 10528 10529 10530 10531 10532 10533 10534 10535 10536 10537 10538 10539 10540 10541 10542 10543 10544 10545 10546 10547 10548 10549 10550 10551 10552 10553 10554 10555 10556 10557 10558 10559 10560 10561 10562 10563 10564 10565 10566 10567 10568 10569 10570 10571 10572 10573 10574 10575 10576 10577 10578 10579 10580 10581 10582 10583 10584 10585 10586 10587 10588 10589 10590 10591 10592 10593 10594 10595 10596 10597 10598 10599 10600 10601 10602 10603 10604 10605 10606 10607 10608 10609 10610 10611 10612 10613 10614 10615 10616 10617 10618 10619 10620 10621 10622 10623 10624 10625 10626 10627 10628 10629 10630 10631 10632 10633 10634 10635 10636 10637 10638 10639 10640 10641 10642 10643 10644 10645 10646 10647 10648 10649 10650 10651 10652 10653 10654 10655 10656 10657 10658 10659 10660 10661 10662 10663 10664 10665 10666 10667 10668 10669 10670 10671 10672 10673 10674 10675 10676 10677 10678 10679 10680 10681 10682 10683 10684 10685 10686 10687 10688 10689 10690 10691 10692 10693 10694 10695 10696 10697 10698 10699 10700 10701 10702 10703 10704 10705 10706 10707 10708 10709 10710 10711 10712 10713 10714 10715 10716 10717 10718 10719 10720 10721 10722 10723 10724 10725 10726 10727 10728 10729 10730 10731 10732 10733 10734 10735 10736 10737 10738 10739 10740 10741 10742 10743 10744 10745 10746 10747 10748 10749 10750 10751 10752 10753 10754 10755 10756 10757 10758 10759 10760 10761 10762 10763 10764 10765 10766 10767 10768 10769 10770 10771 10772 10773 10774 10775 10776 10777 10778 10779 10780 10781 10782 10783 10784 10785 10786 10787 10788 10789 10790 10791 10792 10793 10794 10795 10796 10797 10798 10799 10800 10801 10802 10803 10804 10805 10806 10807 10808 10809 10810 10811 10812 10813 10814 10815 10816 10817 10818 10819 10820 10821 10822 10823 10824 10825 10826 10827 10828 10829 10830 10831 10832 10833 10834 10835 10836 10837 10838 10839 10840 10841 10842 10843 10844 10845 10846 10847 10848 10849 10850 10851 10852 10853 10854 10855 10856 10857 10858 10859 10860 10861 10862 10863 10864 10865 10866 10867 10868 10869 10870 10871 10872 10873 10874 10875 10876 10877 10878 10879 10880 10881 10882 10883 10884 10885 10886 10887 10888 10889 10890 10891 10892 10893 10894 10895 10896 10897 10898 10899 10900 10901 10902 10903 10904 10905 10906 10907 10908 10909 10910 10911 10912 10913 10914 10915 10916 10917 10918 10919 10920 10921 10922 10923 10924 10925 10926 10927 10928 10929 10930 10931 10932 10933 10934 10935 10936 10937 10938 10939 10940 10941 10942 10943 10944 10945 10946 10947 10948 10949 10950 10951 10952 10953 10954 10955 10956 10957 10958 10959 10960 10961 10962 10963 10964 10965 10966 10967 10968 10969 10970 10971 10972 10973 10974 10975 10976 10977 10978 10979 10980 10981 10982 10983 10984 10985 10986 10987 10988 10989 10990 10991 10992 10993 10994 10995 10996 10997 10998 10999 11000 11001 11002 11003 11004 11005 11006 11007 11008 11009 11010 11011 11012 11013 11014 11015 11016 11017 11018 11019 11020 11021 11022 11023 11024 11025 11026 11027 11028 11029 11030 11031 11032 11033 11034 11035 11036 11037 11038 11039 11040 11041 11042 11043 11044 11045 11046 11047 11048 11049 11050 11051 11052 11053 11054 11055 11056 11057 11058 11059 11060 11061 11062 11063 11064 11065 11066 11067 11068 11069 11070 11071 11072 11073 11074 11075 11076 11077 11078 11079 11080 11081 11082 11083 11084 11085 11086 11087 11088 11089 11090 11091 11092 11093 11094 11095 11096 11097 11098 11099 11100 11101 11102 11103 11104 11105 11106 11107 11108 11109 11110 11111 11112 11113 11114 11115 11116 11117 11118 11119 11120 11121 11122 11123 11124 11125 11126 11127 11128 11129 11130 11131 11132 11133 11134 11135 11136 11137 11138 11139 11140 11141 11142 11143 11144 11145 11146 11147 11148 11149 11150 11151 11152 11153 11154 11155 11156 11157 11158 11159 11160 11161 11162 11163 11164 11165 11166 11167 11168 11169 11170 11171 11172 11173 11174 11175 11176 11177 11178 11179 11180 11181 11182 11183 11184 11185 11186 11187 11188 11189 11190 11191 11192 11193 11194 11195 11196 11197 11198 11199 11200 11201 11202 11203 11204 11205 11206 11207 11208 11209 11210 11211 11212 11213 11214 11215 11216 11217 11218 11219 11220 11221 11222 11223 11224 11225 11226 11227 11228 11229 11230 11231 11232 11233 11234 11235 11236 11237 11238 11239 11240 11241 11242 11243 11244 11245 11246 11247 11248 11249 11250 11251 11252 11253 11254 11255 11256 11257 11258 11259 11260 11261 11262 11263 11264 11265 11266 11267 11268 11269 11270 11271 11272 11273 11274 11275 11276 11277 11278 11279 11280 11281 11282 11283 11284 11285 11286 11287 11288 11289 11290 11291 11292 11293 11294 11295 11296 11297 11298 11299 11300 11301 11302 11303 11304 11305 11306 11307 11308 11309 11310 11311 11312 11313 11314 11315 11316 11317 11318 11319 11320 11321 11322 11323 11324 11325 11326 11327 11328 11329 11330 11331 11332 11333 11334 11335 11336 11337 11338 11339 11340 11341 11342 11343 11344 11345 11346 11347 11348 11349 11350 11351 11352 11353 11354 11355 11356 11357 11358 11359 11360 11361 11362 11363 11364 11365 11366 11367 11368 11369 11370 11371 11372 11373 11374 11375 11376 11377 11378 11379 11380 11381 11382 11383 11384 11385 11386 11387 11388 11389 11390 11391 11392 11393 11394 11395 11396 11397 11398 11399 11400 11401 11402 11403 11404 11405 11406 11407 11408 11409 11410 11411 11412 11413 11414 11415 11416 11417 11418 11419 11420 11421 11422 11423 11424 11425 11426 11427 11428 11429 11430 11431 11432 11433 11434 11435 11436 11437 11438 11439 11440 11441 11442 11443 11444 11445 11446 11447 11448 11449 11450 11451 11452 11453 11454 11455 11456 11457 11458 11459 11460 11461 11462 11463 11464 11465 11466 11467 11468 11469 11470 11471 11472 11473 11474 11475 11476 11477 11478 11479 11480 11481 11482 11483 11484 11485 11486 11487 11488 11489 11490 11491 11492 11493 11494 11495 11496 11497 11498 11499 11500 11501 11502 11503 11504 11505 11506 11507 11508 11509 11510 11511 11512 11513 11514 11515 11516 11517 11518 11519 11520 11521 11522 11523 11524 11525 11526 11527 11528 11529 11530 11531 11532 11533 11534 11535 11536 11537 11538 11539 11540 11541 11542 11543 11544 11545 11546 11547 11548 11549 11550 11551 11552 11553 11554 11555 11556 11557 11558 11559 11560 11561 11562 11563 11564 11565 11566 11567 11568 11569 11570 11571 11572 11573 11574 11575 11576 11577 11578 11579 11580 11581 11582 11583 11584 11585 11586 11587 11588 11589 11590 11591 11592 11593 11594 11595 11596 11597 11598 11599 11600 11601 11602 11603 11604 11605 11606 11607 11608 11609 11610 11611 11612 11613 11614 11615 11616 11617 11618 11619 11620 11621 11622 11623 11624 11625 11626 11627 11628 11629 11630 11631 11632 11633 11634 11635 11636 11637 11638 11639 11640 11641 11642 11643 11644 11645 11646 11647 11648 11649 11650 11651 11652 11653 11654 11655 11656 11657 11658 11659 11660 11661 11662 11663 11664 11665 11666 11667 11668 11669 11670 11671 11672 11673 11674 11675 11676 11677 11678 11679 11680 11681 11682 11683 11684 11685 11686 11687 11688 11689 11690 11691 11692 11693 11694 11695 11696 11697 11698 11699 11700 11701 11702 11703 11704 11705 11706 11707 11708 11709 11710 11711 11712 11713 11714 11715 11716 11717 11718 11719 11720 11721 11722 11723 11724 11725 11726 11727 11728 11729 11730 11731 11732 11733 11734 11735 11736 11737 11738 11739 11740 11741 11742 11743 11744 11745 11746 11747 11748 11749 11750 11751 11752 11753 11754 11755 11756 11757 11758 11759 11760 11761 11762 11763 11764 11765 11766 11767 11768 11769 11770 11771 11772 11773 11774 11775 11776 11777 11778 11779 11780 11781 11782 11783 11784 11785 11786 11787 11788 11789 11790 11791 11792 11793 11794 11795 11796 11797 11798 11799 11800 11801 11802 11803 11804 11805 11806 11807 11808 11809 11810 11811 11812 11813 11814 11815 11816 11817 11818 11819 11820 11821 11822 11823 11824 11825 11826 11827 11828 11829 11830 11831 11832 11833 11834 11835 11836 11837 11838 11839 11840 11841 11842 11843 11844 11845 11846 11847 11848 11849 11850 11851 11852 11853 11854 11855 11856 11857 11858 11859 11860 11861 11862 11863 11864 11865 11866 11867 11868 11869 11870 11871 11872 11873 11874 11875 11876 11877 11878 11879 11880 11881 11882 11883 11884 11885 11886 11887 11888 11889 11890 11891 11892 11893 11894 11895 11896 11897 11898 11899 11900 11901 11902 11903 11904 11905 11906 11907 11908 11909 11910 11911 11912 11913 11914 11915 11916 11917 11918 11919 11920 11921 11922 11923 11924 11925 11926 11927 11928 11929 11930 11931 11932 11933 11934 11935 11936 11937 11938 11939 11940 11941 11942 11943 11944 11945 11946 11947 11948 11949 11950 11951 11952 11953 11954 11955 11956 11957 11958 11959 11960 11961 11962 11963 11964 11965 11966 11967 11968 11969 11970 11971 11972 11973 11974 11975 11976 11977 11978 11979 11980 11981 11982 11983 11984 11985 11986 11987 11988 11989 11990 11991 11992 11993 11994 11995 11996 11997 11998 11999 12000 12001 12002 12003 12004 12005 12006 12007 12008 12009 12010 12011 12012 12013 12014 12015 12016 12017 12018 12019 12020 12021 12022 12023 12024 12025 12026 12027 12028 12029 12030 12031 12032 12033 12034 12035 12036 12037 12038 12039 12040 12041 12042 12043 12044 12045 12046 12047 12048 12049 12050 12051 12052 12053 12054 12055 12056 12057 12058 12059 12060 12061 12062 12063 12064 12065 12066 12067 12068 12069 12070 12071 12072 12073 12074 12075 12076 12077 12078 12079 12080 12081 12082 12083 12084 12085 12086 12087 12088 12089 12090 12091 12092 12093 12094 12095 12096 12097 12098 12099 12100 12101 12102 12103 12104 12105 12106 12107 12108 12109 12110 12111 12112 12113 12114 12115 12116 12117 12118 12119 12120 12121 12122 12123 12124 12125 12126 12127 12128 12129 12130 12131 12132 12133 12134 12135 12136 12137 12138 12139 12140 12141 12142 12143 12144 12145 12146 12147 12148 12149 12150 12151 12152 12153 12154 12155 12156 12157 12158 12159 12160 12161 12162 12163 12164 12165 12166 12167 12168 12169 12170 12171 12172 12173 12174 12175 12176 12177 12178 12179 12180 12181 12182 12183 12184 12185 12186 12187 12188 12189 12190 12191 12192 12193 12194 12195 12196 12197 12198 12199 12200 12201 12202 12203 12204 12205 12206 12207 12208 12209 12210 12211 12212 12213 12214 12215 12216 12217 12218 12219 12220 12221 12222 12223 12224 12225 12226 12227 12228 12229 12230 12231 12232 12233 12234 12235 12236 12237 12238 12239 12240 12241 12242 12243 12244 12245 12246 12247 12248 12249 12250 12251 12252 12253 12254 12255 12256 12257 12258 12259 12260 12261 12262 12263 12264 12265 12266 12267 12268 12269 12270 12271 12272 12273 12274 12275 12276 12277 12278 12279 12280 12281 12282 12283 12284 12285 12286 12287 12288 12289 12290 12291 12292 12293 12294 12295 12296 12297 12298 12299 12300 12301 12302 12303 12304 12305 12306 12307 12308 12309 12310 12311 12312 12313 12314 12315 12316 12317 12318 12319 12320 12321 12322 12323 12324 12325 12326 12327 12328 12329 12330 12331 12332 12333 12334 12335 12336 12337 12338 12339 12340 12341 12342 12343 12344 12345 12346 12347 12348 12349 12350 12351 12352 12353 12354 12355 12356 12357 12358 12359 12360 12361 12362 12363 12364 12365 12366 12367 12368 12369 12370 12371 12372 12373 12374 12375 12376 12377 12378 12379 12380 12381 12382 12383 12384 12385 12386 12387 12388 12389 12390 12391 12392 12393 12394 12395 12396 12397 12398 12399 12400 12401 12402 12403 12404 12405 12406 12407 12408 12409 12410 12411 12412 12413 12414 12415 12416 12417 12418 12419 12420 12421 12422 12423 12424 12425 12426 12427 12428 12429 12430 12431 12432 12433 12434 12435 12436 12437 12438 12439 12440 12441 12442 12443 12444 12445 12446 12447 12448 12449 12450 12451 12452 12453 12454 12455 12456 12457 12458 12459 12460 12461 12462 12463 12464 12465 12466 12467 12468 12469 12470 12471 12472 12473 12474 12475 12476 12477 12478 12479 12480 12481 12482 12483 12484 12485 12486 12487 12488 12489 12490 12491 12492 12493 12494 12495 12496 12497 12498 12499 12500 12501 12502 12503 12504 12505 12506 12507 12508 12509 12510 12511 12512 12513 12514 12515 12516 12517 12518 12519 12520 12521 12522 12523 12524 12525 12526 12527 12528 12529 12530 12531 12532 12533 12534 12535 12536 12537 12538 12539 12540 12541 12542 12543 12544 12545 12546 12547 12548 12549 12550 12551 12552 12553 12554 12555 12556 12557 12558 12559 12560 12561 12562 12563 12564 12565 12566 12567 12568 12569 12570 12571 12572 12573 12574 12575 12576 12577 12578 12579 12580 12581 12582 12583 12584 12585 12586 12587 12588 12589 12590 12591 12592 12593 12594 12595 12596 12597 12598 12599 12600 12601 12602 12603 12604 12605 12606 12607 12608 12609 12610 12611 12612 12613 12614 12615 12616 12617 12618 12619 12620 12621 12622 12623 12624 12625 12626 12627 12628 12629 12630 12631 12632 12633 12634 12635 12636 12637 12638 12639 12640 12641 12642 12643 12644 12645 12646 12647 12648 12649 12650 12651 12652 12653 12654 12655 12656 12657 12658 12659 12660 12661 12662 12663 12664 12665 12666 12667 12668 12669 12670 12671 12672 12673 12674 12675 12676 12677 12678 12679 12680 12681 12682 12683 12684 12685 12686 12687 12688 12689 12690 12691 12692 12693 12694 12695 12696 12697 12698 12699 12700 12701 12702 12703 12704 12705 12706 12707 12708 12709 12710 12711 12712 12713 12714 12715 12716 12717 12718 12719 12720 12721 12722 12723 12724 12725 12726 12727 12728 12729 12730 12731 12732 12733 12734 12735 12736 12737 12738 12739 12740 12741 12742 12743 12744 12745 12746 12747 12748 12749 12750 12751 12752 12753 12754 12755 12756 12757 12758 12759 12760 12761 12762 12763 12764 12765 12766 12767 12768 12769 12770 12771 12772 12773 12774 12775 12776 12777 12778 12779 12780 12781 12782 12783 12784 12785 12786 12787 12788 12789 12790 12791 12792 12793 12794 12795 12796 12797 12798 12799 12800 12801 12802 12803 12804 12805 12806 12807 12808 12809 12810 12811 12812 12813 12814 12815 12816 12817 12818 12819 12820 12821 12822 12823 12824 12825 12826 12827 12828 12829 12830 12831 12832 12833 12834 12835 12836 12837 12838 12839 12840 12841 12842 12843 12844 12845 12846 12847 12848 12849 12850 12851 12852 12853 12854 12855 12856 12857 12858 12859 12860 12861 12862 12863 12864 12865 12866 12867 12868 12869 12870 12871 12872 12873 12874 12875 12876 12877 12878 12879 12880 12881 12882 12883 12884 12885 12886 12887 12888 12889 12890 12891 12892 12893 12894 12895 12896 12897 12898 12899 12900 12901 12902 12903 12904 12905 12906 12907 12908 12909 12910 12911 12912 12913 12914 12915 12916 12917 12918 12919 12920 12921 12922 12923 12924 12925 12926 12927 12928 12929 12930 12931 12932 12933 12934 12935 12936 12937 12938 12939 12940 12941 12942 12943 12944 12945 12946 12947 12948 12949 12950 12951 12952 12953 12954 12955 12956 12957 12958 12959 12960 12961 12962 12963 12964 12965 12966 12967 12968 12969 12970 12971 12972 12973 12974 12975 12976 12977 12978 12979 12980 12981 12982 12983 12984 12985 12986 12987 12988 12989 12990 12991 12992 12993 12994 12995 12996 12997 12998 12999 13000 13001 13002 13003 13004 13005 13006 13007 13008 13009 13010 13011 13012 13013 13014 13015 13016 13017 13018 13019 13020 13021 13022 13023 13024 13025 13026 13027 13028 13029 13030 13031 13032 13033 13034 13035 13036 13037 13038 13039 13040 13041 13042 13043 13044 13045 13046 13047 13048 13049 13050 13051 13052 13053 13054 13055 13056 13057 13058 13059 13060 13061 13062 13063 13064 13065 13066 13067 13068 13069 13070 13071 13072 13073 13074 13075 13076 13077 13078 13079 13080 13081 13082 13083 13084 13085 13086 13087 13088 13089 13090 13091 13092 13093 13094 13095 13096 13097 13098 13099 13100 13101 13102 13103 13104 13105 13106 13107 13108 13109 13110 13111 13112 13113 13114 13115 13116 13117 13118 13119 13120 13121 13122 13123 13124 13125 13126 13127 13128 13129 13130 13131 13132 13133 13134 13135 13136 13137 13138 13139 13140 13141 13142 13143 13144 13145 13146 13147 13148 13149 13150 13151 13152 13153 13154 13155 13156 13157 13158 13159 13160 13161 13162 13163 13164 13165 13166 13167 13168 13169 13170 13171 13172 13173 13174 13175 13176 13177 13178 13179 13180 13181 13182 13183 13184 13185 13186 13187 13188 13189 13190 13191 13192 13193 13194 13195 13196 13197 13198 13199 13200 13201 13202 13203 13204 13205 13206 13207 13208 13209 13210 13211 13212 13213 13214 13215 13216 13217 13218 13219 13220 13221 13222 13223 13224 13225 13226 13227 13228 13229 13230 13231 13232 13233 13234 13235 13236 13237 13238 13239 13240 13241 13242 13243 13244 13245 13246 13247 13248 13249 13250 13251 13252 13253 13254 13255 13256 13257 13258 13259 13260 13261 13262 13263 13264 13265 13266 13267 13268 13269 13270 13271 13272 13273 13274 13275 13276 13277 13278 13279 13280 13281 13282 13283 13284 13285 13286 13287 13288 13289 13290 13291 13292 13293 13294 13295 13296 13297 13298 13299 13300 13301 13302 13303 13304 13305 13306 13307 13308 13309 13310 13311 13312 13313 13314 13315 13316 13317 13318 13319 13320 13321 13322 13323 13324 13325 13326 13327 13328 13329 13330 13331 13332 13333 13334 13335 13336 13337 13338 13339 13340 13341 13342 13343 13344 13345 13346 13347 13348 13349 13350 13351 13352 13353 13354 13355 13356 13357 13358 13359 13360 13361 13362 13363 13364 13365 13366 13367 13368 13369 13370 13371 13372 13373 13374 13375 13376 13377 13378 13379 13380 13381 13382 13383 13384 13385 13386 13387 13388 13389 13390 13391 13392 13393 13394 13395 13396 13397 13398 13399 13400 13401 13402 13403 13404 13405 13406 13407 13408 13409 13410 13411 13412 13413 13414 13415 13416 13417 13418 13419 13420 13421 13422 13423 13424 13425 13426 13427 13428 13429 13430 13431 13432 13433 13434 13435 13436 13437 13438 13439 13440 13441 13442 13443 13444 13445 13446 13447 13448 13449 13450 13451 13452 13453 13454 13455 13456 13457 13458 13459 13460 13461 13462 13463 13464 13465 13466 13467 13468 13469 13470 13471 13472 13473 13474 13475 13476 13477 13478 13479 13480 13481 13482 13483 13484 13485 13486 13487 13488 13489 13490 13491 13492 13493 13494 13495 13496 13497 13498 13499 13500 13501 13502 13503 13504 13505 13506 13507 13508 13509 13510 13511 13512 13513 13514 13515 13516 13517 13518 13519 13520 13521 13522 13523 13524 13525 13526 13527 13528 13529 13530 13531 13532 13533 13534 13535 13536 13537 13538 13539 13540 13541 13542 13543 13544 13545 13546 13547 13548 13549 13550 13551 13552 13553 13554 13555 13556 13557 13558 13559 13560 13561 13562 13563 13564 13565 13566 13567 13568 13569 13570 13571 13572 13573 13574 13575 13576 13577 13578 13579 13580 13581 13582 13583 13584 13585 13586 13587 13588 13589 13590 13591 13592 13593 13594 13595 13596 13597 13598 13599 13600 13601 13602 13603 13604 13605 13606 13607 13608 13609 13610 13611 13612 13613 13614 13615 13616 13617 13618 13619 13620 13621 13622 13623 13624 13625 13626 13627 13628 13629 13630 13631 13632 13633 13634 13635 13636 13637 13638 13639 13640 13641 13642 13643 13644 13645 13646 13647 13648 13649 13650 13651 13652 13653 13654 13655 13656 13657 13658 13659 13660 13661 13662 13663 13664 13665 13666 13667 13668 13669 13670 13671 13672 13673 13674 13675 13676 13677 13678 13679 13680 13681 13682 13683 13684 13685 13686 13687 13688 13689 13690 13691 13692 13693 13694 13695 13696 13697 13698 13699 13700 13701 13702 13703 13704 13705 13706 13707 13708 13709 13710 13711 13712 13713 13714 13715 13716 13717 13718 13719 13720 13721 13722 13723 13724 13725 13726 13727 13728 13729 13730 13731 13732 13733 13734 13735 13736 13737 13738 13739 13740 13741 13742 13743 13744 13745 13746 13747 13748 13749 13750 13751 13752 13753 13754 13755 13756 13757 13758 13759 13760 13761 13762 13763 13764 13765 13766 13767 13768 13769 13770 13771 13772 13773 13774 13775 13776 13777 13778 13779 13780 13781 13782 13783 13784 13785 13786 13787 13788 13789 13790 13791 13792 13793 13794 13795 13796 13797 13798 13799 13800 13801 13802 13803 13804 13805 13806 13807 13808 13809 13810 13811 13812 13813 13814 13815 13816 13817 13818 13819 13820 13821 13822 13823 13824 13825 13826 13827 13828 13829 13830 13831 13832 13833 13834 13835 13836 13837 13838 13839 13840 13841 13842 13843 13844 13845 13846 13847 13848 13849 13850 13851 13852 13853 13854 13855 13856 13857 13858 13859 13860 13861 13862 13863 13864 13865 13866 13867 13868 13869 13870 13871 13872 13873 13874 13875 13876 13877 13878 13879 13880 13881 13882 13883 13884 13885 13886 13887 13888 13889 13890 13891 13892 13893 13894 13895 13896 13897 13898 13899 13900 13901 13902 13903 13904 13905 13906 13907 13908 13909 13910 13911 13912 13913 13914 13915 13916 13917 13918 13919 13920 13921 13922 13923 13924 13925 13926 13927 13928 13929 13930 13931 13932 13933 13934 13935 13936 13937 13938 13939 13940 13941 13942 13943 13944 13945 13946 13947 13948 13949 13950 13951 13952 13953 13954 13955 13956 13957 13958 13959 13960 13961 13962 13963 13964 13965 13966 13967 13968 13969 13970 13971 13972 13973 13974 13975 13976 13977 13978 13979 13980 13981 13982 13983 13984 13985 13986 13987 13988 13989 13990 13991 13992 13993 13994 13995 13996 13997 13998 13999 14000 14001 14002 14003 14004 14005 14006 14007 14008 14009 14010 14011 14012 14013 14014 14015 14016 14017 14018 14019 14020 14021 14022 14023 14024 14025 14026 14027 14028 14029 14030 14031 14032 14033 14034 14035 14036 14037 14038 14039 14040 14041 14042 14043 14044 14045 14046 14047 14048 14049 14050 14051 14052 14053 14054 14055 14056 14057 14058 14059 14060 14061 14062 14063 14064 14065 14066 14067 14068 14069 14070 14071 14072 14073 14074 14075 14076 14077 14078 14079 14080 14081 14082 14083 14084 14085 14086 14087 14088 14089 14090 14091 14092 14093 14094 14095 14096 14097 14098 14099 14100 14101 14102 14103 14104 14105 14106 14107 14108 14109 14110 14111 14112 14113 14114 14115 14116 14117 14118 14119 14120 14121 14122 14123 14124 14125 14126 14127 14128 14129 14130 14131 14132 14133 14134 14135 14136 14137 14138 14139 14140 14141 14142 14143 14144 14145 14146 14147 14148 14149 14150 14151 14152 14153 14154 14155 14156 14157 14158 14159 14160 14161 14162 14163 14164 14165 14166 14167 14168 14169 14170 14171 14172 14173 14174 14175 14176 14177 14178 14179 14180 14181 14182 14183 14184 14185 14186 14187 14188 14189 14190 14191 14192 14193 14194 14195 14196 14197 14198 14199 14200 14201 14202 14203 14204 14205 14206 14207 14208 14209 14210 14211 14212 14213 14214 14215 14216 14217 14218 14219 14220 14221 14222 14223 14224 14225 14226 14227 14228 14229 14230 14231 14232 14233 14234 14235 14236 14237 14238 14239 14240 14241 14242 14243 14244 14245 14246 14247 14248 14249 14250 14251 14252 14253 14254 14255 14256 14257 14258 14259 14260 14261 14262 14263 14264 14265 14266 14267 14268 14269 14270 14271 14272 14273 14274 14275 14276 14277 14278 14279 14280 14281 14282 14283 14284 14285 14286 14287 14288 14289 14290 14291 14292 14293 14294 14295 14296 14297 14298 14299 14300 14301 14302 14303 14304 14305 14306 14307 14308 14309 14310 14311 14312 14313 14314 14315 14316 14317 14318 14319 14320 14321 14322 14323 14324 14325 14326 14327 14328 14329 14330 14331 14332 14333 14334 14335 14336 14337 14338 14339 14340 14341 14342 14343 14344 14345 14346 14347 14348 14349 14350 14351 14352 14353 14354 14355 14356 14357 14358 14359 14360 14361 14362 14363 14364 14365 14366 14367 14368 14369 14370 14371 14372 14373 14374 14375 14376 14377 14378 14379 14380 14381 14382 14383 14384 14385 14386 14387 14388 14389 14390 14391 14392 14393 14394 14395 14396 14397 14398 14399 14400 14401 14402 14403 14404 14405 14406 14407 14408 14409 14410 14411 14412 14413 14414 14415 14416 14417 14418 14419 14420 14421 14422 14423 14424 14425 14426 14427 14428 14429 14430 14431 14432 14433 14434 14435 14436 14437 14438 14439 14440 14441 14442 14443 14444 14445 14446 14447 14448 14449 14450 14451 14452 14453 14454 14455 14456 14457 14458 14459 14460 14461 14462 14463 14464 14465 14466 14467 14468 14469 14470 14471 14472 14473 14474 14475 14476 14477 14478 14479 14480 14481 14482 14483 14484 14485 14486 14487 14488 14489 14490 14491 14492 14493 14494 14495 14496 14497 14498 14499 14500 14501 14502 14503 14504 14505 14506 14507 14508 14509 14510 14511 14512 14513 14514 14515 14516 14517 14518 14519 14520 14521 14522 14523 14524 14525 14526 14527 14528 14529 14530 14531 14532 14533 14534 14535 14536 14537 14538 14539 14540 14541 14542 14543 14544 14545 14546 14547 14548 14549 14550 14551 14552 14553 14554 14555 14556 14557 14558 14559 14560 14561 14562 14563 14564 14565 14566 14567 14568 14569 14570 14571 14572 14573 14574 14575 14576 14577 14578 14579 14580 14581 14582 14583 14584 14585 14586 14587 14588 14589 14590 14591 14592 14593 14594 14595 14596 14597 14598 14599 14600 14601 14602 14603 14604 14605 14606 14607 14608 14609 14610 14611 14612 14613 14614 14615 14616 14617 14618 14619 14620 14621 14622 14623 14624 14625 14626 14627 14628 14629 14630 14631 14632 14633 14634 14635 14636 14637 14638 14639 14640 14641 14642 14643 14644 14645 14646 14647 14648 14649 14650 14651 14652 14653 14654 14655 14656 14657 14658 14659 14660 14661 14662 14663 14664 14665 14666 14667 14668 14669 14670 14671 14672 14673 14674 14675 14676 14677 14678 14679 14680 14681 14682 14683 14684 14685 14686 14687 14688 14689 14690 14691 14692 14693 14694 14695 14696 14697 14698 14699 14700 14701 14702 14703 14704 14705 14706 14707 14708 14709 14710 14711 14712 14713 14714 14715 14716 14717 14718 14719 14720 14721 14722 14723 14724 14725 14726 14727 14728 14729 14730 14731 14732 14733 14734 14735 14736 14737 14738 14739 14740 14741 14742 14743 14744 14745 14746 14747 14748 14749 14750 14751 14752 14753 14754 14755 14756 14757 14758 14759 14760 14761 14762 14763 14764 14765 14766 14767 14768 14769 14770 14771 14772 14773 14774 14775 14776 14777 14778 14779 14780 14781 14782 14783 14784 14785 14786 14787 14788 14789 14790 14791 14792 14793 14794 14795 14796 14797 14798 14799 14800 14801 14802 14803 14804 14805 14806 14807 14808 14809 14810 14811 14812 14813 14814 14815 14816 14817 14818 14819 14820 14821 14822 14823 14824 14825 14826 14827 14828 14829 14830 14831 14832 14833 14834 14835 14836 14837 14838 14839 14840 14841 14842 14843 14844 14845 14846 14847 14848 14849 14850 14851 14852 14853 14854 14855 14856 14857 14858 14859 14860 14861 14862 14863 14864 14865 14866 14867 14868 14869 14870 14871 14872 14873 14874 14875 14876 14877 14878 14879 14880 14881 14882 14883 14884 14885 14886 14887 14888 14889 14890 14891 14892 14893 14894 14895 14896 14897 14898 14899 14900 14901 14902 14903 14904 14905 14906 14907 14908 14909 14910 14911 14912 14913 14914 14915 14916 14917 14918 14919 14920 14921 14922 14923 14924 14925 14926 14927 14928 14929 14930 14931 14932 14933 14934 14935 14936 14937 14938 14939 14940 14941 14942 14943 14944 14945 14946 14947 14948 14949 14950 14951 14952 14953 14954 14955 14956 14957 14958 14959 14960 14961 14962 14963 14964 14965 14966 14967 14968 14969 14970 14971 14972 14973 14974 14975 14976 14977 14978 14979 14980 14981 14982 14983 14984 14985 14986 14987 14988 14989 14990 14991 14992 14993 14994 14995 14996 14997 14998 14999 15000 15001 15002 15003 15004 15005 15006 15007 15008 15009 15010 15011 15012 15013 15014 15015 15016 15017 15018 15019 15020 15021 15022 15023 15024 15025 15026 15027 15028 15029 15030 15031 15032 15033 15034 15035 15036 15037 15038 15039 15040 15041 15042 15043 15044 15045 15046 15047 15048 15049 15050 15051 15052 15053 15054 15055 15056 15057 15058 15059 15060 15061 15062 15063 15064 15065 15066 15067 15068 15069 15070 15071 15072 15073 15074 15075 15076 15077 15078 15079 15080 15081 15082 15083 15084 15085 15086 15087 15088 15089 15090 15091 15092 15093 15094 15095 15096 15097 15098 15099 15100 15101 15102 15103 15104 15105 15106 15107 15108 15109 15110 15111 15112 15113 15114 15115 15116 15117 15118 15119 15120 15121 15122 15123 15124 15125 15126 15127 15128 15129 15130 15131 15132 15133 15134 15135 15136 15137 15138 15139 15140 15141 15142 15143 15144 15145 15146 15147 15148 15149 15150 15151 15152 15153 15154 15155 15156 15157 15158 15159 15160 15161 15162 15163 15164 15165 15166 15167 15168 15169 15170 15171 15172 15173 15174 15175 15176 15177 15178 15179 15180 15181 15182 15183 15184 15185 15186 15187 15188 15189 15190 15191 15192 15193 15194 15195 15196 15197 15198 15199 15200 15201 15202 15203 15204 15205 15206 15207 15208 15209 15210 15211 15212 15213 15214 15215 15216 15217 15218 15219 15220 15221 15222 15223 15224 15225 15226 15227 15228 15229 15230 15231 15232 15233 15234 15235 15236 15237 15238 15239 15240 15241 15242 15243 15244 15245 15246 15247 15248 15249 15250 15251 15252 15253 15254 15255 15256 15257 15258 15259 15260 15261 15262 15263 15264 15265 15266 15267 15268 15269 15270 15271 15272 15273 15274 15275 15276 15277 15278 15279 15280 15281 15282 15283 15284 15285 15286 15287 15288 15289 15290 15291 15292 15293 15294 15295 15296 15297 15298 15299 15300 15301 15302 15303 15304 15305 15306 15307 15308 15309 15310 15311 15312 15313 15314 15315 15316 15317 15318 15319 15320 15321 15322 15323 15324 15325 15326 15327 15328 15329 15330 15331 15332 15333 15334 15335 15336 15337 15338 15339 15340 15341 15342 15343 15344 15345 15346 15347 15348 15349 15350 15351 15352 15353 15354 15355 15356 15357 15358 15359 15360 15361 15362 15363 15364 15365 15366 15367 15368 15369 15370 15371 15372 15373 15374 15375 15376 15377 15378 15379 15380 15381 15382 15383 15384 15385 15386 15387 15388 15389 15390 15391 15392 15393 15394 15395 15396 15397 15398 15399 15400 15401 15402 15403 15404 15405 15406 15407 15408 15409 15410 15411 15412 15413 15414 15415 15416 15417 15418 15419 15420 15421 15422 15423 15424 15425 15426 15427 15428 15429 15430 15431 15432 15433 15434 15435 15436 15437 15438 15439 15440 15441 15442 15443 15444 15445 15446 15447 15448 15449 15450 15451 15452 15453 15454 15455 15456 15457 15458 15459 15460 15461 15462 15463 15464 15465 15466 15467 15468 15469 15470 15471 15472 15473 15474 15475 15476 15477 15478 15479 15480 15481 15482 15483 15484 15485 15486 15487 15488 15489 15490 15491 15492 15493 15494 15495 15496 15497 15498 15499 15500 15501 15502 15503 15504 15505 15506 15507 15508 15509 15510 15511 15512 15513 15514 15515 15516 15517 15518 15519 15520 15521 15522 15523 15524 15525 15526 15527 15528 15529 15530 15531 15532 15533 15534 15535 15536 15537 15538 15539 15540 15541 15542 15543 15544 15545 15546 15547 15548 15549 15550 15551 15552 15553 15554 15555 15556 15557 15558 15559 15560 15561 15562 15563 15564 15565 15566 15567 15568 15569 15570 15571 15572 15573 15574 15575 15576 15577 15578 15579 15580 15581 15582 15583 15584 15585 15586 15587 15588 15589 15590 15591 15592 15593 15594 15595 15596 15597 15598 15599 15600 15601 15602 15603 15604 15605 15606 15607 15608 15609 15610 15611 15612 15613 15614 15615 15616 15617 15618 15619 15620 15621 15622 15623 15624 15625 15626 15627 15628 15629 15630 15631 15632 15633 15634 15635 15636 15637 15638 15639 15640 15641 15642 15643 15644 15645 15646 15647 15648 15649 15650 15651 15652 15653 15654 15655 15656 15657 15658 15659 15660 15661 15662 15663 15664 15665 15666 15667 15668 15669 15670 15671 15672 15673 15674 15675 15676 15677 15678 15679 15680 15681 15682 15683 15684 15685 15686 15687 15688 15689 15690 15691 15692 15693 15694 15695 15696 15697 15698 15699 15700 15701 15702 15703 15704 15705 15706 15707 15708 15709 15710 15711 15712 15713 15714 15715 15716 15717 15718 15719 15720 15721 15722 15723 15724 15725 15726 15727 15728 15729 15730 15731 15732 15733 15734 15735 15736 15737 15738 15739 15740 15741 15742 15743 15744 15745 15746 15747 15748 15749 15750 15751 15752 15753 15754 15755 15756 15757 15758 15759 15760 15761 15762 15763 15764 15765 15766 15767 15768 15769 15770 15771 15772 15773 15774 15775 15776 15777 15778 15779 15780 15781 15782 15783 15784 15785 15786 15787 15788 15789 15790 15791 15792 15793 15794 15795 15796 15797 15798 15799 15800 15801 15802 15803 15804 15805 15806 15807 15808 15809 15810 15811 15812 15813 15814 15815 15816 15817 15818 15819 15820 15821 15822 15823 15824 15825 15826 15827 15828 15829 15830 15831 15832 15833 15834 15835 15836 15837 15838 15839 15840 15841 15842 15843 15844 15845 15846 15847 15848 15849 15850 15851 15852 15853 15854 15855 15856 15857 15858 15859 15860 15861 15862 15863 15864 15865 15866 15867 15868 15869 15870 15871 15872 15873 15874 15875 15876 15877 15878 15879 15880 15881 15882 15883 15884 15885 15886 15887 15888 15889 15890 15891 15892 15893 15894 15895 15896 15897 15898 15899 15900 15901 15902 15903 15904 15905 15906 15907 15908 15909 15910 15911 15912 15913 15914 15915 15916 15917 15918 15919 15920 15921 15922 15923 15924 15925 15926 15927 15928 15929 15930 15931 15932 15933 15934 15935 15936 15937 15938 15939 15940 15941 15942 15943 15944 15945 15946 15947 15948 15949 15950 15951 15952 15953 15954 15955 15956 15957 15958 15959 15960 15961 15962 15963 15964 15965 15966 15967 15968 15969 15970 15971 15972 15973 15974 15975 15976 15977 15978 15979 15980 15981 15982 15983 15984 15985 15986 15987 15988 15989 15990 15991 15992 15993 15994 15995 15996 15997 15998 15999 16000 16001 16002 16003 16004 16005 16006 16007 16008 16009 16010 16011 16012 16013 16014 16015 16016 16017 16018 16019 16020 16021 16022 16023 16024 16025 16026 16027 16028 16029 16030 16031 16032 16033 16034 16035 16036 16037 16038 16039 16040 16041 16042 16043 16044 16045 16046 16047 16048 16049 16050 16051 16052 16053 16054 16055 16056 16057 16058 16059 16060 16061 16062 16063 16064 16065 16066 16067 16068 16069 16070 16071 16072 16073 16074 16075 16076 16077 16078 16079 16080 16081 16082 16083 16084 16085 16086 16087 16088 16089 16090 16091 16092 16093 16094 16095 16096 16097 16098 16099 16100 16101 16102 16103 16104 16105 16106 16107 16108 16109 16110 16111 16112 16113 16114 16115 16116 16117 16118 16119 16120 16121 16122 16123 16124 16125 16126 16127 16128 16129 16130 16131 16132 16133 16134 16135 16136 16137 16138 16139 16140 16141 16142 16143 16144 16145 16146 16147 16148 16149 16150 16151 16152 16153 16154 16155 16156 16157 16158 16159 16160 16161 16162 16163 16164 16165 16166 16167 16168 16169 16170 16171 16172 16173 16174 16175 16176 16177 16178 16179 16180 16181 16182 16183 16184 16185 16186 16187 16188 16189 16190 16191 16192 16193 16194 16195 16196 16197 16198 16199 16200 16201 16202 16203 16204 16205 16206 16207 16208 16209 16210 16211 16212 16213 16214 16215 16216 16217 16218 16219 16220 16221 16222 16223 16224 16225 16226 16227 16228 16229 16230 16231 16232 16233 16234 16235 16236 16237 16238 16239 16240 16241 16242 16243 16244 16245 16246 16247 16248 16249 16250 16251 16252 16253 16254 16255 16256 16257 16258 16259 16260 16261 16262 16263 16264 16265 16266 16267 16268 16269 16270 16271 16272 16273 16274 16275 16276 16277 16278 16279 16280 16281 16282 16283 16284 16285 16286 16287 16288 16289 16290 16291 16292 16293 16294 16295 16296 16297 16298 16299 16300 16301 16302 16303 16304 16305 16306 16307 16308 16309 16310 16311 16312 16313 16314 16315 16316 16317 16318 16319 16320 16321 16322 16323 16324 16325 16326 16327 16328 16329 16330 16331 16332 16333 16334 16335 16336 16337 16338 16339 16340 16341 16342 16343 16344 16345 16346 16347 16348 16349 16350 16351 16352 16353 16354 16355 16356 16357 16358 16359 16360 16361 16362 16363 16364 16365 16366 16367 16368 16369 16370 16371 16372 16373 16374 16375 16376 16377 16378 16379 16380 16381 16382 16383 16384 16385 16386 16387 16388 16389 16390 16391 16392 16393 16394 16395 16396 16397 16398 16399 16400 16401 16402 16403 16404 16405 16406 16407 16408 16409 16410 16411 16412 16413 16414 16415 16416 16417 16418 16419 16420 16421 16422 16423 16424 16425 16426 16427 16428 16429 16430 16431 16432 16433 16434 16435 16436 16437 16438 16439 16440 16441 16442 16443 16444 16445 16446 16447 16448 16449 16450 16451 16452 16453 16454 16455 16456 16457 16458 16459 16460 16461 16462 16463 16464 16465 16466 16467 16468 16469 16470 16471 16472 16473 16474 16475 16476 16477 16478 16479 16480 16481 16482 16483 16484 16485 16486 16487 16488 16489 16490 16491 16492 16493 16494 16495 16496 16497 16498 16499 16500 16501 16502 16503 16504 16505 16506 16507 16508 16509 16510 16511 16512 16513 16514 16515 16516 16517 16518 16519 16520 16521 16522 16523 16524 16525 16526 16527 16528 16529 16530 16531 16532 16533 16534 16535 16536 16537 16538 16539 16540 16541 16542 16543 16544 16545 16546 16547 16548 16549 16550 16551 16552 16553 16554 16555 16556 16557 16558 16559 16560 16561 16562 16563 16564 16565 16566 16567 16568 16569 16570 16571 16572 16573 16574 16575 16576 16577 16578 16579 16580 16581 16582 16583 16584 16585 16586 16587 16588 16589 16590 16591 16592 16593 16594 16595 16596 16597 16598 16599 16600 16601 16602 16603 16604 16605 16606 16607 16608 16609 16610 16611 16612 16613 16614 16615 16616 16617 16618 16619 16620 16621 16622 16623 16624 16625 16626 16627 16628 16629 16630 16631 16632 16633 16634 16635 16636 16637 16638 16639 16640 16641 16642 16643 16644 16645 16646 16647 16648 16649 16650 16651 16652 16653 16654 16655 16656 16657 16658 16659 16660 16661 16662 16663 16664 16665 16666 16667 16668 16669 16670 16671 16672 16673 16674 16675 16676 16677 16678 16679 16680 16681 16682 16683 16684 16685 16686 16687 16688 16689 16690 16691 16692 16693 16694 16695 16696 16697 16698 16699 16700 16701 16702 16703 16704 16705 16706 16707 16708 16709 16710 16711 16712 16713 16714 16715 16716 16717 16718 16719 16720 16721 16722 16723 16724 16725 16726 16727 16728 16729 16730 16731 16732 16733 16734 16735 16736 16737 16738 16739 16740 16741 16742 16743 16744 16745 16746 16747 16748 16749 16750 16751 16752 16753 16754 16755 16756 16757 16758 16759 16760 16761 16762 16763 16764 16765 16766 16767 16768 16769 16770 16771 16772 16773 16774 16775 16776 16777 16778 16779 16780 16781 16782 16783 16784 16785 16786 16787 16788 16789 16790 16791 16792 16793 16794 16795 16796 16797 16798 16799 16800 16801 16802 16803 16804 16805 16806 16807 16808 16809 16810 16811 16812 16813 16814 16815 16816 16817 16818 16819 16820 16821 16822 16823 16824 16825 16826 16827 16828 16829 16830 16831 16832 16833 16834 16835 16836 16837 16838 16839 16840 16841 16842 16843 16844 16845 16846 16847 16848 16849 16850 16851 16852 16853 16854 16855 16856 16857 16858 16859 16860 16861 16862 16863 16864 16865 16866 16867 16868 16869 16870 16871 16872 16873 16874 16875 16876 16877 16878 16879 16880 16881 16882 16883 16884 16885 16886 16887 16888 16889 16890 16891 16892 16893 16894 16895 16896 16897 16898 16899 16900 16901 16902 16903 16904 16905 16906 16907 16908 16909 16910 16911 16912 16913 16914 16915 16916 16917 16918 16919 16920 16921 16922 16923 16924 16925 16926 16927 16928 16929 16930 16931 16932 16933 16934 16935 16936 16937 16938 16939 16940 16941 16942 16943 16944 16945 16946 16947 16948 16949 16950 16951 16952 16953 16954 16955 16956 16957 16958 16959 16960 16961 16962 16963 16964 16965 16966 16967 16968 16969 16970 16971 16972 16973 16974 16975 16976 16977 16978 16979 16980 16981 16982 16983 16984 16985 16986 16987 16988 16989 16990 16991 16992 16993 16994 16995 16996 16997 16998 16999 17000 17001 17002 17003 17004 17005 17006 17007 17008 17009 17010 17011 17012 17013 17014 17015 17016 17017 17018 17019 17020 17021 17022 17023 17024 17025 17026 17027 17028 17029 17030 17031 17032 17033 17034 17035 17036 17037 17038 17039 17040 17041 17042 17043 17044 17045 17046 17047 17048 17049 17050 17051 17052 17053 17054 17055 17056 17057 17058 17059 17060 17061 17062 17063 17064 17065 17066 17067 17068 17069 17070 17071 17072 17073 17074 17075 17076 17077 17078 17079 17080 17081 17082 17083 17084 17085 17086 17087 17088 17089 17090 17091 17092 17093 17094 17095 17096 17097 17098 17099 17100 17101 17102 17103 17104 17105 17106 17107 17108 17109 17110 17111 17112 17113 17114 17115 17116 17117 17118 17119 17120 17121 17122 17123 17124 17125 17126 17127 17128 17129 17130 17131 17132 17133 17134 17135 17136 17137 17138 17139 17140 17141 17142 17143 17144 17145 17146 17147 17148 17149 17150 17151 17152 17153 17154 17155 17156 17157 17158 17159 17160 17161 17162 17163 17164 17165 17166 17167 17168 17169 17170 17171 17172 17173 17174 17175 17176 17177 17178 17179 17180 17181 17182 17183 17184 17185 17186 17187 17188 17189 17190 17191 17192 17193 17194 17195 17196 17197 17198 17199 17200 17201 17202 17203 17204 17205 17206 17207 17208 17209 17210 17211 17212 17213 17214 17215 17216 17217 17218 17219 17220 17221 17222 17223 17224 17225 17226 17227 17228 17229 17230 17231 17232 17233 17234 17235 17236 17237 17238 17239 17240 17241 17242 17243 17244 17245 17246 17247 17248 17249 17250 17251 17252 17253 17254 17255 17256 17257 17258 17259 17260 17261 17262 17263 17264 17265 17266 17267 17268 17269 17270 17271 17272 17273 17274 17275 17276 17277 17278 17279 17280 17281 17282 17283 17284 17285 17286 17287 17288 17289 17290 17291 17292 17293 17294 17295 17296 17297 17298 17299 17300 17301 17302 17303 17304 17305 17306 17307 17308 17309 17310 17311 17312 17313 17314 17315 17316 17317 17318 17319 17320 17321 17322 17323 17324 17325 17326 17327 17328 17329 17330 17331 17332 17333 17334 17335 17336 17337 17338 17339 17340 17341 17342 17343 17344 17345 17346 17347 17348 17349 17350 17351 17352 17353 17354 17355 17356 17357 17358 17359 17360 17361 17362 17363 17364 17365 17366 17367 17368 17369 17370 17371 17372 17373 17374 17375 17376 17377 17378 17379 17380 17381 17382 17383 17384 17385 17386 17387 17388 17389 17390 17391 17392 17393 17394 17395 17396 17397 17398 17399 17400 17401 17402 17403 17404 17405 17406 17407 17408 17409 17410 17411 17412 17413 17414 17415 17416 17417 17418 17419 17420 17421 17422 17423 17424 17425 17426 17427 17428 17429 17430 17431 17432 17433 17434 17435 17436 17437 17438 17439 17440 17441 17442 17443 17444 17445 17446 17447 17448 17449 17450 17451 17452 17453 17454 17455 17456 17457 17458 17459 17460 17461 17462 17463 17464 17465 17466 17467 17468 17469 17470 17471 17472 17473 17474 17475 17476 17477 17478 17479 17480 17481 17482 17483 17484 17485 17486 17487 17488 17489 17490 17491 17492 17493 17494 17495 17496 17497 17498 17499 17500 17501 17502 17503 17504 17505 17506 17507 17508 17509 17510 17511 17512 17513 17514 17515 17516 17517 17518 17519 17520 17521 17522 17523 17524 17525 17526 17527 17528 17529 17530 17531 17532 17533 17534 17535 17536 17537 17538 17539 17540 17541 17542 17543 17544 17545 17546 17547 17548 17549 17550 17551 17552 17553 17554 17555 17556 17557 17558 17559 17560 17561 17562 17563 17564 17565 17566 17567 17568 17569 17570 17571 17572 17573 17574 17575 17576 17577 17578 17579 17580 17581 17582 17583 17584 17585 17586 17587 17588 17589 17590 17591 17592 17593 17594 17595 17596 17597 17598 17599 17600 17601 17602 17603 17604 17605 17606 17607 17608 17609 17610 17611 17612 17613 17614 17615 17616 17617 17618 17619 17620 17621 17622 17623 17624 17625 17626 17627 17628 17629 17630 17631 17632 17633 17634 17635 17636 17637 17638 17639 17640 17641 17642 17643 17644 17645 17646 17647 17648 17649 17650 17651 17652 17653 17654 17655 17656 17657 17658 17659 17660 17661 17662 17663 17664 17665 17666 17667 17668 17669 17670 17671 17672 17673 17674 17675 17676 17677 17678 17679 17680 17681 17682 17683 17684 17685 17686 17687 17688 17689 17690 17691 17692 17693 17694 17695 17696 17697 17698 17699 17700 17701 17702 17703 17704 17705 17706 17707 17708 17709 17710 17711 17712 17713 17714 17715 17716 17717 17718 17719 17720 17721 17722 17723 17724 17725 17726 17727 17728 17729 17730 17731 17732 17733 17734 17735 17736 17737 17738 17739 17740 17741 17742 17743 17744 17745 17746 17747 17748 17749 17750 17751 17752 17753 17754 17755 17756 17757 17758 17759 17760 17761 17762 17763 17764 17765 17766 17767 17768 17769 17770 17771 17772 17773 17774 17775 17776 17777 17778 17779 17780 17781 17782 17783 17784 17785 17786 17787 17788 17789 17790 17791 17792 17793 17794 17795 17796 17797 17798 17799 17800 17801 17802 17803 17804 17805 17806 17807 17808 17809 17810 17811 17812 17813 17814 17815 17816 17817 17818 17819 17820 17821 17822 17823 17824 17825 17826 17827 17828 17829 17830 17831 17832 17833 17834 17835 17836 17837 17838 17839 17840 17841 17842 17843 17844 17845 17846 17847 17848 17849 17850 17851 17852 17853 17854 17855 17856 17857 17858 17859 17860 17861 17862 17863 17864 17865 17866 17867 17868 17869 17870 17871 17872 17873 17874 17875 17876 17877 17878 17879 17880 17881 17882 17883 17884 17885 17886 17887 17888 17889 17890 17891 17892 17893 17894 17895 17896 17897 17898 17899 17900 17901 17902 17903 17904 17905 17906 17907 17908 17909 17910 17911 17912 17913 17914 17915 17916 17917 17918 17919 17920 17921 17922 17923 17924 17925 17926 17927 17928 17929 17930 17931 17932 17933 17934 17935 17936 17937 17938 17939 17940 17941 17942 17943 17944 17945 17946 17947 17948 17949 17950 17951 17952 17953 17954 17955 17956 17957 17958 17959 17960 17961 17962 17963 17964 17965 17966 17967 17968 17969 17970 17971 17972 17973 17974 17975 17976 17977 17978 17979 17980 17981 17982 17983 17984 17985 17986 17987 17988 17989 17990 17991 17992 17993 17994 17995 17996 17997 17998 17999 18000 18001 18002 18003 18004 18005 18006 18007 18008 18009 18010 18011 18012 18013 18014 18015 18016 18017 18018 18019 18020 18021 18022 18023 18024 18025 18026 18027 18028 18029 18030 18031 18032 18033 18034 18035 18036 18037 18038 18039 18040 18041 18042 18043 18044 18045 18046 18047 18048 18049 18050 18051 18052 18053 18054 18055 18056 18057 18058 18059 18060 18061 18062 18063 18064 18065 18066 18067 18068 18069 18070 18071 18072 18073 18074 18075 18076 18077 18078 18079 18080 18081 18082 18083 18084 18085 18086 18087 18088 18089 18090 18091 18092 18093 18094 18095 18096 18097 18098 18099 18100 18101 18102 18103 18104 18105 18106 18107 18108 18109 18110 18111 18112 18113 18114 18115 18116 18117 18118 18119 18120 18121 18122 18123 18124 18125 18126 18127 18128 18129 18130 18131 18132 18133 18134 18135 18136 18137 18138 18139 18140 18141 18142 18143 18144 18145 18146 18147 18148 18149 18150 18151 18152 18153 18154 18155 18156 18157 18158 18159 18160 18161 18162 18163 18164 18165 18166 18167 18168 18169 18170 18171 18172 18173 18174 18175 18176 18177 18178 18179 18180 18181 18182 18183 18184 18185 18186 18187 18188 18189 18190 18191 18192 18193 18194 18195 18196 18197 18198 18199 18200 18201 18202 18203 18204 18205 18206 18207 18208 18209 18210 18211 18212 18213 18214 18215 18216 18217 18218 18219 18220 18221 18222 18223 18224 18225 18226 18227 18228 18229 18230 18231 18232 18233 18234 18235 18236 18237 18238 18239 18240 18241 18242 18243 18244 18245 18246 18247 18248 18249 18250 18251 18252 18253 18254 18255 18256 18257 18258 18259 18260 18261 18262 18263 18264 18265 18266 18267 18268 18269 18270 18271 18272 18273 18274 18275 18276 18277 18278 18279 18280 18281 18282 18283 18284 18285 18286 18287 18288 18289 18290 18291 18292 18293 18294 18295 18296 18297 18298 18299 18300 18301 18302 18303 18304 18305 18306 18307 18308 18309 18310 18311 18312 18313 18314 18315 18316 18317 18318 18319 18320 18321 18322 18323 18324 18325 18326 18327 18328 18329 18330 18331 18332 18333 18334 18335 18336 18337 18338 18339 18340 18341 18342 18343 18344 18345 18346 18347 18348 18349 18350 18351 18352 18353 18354 18355 18356 18357 18358 18359 18360 18361 18362 18363 18364 18365 18366 18367 18368 18369 18370 18371 18372 18373 18374 18375 18376 18377 18378 18379 18380 18381 18382 18383 18384 18385 18386 18387 18388 18389 18390 18391 18392 18393 18394 18395 18396 18397 18398 18399 18400 18401 18402 18403 18404 18405 18406 18407 18408 18409 18410 18411 18412 18413 18414 18415 18416 18417 18418 18419 18420 18421 18422 18423 18424 18425 18426 18427 18428 18429 18430 18431 18432 18433 18434 18435 18436 18437 18438 18439 18440 18441 18442 18443 18444 18445 18446 18447 18448 18449 18450 18451 18452 18453 18454 18455 18456 18457 18458 18459 18460 18461 18462 18463 18464 18465 18466 18467 18468 18469 18470 18471 18472 18473 18474 18475 18476 18477 18478 18479 18480 18481 18482 18483 18484 18485 18486 18487 18488 18489 18490 18491 18492 18493 18494 18495 18496 18497 18498 18499 18500 18501 18502 18503 18504 18505 18506 18507 18508 18509 18510 18511 18512 18513 18514 18515 18516 18517 18518 18519 18520 18521 18522 18523 18524 18525 18526 18527 18528 18529 18530 18531 18532 18533 18534 18535 18536 18537 18538 18539 18540 18541 18542 18543 18544 18545 18546 18547 18548 18549 18550 18551 18552 18553 18554 18555 18556 18557 18558 18559 18560 18561 18562 18563 18564 18565 18566 18567 18568 18569 18570 18571 18572 18573 18574 18575 18576 18577 18578 18579 18580 18581 18582 18583 18584 18585 18586 18587 18588 18589 18590 18591 18592 18593 18594 18595 18596 18597 18598 18599 18600 18601 18602 18603 18604 18605 18606 18607 18608 18609 18610 18611 18612 18613 18614 18615 18616 18617 18618 18619 18620 18621 18622 18623 18624 18625 18626 18627 18628 18629 18630 18631 18632 18633 18634 18635 18636 18637 18638 18639 18640 18641 18642 18643 18644 18645 18646 18647 18648 18649 18650 18651 18652 18653 18654 18655 18656 18657 18658 18659 18660 18661 18662 18663 18664 18665 18666 18667 18668 18669 18670 18671 18672 18673 18674 18675 18676 18677 18678 18679 18680 18681 18682 18683 18684 18685 18686 18687 18688 18689 18690 18691 18692 18693 18694 18695 18696 18697 18698 18699 18700 18701 18702 18703 18704 18705 18706 18707 18708 18709 18710 18711 18712 18713 18714 18715 18716 18717 18718 18719 18720 18721 18722 18723 18724 18725 18726 18727 18728 18729 18730 18731 18732 18733 18734 18735 18736 18737 18738 18739 18740 18741 18742 18743 18744 18745 18746 18747 18748 18749 18750 18751 18752 18753 18754 18755 18756 18757 18758 18759 18760 18761 18762 18763 18764 18765 18766 18767 18768 18769 18770 18771 18772 18773 18774 18775 18776 18777 18778 18779 18780 18781 18782 18783 18784 18785 18786 18787 18788 18789 18790 18791 18792 18793 18794 18795 18796 18797 18798 18799 18800 18801 18802 18803 18804 18805 18806 18807 18808 18809 18810 18811 18812 18813 18814 18815 18816 18817 18818 18819 18820 18821 18822 18823 18824 18825 18826 18827 18828 18829 18830 18831 18832 18833 18834 18835 18836 18837 18838 18839 18840 18841 18842 18843 18844 18845 18846 18847 18848 18849 18850 18851 18852 18853 18854 18855 18856 18857 18858 18859 18860 18861 18862 18863 18864 18865 18866 18867 18868 18869 18870 18871 18872 18873 18874 18875 18876 18877 18878 18879 18880 18881 18882 18883 18884 18885 18886 18887 18888 18889 18890 18891 18892 18893 18894 18895 18896 18897 18898 18899 18900 18901 18902 18903 18904 18905 18906 18907 18908 18909 18910 18911 18912 18913 18914 18915 18916 18917 18918 18919 18920 18921 18922 18923 18924 18925 18926 18927 18928 18929 18930 18931 18932 18933 18934 18935 18936 18937 18938 18939 18940 18941 18942 18943 18944 18945 18946 18947 18948 18949 18950 18951 18952 18953 18954 18955 18956 18957 18958 18959 18960 18961 18962 18963 18964 18965 18966 18967 18968 18969 18970 18971 18972 18973 18974 18975 18976 18977 18978 18979 18980 18981 18982 18983 18984 18985 18986 18987 18988 18989 18990 18991 18992 18993 18994 18995 18996 18997 18998 18999 19000 19001 19002 19003 19004 19005 19006 19007 19008 19009 19010 19011 19012 19013 19014 19015 19016 19017 19018 19019 19020 19021 19022 19023 19024 19025 19026 19027 19028 19029 19030 19031 19032 19033 19034 19035 19036 19037 19038 19039 19040 19041 19042 19043 19044 19045 19046 19047 19048 19049 19050 19051 19052 19053 19054 19055 19056 19057 19058 19059 19060 19061 19062 19063 19064 19065 19066 19067 19068 19069 19070 19071 19072 19073 19074 19075 19076 19077 19078 19079 19080 19081 19082 19083 19084 19085 19086 19087 19088 19089 19090 19091 19092 19093 19094 19095 19096 19097 19098 19099 19100 19101 19102 19103 19104 19105 19106 19107 19108 19109 19110 19111 19112 19113 19114 19115 19116 19117 19118 19119 19120 19121 19122 19123 19124 19125 19126 19127 19128 19129 19130 19131 19132 19133 19134 19135 19136 19137 19138 19139 19140 19141 19142 19143 19144 19145 19146 19147 19148 19149 19150 19151 19152 19153 19154 19155 19156 19157 19158 19159 19160 19161 19162 19163 19164 19165 19166 19167 19168 19169 19170 19171 19172 19173 19174 19175 19176 19177 19178 19179 19180 19181 19182 19183 19184 19185 19186 19187 19188 19189 19190 19191 19192 19193 19194 19195 19196 19197 19198 19199 19200 19201 19202 19203 19204 19205 19206 19207 19208 19209 19210 19211 19212 19213 19214 19215 19216 19217 19218 19219 19220 19221 19222 19223 19224 19225 19226 19227 19228 19229 19230 19231 19232 19233 19234 19235 19236 19237 19238 19239 19240 19241 19242 19243 19244 19245 19246 19247 19248 19249 19250 19251 19252 19253 19254 19255 19256 19257 19258 19259 19260 19261 19262 19263 19264 19265 19266 19267 19268 19269 19270 19271 19272 19273 19274 19275 19276 19277 19278 19279 19280 19281 19282 19283 19284 19285 19286 19287 19288 19289 19290 19291 19292 19293 19294 19295 19296 19297 19298 19299 19300 19301 19302 19303 19304 19305 19306 19307 19308 19309 19310 19311 19312 19313 19314 19315 19316 19317 19318 19319 19320 19321 19322 19323 19324 19325 19326 19327 19328 19329 19330 19331 19332 19333 19334 19335 19336 19337 19338 19339 19340 19341 19342 19343 19344 19345 19346 19347 19348 19349 19350 19351 19352 19353 19354 19355 19356 19357 19358 19359 19360 19361 19362 19363 19364 19365 19366 19367 19368 19369 19370 19371 19372 19373 19374 19375 19376 19377 19378 19379 19380 19381 19382 19383 19384 19385 19386 19387 19388 19389 19390 19391 19392 19393 19394 19395 19396 19397 19398 19399 19400 19401 19402 19403 19404 19405 19406 19407 19408 19409 19410 19411 19412 19413 19414 19415 19416 19417 19418 19419 19420 19421 19422 19423 19424 19425 19426 19427 19428 19429 19430 19431 19432 19433 19434 19435 19436 19437 19438 19439 19440 19441 19442 19443 19444 19445 19446 19447 19448 19449 19450 19451 19452 19453 19454 19455 19456 19457 19458 19459 19460 19461 19462 19463 19464 19465 19466 19467 19468 19469 19470 19471 19472 19473 19474 19475 19476 19477 19478 19479 19480 19481 19482 19483 19484 19485 19486 19487 19488 19489 19490 19491 19492 19493 19494 19495 19496 19497 19498 19499 19500 19501 19502 19503 19504 19505 19506 19507 19508 19509 19510 19511 19512 19513 19514 19515 19516 19517 19518 19519 19520 19521 19522 19523 19524 19525 19526 19527 19528 19529 19530 19531 19532 19533 19534 19535 19536 19537 19538 19539 19540 19541 19542 19543 19544 19545 19546 19547 19548 19549 19550 19551 19552 19553 19554 19555 19556 19557 19558 19559 19560 19561 19562 19563 19564 19565 19566 19567 19568 19569 19570 19571 19572 19573 19574 19575 19576 19577 19578 19579 19580 19581 19582 19583 19584 19585 19586 19587 19588 19589 19590 19591 19592 19593 19594 19595 19596 19597 19598 19599 19600 19601 19602 19603 19604 19605 19606 19607 19608 19609 19610 19611 19612 19613 19614 19615 19616 19617 19618 19619 19620 19621 19622 19623 19624 19625 19626 19627 19628 19629 19630 19631 19632 19633 19634 19635 19636 19637 19638 19639 19640 19641 19642 19643 19644 19645 19646 19647 19648 19649 19650 19651 19652 19653 19654 19655 19656 19657 19658 19659 19660 19661 19662 19663 19664 19665 19666 19667 19668 19669 19670 19671 19672 19673 19674 19675 19676 19677 19678 19679 19680 19681 19682 19683 19684 19685 19686 19687 19688 19689 19690 19691 19692 19693 19694 19695 19696 19697 19698 19699 19700 19701 19702 19703 19704 19705 19706 19707 19708 19709 19710 19711 19712 19713 19714 19715 19716 19717 19718 19719 19720 19721 19722 19723 19724 19725 19726 19727 19728 19729 19730 19731 19732 19733 19734 19735 19736 19737 19738 19739 19740 19741 19742 19743 19744 19745 19746 19747 19748 19749 19750 19751 19752 19753 19754 19755 19756 19757 19758 19759 19760 19761 19762 19763 19764 19765 19766 19767 19768 19769 19770 19771 19772 19773 19774 19775 19776 19777 19778 19779 19780 19781 19782 19783 19784 19785 19786 19787 19788 19789 19790 19791 19792 19793 19794 19795 19796 19797 19798 19799 19800 19801 19802 19803 19804 19805 19806 19807 19808 19809 19810 19811 19812 19813 19814 19815 19816 19817 19818 19819 19820 19821 19822 19823 19824 19825 19826 19827 19828 19829 19830 19831 19832 19833 19834 19835 19836 19837 19838 19839 19840 19841 19842 19843 19844 19845 19846 19847 19848 19849 19850 19851 19852 19853 19854 19855 19856 19857 19858 19859 19860 19861 19862 19863 19864 19865 19866 19867 19868 19869 19870 19871 19872 19873 19874 19875 19876 19877 19878 19879 19880 19881 19882 19883 19884 19885 19886 19887 19888 19889 19890 19891 19892 19893 19894 19895 19896 19897 19898 19899 19900 19901 19902 19903 19904 19905 19906 19907 19908 19909 19910 19911 19912 19913 19914 19915 19916 19917 19918 19919 19920 19921 19922 19923 19924 19925 19926 19927 19928 19929 19930 19931 19932 19933 19934 19935 19936 19937 19938 19939 19940 19941 19942 19943 19944 19945 19946 19947 19948 19949 19950 19951 19952 19953 19954 19955 19956 19957 19958 19959 19960 19961 19962 19963 19964 19965 19966 19967 19968 19969 19970 19971 19972 19973 19974 19975 19976 19977 19978 19979 19980 19981 19982 19983 19984 19985 19986 19987 19988 19989 19990 19991 19992 19993 19994 19995 19996 19997 19998 19999 20000 20001 20002 20003 20004 20005 20006 20007 20008 20009 20010 20011 20012 20013 20014 20015 20016 20017 20018 20019 20020 20021 20022 20023 20024 20025 20026 20027 20028 20029 20030 20031 20032 20033 20034 20035 20036 20037 20038 20039 20040 20041 20042 20043 20044 20045 20046 20047 20048 20049 20050 20051 20052 20053 20054 20055 20056 20057 20058 20059 20060 20061 20062 20063 20064 20065 20066 20067 20068 20069 20070 20071 20072 20073 20074 20075 20076 20077 20078 20079 20080 20081 20082 20083 20084 20085 20086 20087 20088 20089 20090 20091 20092 20093 20094 20095 20096 20097 20098 20099 20100 20101 20102 20103 20104 20105 20106 20107 20108 20109 20110 20111 20112 20113 20114 20115 20116 20117 20118 20119 20120 20121 20122 20123 20124 20125 20126 20127 20128 20129 20130 20131 20132 20133 20134 20135 20136 20137 20138 20139 20140 20141 20142 20143 20144 20145 20146 20147 20148 20149 20150 20151 20152 20153 20154 20155 20156 20157 20158 20159 20160 20161 20162 20163 20164 20165 20166 20167 20168 20169 20170 20171 20172 20173 20174 20175 20176 20177 20178 20179 20180 20181 20182 20183 20184 20185 20186 20187 20188 20189 20190 20191 20192 20193 20194 20195 20196 20197 20198 20199 20200 20201 20202 20203 20204 20205 20206 20207 20208 20209 20210 20211 20212 20213 20214 20215 20216 20217 20218 20219 20220 20221 20222 20223 20224 20225 20226 20227 20228 20229 20230 20231 20232 20233 20234 20235 20236 20237 20238 20239 20240 20241 20242 20243 20244 20245 20246 20247 20248 20249 20250 20251 20252 20253 20254 20255 20256 20257 20258 20259 20260 20261 20262 20263 20264 20265 20266 20267 20268 20269 20270 20271 20272 20273 20274 20275 20276 20277 20278 20279 20280 20281 20282 20283 20284 20285 20286 20287 20288 20289 20290 20291 20292 20293 20294 20295 20296 20297 20298 20299 20300 20301 20302 20303 20304 20305 20306 20307 20308 20309 20310 20311 20312 20313 20314 20315 20316 20317 20318 20319 20320 20321 20322 20323 20324 20325 20326 20327 20328 20329 20330 20331 20332 20333 20334 20335 20336 20337 20338 20339 20340 20341 20342 20343 20344 20345 20346 20347 20348 20349 20350 20351 20352 20353 20354 20355 20356 20357 20358 20359 20360 20361 20362 20363 20364 20365 20366 20367 20368 20369 20370 20371 20372 20373 20374 20375 20376 20377 20378 20379 20380 20381 20382 20383 20384 20385 20386 20387 20388 20389 20390 20391 20392 20393 20394 20395 20396 20397 20398 20399 20400 20401 20402 20403 20404 20405 20406 20407 20408 20409 20410 20411 20412 20413 20414 20415 20416 20417 20418 20419 20420 20421 20422 20423 20424 20425 20426 20427 20428 20429 20430 20431 20432 20433 20434 20435 20436 20437 20438 20439 20440 20441 20442 20443 20444 20445 20446 20447 20448 20449 20450 20451 20452 20453 20454 20455 20456 20457 20458 20459 20460 20461 20462 20463 20464 20465 20466 20467 20468 20469 20470 20471 20472 20473 20474 20475 20476 20477 20478 20479 20480 20481 20482 20483 20484 20485 20486 20487 20488 20489 20490 20491 20492 20493 20494 20495 20496 20497 20498 20499 20500 20501 20502 20503 20504 20505 20506 20507 20508 20509 20510 20511 20512 20513 20514 20515 20516 20517 20518 20519 20520 20521 20522 20523 20524 20525 20526 20527 20528 20529 20530 20531 20532 20533 20534 20535 20536 20537 20538 20539 20540 20541 20542 20543 20544 20545 20546 20547 20548 20549 20550 20551 20552 20553 20554 20555 20556 20557 20558 20559 20560 20561 20562 20563 20564 20565 20566 20567 20568 20569 20570 20571 20572 20573 20574 20575 20576 20577 20578 20579 20580 20581 20582 20583 20584 20585 20586 20587 20588 20589 20590 20591 20592 20593 20594 20595 20596 20597 20598 20599 20600 20601 20602 20603 20604 20605 20606 20607 20608 20609 20610 20611 20612 20613 20614 20615 20616 20617 20618 20619 20620 20621 20622 20623 20624 20625 20626 20627 20628 20629 20630 20631 20632 20633 20634 20635 20636 20637 20638 20639 20640 20641 20642 20643 20644 20645 20646 20647 20648 20649 20650 20651 20652 20653 20654 20655 20656 20657 20658 20659 20660 20661 20662 20663 20664 20665 20666 20667 20668 20669 20670 20671 20672 20673 20674 20675 20676 20677 20678 20679 20680 20681 20682 20683 20684 20685 20686 20687 20688 20689 20690 20691 20692 20693 20694 20695 20696 20697 20698 20699 20700 20701 20702 20703 20704 20705 20706 20707 20708 20709 20710 20711 20712 20713 20714 20715 20716 20717 20718 20719 20720 20721 20722 20723 20724 20725 20726 20727 20728 20729 20730 20731 20732 20733 20734 20735 20736 20737 20738 20739 20740 20741 20742 20743 20744 20745 20746 20747 20748 20749 20750 20751 20752 20753 20754 20755 20756 20757 20758 20759 20760 20761 20762 20763 20764 20765 20766 20767 20768 20769 20770 20771 20772 20773 20774 20775 20776 20777 20778 20779 20780 20781 20782 20783 20784 20785 20786 20787 20788 20789 20790 20791 20792 20793 20794 20795 20796 20797 20798 20799 20800 20801 20802 20803 20804 20805 20806 20807 20808 20809 20810 20811 20812 20813 20814 20815 20816 20817 20818 20819 20820 20821 20822 20823 20824 20825 20826 20827 20828 20829 20830 20831 20832 20833 20834 20835 20836 20837 20838 20839 20840 20841 20842 20843 20844 20845 20846 20847 20848 20849 20850 20851 20852 20853 20854 20855 20856 20857 20858 20859 20860 20861 20862 20863 20864 20865 20866 20867 20868 20869 20870 20871 20872 20873 20874 20875 20876 20877 20878 20879 20880 20881 20882 20883 20884 20885 20886 20887 20888 20889 20890 20891 20892 20893 20894 20895 20896 20897 20898 20899 20900 20901 20902 20903 20904 20905 20906 20907 20908 20909 20910 20911 20912 20913 20914 20915 20916 20917 20918 20919 20920 20921 20922 20923 20924 20925 20926 20927 20928 20929 20930 20931 20932 20933 20934 20935 20936 20937 20938 20939 20940 20941 20942 20943 20944 20945 20946 20947 20948 20949 20950 20951 20952 20953 20954 20955 20956 20957 20958 20959 20960 20961 20962 20963 20964 20965 20966 20967 20968 20969 20970 20971 20972 20973 20974 20975 20976 20977 20978 20979 20980 20981 20982 20983 20984 20985 20986 20987 20988 20989 20990 20991 20992 20993 20994 20995 20996 20997 20998 20999 21000 21001 21002 21003 21004 21005 21006 21007 21008 21009 21010 21011 21012 21013 21014 21015 21016 21017 21018 21019 21020 21021 21022 21023 21024 21025 21026 21027 21028 21029 21030 21031 21032 21033 21034 21035 21036 21037 21038 21039 21040 21041 21042 21043 21044 21045 21046 21047 21048 21049 21050 21051 21052 21053 21054 21055 21056 21057 21058 21059 21060 21061 21062 21063 21064 21065 21066 21067 21068 21069 21070 21071 21072 21073 21074 21075 21076 21077 21078 21079 21080 21081 21082 21083 21084 21085 21086 21087 21088 21089 21090 21091 21092 21093 21094 21095 21096 21097 21098 21099 21100 21101 21102 21103 21104 21105 21106 21107 21108 21109 21110 21111 21112 21113 21114 21115 21116 21117 21118 21119 21120 21121 21122 21123 21124 21125 21126 21127 21128 21129 21130 21131 21132 21133 21134 21135 21136 21137 21138 21139 21140 21141 21142 21143 21144 21145 21146 21147 21148 21149 21150 21151 21152 21153 21154 21155 21156 21157 21158 21159 21160 21161 21162 21163 21164 21165 21166 21167 21168 21169 21170 21171 21172 21173 21174 21175 21176 21177 21178 21179 21180 21181 21182 21183 21184 21185 21186 21187 21188 21189 21190 21191 21192 21193 21194 21195 21196 21197 21198 21199 21200 21201 21202 21203 21204 21205 21206 21207 21208 21209 21210 21211 21212 21213 21214 21215 21216 21217 21218 21219 21220 21221 21222 21223 21224 21225 21226 21227 21228 21229 21230 21231 21232 21233 21234 21235 21236 21237 21238 21239 21240 21241 21242 21243 21244 21245 21246 21247 21248 21249 21250 21251 21252 21253 21254 21255 21256 21257 21258 21259 21260 21261 21262 21263 21264 21265 21266 21267 21268 21269 21270 21271 21272 21273 21274 21275 21276 21277 21278 21279 21280 21281 21282 21283 21284 21285 21286 21287 21288 21289 21290 21291 21292 21293 21294 21295 21296 21297 21298 21299 21300 21301 21302 21303 21304 21305 21306 21307 21308 21309 21310 21311 21312 21313 21314 21315 21316 21317 21318 21319 21320 21321 21322 21323 21324 21325 21326 21327 21328 21329 21330 21331 21332 21333 21334 21335 21336 21337 21338 21339 21340 21341 21342 21343 21344 21345 21346 21347 21348 21349 21350 21351 21352 21353 21354 21355 21356 21357 21358 21359 21360 21361 21362 21363 21364 21365 21366 21367 21368 21369 21370 21371 21372 21373 21374 21375 21376 21377 21378 21379 21380 21381 21382 21383 21384 21385 21386 21387 21388 21389 21390 21391 21392 21393 21394 21395 21396 21397 21398 21399 21400 21401 21402 21403 21404 21405 21406 21407 21408 21409 21410 21411 21412 21413 21414 21415 21416 21417 21418 21419 21420 21421 21422 21423 21424 21425 21426 21427 21428 21429 21430 21431 21432 21433 21434 21435 21436 21437 21438 21439 21440 21441 21442 21443 21444 21445 21446 21447 21448 21449 21450 21451 21452 21453 21454 21455 21456 21457 21458 21459 21460 21461 21462 21463 21464 21465 21466 21467 21468 21469 21470 21471 21472 21473 21474 21475 21476 21477 21478 21479 21480 21481 21482 21483 21484 21485 21486 21487 21488 21489 21490 21491 21492 21493 21494 21495 21496 21497 21498 21499 21500 21501 21502 21503 21504 21505 21506 21507 21508 21509 21510 21511 21512 21513 21514 21515 21516 21517 21518 21519 21520 21521 21522 21523 21524 21525 21526 21527 21528 21529 21530 21531 21532 21533 21534 21535 21536 21537 21538 21539 21540 21541 21542 21543 21544 21545 21546 21547 21548 21549 21550 21551 21552 21553 21554 21555 21556 21557 21558 21559 21560 21561 21562 21563 21564 21565 21566 21567 21568 21569 21570 21571 21572 21573 21574 21575 21576 21577 21578 21579 21580 21581 21582 21583 21584 21585 21586 21587 21588 21589 21590 21591 21592 21593 21594 21595 21596 21597 21598 21599 21600 21601 21602 21603 21604 21605 21606 21607 21608 21609 21610 21611 21612 21613 21614 21615 21616 21617 21618 21619 21620 21621 21622 21623 21624 21625 21626 21627 21628 21629 21630 21631 21632 21633 21634 21635 21636 21637 21638 21639 21640 21641 21642 21643 21644 21645 21646 21647 21648 21649 21650 21651 21652 21653 21654 21655 21656 21657 21658 21659 21660 21661 21662 21663 21664 21665 21666 21667 21668 21669 21670 21671 21672 21673 21674 21675 21676 21677 21678 21679 21680 21681 21682 21683 21684 21685 21686 21687 21688 21689 21690 21691 21692 21693 21694 21695 21696 21697 21698 21699 21700 21701 21702 21703 21704 21705 21706 21707 21708 21709 21710 21711 21712 21713 21714 21715 21716 21717 21718 21719 21720 21721 21722 21723 21724 21725 21726 21727 21728 21729 21730 21731 21732 21733 21734 21735 21736 21737 21738 21739 21740 21741 21742 21743 21744 21745 21746 21747 21748 21749 21750 21751 21752 21753 21754 21755 21756 21757 21758 21759 21760 21761 21762 21763 21764 21765 21766 21767 21768 21769 21770 21771 21772 21773 21774 21775 21776 21777 21778 21779 21780 21781 21782 21783 21784 21785 21786 21787 21788 21789 21790 21791 21792 21793 21794 21795 21796 21797 21798 21799 21800 21801 21802 21803 21804 21805 21806 21807 21808 21809 21810 21811 21812 21813 21814 21815 21816 21817 21818 21819 21820 21821 21822 21823 21824 21825 21826 21827 21828 21829 21830 21831 21832 21833 21834 21835 21836 21837 21838 21839 21840 21841 21842 21843 21844 21845 21846 21847 21848 21849 21850 21851 21852 21853 21854 21855 21856 21857 21858 21859 21860 21861 21862 21863 21864 21865 21866 21867 21868 21869 21870 21871 21872 21873 21874 21875 21876 21877 21878 21879 21880 21881 21882 21883 21884 21885 21886 21887 21888 21889 21890 21891 21892 21893 21894 21895 21896 21897 21898 21899 21900 21901 21902 21903 21904 21905 21906 21907 21908 21909 21910 21911 21912 21913 21914 21915 21916 21917 21918 21919 21920 21921 21922 21923 21924 21925 21926 21927 21928 21929 21930 21931 21932 21933 21934 21935 21936 21937 21938 21939 21940 21941 21942 21943 21944 21945 21946 21947 21948 21949 21950 21951 21952 21953 21954 21955 21956 21957 21958 21959 21960 21961 21962 21963 21964 21965 21966 21967 21968 21969 21970 21971 21972 21973 21974 21975 21976 21977 21978 21979 21980 21981 21982 21983 21984 21985 21986 21987 21988 21989 21990 21991 21992 21993 21994 21995 21996 21997 21998 21999 22000 22001 22002 22003 22004 22005 22006 22007 22008 22009 22010 22011 22012 22013 22014 22015 22016 22017 22018 22019 22020 22021 22022 22023 22024 22025 22026 22027 22028 22029 22030 22031 22032 22033 22034 22035 22036 22037 22038 22039 22040 22041 22042 22043 22044 22045 22046 22047 22048 22049 22050 22051 22052 22053 22054 22055 22056 22057 22058 22059 22060 22061 22062 22063 22064 22065 22066 22067 22068 22069 22070 22071 22072 22073 22074 22075 22076 22077 22078 22079 22080 22081 22082 22083 22084 22085 22086 22087 22088 22089 22090 22091 22092 22093 22094 22095 22096 22097 22098 22099 22100 22101 22102 22103 22104 22105 22106 22107 22108 22109 22110 22111 22112 22113 22114 22115 22116 22117 22118 22119 22120 22121 22122 22123 22124 22125 22126 22127 22128 22129 22130 22131 22132 22133 22134 22135 22136 22137 22138 22139 22140 22141 22142 22143 22144 22145 22146 22147 22148 22149 22150 22151 22152 22153 22154 22155 22156 22157 22158 22159 22160 22161 22162 22163 22164 22165 22166 22167 22168 22169 22170 22171 22172 22173 22174 22175 22176 22177 22178 22179 22180 22181 22182 22183 22184 22185 22186 22187 22188 22189 22190 22191 22192 22193 22194 22195 22196 22197 22198 22199 22200 22201 22202 22203 22204 22205 22206 22207 22208 22209 22210 22211 22212 22213 22214 22215 22216 22217 22218 22219 22220 22221 22222 22223 22224 22225 22226 22227 22228 22229 22230 22231 22232 22233 22234 22235 22236 22237 22238 22239 22240 22241 22242 22243 22244 22245 22246 22247 22248 22249 22250 22251 22252 22253 22254 22255 22256 22257 22258 22259 22260 22261 22262 22263 22264 22265 22266 22267 22268 22269 22270 22271 22272 22273 22274 22275 22276 22277 22278 22279 22280 22281 22282 22283 22284 22285 22286 22287 22288 22289 22290 22291 22292 22293 22294 22295 22296 22297 22298 22299 22300 22301 22302 22303 22304 22305 22306 22307 22308 22309 22310 22311 22312 22313 22314 22315 22316 22317 22318 22319 22320 22321 22322 22323 22324 22325 22326 22327 22328 22329 22330 22331 22332 22333 22334 22335 22336 22337 22338 22339 22340 22341 22342 22343 22344 22345 22346 22347 22348 22349 22350 22351 22352 22353 22354 22355 22356 22357 22358 22359 22360 22361 22362 22363 22364 22365 22366 22367 22368 22369 22370 22371 22372 22373 22374 22375 22376 22377 22378 22379 22380 22381 22382 22383 22384 22385 22386 22387 22388 22389 22390 22391 22392 22393 22394 22395 22396 22397 22398 22399 22400 22401 22402 22403 22404 22405 22406 22407 22408 22409 22410 22411 22412 22413 22414 22415 22416 22417 22418 22419 22420 22421 22422 22423 22424 22425 22426 22427 22428 22429 22430 22431 22432 22433 22434 22435 22436 22437 22438 22439 22440 22441 22442 22443 22444 22445 22446 22447 22448 22449 22450 22451 22452 22453 22454 22455 22456 22457 22458 22459 22460 22461 22462 22463 22464 22465 22466 22467 22468 22469 22470 22471 22472 22473 22474 22475 22476 22477 22478 22479 22480 22481 22482 22483 22484 22485 22486 22487 22488 22489 22490 22491 22492 22493 22494 22495 22496 22497 22498 22499 22500 22501 22502 22503 22504 22505 22506 22507 22508 22509 22510 22511 22512 22513 22514 22515 22516 22517 22518 22519 22520 22521 22522 22523 22524 22525 22526 22527 22528 22529 22530 22531 22532 22533 22534 22535 22536 22537 22538 22539 22540 22541 22542 22543 22544 22545 22546 22547 22548 22549 22550 22551 22552 22553 22554 22555 22556 22557 22558 22559 22560 22561 22562 22563 22564 22565 22566 22567 22568 22569 22570 22571 22572 22573 22574 22575 22576 22577 22578 22579 22580 22581 22582 22583 22584 22585 22586 22587 22588 22589 22590 22591 22592 22593 22594 22595 22596 22597 22598 22599 22600 22601 22602 22603 22604 22605 22606 22607 22608 22609 22610 22611 22612 22613 22614 22615 22616 22617 22618 22619 22620 22621 22622 22623 22624 22625 22626 22627 22628 22629 22630 22631 22632 22633 22634 22635 22636 22637 22638 22639 22640 22641 22642 22643 22644 22645 22646 22647 22648 22649 22650 22651 22652 22653 22654 22655 22656 22657 22658 22659 22660 22661 22662 22663 22664 22665 22666 22667 22668 22669 22670 22671 22672 22673 22674 22675 22676 22677 22678 22679 22680 22681 22682 22683 22684 22685 22686 22687 22688 22689 22690 22691 22692 22693 22694 22695 22696 22697 22698 22699 22700 22701 22702 22703 22704 22705 22706 22707 22708 22709 22710 22711 22712 22713 22714 22715 22716 22717 22718 22719 22720 22721 22722 22723 22724 22725 22726 22727 22728 22729 22730 22731 22732 22733 22734 22735 22736 22737 22738 22739 22740 22741 22742 22743 22744 22745 22746 22747 22748 22749 22750 22751 22752 22753 22754 22755 22756 22757 22758 22759 22760 22761 22762 22763 22764 22765 22766 22767 22768 22769 22770 22771 22772 22773 22774 22775 22776 22777 22778 22779 22780 22781 22782 22783 22784 22785 22786 22787 22788 22789 22790 22791 22792 22793 22794 22795 22796 22797 22798 22799 22800 22801 22802 22803 22804 22805 22806 22807 22808 22809 22810 22811 22812 22813 22814 22815 22816 22817 22818 22819 22820 22821 22822 22823 22824 22825 22826 22827 22828 22829 22830 22831 22832 22833 22834 22835 22836 22837 22838 22839 22840 22841 22842 22843 22844 22845 22846 22847 22848 22849 22850 22851 22852 22853 22854 22855 22856 22857 22858 22859 22860 22861 22862 22863 22864 22865 22866 22867 22868 22869 22870 22871 22872 22873 22874 22875 22876 22877 22878 22879 22880 22881 22882 22883 22884 22885 22886 22887 22888 22889 22890 22891 22892 22893 22894 22895 22896 22897 22898 22899 22900 22901 22902 22903 22904 22905 22906 22907 22908 22909 22910 22911 22912 22913 22914 22915 22916 22917 22918 22919 22920 22921 22922 22923 22924 22925 22926 22927 22928 22929 22930 22931 22932 22933 22934 22935 22936 22937 22938 22939 22940 22941 22942 22943 22944 22945 22946 22947 22948 22949 22950 22951 22952 22953 22954 22955 22956 22957 22958 22959 22960 22961 22962 22963 22964 22965 22966 22967 22968 22969 22970 22971 22972 22973 22974 22975 22976 22977 22978 22979 22980 22981 22982 22983 22984 22985 22986 22987 22988 22989 22990 22991 22992 22993 22994 22995 22996 22997 22998 22999 23000 23001 23002 23003 23004 23005 23006 23007 23008 23009 23010 23011 23012 23013 23014 23015 23016 23017 23018 23019 23020 23021 23022 23023 23024 23025 23026 23027 23028 23029 23030 23031 23032 23033 23034 23035 23036 23037 23038 23039 23040 23041 23042 23043 23044 23045 23046 23047 23048 23049 23050 23051 23052 23053 23054 23055 23056 23057 23058 23059 23060 23061 23062 23063 23064 23065 23066 23067 23068 23069 23070 23071 23072 23073 23074 23075 23076 23077 23078 23079 23080 23081 23082 23083 23084 23085 23086 23087 23088 23089 23090 23091 23092 23093 23094 23095 23096 23097 23098 23099 23100 23101 23102 23103 23104 23105 23106 23107 23108 23109 23110 23111 23112 23113 23114 23115 23116 23117 23118 23119 23120 23121 23122 23123 23124 23125 23126 23127 23128 23129 23130 23131 23132 23133 23134 23135 23136 23137 23138 23139 23140 23141 23142 23143 23144 23145 23146 23147 23148 23149 23150 23151 23152 23153 23154 23155 23156 23157 23158 23159 23160 23161 23162 23163 23164 23165 23166 23167 23168 23169 23170 23171 23172 23173 23174 23175 23176 23177 23178 23179 23180 23181 23182 23183 23184 23185 23186 23187 23188 23189 23190 23191 23192 23193 23194 23195 23196 23197 23198 23199 23200 23201 23202 23203 23204 23205 23206 23207 23208 23209 23210 23211 23212 23213 23214 23215 23216 23217 23218 23219 23220 23221 23222 23223 23224 23225 23226 23227 23228 23229 23230 23231 23232 23233 23234 23235 23236 23237 23238 23239 23240 23241 23242 23243 23244 23245 23246 23247 23248 23249 23250 23251 23252 23253 23254 23255 23256 23257 23258 23259 23260 23261 23262 23263 23264 23265 23266 23267 23268 23269 23270 23271 23272 23273 23274 23275 23276 23277 23278 23279 23280 23281 23282 23283 23284 23285 23286 23287 23288 23289 23290 23291 23292 23293 23294 23295 23296 23297 23298 23299 23300 23301 23302 23303 23304 23305 23306 23307 23308 23309 23310 23311 23312 23313 23314 23315 23316 23317 23318 23319 23320 23321 23322 23323 23324 23325 23326 23327 23328 23329 23330 23331 23332 23333 23334 23335 23336 23337 23338 23339 23340 23341 23342 23343 23344 23345 23346 23347 23348 23349 23350 23351 23352 23353 23354 23355 23356 23357 23358 23359 23360 23361 23362 23363 23364 23365 23366 23367 23368 23369 23370 23371 23372 23373 23374 23375 23376 23377 23378 23379 23380 23381 23382 23383 23384 23385 23386 23387 23388 23389 23390 23391 23392 23393 23394 23395 23396 23397 23398 23399 23400 23401 23402 23403 23404 23405 23406 23407 23408 23409 23410 23411 23412 23413 23414 23415 23416 23417 23418 23419 23420 23421 23422 23423 23424 23425 23426 23427 23428 23429 23430 23431 23432 23433 23434 23435 23436 23437 23438 23439 23440 23441 23442 23443 23444 23445 23446 23447 23448 23449 23450 23451 23452 23453 23454 23455 23456 23457 23458 23459 23460 23461 23462 23463 23464 23465 23466 23467 23468 23469 23470 23471 23472 23473 23474 23475 23476 23477 23478 23479 23480 23481 23482 23483 23484 23485 23486 23487 23488 23489 23490 23491 23492 23493 23494 23495 23496 23497 23498 23499 23500 23501 23502 23503 23504 23505 23506 23507 23508 23509 23510 23511 23512 23513 23514 23515 23516 23517 23518 23519 23520 23521 23522 23523 23524 23525 23526 23527 23528 23529 23530 23531 23532 23533 23534 23535 23536 23537 23538 23539 23540 23541 23542 23543 23544 23545 23546 23547 23548 23549 23550 23551 23552 23553 23554 23555 23556 23557 23558 23559 23560 23561 23562 23563 23564 23565 23566 23567 23568 23569 23570 23571 23572 23573 23574 23575 23576 23577 23578 23579 23580 23581 23582 23583 23584 23585 23586 23587 23588 23589 23590 23591 23592 23593 23594 23595 23596 23597 23598 23599 23600 23601 23602 23603 23604 23605 23606 23607 23608 23609 23610 23611 23612 23613 23614 23615 23616 23617 23618 23619 23620 23621 23622 23623 23624 23625 23626 23627 23628 23629 23630 23631 23632 23633 23634 23635 23636 23637 23638 23639 23640 23641 23642 23643 23644 23645 23646 23647 23648 23649 23650 23651 23652 23653 23654 23655 23656 23657 23658 23659 23660 23661 23662 23663 23664 23665 23666 23667 23668 23669 23670 23671 23672 23673 23674 23675 23676 23677 23678 23679 23680 23681 23682 23683 23684 23685 23686 23687 23688 23689 23690 23691 23692 23693 23694 23695 23696 23697 23698 23699 23700 23701 23702 23703 23704 23705 23706 23707 23708 23709 23710 23711 23712 23713 23714 23715 23716 23717 23718 23719 23720 23721 23722 23723 23724 23725 23726 23727 23728 23729 23730 23731 23732 23733 23734 23735 23736 23737 23738 23739 23740 23741 23742 23743 23744 23745 23746 23747 23748 23749 23750 23751 23752 23753 23754 23755 23756 23757 23758 23759 23760 23761 23762 23763 23764 23765 23766 23767 23768 23769 23770 23771 23772 23773 23774 23775 23776 23777 23778 23779 23780 23781 23782 23783 23784 23785 23786 23787 23788 23789 23790 23791 23792 23793 23794 23795 23796 23797 23798 23799 23800 23801 23802 23803 23804 23805 23806 23807 23808 23809 23810 23811 23812 23813 23814 23815 23816 23817 23818 23819 23820 23821 23822 23823 23824 23825 23826 23827 23828 23829 23830 23831 23832 23833 23834 23835 23836 23837 23838 23839 23840 23841 23842 23843 23844 23845 23846 23847 23848 23849 23850 23851 23852 23853 23854 23855 23856 23857 23858 23859 23860 23861 23862 23863 23864 23865 23866 23867 23868 23869 23870 23871 23872 23873 23874 23875 23876 23877 23878 23879 23880 23881 23882 23883 23884 23885 23886 23887 23888 23889 23890 23891 23892 23893 23894 23895 23896 23897 23898 23899 23900 23901 23902 23903 23904 23905 23906 23907 23908 23909 23910 23911 23912 23913 23914 23915 23916 23917 23918 23919 23920 23921 23922 23923 23924 23925 23926 23927 23928 23929 23930 23931 23932 23933 23934 23935 23936 23937 23938 23939 23940 23941 23942 23943 23944 23945 23946 23947 23948 23949 23950 23951 23952 23953 23954 23955 23956 23957 23958 23959 23960 23961 23962 23963 23964 23965 23966 23967 23968 23969 23970 23971 23972 23973 23974 23975 23976 23977 23978 23979 23980 23981 23982 23983 23984 23985 23986 23987 23988 23989 23990 23991 23992 23993 23994 23995 23996 23997 23998 23999 24000 24001 24002 24003 24004 24005 24006 24007 24008 24009 24010 24011 24012 24013 24014 24015 24016 24017 24018 24019 24020 24021 24022 24023 24024 24025 24026 24027 24028 24029 24030 24031 24032 24033 24034 24035 24036 24037 24038 24039 24040 24041 24042 24043 24044 24045 24046 24047 24048 24049 24050 24051 24052 24053 24054 24055 24056 24057 24058 24059 24060 24061 24062 24063 24064 24065 24066 24067 24068 24069 24070 24071 24072 24073 24074 24075 24076 24077 24078 24079 24080 24081 24082 24083 24084 24085 24086 24087 24088 24089 24090 24091 24092 24093 24094 24095 24096 24097 24098 24099 24100 24101 24102 24103 24104 24105 24106 24107 24108 24109 24110 24111 24112 24113 24114 24115 24116 24117 24118 24119 24120 24121 24122 24123 24124 24125 24126 24127 24128 24129 24130 24131 24132 24133 24134 24135 24136 24137 24138 24139 24140 24141 24142 24143 24144 24145 24146 24147 24148 24149 24150 24151 24152 24153 24154 24155 24156 24157 24158 24159 24160 24161 24162 24163 24164 24165 24166 24167 24168 24169 24170 24171 24172 24173 24174 24175 24176 24177 24178 24179 24180 24181 24182 24183 24184 24185 24186 24187 24188 24189 24190 24191 24192 24193 24194 24195 24196 24197 24198 24199 24200 24201 24202 24203 24204 24205 24206 24207 24208 24209 24210 24211 24212 24213 24214 24215 24216 24217 24218 24219 24220 24221 24222 24223 24224 24225 24226 24227 24228 24229 24230 24231 24232 24233 24234 24235 24236 24237 24238 24239 24240 24241 24242 24243 24244 24245 24246 24247 24248 24249 24250 24251 24252 24253 24254 24255 24256 24257 24258 24259 24260 24261 24262 24263 24264 24265 24266 24267 24268 24269 24270 24271 24272 24273 24274 24275 24276 24277 24278 24279 24280 24281 24282 24283 24284 24285 24286 24287 24288 24289 24290 24291 24292 24293 24294 24295 24296 24297 24298 24299 24300 24301 24302 24303 24304 24305 24306 24307 24308 24309 24310 24311 24312 24313 24314 24315 24316 24317 24318 24319 24320 24321 24322 24323 24324 24325 24326 24327 24328 24329 24330 24331 24332 24333 24334 24335 24336 24337 24338 24339 24340 24341 24342 24343 24344 24345 24346 24347 24348 24349 24350 24351 24352 24353 24354 24355 24356 24357 24358 24359 24360 24361 24362 24363 24364 24365 24366 24367 24368 24369 24370 24371 24372 24373 24374 24375 24376 24377 24378 24379 24380 24381 24382 24383 24384 24385 24386 24387 24388 24389 24390 24391 24392 24393 24394 24395 24396 24397 24398 24399 24400 24401 24402 24403 24404 24405 24406 24407 24408 24409 24410 24411 24412 24413 24414 24415 24416 24417 24418 24419 24420 24421 24422 24423 24424 24425 24426 24427 24428 24429 24430 24431 24432 24433 24434 24435 24436 24437 24438 24439 24440 24441 24442 24443 24444 24445 24446 24447 24448 24449 24450 24451 24452 24453 24454 24455 24456 24457 24458 24459 24460 24461 24462 24463 24464 24465 24466 24467 24468 24469 24470 24471 24472 24473 24474 24475 24476 24477 24478 24479 24480 24481 24482 24483 24484 24485 24486 24487 24488 24489 24490 24491 24492 24493 24494 24495 24496 24497 24498 24499 24500 24501 24502 24503 24504 24505 24506 24507 24508 24509 24510 24511 24512 24513 24514 24515 24516 24517 24518 24519 24520 24521 24522 24523 24524 24525 24526 24527 24528 24529 24530 24531 24532 24533 24534 24535 24536 24537 24538 24539 24540 24541 24542 24543 24544 24545 24546 24547 24548 24549 24550 24551 24552 24553 24554 24555 24556 24557 24558 24559 24560 24561 24562 24563 24564 24565 24566 24567 24568 24569 24570 24571 24572 24573 24574 24575 24576 24577 24578 24579 24580 24581 24582 24583 24584 24585 24586 24587 24588 24589 24590 24591 24592 24593 24594 24595 24596 24597 24598 24599 24600 24601 24602 24603 24604 24605 24606 24607 24608 24609 24610 24611 24612 24613 24614 24615 24616 24617 24618 24619 24620 24621 24622 24623 24624 24625 24626 24627 24628 24629 24630 24631 24632 24633 24634 24635 24636 24637 24638 24639 24640 24641 24642 24643 24644 24645 24646 24647 24648 24649 24650 24651 24652 24653 24654 24655 24656 24657 24658 24659 24660 24661 24662 24663 24664 24665 24666 24667 24668 24669 24670 24671 24672 24673 24674 24675 24676 24677 24678 24679 24680 24681 24682 24683 24684 24685 24686 24687 24688 24689 24690 24691 24692 24693 24694 24695 24696 24697 24698 24699 24700 24701 24702 24703 24704 24705 24706 24707 24708 24709 24710 24711 24712 24713 24714 24715 24716 24717 24718 24719 24720 24721 24722 24723 24724 24725 24726 24727 24728 24729 24730 24731 24732 24733 24734 24735 24736 24737 24738 24739 24740 24741 24742 24743 24744 24745 24746 24747 24748 24749 24750 24751 24752 24753 24754 24755 24756 24757 24758 24759 24760 24761 24762 24763 24764 24765 24766 24767 24768 24769 24770 24771 24772 24773 24774 24775 24776 24777 24778 24779 24780 24781 24782 24783 24784 24785 24786 24787 24788 24789 24790 24791 24792 24793 24794 24795 24796 24797 24798 24799 24800 24801 24802 24803 24804 24805 24806 24807 24808 24809 24810 24811 24812 24813 24814 24815 24816 24817 24818 24819 24820 24821 24822 24823 24824 24825 24826 24827 24828 24829 24830 24831 24832 24833 24834 24835 24836 24837 24838 24839 24840 24841 24842 24843 24844 24845 24846 24847 24848 24849 24850 24851 24852 24853 24854 24855 24856 24857 24858 24859 24860 24861 24862 24863 24864 24865 24866 24867 24868 24869 24870 24871 24872 24873 24874 24875 24876 24877 24878 24879 24880 24881 24882 24883 24884 24885 24886 24887 24888 24889 24890 24891 24892 24893 24894 24895 24896 24897 24898 24899 24900 24901 24902 24903 24904 24905 24906 24907 24908 24909 24910 24911 24912 24913 24914 24915 24916 24917 24918 24919 24920 24921 24922 24923 24924 24925 24926 24927 24928 24929 24930 24931 24932 24933 24934 24935 24936 24937 24938 24939 24940 24941 24942 24943 24944 24945 24946 24947 24948 24949 24950 24951 24952 24953 24954 24955 24956 24957 24958 24959 24960 24961 24962 24963 24964 24965 24966 24967 24968 24969 24970 24971 24972 24973 24974 24975 24976 24977 24978 24979 24980 24981 24982 24983 24984 24985 24986 24987 24988 24989 24990 24991 24992 24993 24994 24995 24996 24997 24998 24999 25000 25001 25002 25003 25004 25005 25006 25007 25008 25009 25010 25011 25012 25013 25014 25015 25016 25017 25018 25019 25020 25021 25022 25023 25024 25025 25026 25027 25028 25029 25030 25031 25032 25033 25034 25035 25036 25037 25038 25039 25040 25041 25042 25043 25044 25045 25046 25047 25048 25049 25050 25051 25052 25053 25054 25055 25056 25057 25058 25059 25060 25061 25062 25063 25064 25065 25066 25067 25068 25069 25070 25071 25072 25073 25074 25075 25076 25077 25078 25079 25080 25081 25082 25083 25084 25085 25086 25087 25088 25089 25090 25091 25092 25093 25094 25095 25096 25097 25098 25099 25100 25101 25102 25103 25104 25105 25106 25107 25108 25109 25110 25111 25112 25113 25114 25115 25116 25117 25118 25119 25120 25121 25122 25123 25124 25125 25126 25127 25128 25129 25130 25131 25132 25133 25134 25135 25136 25137 25138 25139 25140 25141 25142 25143 25144 25145 25146 25147 25148 25149 25150 25151 25152 25153 25154 25155 25156 25157 25158 25159 25160 25161 25162 25163 25164 25165 25166 25167 25168 25169 25170 25171 25172 25173 25174 25175 25176 25177 25178 25179 25180 25181 25182 25183 25184 25185 25186 25187 25188 25189 25190 25191 25192 25193 25194 25195 25196 25197 25198 25199 25200 25201 25202 25203 25204 25205 25206 25207 25208 25209 25210 25211 25212 25213 25214 25215 25216 25217 25218 25219 25220 25221 25222 25223 25224 25225 25226 25227 25228 25229 25230 25231 25232 25233 25234 25235 25236 25237 25238 25239 25240 25241 25242 25243 25244 25245 25246 25247 25248 25249 25250 25251 25252 25253 25254 25255 25256 25257 25258 25259 25260 25261 25262 25263 25264 25265 25266 25267 25268 25269 25270 25271 25272 25273 25274 25275 25276 25277 25278 25279 25280 25281 25282 25283 25284 25285 25286 25287 25288 25289 25290 25291 25292 25293 25294 25295 25296 25297 25298 25299 25300 25301 25302 25303 25304 25305 25306 25307 25308 25309 25310 25311 25312 25313 25314 25315 25316 25317 25318 25319 25320 25321 25322 25323 25324 25325 25326 25327 25328 25329 25330 25331 25332 25333 25334 25335 25336 25337 25338 25339 25340 25341 25342 25343 25344 25345 25346 25347 25348 25349 25350 25351 25352 25353 25354 25355 25356 25357 25358 25359 25360 25361 25362 25363 25364 25365 25366 25367 25368 25369 25370 25371 25372 25373 25374 25375 25376 25377 25378 25379 25380 25381 25382 25383 25384 25385 25386 25387 25388 25389 25390 25391 25392 25393 25394 25395 25396 25397 25398 25399 25400 25401 25402 25403 25404 25405 25406 25407 25408 25409 25410 25411 25412 25413 25414 25415 25416 25417 25418 25419 25420 25421 25422 25423 25424 25425 25426 25427 25428 25429 25430 25431 25432 25433 25434 25435 25436 25437 25438 25439 25440 25441 25442 25443 25444 25445 25446 25447 25448 25449 25450 25451 25452 25453 25454 25455 25456 25457 25458 25459 25460 25461 25462 25463 25464 25465 25466 25467 25468 25469 25470 25471 25472 25473 25474 25475 25476 25477 25478 25479 25480 25481 25482 25483 25484 25485 25486 25487 25488 25489 25490 25491 25492 25493 25494 25495 25496 25497 25498 25499 25500 25501 25502 25503 25504 25505 25506 25507 25508 25509 25510 25511 25512 25513 25514 25515 25516 25517 25518 25519 25520 25521 25522 25523 25524 25525 25526 25527 25528 25529 25530 25531 25532 25533 25534 25535 25536 25537 25538 25539 25540 25541 25542 25543 25544 25545 25546 25547 25548 25549 25550 25551 25552 25553 25554 25555 25556 25557 25558 25559 25560 25561 25562 25563 25564 25565 25566 25567 25568 25569 25570 25571 25572 25573 25574 25575 25576 25577 25578 25579 25580 25581 25582 25583 25584 25585 25586 25587 25588 25589 25590 25591 25592 25593 25594 25595 25596 25597 25598 25599 25600 25601 25602 25603 25604 25605 25606 25607 25608 25609 25610 25611 25612 25613 25614 25615 25616 25617 25618 25619 25620 25621 25622 25623 25624 25625 25626 25627 25628 25629 25630 25631 25632 25633 25634 25635 25636 25637 25638 25639 25640 25641 25642 25643 25644 25645 25646 25647 25648 25649 25650 25651 25652 25653 25654 25655 25656 25657 25658 25659 25660 25661 25662 25663 25664 25665 25666 25667 25668 25669 25670 25671 25672 25673 25674 25675 25676 25677 25678 25679 25680 25681 25682 25683 25684 25685 25686 25687 25688 25689 25690 25691 25692 25693 25694 25695 25696 25697 25698 25699 25700 25701 25702 25703 25704 25705 25706 25707 25708 25709 25710 25711 25712 25713 25714 25715 25716 25717 25718 25719 25720 25721 25722 25723 25724 25725 25726 25727 25728 25729 25730 25731 25732 25733 25734 25735 25736 25737 25738 25739 25740 25741 25742 25743 25744 25745 25746 25747 25748 25749 25750 25751 25752 25753 25754 25755 25756 25757 25758 25759 25760 25761 25762 25763 25764 25765 25766 25767 25768 25769 25770 25771 25772 25773 25774 25775 25776 25777 25778 25779 25780 25781 25782 25783 25784 25785 25786 25787 25788 25789 25790 25791 25792 25793 25794 25795 25796 25797 25798 25799 25800 25801 25802 25803 25804 25805 25806 25807 25808 25809 25810 25811 25812 25813 25814 25815 25816 25817 25818 25819 25820 25821 25822 25823 25824 25825 25826 25827 25828 25829 25830 25831 25832 25833 25834 25835 25836 25837 25838 25839 25840 25841 25842 25843 25844 25845 25846 25847 25848 25849 25850 25851 25852 25853 25854 25855 25856 25857 25858 25859 25860 25861 25862 25863 25864 25865 25866 25867 25868 25869 25870 25871 25872 25873 25874 25875 25876 25877 25878 25879 25880 25881 25882 25883 25884 25885 25886 25887 25888 25889 25890 25891 25892 25893 25894 25895 25896 25897 25898 25899 25900 25901 25902 25903 25904 25905 25906 25907 25908 25909 25910 25911 25912 25913 25914 25915 25916 25917 25918 25919 25920 25921 25922 25923 25924 25925 25926 25927 25928 25929 25930 25931 25932 25933 25934 25935 25936 25937 25938 25939 25940 25941 25942 25943 25944 25945 25946 25947 25948 25949 25950 25951 25952 25953 25954 25955 25956 25957 25958 25959 25960 25961 25962 25963 25964 25965 25966 25967 25968 25969 25970 25971 25972 25973 25974 25975 25976 25977 25978 25979 25980 25981 25982 25983 25984 25985 25986 25987 25988 25989 25990 25991 25992 25993 25994 25995 25996 25997 25998 25999 26000 26001 26002 26003 26004 26005 26006 26007 26008 26009 26010 26011 26012 26013 26014 26015 26016 26017 26018 26019 26020 26021 26022 26023 26024 26025 26026 26027 26028 26029 26030 26031 26032 26033 26034 26035 26036 26037 26038 26039 26040 26041 26042 26043 26044 26045 26046 26047 26048 26049 26050 26051 26052 26053 26054 26055 26056 26057 26058 26059 26060 26061 26062 26063 26064 26065 26066 26067 26068 26069 26070 26071 26072 26073 26074 26075 26076 26077 26078 26079 26080 26081 26082 26083 26084 26085 26086 26087 26088 26089 26090 26091 26092 26093 26094 26095 26096 26097 26098 26099 26100 26101 26102 26103 26104 26105 26106 26107 26108 26109 26110 26111 26112 26113 26114 26115 26116 26117 26118 26119 26120 26121 26122 26123 26124 26125 26126 26127 26128 26129 26130 26131 26132 26133 26134 26135 26136 26137 26138 26139 26140 26141 26142 26143 26144 26145 26146 26147 26148 26149 26150 26151 26152 26153 26154 26155 26156 26157 26158 26159 26160 26161 26162 26163 26164 26165 26166 26167 26168 26169 26170 26171 26172 26173 26174 26175 26176 26177 26178 26179 26180 26181 26182 26183 26184 26185 26186 26187 26188 26189 26190 26191 26192 26193 26194 26195 26196 26197 26198 26199 26200 26201 26202 26203 26204 26205 26206 26207 26208 26209 26210 26211 26212 26213 26214 26215 26216 26217 26218 26219 26220 26221 26222 26223 26224 26225 26226 26227 26228 26229 26230 26231 26232 26233 26234 26235 26236 26237 26238 26239 26240 26241 26242 26243 26244 26245 26246 26247 26248 26249 26250 26251 26252 26253 26254 26255 26256 26257 26258 26259 26260 26261 26262 26263 26264 26265 26266 26267 26268 26269 26270 26271 26272 26273 26274 26275 26276 26277 26278 26279 26280 26281 26282 26283 26284 26285 26286 26287 26288 26289 26290 26291 26292 26293 26294 26295 26296 26297 26298 26299 26300 26301 26302 26303 26304 26305 26306 26307 26308 26309 26310 26311 26312 26313 26314 26315 26316 26317 26318 26319 26320 26321 26322 26323 26324 26325 26326 26327 26328 26329 26330 26331 26332 26333 26334 26335 26336 26337 26338 26339 26340 26341 26342 26343 26344 26345 26346 26347 26348 26349 26350 26351 26352 26353 26354 26355 26356 26357 26358 26359 26360 26361 26362 26363 26364 26365 26366 26367 26368 26369 26370 26371 26372 26373 26374 26375 26376 26377 26378 26379 26380 26381 26382 26383 26384 26385 26386 26387 26388 26389 26390 26391 26392 26393 26394 26395 26396 26397 26398 26399 26400 26401 26402 26403 26404 26405 26406 26407 26408 26409 26410 26411 26412 26413 26414 26415 26416 26417 26418 26419 26420 26421 26422 26423 26424 26425 26426 26427 26428 26429 26430 26431 26432 26433 26434 26435 26436 26437 26438 26439 26440 26441 26442 26443 26444 26445 26446 26447 26448 26449 26450 26451 26452 26453 26454 26455 26456 26457 26458 26459 26460 26461 26462 26463 26464 26465 26466 26467 26468 26469 26470 26471 26472 26473 26474 26475 26476 26477 26478 26479 26480 26481 26482 26483 26484 26485 26486 26487 26488 26489 26490 26491 26492 26493 26494 26495 26496 26497 26498 26499 26500 26501 26502 26503 26504 26505 26506 26507 26508 26509 26510 26511 26512 26513 26514 26515 26516 26517 26518 26519 26520 26521 26522 26523 26524 26525 26526 26527 26528 26529 26530 26531 26532 26533 26534 26535 26536 26537 26538 26539 26540 26541 26542 26543 26544 26545 26546 26547 26548 26549 26550 26551 26552 26553 26554 26555 26556 26557 26558 26559 26560 26561 26562 26563 26564 26565 26566 26567 26568 26569 26570 26571 26572 26573 26574 26575 26576 26577 26578 26579 26580 26581 26582 26583 26584 26585 26586 26587 26588 26589 26590 26591 26592 26593 26594 26595 26596 26597 26598 26599 26600 26601 26602 26603 26604 26605 26606 26607 26608 26609 26610 26611 26612 26613 26614 26615 26616 26617 26618 26619 26620 26621 26622 26623 26624 26625 26626 26627 26628 26629 26630 26631 26632 26633 26634 26635 26636 26637 26638 26639 26640 26641 26642 26643 26644 26645 26646 26647 26648 26649 26650 26651 26652 26653 26654 26655 26656 26657 26658 26659 26660 26661 26662 26663 26664 26665 26666 26667 26668 26669 26670 26671 26672 26673 26674 26675 26676 26677 26678 26679 26680 26681 26682 26683 26684 26685 26686 26687 26688 26689 26690 26691 26692 26693 26694 26695 26696 26697 26698 26699 26700 26701 26702 26703 26704 26705 26706 26707 26708 26709 26710 26711 26712 26713 26714 26715 26716 26717 26718 26719 26720 26721 26722 26723 26724 26725 26726 26727 26728 26729 26730 26731 26732 26733 26734 26735 26736 26737 26738 26739 26740 26741 26742 26743 26744 26745 26746 26747 26748 26749 26750 26751 26752 26753 26754 26755 26756 26757 26758 26759 26760 26761 26762 26763 26764 26765 26766 26767 26768 26769 26770 26771 26772 26773 26774 26775 26776 26777 26778 26779 26780 26781 26782 26783 26784 26785 26786 26787 26788 26789 26790 26791 26792 26793 26794 26795 26796 26797 26798 26799 26800 26801 26802 26803 26804 26805 26806 26807 26808 26809 26810 26811 26812 26813 26814 26815 26816 26817 26818 26819 26820 26821 26822 26823 26824 26825 26826 26827 26828 26829 26830 26831 26832 26833 26834 26835 26836 26837 26838 26839 26840 26841 26842 26843 26844 26845 26846 26847 26848 26849 26850 26851 26852 26853 26854 26855 26856 26857 26858 26859 26860 26861 26862 26863 26864 26865 26866 26867 26868 26869 26870 26871 26872 26873 26874 26875 26876 26877 26878 26879 26880 26881 26882 26883 26884 26885 26886 26887 26888 26889 26890 26891 26892 26893 26894 26895 26896 26897 26898 26899 26900 26901 26902 26903 26904 26905 26906 26907 26908 26909 26910 26911 26912 26913 26914 26915 26916 26917 26918 26919 26920 26921 26922 26923 26924 26925 26926 26927 26928 26929 26930 26931 26932 26933 26934 26935 26936 26937 26938 26939 26940 26941 26942 26943 26944 26945 26946 26947 26948 26949 26950 26951 26952 26953 26954 26955 26956 26957 26958 26959 26960 26961 26962 26963 26964 26965 26966 26967 26968 26969 26970 26971 26972 26973 26974 26975 26976 26977 26978 26979 26980 26981 26982 26983 26984 26985 26986 26987 26988 26989 26990 26991 26992 26993 26994 26995 26996 26997 26998 26999 27000 27001 27002 27003 27004 27005 27006 27007 27008 27009 27010 27011 27012 27013 27014 27015 27016 27017 27018 27019 27020 27021 27022 27023 27024 27025 27026 27027 27028 27029 27030 27031 27032 27033 27034 27035 27036 27037 27038 27039 27040 27041 27042 27043 27044 27045 27046 27047 27048 27049 27050 27051 27052 27053 27054 27055 27056 27057 27058 27059 27060 27061 27062 27063 27064 27065 27066 27067 27068 27069 27070 27071 27072 27073 27074 27075 27076 27077 27078 27079 27080 27081 27082 27083 27084 27085 27086 27087 27088 27089 27090 27091 27092 27093 27094 27095 27096 27097 27098 27099 27100 27101 27102 27103 27104 27105 27106 27107 27108 27109 27110 27111 27112 27113 27114 27115 27116 27117 27118 27119 27120 27121 27122 27123 27124 27125 27126 27127 27128 27129 27130 27131 27132 27133 27134 27135 27136 27137 27138 27139 27140 27141 27142 27143 27144 27145 27146 27147 27148 27149 27150 27151 27152 27153 27154 27155 27156 27157 27158 27159 27160 27161 27162 27163 27164 27165 27166 27167 27168 27169 27170 27171 27172 27173 27174 27175 27176 27177 27178 27179 27180 27181 27182 27183 27184 27185 27186 27187 27188 27189 27190 27191 27192 27193 27194 27195 27196 27197 27198 27199 27200 27201 27202 27203 27204 27205 27206 27207 27208 27209 27210 27211 27212 27213 27214 27215 27216 27217 27218 27219 27220 27221 27222 27223 27224 27225 27226 27227 27228 27229 27230 27231 27232 27233 27234 27235 27236 27237 27238 27239 27240 27241 27242 27243 27244 27245 27246 27247 27248 27249 27250 27251 27252 27253 27254 27255 27256 27257 27258 27259 27260 27261 27262 27263 27264 27265 27266 27267 27268 27269 27270 27271 27272 27273 27274 27275 27276 27277 27278 27279 27280 27281 27282 27283 27284 27285 27286 27287 27288 27289 27290 27291 27292 27293 27294 27295 27296 27297 27298 27299 27300 27301 27302 27303 27304 27305 27306 27307 27308 27309 27310 27311 27312 27313 27314 27315 27316 27317 27318 27319 27320 27321 27322 27323 27324 27325 27326 27327 27328 27329 27330 27331 27332 27333 27334 27335 27336 27337 27338 27339 27340 27341 27342 27343 27344 27345 27346 27347 27348 27349 27350 27351 27352 27353 27354 27355 27356 27357 27358 27359 27360 27361 27362 27363 27364 27365 27366 27367 27368 27369 27370 27371 27372 27373 27374 27375 27376 27377 27378 27379 27380 27381 27382 27383 27384 27385 27386 27387 27388 27389 27390 27391 27392 27393 27394 27395 27396 27397 27398 27399 27400 27401 27402 27403 27404 27405 27406 27407 27408 27409 27410 27411 27412 27413 27414 27415 27416 27417 27418 27419 27420 27421 27422 27423 27424 27425 27426 27427 27428 27429 27430 27431 27432 27433 27434 27435 27436 27437 27438 27439 27440 27441 27442 27443 27444 27445 27446 27447 27448 27449 27450 27451 27452 27453 27454 27455 27456 27457 27458 27459 27460 27461 27462 27463 27464 27465 27466 27467 27468 27469 27470 27471 27472 27473 27474 27475 27476 27477 27478 27479 27480 27481 27482 27483 27484 27485 27486 27487 27488 27489 27490 27491 27492 27493 27494 27495 27496 27497 27498 27499 27500 27501 27502 27503 27504 27505 27506 27507 27508 27509 27510 27511 27512 27513 27514 27515 27516 27517 27518 27519 27520 27521 27522 27523 27524 27525 27526 27527 27528 27529 27530 27531 27532 27533 27534 27535 27536 27537 27538 27539 27540 27541 27542 27543 27544 27545 27546 27547 27548 27549 27550 27551 27552 27553 27554 27555 27556 27557 27558 27559 27560 27561 27562 27563 27564 27565 27566 27567 27568 27569 27570 27571 27572 27573 27574 27575 27576 27577 27578 27579 27580 27581 27582 27583 27584 27585 27586 27587 27588 27589 27590 27591 27592 27593 27594 27595 27596 27597 27598 27599 27600 27601 27602 27603 27604 27605 27606 27607 27608 27609 27610 27611 27612 27613 27614 27615 27616 27617 27618 27619 27620 27621 27622 27623 27624 27625 27626 27627 27628 27629 27630 27631 27632 27633 27634 27635 27636 27637 27638 27639 27640 27641 27642 27643 27644 27645 27646 27647 27648 27649 27650 27651 27652 27653 27654 27655 27656 27657 27658 27659 27660 27661 27662 27663 27664 27665 27666 27667 27668 27669 27670 27671 27672 27673 27674 27675 27676 27677 27678 27679 27680 27681 27682 27683 27684 27685 27686 27687 27688 27689 27690 27691 27692 27693 27694 27695 27696 27697 27698 27699 27700 27701 27702 27703 27704 27705 27706 27707 27708 27709 27710 27711 27712 27713 27714 27715 27716 27717 27718 27719 27720 27721 27722 27723 27724 27725 27726 27727 27728 27729 27730 27731 27732 27733 27734 27735 27736 27737 27738 27739 27740 27741 27742 27743 27744 27745 27746 27747 27748 27749 27750 27751 27752 27753 27754 27755 27756 27757 27758 27759 27760 27761 27762 27763 27764 27765 27766 27767 27768 27769 27770 27771 27772 27773 27774 27775 27776 27777 27778 27779 27780 27781 27782 27783 27784 27785 27786 27787 27788 27789 27790 27791 27792 27793 27794 27795 27796 27797 27798 27799 27800 27801 27802 27803 27804 27805 27806 27807 27808 27809 27810 27811 27812 27813 27814 27815 27816 27817 27818 27819 27820 27821 27822 27823 27824 27825 27826 27827 27828 27829 27830 27831 27832 27833 27834 27835 27836 27837 27838 27839 27840 27841 27842 27843 27844 27845 27846 27847 27848 27849 27850 27851 27852 27853 27854 27855 27856 27857 27858 27859 27860 27861 27862 27863 27864 27865 27866 27867 27868 27869 27870 27871 27872 27873 27874 27875 27876 27877 27878 27879 27880 27881 27882 27883 27884 27885 27886 27887 27888 27889 27890 27891 27892 27893 27894 27895 27896 27897 27898 27899 27900 27901 27902 27903 27904 27905 27906 27907 27908 27909 27910 27911 27912 27913 27914 27915 27916 27917 27918 27919 27920 27921 27922 27923 27924 27925 27926 27927 27928 27929 27930 27931 27932 27933 27934 27935 27936 27937 27938 27939 27940 27941 27942 27943 27944 27945 27946 27947 27948 27949 27950 27951 27952 27953 27954 27955 27956 27957 27958 27959 27960 27961 27962 27963 27964 27965 27966 27967 27968 27969 27970 27971 27972 27973 27974 27975 27976 27977 27978 27979 27980 27981 27982 27983 27984 27985 27986 27987 27988 27989 27990 27991 27992 27993 27994 27995 27996 27997 27998 27999 28000 28001 28002 28003 28004 28005 28006 28007 28008 28009 28010 28011 28012 28013 28014 28015 28016 28017 28018 28019 28020 28021 28022 28023 28024 28025 28026 28027 28028 28029 28030 28031 28032 28033 28034 28035 28036 28037 28038 28039 28040 28041 28042 28043 28044 28045 28046 28047 28048 28049 28050 28051 28052 28053 28054 28055 28056 28057 28058 28059 28060 28061 28062 28063 28064 28065 28066 28067 28068 28069 28070 28071 28072 28073 28074 28075 28076 28077 28078 28079 28080 28081 28082 28083 28084 28085 28086 28087 28088 28089 28090 28091 28092 28093 28094 28095 28096 28097 28098 28099 28100 28101 28102 28103 28104 28105 28106 28107 28108 28109 28110 28111 28112 28113 28114 28115 28116 28117 28118 28119 28120 28121 28122 28123 28124 28125 28126 28127 28128 28129 28130 28131 28132 28133 28134 28135 28136 28137 28138 28139 28140 28141 28142 28143 28144 28145 28146 28147 28148 28149 28150 28151 28152 28153 28154 28155 28156 28157 28158 28159 28160 28161 28162 28163 28164 28165 28166 28167 28168 28169 28170 28171 28172 28173 28174 28175 28176 28177 28178 28179 28180 28181 28182 28183 28184 28185 28186 28187 28188 28189 28190 28191 28192 28193 28194 28195 28196 28197 28198 28199 28200 28201 28202 28203 28204 28205 28206 28207 28208 28209 28210 28211 28212 28213 28214 28215 28216 28217 28218 28219 28220 28221 28222 28223 28224 28225 28226 28227 28228 28229 28230 28231 28232 28233 28234 28235 28236 28237 28238 28239 28240 28241 28242 28243 28244 28245 28246 28247 28248 28249 28250 28251 28252 28253 28254 28255 28256 28257 28258 28259 28260 28261 28262 28263 28264 28265 28266 28267 28268 28269 28270 28271 28272 28273 28274 28275 28276 28277 28278 28279 28280 28281 28282 28283 28284 28285 28286 28287 28288 28289 28290 28291 28292 28293 28294 28295 28296 28297 28298 28299 28300 28301 28302 28303 28304 28305 28306 28307 28308 28309 28310 28311 28312 28313 28314 28315 28316 28317 28318 28319 28320 28321 28322 28323 28324 28325 28326 28327 28328 28329 28330 28331 28332 28333 28334 28335 28336 28337 28338 28339 28340 28341 28342 28343 28344 28345 28346 28347 28348 28349 28350 28351 28352 28353 28354 28355 28356 28357 28358 28359 28360 28361 28362 28363 28364 28365 28366 28367 28368 28369 28370 28371 28372 28373 28374 28375 28376 28377 28378 28379 28380 28381 28382 28383 28384 28385 28386 28387 28388 28389 28390 28391 28392 28393 28394 28395 28396 28397 28398 28399 28400 28401 28402 28403 28404 28405 28406 28407 28408 28409 28410 28411 28412 28413 28414 28415 28416 28417 28418 28419 28420 28421 28422 28423 28424 28425 28426 28427 28428 28429 28430 28431 28432 28433 28434 28435 28436 28437 28438 28439 28440 28441 28442 28443 28444 28445 28446 28447 28448 28449 28450 28451 28452 28453 28454 28455 28456 28457 28458 28459 28460 28461 28462 28463 28464 28465 28466 28467 28468 28469 28470 28471 28472 28473 28474 28475 28476 28477 28478 28479 28480 28481 28482 28483 28484 28485 28486 28487 28488 28489 28490 28491 28492 28493 28494 28495 28496 28497 28498 28499 28500 28501 28502 28503 28504 28505 28506 28507 28508 28509 28510 28511 28512 28513 28514 28515 28516 28517 28518 28519 28520 28521 28522 28523 28524 28525 28526 28527 28528 28529 28530 28531 28532 28533 28534 28535 28536 28537 28538 28539 28540 28541 28542 28543 28544 28545 28546 28547 28548 28549 28550 28551 28552 28553 28554 28555 28556 28557 28558 28559 28560 28561 28562 28563 28564 28565 28566 28567 28568 28569 28570 28571 28572 28573 28574 28575 28576 28577 28578 28579 28580 28581 28582 28583 28584 28585 28586 28587 28588 28589 28590 28591 28592 28593 28594 28595 28596 28597 28598 28599 28600 28601 28602 28603 28604 28605 28606 28607 28608 28609 28610 28611 28612 28613 28614 28615 28616 28617 28618 28619 28620 28621 28622 28623 28624 28625 28626 28627 28628 28629 28630 28631 28632 28633 28634 28635 28636 28637 28638 28639 28640 28641 28642 28643 28644 28645 28646 28647 28648 28649 28650 28651 28652 28653 28654 28655 28656 28657 28658 28659 28660 28661 28662 28663 28664 28665 28666 28667 28668 28669 28670 28671 28672 28673 28674 28675 28676 28677 28678 28679 28680 28681 28682 28683 28684 28685 28686 28687 28688 28689 28690 28691 28692 28693 28694 28695 28696 28697 28698 28699 28700 28701 28702 28703 28704 28705 28706 28707 28708 28709 28710 28711 28712 28713 28714 28715 28716 28717 28718 28719 28720 28721 28722 28723 28724 28725 28726 28727 28728 28729 28730 28731 28732 28733 28734 28735 28736 28737 28738 28739 28740 28741 28742 28743 28744 28745 28746 28747 28748 28749 28750 28751 28752 28753 28754 28755 28756 28757 28758 28759 28760 28761 28762 28763 28764 28765 28766 28767 28768 28769 28770 28771 28772 28773 28774 28775 28776 28777 28778 28779 28780 28781 28782 28783 28784 28785 28786 28787 28788 28789 28790 28791 28792 28793 28794 28795 28796 28797 28798 28799 28800 28801 28802 28803 28804 28805 28806 28807 28808 28809 28810 28811 28812 28813 28814 28815 28816 28817 28818 28819 28820 28821 28822 28823 28824 28825 28826 28827 28828 28829 28830 28831 28832 28833 28834 28835 28836 28837 28838 28839 28840 28841 28842 28843 28844 28845 28846 28847 28848 28849 28850 28851 28852 28853 28854 28855 28856 28857 28858 28859 28860 28861 28862 28863 28864 28865 28866 28867 28868 28869 28870 28871 28872 28873 28874 28875 28876 28877 28878 28879 28880 28881 28882 28883 28884 28885 28886 28887 28888 28889 28890 28891 28892 28893 28894 28895 28896 28897 28898 28899 28900 28901 28902 28903 28904 28905 28906 28907 28908 28909 28910 28911 28912 28913 28914 28915 28916 28917 28918 28919 28920 28921 28922 28923 28924 28925 28926 28927 28928 28929 28930 28931 28932 28933 28934 28935 28936 28937 28938 28939 28940 28941 28942 28943 28944 28945 28946 28947 28948 28949 28950 28951 28952 28953 28954 28955 28956 28957 28958 28959 28960 28961 28962 28963 28964 28965 28966 28967 28968 28969 28970 28971 28972 28973 28974 28975 28976 28977 28978 28979 28980 28981 28982 28983 28984 28985 28986 28987 28988 28989 28990 28991 28992 28993 28994 28995 28996 28997 28998 28999 29000 29001 29002 29003 29004 29005 29006 29007 29008 29009 29010 29011 29012 29013 29014 29015 29016 29017 29018 29019 29020 29021 29022 29023 29024 29025 29026 29027 29028 29029 29030 29031 29032 29033 29034 29035 29036 29037 29038 29039 29040 29041 29042 29043 29044 29045 29046 29047 29048 29049 29050 29051 29052 29053 29054 29055 29056 29057 29058 29059 29060 29061 29062 29063 29064 29065 29066 29067 29068 29069 29070 29071 29072 29073 29074 29075 29076 29077 29078 29079 29080 29081 29082 29083 29084 29085 29086 29087 29088 29089 29090 29091 29092 29093 29094 29095 29096 29097 29098 29099 29100 29101 29102 29103 29104 29105 29106 29107 29108 29109 29110 29111 29112 29113 29114 29115 29116 29117 29118 29119 29120 29121 29122 29123 29124 29125 29126 29127 29128 29129 29130 29131 29132 29133 29134 29135 29136 29137 29138 29139 29140 29141 29142 29143 29144 29145 29146 29147 29148 29149 29150 29151 29152 29153 29154 29155 29156 29157 29158 29159 29160 29161 29162 29163 29164 29165 29166 29167 29168 29169 29170 29171 29172 29173 29174 29175 29176 29177 29178 29179 29180 29181 29182 29183 29184 29185 29186 29187 29188 29189 29190 29191 29192 29193 29194 29195 29196 29197 29198 29199 29200 29201 29202 29203 29204 29205 29206 29207 29208 29209 29210 29211 29212 29213 29214 29215 29216 29217 29218 29219 29220 29221 29222 29223 29224 29225 29226 29227 29228 29229 29230 29231 29232 29233 29234 29235 29236 29237 29238 29239 29240 29241 29242 29243 29244 29245 29246 29247 29248 29249 29250 29251 29252 29253 29254 29255 29256 29257 29258 29259 29260 29261 29262 29263 29264 29265 29266 29267 29268 29269 29270 29271 29272 29273 29274 29275 29276 29277 29278 29279 29280 29281 29282 29283 29284 29285 29286 29287 29288 29289 29290 29291 29292 29293 29294 29295 29296 29297 29298 29299 29300 29301 29302 29303 29304 29305 29306 29307 29308 29309 29310 29311 29312 29313 29314 29315 29316 29317 29318 29319 29320 29321 29322 29323 29324 29325 29326 29327 29328 29329 29330 29331 29332 29333 29334 29335 29336 29337 29338 29339 29340 29341 29342 29343 29344 29345 29346 29347 29348 29349 29350 29351 29352 29353 29354 29355 29356 29357 29358 29359 29360 29361 29362 29363 29364 29365 29366 29367 29368 29369 29370 29371 29372 29373 29374 29375 29376 29377 29378 29379 29380 29381 29382 29383 29384 29385 29386 29387 29388 29389 29390 29391 29392 29393 29394 29395 29396 29397 29398 29399 29400 29401 29402 29403 29404 29405 29406 29407 29408 29409 29410 29411 29412 29413 29414 29415 29416 29417 29418 29419 29420 29421 29422 29423 29424 29425 29426 29427 29428 29429 29430 29431 29432 29433 29434 29435 29436 29437 29438 29439 29440 29441 29442 29443 29444 29445 29446 29447 29448 29449 29450 29451 29452 29453 29454 29455 29456 29457 29458 29459 29460 29461 29462 29463 29464 29465 29466 29467 29468 29469 29470 29471 29472 29473 29474 29475 29476 29477 29478 29479 29480 29481 29482 29483 29484 29485 29486 29487 29488 29489 29490 29491 29492 29493 29494 29495 29496 29497 29498 29499 29500 29501 29502 29503 29504 29505 29506 29507 29508 29509 29510 29511 29512 29513 29514 29515 29516 29517 29518 29519 29520 29521 29522 29523 29524 29525 29526 29527 29528 29529 29530 29531 29532 29533 29534 29535 29536 29537 29538 29539 29540 29541 29542 29543 29544 29545 29546 29547 29548 29549 29550 29551 29552 29553 29554 29555 29556 29557 29558 29559 29560 29561 29562 29563 29564 29565 29566 29567 29568 29569 29570 29571 29572 29573 29574 29575 29576 29577 29578 29579 29580 29581 29582 29583 29584 29585 29586 29587 29588 29589 29590 29591 29592 29593 29594 29595 29596 29597 29598 29599 29600 29601 29602 29603 29604 29605 29606 29607 29608 29609 29610 29611 29612 29613 29614 29615 29616 29617 29618 29619 29620 29621 29622 29623 29624 29625 29626 29627 29628 29629 29630 29631 29632 29633 29634 29635 29636 29637 29638 29639 29640 29641 29642 29643 29644 29645 29646 29647 29648 29649 29650 29651 29652 29653 29654 29655 29656 29657 29658 29659 29660 29661 29662 29663 29664 29665 29666 29667 29668 29669 29670 29671 29672 29673 29674 29675 29676 29677 29678 29679 29680 29681 29682 29683 29684 29685 29686 29687 29688 29689 29690 29691 29692 29693 29694 29695 29696 29697 29698 29699 29700 29701 29702 29703 29704 29705 29706 29707 29708 29709 29710 29711 29712 29713 29714 29715 29716 29717 29718 29719 29720 29721 29722 29723 29724 29725 29726 29727 29728 29729 29730 29731 29732 29733 29734 29735 29736 29737 29738 29739 29740 29741 29742 29743 29744 29745 29746 29747 29748 29749 29750 29751 29752 29753 29754 29755 29756 29757 29758 29759 29760 29761 29762 29763 29764 29765 29766 29767 29768 29769 29770 29771 29772 29773 29774 29775 29776 29777 29778 29779 29780 29781 29782 29783 29784 29785 29786 29787 29788 29789 29790 29791 29792 29793 29794 29795 29796 29797 29798 29799 29800 29801 29802 29803 29804 29805 29806 29807 29808 29809 29810 29811 29812 29813 29814 29815 29816 29817 29818 29819 29820 29821 29822 29823 29824 29825 29826 29827 29828 29829 29830 29831 29832 29833 29834 29835 29836 29837 29838 29839 29840 29841 29842 29843 29844 29845 29846 29847 29848 29849 29850 29851 29852 29853 29854 29855 29856 29857 29858 29859 29860 29861 29862 29863 29864 29865 29866 29867 29868 29869 29870 29871 29872 29873 29874 29875 29876 29877 29878 29879 29880 29881 29882 29883 29884 29885 29886 29887 29888 29889 29890 29891 29892 29893 29894 29895 29896 29897 29898 29899 29900 29901 29902 29903 29904 29905 29906 29907 29908 29909 29910 29911 29912 29913 29914 29915 29916 29917 29918 29919 29920 29921 29922 29923 29924 29925 29926 29927 29928 29929 29930 29931 29932 29933 29934 29935 29936 29937 29938 29939 29940 29941 29942 29943 29944 29945 29946 29947 29948 29949 29950 29951 29952 29953 29954 29955 29956 29957 29958 29959 29960 29961 29962 29963 29964 29965 29966 29967 29968 29969 29970 29971 29972 29973 29974 29975 29976 29977 29978 29979 29980 29981 29982 29983 29984 29985 29986 29987 29988 29989 29990 29991 29992 29993 29994 29995 29996 29997 29998 29999 30000 30001 30002 30003 30004 30005 30006 30007 30008 30009 30010 30011 30012 30013 30014 30015 30016 30017 30018 30019 30020 30021 30022 30023 30024 30025 30026 30027 30028 30029 30030 30031 30032 30033 30034 30035 30036 30037 30038 30039 30040 30041 30042 30043 30044 30045 30046 30047 30048 30049 30050 30051 30052 30053 30054 30055 30056 30057 30058 30059 30060 30061 30062 30063 30064 30065 30066 30067 30068 30069 30070 30071 30072 30073 30074 30075 30076 30077 30078 30079 30080 30081 30082 30083 30084 30085 30086 30087 30088 30089 30090 30091 30092 30093 30094 30095 30096 30097 30098 30099 30100 30101 30102 30103 30104 30105 30106 30107 30108 30109 30110 30111 30112 30113 30114 30115 30116 30117 30118 30119 30120 30121 30122 30123 30124 30125 30126 30127 30128 30129 30130 30131 30132 30133 30134 30135 30136 30137 30138 30139 30140 30141 30142 30143 30144 30145 30146 30147 30148 30149 30150 30151 30152 30153 30154 30155 30156 30157 30158 30159 30160 30161 30162 30163 30164 30165 30166 30167 30168 30169 30170 30171 30172 30173 30174 30175 30176 30177 30178 30179 30180 30181 30182 30183 30184 30185 30186 30187 30188 30189 30190 30191 30192 30193 30194 30195 30196 30197 30198 30199 30200 30201 30202 30203 30204 30205 30206 30207 30208 30209 30210 30211 30212 30213 30214 30215 30216 30217 30218 30219 30220 30221 30222 30223 30224 30225 30226 30227 30228 30229 30230 30231 30232 30233 30234 30235 30236 30237 30238 30239 30240 30241 30242 30243 30244 30245 30246 30247 30248 30249 30250 30251 30252 30253 30254 30255 30256 30257 30258 30259 30260 30261 30262 30263 30264 30265 30266 30267 30268 30269 30270 30271 30272 30273 30274 30275 30276 30277 30278 30279 30280 30281 30282 30283 30284 30285 30286 30287 30288 30289 30290 30291 30292 30293 30294 30295 30296 30297 30298 30299 30300 30301 30302 30303 30304 30305 30306 30307 30308 30309 30310 30311 30312 30313 30314 30315 30316 30317 30318 30319 30320 30321 30322 30323 30324 30325 30326 30327 30328 30329 30330 30331 30332 30333 30334 30335 30336 30337 30338 30339 30340 30341 30342 30343 30344 30345 30346 30347 30348 30349 30350 30351 30352 30353 30354 30355 30356 30357 30358 30359 30360 30361 30362 30363 30364 30365 30366 30367 30368 30369 30370 30371 30372 30373 30374 30375 30376 30377 30378 30379 30380 30381 30382 30383 30384 30385 30386 30387 30388 30389 30390 30391 30392 30393 30394 30395 30396 30397 30398 30399 30400 30401 30402 30403 30404 30405 30406 30407 30408 30409 30410 30411 30412 30413 30414 30415 30416 30417 30418 30419 30420 30421 30422 30423 30424 30425 30426 30427 30428 30429 30430 30431 30432 30433 30434 30435 30436 30437 30438 30439 30440 30441 30442 30443 30444 30445 30446 30447 30448 30449 30450 30451 30452 30453 30454 30455 30456 30457 30458 30459 30460 30461 30462 30463 30464 30465 30466 30467 30468 30469 30470 30471 30472 30473 30474 30475 30476 30477 30478 30479 30480 30481 30482 30483 30484 30485 30486 30487 30488 30489 30490 30491 30492 30493 30494 30495 30496 30497 30498 30499 30500 30501 30502 30503 30504 30505 30506 30507 30508 30509 30510 30511 30512 30513 30514 30515 30516 30517 30518 30519 30520 30521 30522 30523 30524 30525 30526 30527 30528 30529 30530 30531 30532 30533 30534 30535 30536 30537 30538 30539 30540 30541 30542 30543 30544 30545 30546 30547 30548 30549 30550 30551 30552 30553 30554 30555 30556 30557 30558 30559 30560 30561 30562 30563 30564 30565 30566 30567 30568 30569 30570 30571 30572 30573 30574 30575 30576 30577 30578 30579 30580 30581 30582 30583 30584 30585 30586 30587 30588 30589 30590 30591 30592 30593 30594 30595 30596 30597 30598 30599 30600 30601 30602 30603 30604 30605 30606 30607 30608 30609 30610 30611 30612 30613 30614 30615 30616 30617 30618 30619 30620 30621 30622 30623 30624 30625 30626 30627 30628 30629 30630 30631 30632 30633 30634 30635 30636 30637 30638 30639 30640 30641 30642 30643 30644 30645 30646 30647 30648 30649 30650 30651 30652 30653 30654 30655 30656 30657 30658 30659 30660 30661 30662 30663 30664 30665 30666 30667 30668 30669 30670 30671 30672 30673 30674 30675 30676 30677 30678 30679 30680 30681 30682 30683 30684 30685 30686 30687 30688 30689 30690 30691 30692 30693 30694 30695 30696 30697 30698 30699 30700 30701 30702 30703 30704 30705 30706 30707 30708 30709 30710 30711 30712 30713 30714 30715 30716 30717 30718 30719 30720 30721 30722 30723 30724 30725 30726 30727 30728 30729 30730 30731 30732 30733 30734 30735 30736 30737 30738 30739 30740 30741 30742 30743 30744 30745 30746 30747 30748 30749 30750 30751 30752 30753 30754 30755 30756 30757 30758 30759 30760 30761 30762 30763 30764 30765 30766 30767 30768 30769 30770 30771 30772 30773 30774 30775 30776 30777 30778 30779 30780 30781 30782 30783 30784 30785 30786 30787 30788 30789 30790 30791 30792 30793 30794 30795 30796 30797 30798 30799 30800 30801 30802 30803 30804 30805 30806 30807 30808 30809 30810 30811 30812 30813 30814 30815 30816 30817 30818 30819 30820 30821 30822 30823 30824 30825 30826 30827 30828 30829 30830 30831 30832 30833 30834 30835 30836 30837 30838 30839 30840 30841 30842 30843 30844 30845 30846 30847 30848 30849 30850 30851 30852 30853 30854 30855 30856 30857 30858 30859 30860 30861 30862 30863 30864 30865 30866 30867 30868 30869 30870 30871 30872 30873 30874 30875 30876 30877 30878 30879 30880 
</DataArray>
<DataArray type="UInt32" Name="offsets" format="ascii">
3 6 8 11 14 17 20 22 25 28 31 34 37 40 43 46 49 52 55 58 60 63 66 69 72 74 77 80 83 86 89 92 95 97 100 103 106 109 112 115 118 121 123 126 129 132 135 138 141 144 147 150 153 156 158 160 163 166 169 172 175 178 181 184 186 189 192 195 198 201 204 207 210 213 216 219 222 225 228 231 234 237 240 243 246 249 252 254 257 260 263 266 269 272 275 278 281 284 287 289 292 295 298 300 303 306 309 312 315 318 321 324 327 330 333 336 339 342 345 348 351 354 357 360 363 366 369 372 375 378 381 384 387 390 393 396 399 402 405 408 411 414 417 420 423 426 429 432 435 437 440 442 445 448 451 454 457 460 463 466 469 472 475 478 481 484 487 490 493 496 499 502 505 508 511 514 517 520 522 525 528 530 533 535 538 541 544 547 550 553 556 559 562 565 568 571 574 577 579 582 584 587 590 593 596 599 602 605 607 610 612 615 618 621 624 627 630 632 635 638 640 643 646 649 652 655 658 660 662 665 668 670 673 675 678 680 682 685 688 691 693 696 699 702 705 708 711 714 717 720 723 726 729 732 734 737 740 743 746 749 752 755 757 760 763 766 769 772 775 778 780 783 786 789 792 794 797 800 803 806 809 812 814 817 820 823 825 828 831 834 837 840 843 846 848 851 854 857 860 863 866 868 871 874 877 880 883 886 888 891 894 897 900 903 906 909 911 914 917 920 923 926 929 932 935 938 941 944 947 950 953 956 959 962 965 968 971 974 976 978 981 984 987 990 993 995 998 1001 1004 1007 1010 1013 1016 1018 1021 1023 1026 1029 1032 1034 1037 1040 1043 1045 1048 1050 1053 1056 1059 1062 1065 1068 1071 1073 1076 1079 1082 1085 1088 1091 1094 1096 1099 1102 1105 1107 1110 1113 1116 1119 1122 1125 1128 1131 1134 1137 1140 1143 1146 1149 1152 1155 1158 1161 1164 1167 1170 1173 1176 1179 1182 1185 1188 1191 1194 1197 1200 1203 1205 1208 1211 1214 1217 1220 1223 1226 1229 1232 1235 1238 1241 1244 1247 1250 1253 1256 1259 1262 1265 1268 1271 1274 1277 1280 1283 1286 1289 1292 1295 1298 1301 1303 1306 1309 1312 1315 1318 1321 1324 1327 1330 1333 1336 1339 1342 1345 1348 1351 1354 1357 1360 1363 1365 1368 1371 1374 1377 1380 1383 1386 1388 1391 1394 1397 1400 1403 1405 1408 1411 1413 1416 1418 1421 1424 1427 1430 1432 1435 1438 1440 1443 1446 1449 1452 1455 1458 1460 1463 1466 1469 1472 1475 1478 1481 1484 1487 1490 1493 1496 1499 1502 1505 1508 1511 1514 1517 1519 1522 1525 1528 1531 1534 1537 1540 1543 1546 1549 1552 1554 1556 1559 1562 1565 1568 1571 1574 1577 1580 1583 1586 1589 1592 1595 1598 1601 1604 1607 1610 1613 1616 1619 1621 1624 1626 1628 1631 1634 1636 1639 1642 1645 1648 1651 1654 1657 1660 1663 1666 1669 1672 1675 1677 1680 1683 1686 1689 1692 1695 1698 1700 1702 1705 1708 1711 1714 1717 1720 1723 1726 1728 1730 1733 1736 1739 1741 1744 1747 1750 1753 1756 1759 1762 1765 1768 1771 1774 1777 1780 1783 1786 1789 1792 1795 1798 1801 1804 1807 1810 1813 1816 1819 1822 1825 1828 1831 1834 1837 1840 1843 1846 1848 1851 1854 1856 1859 1862 1865 1868 1870 1873 1876 1879 1881 1884 1887 1890 1892 1895 1898 1900 1903 1906 1909 1912 1915 1918 1921 1924 1927 1930 1933 1936 1939 1942 1945 1948 1951 1954 1957 1960 1963 1965 1968 1971 1974 1976 1979 1982 1985 1988 1991 1993 1996 1999 2002 2005 2008 2011 2013 2016 2019 2022 2025 2028 2031 2034 2037 2040 2043 2046 2049 2052 2055 2058 2061 2064 2067 2069 2072 2075 2078 2081 2084 2087 2090 2093 2096 2099 2102 2105 2108 2111 2114 2117 2120 2123 2126 2129 2132 2134 2137 2140 2143 2146 2149 2152 2155 2158 2161 2164 2167 2170 2173 2176 2179 2181 2184 2187 2190 2193 2196 2199 2202 2205 2208 2211 2214 2217 2220 2223 2226 2229 2232 2235 2237 2240 2243 2246 2249 2252 2255 2258 2260 2263 2266 2269 2272 2275 2278 2281 2284 2287 2290 2293 2296 2299 2302 2305 2308 2311 2314 2317 2320 2323 2325 2328 2331 2334 2337 2340 2343 2346 2349 2352 2354 2357 2360 2363 2366 2369 2372 2375 2378 2380 2383 2386 2389 2392 2395 2398 2401 2404 2407 2410 2413 2416 2419 2422 2425 2428 2431 2434 2437 2439 2442 2445 2448 2451 2454 2456 2459 2462 2465 2467 2470 2473 2476 2479 2482 2485 2487 2490 2493 2496 2499 2502 2505 2508 2511 2514 2517 2519 2522 2525 2528 2531 2534 2537 2540 2543 2546 2549 2552 2555 2557 2560 2562 2565 2568 2571 2574 2577 2580 2583 2585 2588 2590 2593 2596 2599 2602 2605 2608 2611 2614 2617 2620 2623 2626 2629 2632 2635 2638 2641 2644 2647 2650 2653 2656 2659 2662 2665 2668 2671 2674 2677 2680 2683 2686 2689 2692 2695 2698 2701 2704 2707 2710 2713 2716 2719 2722 2725 2727 2729 2732 2735 2737 2740 2743 2746 2749 2752 2755 2758 2761 2764 2767 2770 2773 2776 2779 2782 2785 2787 2790 2793 2796 2799 2801 2804 2807 2809 2812 2815 2818 2821 2824 2827 2829 2832 2834 2837 2840 2842 2845 2848 2851 2854 2857 2860 2863 2866 2869 2872 2874 2877 2880 2883 2886 2889 2891 2893 2896 2899 2902 2905 2907 2910 2913 2915 2918 2920 2923 2926 2929 2932 2935 2937 2940 2943 2945 2948 2951 2954 2957 2960 2963 2966 2969 2972 2975 2978 2981 2983 2986 2989 2992 2995 2998 3001 3004 3007 3010 3013 3016 3019 3022 3025 3028 3030 3033 3035 3038 3040 3042 3045 3047 3050 3053 3055 3058 3061 3064 3067 3070 3073 3075 3078 3080 3083 3086 3088 3091 3094 3097 3099 3102 3105 3107 3110 3113 3116 3119 3122 3124 3127 3130 3132 3135 3138 3141 3144 3147 3149 3152 3154 3157 3160 3162 3165 3168 3170 3173 3176 3179 3182 3185 3188 3191 3194 3196 3199 3202 3205 3208 3211 3214 3217 3220 3223 3226 3228 3231 3234 3237 3240 3242 3245 3248 3250 3253 3256 3259 3262 3265 3267 3270 3273 3276 3279 3282 3284 3287 3289 3292 3295 3298 3301 3304 3307 3309 3312 3315 3318 3321 3324 3327 3330 3333 3335 3337 3339 3342 3345 3348 3351 3353 3356 3358 3361 3364 3367 3369 3371 3374 3377 3380 3382 3385 3388 3391 3393 3396 3398 3401 3403 3405 3408 3410 3413 3416 3419 3422 3424 3427 3430 3433 3435 3438 3440 3443 3445 3448 3451 3454 3457 3460 3463 3466 3468 3471 3474 3477 3480 3482 3485 3488 3491 3494 3497 3500 3503 3506 3508 3511 3513 3515 3518 3521 3524 3526 3529 3532 3535 3538 3540 3542 3545 3548 3550 3552 3555 3558 3561 3564 3567 3569 3572 3575 3578 3581 3584 3587 3590 3593 3595 3598 3600 3603 3606 3609 3612 3615 3618 3621 3624 3627 3630 3633 3636 3639 3642 3645 3648 3651 3653 3656 3659 3662 3665 3668 3671 3674 3677 3680 3683 3686 3689 3692 3695 3698 3701 3704 3707 3710 3713 3716 3719 3722 3725 3728 3730 3733 3735 3738 3741 3744 3747 3750 3752 3754 3757 3760 3763 3766 3768 3770 3773 3775 3778 3781 3783 3786 3789 3791 3794 3797 3800 3803 3805 3807 3810 3813 3816 3819 3822 3825 3828 3831 3833 3836 3839 3841 3844 3847 3850 3852 3855 3858 3860 3863 3866 3869 3872 3875 3878 3880 3883 3886 3889 3892 3895 3898 3900 3903 3906 3909 3912 3915 3917 3920 3923 3925 3927 3930 3933 3935 3938 3941 3943 3946 3949 3952 3955 3958 3961 3964 3967 3970 3973 3976 3979 3981 3984 3986 3989 3992 3994 3997 4000 4003 4006 4009 4012 4014 4017 4020 4023 4025 4027 4029 4032 4035 4038 4040 4042 4045 4047 4049 4052 4055 4057 4060 4063 4065 4068 4070 4073 4075 4078 4081 4084 4086 4088 4091 4094 4096 4098 4100 4102 4105 4108 4111 4113 4115 4118 4121 4123 4125 4127 4130 4132 4134 4137 4140 4142 4145 4147 4149 4152 4154 4157 4160 4162 4165 4167 4169 4172 4175 4178 4181 4183 4185 4188 4191 4193 4196 4199 4202 4204 4207 4210 4213 4216 4219 4222 4225 4228 4231 4234 4237 4240 4243 4246 4249 4252 4255 4258 4261 4264 4267 4270 4273 4276 4279 4282 4285 4288 4291 4294 4297 4300 4303 4306 4309 4312 4315 4318 4321 4324 4327 4330 4333 4336 4339 4342 4345 4348 4351 4354 4357 4360 4363 4366 4369 4372 4375 4378 4380 4383 4385 4388 4391 4394 4397 4400 4403 4406 4409 4412 4415 4418 4421 4424 4427 4429 4432 4435 4438 4441 4444 4447 4450 4453 4456 4459 4461 4464 4467 4470 4473 4476 4479 4482 4485 4488 4491 4494 4497 4500 4503 4506 4509 4512 4515 4518 4521 4524 4527 4530 4533 4536 4539 4542 4545 4548 4551 4554 4557 4560 4563 4566 4569 4572 4575 4578 4581 4584 4587 4590 4593 4596 4599 4601 4604 4607 4610 4612 4615 4617 4620 4623 4626 4629 4632 4634 4637 4639 4642 4645 4648 4651 4654 4657 4660 4663 4666 4669 4672 4675 4678 4681 4684 4687 4690 4693 4696 4699 4702 4705 4708 4711 4714 4716 4719 4722 4725 4728 4731 4734 4736 4739 4741 4744 4747 4750 4752 4755 4758 4760 4763 4766 4769 4772 4775 4778 4781 4784 4787 4790 4793 4796 4799 4802 4805 4808 4811 4814 4817 4820 4823 4826 4829 4832 4835 4838 4841 4844 4847 4850 4853 4856 4859 4862 4865 4868 4871 4873 4876 4878 4881 4884 4887 4890 4893 4896 4899 4902 4905 4908 4910 4913 4916 4919 4922 4925 4928 4931 4934 4937 4940 4943 4946 4949 4952 4955 4958 4961 4963 4966 4969 4972 4974 4976 4979 4981 4984 4987 4990 4993 4996 4999 5002 5005 5007 5010 5013 5016 5019 5021 5024 5027 5030 5033 5036 5039 5042 5044 5047 5050 5052 5055 5057 5060 5063 5065 5068 5071 5073 5075 5078 5081 5084 5087 5090 5093 5096 5099 5102 5105 5108 5111 5114 5117 5120 5122 5125 5127 5130 5133 5136 5138 5141 5143 5146 5149 5152 5155 5158 5161 5164 5167 5170 5173 5176 5179 5181 5184 5186 5189 5192 5195 5198 5201 5204 5207 5210 5212 5215 5218 5220 5223 5226 5229 5231 5233 5236 5239 5242 5245 5248 5251 5254 5257 5260 5263 5266 5269 5272 5275 5278 5281 5284 5287 5290 5293 5296 5298 5301 5304 5307 5310 5313 5315 5318 5320 5323 5326 5329 5332 5334 5337 5340 5342 5345 5348 5351 5354 5357 5359 5362 5365 5368 5371 5373 5376 5379 5382 5385 5388 5391 5394 5396 5399 5402 5405 5407 5410 5413 5416 5419 5422 5425 5428 5431 5434 5437 5440 5442 5445 5448 5451 5454 5457 5460 5463 5466 5468 5471 5474 5477 5480 5483 5486 5488 5491 5494 5497 5500 5503 5506 5508 5511 5514 5517 5520 5523 5526 5529 5532 5535 5538 5541 5543 5546 5549 5552 5554 5557 5560 5563 5565 5568 5570 5573 5576 5579 5582 5585 5588 5590 5593 5596 5599 5602 5605 5608 5611 5614 5617 5620 5623 5626 5629 5632 5635 5637 5640 5643 5646 5649 5652 5654 5657 5660 5663 5666 5669 5672 5675 5678 5680 5683 5686 5689 5692 5695 5698 5701 5704 5707 5710 5713 5716 5719 5722 5725 5728 5730 5733 5736 5739 5742 5744 5747 5750 5753 5756 5759 5762 5765 5768 5771 5774 5777 5780 5783 5786 5789 5792 5795 5798 5801 5804 5807 5810 5813 5816 5819 5822 5824 5827 5830 5833 5835 5838 5840 5843 5846 5849 5852 5854 5857 5859 5862 5865 5868 5871 5874 5876 5879 5882 5885 5888 5891 5894 5897 5900 5903 5905 5908 5911 5914 5917 5920 5923 5926 5929 5932 5935 5938 5941 5944 5947 5950 5953 5956 5959 5962 5965 5968 5971 5974 5977 5979 5981 5984 5987 5990 5993 5996 5998 6001 6004 6007 6009 6012 6015 6018 6020 6023 6026 6028 6031 6033 6036 6039 6042 6045 6047 6050 6053 6056 6059 6061 6063 6066 6069 6072 6075 6078 6081 6084 6087 6090 6093 6096 6099 6101 6104 6107 6110 6113 6115 6118 6121 6124 6127 6130 6132 6135 6138 6140 6143 6146 6149 6152 6155 6158 6161 6164 6167 6170 6173 6176 6179 6182 6185 6188 6190 6193 6196 6198 6201 6204 6207 6209 6212 6215 6218 6221 6224 6227 6230 6233 6236 6239 6242 6244 6247 6250 6253 6256 6259 6262 6265 6268 6271 6274 6277 6280 6283 6286 6289 6292 6294 6297 6300 6302 6305 6307 6310 6313 6315 6318 6320 6323 6325 6328 6331 6334 6337 6340 6343 6346 6349 6352 6355 6358 6361 6364 6366 6369 6371 6373 6376 6379 6381 6383 6386 6389 6391 6393 6396 6399 6402 6404 6407 6409 6412 6415 6417 6420 6423 6426 6429 6431 6433 6436 6438 6441 6444 6446 6448 6451 6454 6456 6459 6462 6465 6467 6470 6473 6476 6478 6480 6482 6485 6488 6490 6493 6495 6497 6500 6503 6506 6509 6512 6515 6518 6521 6524 6527 6530 6532 6534 6537 6539 6542 6544 6547 6549 6552 6555 6558 6560 6563 6566 6569 6572 6575 6577 6580 6583 6586 6589 6592 6595 6598 6601 6604 6607 6610 6613 6616 6619 6622 6625 6628 6631 6634 6637 6640 6643 6646 6649 6651 6654 6657 6660 6663 6666 6669 6672 6675 6678 6681 6684 6687 6690 6693 6696 6699 6702 6705 6707 6710 6713 6716 6719 6722 6725 6728 6731 6734 6737 6740 6742 6745 6748 6751 6754 6757 6759 6762 6765 6768 6771 6774 6777 6780 6783 6786 6789 6792 6795 6798 6801 6803 6806 6809 6812 6815 6818 6821 6824 6827 6830 6833 6836 6839 6842 6845 6847 6850 6852 6855 6858 6861 6864 6866 6869 6872 6875 6878 6881 6884 6887 6890 6893 6896 6899 6902 6904 6907 6909 6912 6915 6918 6921 6923 6926 6929 6932 6935 6938 6941 6944 6946 6949 6952 6955 6958 6961 6964 6967 6969 6972 6975 6978 6980 6983 6985 6988 6991 6994 6997 7000 7003 7006 7009 7012 7014 7017 7020 7023 7026 7029 7032 7035 7038 7041 7044 7047 7050 7053 7056 7059 7062 7065 7068 7071 7074 7077 7080 7083 7086 7089 7092 7095 7098 7101 7104 7107 7110 7113 7116 7119 7122 7125 7128 7131 7134 7137 7140 7143 7145 7148 7151 7153 7156 7159 7162 7165 7168 7171 7174 7177 7180 7183 7185 7188 7191 7194 7197 7200 7202 7205 7208 7210 7213 7216 7219 7222 7225 7228 7230 7233 7236 7239 7242 7244 7247 7250 7252 7255 7257 7260 7263 7266 7269 7272 7275 7278 7281 7284 7287 7290 7292 7295 7297 7300 7303 7306 7309 7311 7314 7317 7320 7323 7326 7329 7332 7335 7338 7341 7344 7347 7350 7353 7356 7359 7362 7365 7368 7371 7374 7376 7379 7382 7385 7388 7390 7393 7396 7399 7402 7405 7408 7411 7413 7416 7419 7422 7425 7428 7430 7433 7436 7439 7441 7444 7447 7450 7452 7455 7458 7460 7463 7466 7469 7471 7474 7477 7479 7482 7485 7488 7491 7494 7497 7500 7503 7506 7509 7512 7515 7518 7521 7524 7527 7530 7533 7536 7539 7542 7545 7548 7551 7554 7557 7560 7563 7566 7569 7572 7574 7577 7580 7583 7586 7589 7592 7595 7598 7601 7604 7607 7609 7612 7615 7618 7621 7624 7627 7630 7633 7636 7639 7642 7645 7648 7651 7654 7656 7658 7661 7664 7667 7669 7672 7675 7678 7681 7683 7686 7689 7691 7694 7697 7700 7703 7706 7709 7712 7715 7718 7721 7724 7727 7730 7732 7734 7737 7740 7743 7746 7749 7752 7755 7758 7761 7764 7767 7769 7772 7775 7777 7780 7783 7786 7789 7792 7795 7798 7801 7804 7807 7810 7813 7816 7819 7822 7825 7828 7831 7834 7836 7839 7842 7845 7847 7850 7853 7856 7859 7862 7864 7867 7870 7873 7876 7879 7882 7885 7888 7891 7894 7897 7900 7903 7906 7909 7912 7915 7918 7921 7924 7926 7929 7932 7934 7937 7940 7943 7946 7949 7952 7955 7958 7961 7964 7967 7970 7973 7976 7979 7982 7985 7988 7991 7993 7996 7999 8002 8005 8008 8011 8014 8017 8020 8023 8026 8029 8032 8035 8038 8041 8044 8047 8050 8053 8056 8059 8062 8065 8068 8071 8074 8077 8080 8083 8086 8089 8091 8094 8097 8100 8103 8106 8109 8111 8114 8117 8120 8123 8126 8128 8131 8134 8137 8140 8142 8145 8148 8151 8154 8157 8160 8163 8166 8169 8172 8175 8178 8181 8184 8187 8190 8193 8196 8199 8202 8205 8208 8210 8213 8216 8219 8222 8225 8228 8231 8233 8236 8239 8241 8244 8247 8249 8252 8255 8258 8261 8264 8267 8269 8272 8275 8278 8281 8284 8287 8290 8293 8296 8299 8301 8304 8306 8309 8312 8315 8318 8321 8324 8327 8330 8332 8335 8338 8340 8343 8346 8349 8351 8354 8357 8360 8362 8365 8368 8371 8373 8375 8378 8381 8383 8386 8389 8391 8394 8397 8399 8402 8405 8408 8411 8414 8417 8420 8423 8426 8428 8431 8434 8437 8439 8442 8445 8448 8450 8453 8456 8459 8461 8464 8466 8469 8472 8474 8477 8480 8483 8486 8489 8492 8495 8498 8500 8503 8506 8508 8511 8514 8517 8520 8523 8526 8529 8532 8535 8538 8541 8544 8547 8549 8552 8554 8557 8560 8563 8565 8567 8570 8572 8575 8578 8581 8584 8586 8589 8591 8594 8597 8600 8603 8606 8609 8612 8615 8618 8620 8623 8626 8629 8632 8635 8638 8641 8644 8647 8650 8653 8656 8659 8662 8665 8668 8671 8674 8677 8680 8683 8686 8689 8692 8695 8698 8701 8704 8706 8709 8712 8715 8718 8721 8724 8726 8729 8732 8735 8738 8741 8744 8746 8749 8752 8755 8758 8761 8764 8766 8769 8772 8775 8777 8780 8783 8786 8788 8791 8794 8796 8799 8802 8805 8808 8811 8814 8816 8819 8822 8825 8827 8829 8832 8835 8838 8841 8844 8847 8850 8853 8856 8859 8862 8865 8868 8871 8874 8877 8880 8882 8885 8888 8891 8894 8897 8900 8903 8905 8908 8911 8914 8917 8920 8922 8925 8928 8931 8934 8937 8939 8942 8945 8947 8950 8953 8956 8959 8961 8964 8967 8970 8973 8976 8979 8981 8984 8986 8989 8991 8993 8996 8998 9001 9004 9007 9009 9012 9015 9018 9021 9024 9026 9029 9032 9035 9037 9040 9043 9046 9049 9051 9053 9055 9058 9061 9064 9067 9069 9071 9074 9076 9079 9082 9085 9088 9091 9094 9096 9099 9101 9104 9107 9109 9112 9115 9118 9120 9123 9126 9128 9131 9134 9137 9140 9143 9146 9149 9152 9155 9158 9161 9164 9166 9169 9172 9175 9178 9180 9183 9186 9189 9192 9194 9197 9200 9203 9206 9209 9212 9215 9218 9221 9223 9225 9227 9230 9233 9236 9238 9240 9243 9246 9248 9251 9253 9256 9259 9262 9265 9268 9271 9274 9276 9279 9282 9285 9288 9291 9294 9297 9300 9303 9306 9309 9312 9315 9318 9321 9324 9326 9329 9332 9335 9338 9341 9344 9347 9350 9353 9355 9358 9361 9363 9366 9368 9371 9373 9376 9379 9381 9384 9387 9390 9392 9394 9397 9400 9402 9405 9408 9411 9413 9416 9419 9422 9425 9427 9430 9433 9436 9439 9442 9445 9448 9451 9454 9457 9460 9462 9464 9467 9470 9473 9476 9479 9482 9485 9488 9491 9494 9497 9500 9503 9506 9509 9512 9515 9518 9521 9524 9527 9530 9533 9536 9539 9542 9545 9548 9551 9554 9557 9560 9562 9565 9568 9571 9574 9577 9580 9583 9586 9589 9592 9595 9598 9601 9604 9607 9610 9613 9616 9619 9621 9624 9627 9630 9633 9636 9639 9641 9643 9646 9649 9651 9653 9656 9659 9662 9664 9667 9670 9673 9676 9679 9682 9685 9688 9691 9694 9697 9700 9703 9706 9709 9712 9715 9718 9721 9724 9727 9730 9733 9735 9738 9740 9743 9745 9748 9751 9754 9757 9760 9763 9765 9768 9770 9772 9775 9778 9780 9783 9786 9789 9792 9795 9798 9800 9802 9805 9808 9810 9812 9815 9818 9820 9822 9825 9828 9831 9834 9837 9840 9843 9846 9848 9851 9854 9857 9860 9863 9865 9868 9871 9873 9876 9879 9882 9884 9887 9890 9893 9896 9899 9902 9905 9908 9911 9914 9917 9920 9923 9926 9929 9932 9935 9938 9941 9944 9947 9950 9953 9956 9959 9962 9965 9968 9971 9974 9977 9980 9983 9986 9988 9991 9994 9996 9999 10001 10003 10006 10009 10012 10015 10018 10021 10024 10027 10030 10032 10035 10038 10041 10044 10047 10049 10052 10055 10058 10061 10064 10067 10070 10072 10075 10078 10081 10084 10087 10090 10093 10096 10098 10101 10104 10107 10110 10113 10115 10118 10121 10124 10127 10130 10133 10136 10139 10142 10145 10148 10151 10154 10157 10160 10163 10166 10169 10172 10175 10178 10181 10184 10187 10190 10193 10196 10199 10202 10205 10207 10209 10212 10215 10218 10221 10224 10227 10230 10232 10235 10238 10241 10243 10246 10248 10251 10254 10257 10260 10263 10266 10269 10272 10275 10278 10281 10284 10287 10290 10293 10296 10299 10302 10305 10308 10311 10313 10316 10319 10322 10325 10328 10331 10333 10336 10339 10342 10345 10348 10351 10354 10356 10359 10362 10364 10367 10370 10373 10376 10379 10382 10384 10387 10390 10393 10395 10398 10401 10403 10405 10408 10411 10414 10417 10420 10423 10426 10429 10432 10435 10438 10441 10444 10447 10450 10453 10456 10459 10462 10465 10468 10471 10474 10477 10480 10483 10486 10489 10491 10494 10497 10500 10503 10506 10509 10512 10515 10518 10521 10524 10527 10530 10533 10536 10539 10542 10545 10548 10550 10553 10556 10559 10561 10563 10566 10569 10572 10575 10578 10580 10583 10586 10589 10591 10594 10597 10600 10603 10606 10608 10611 10614 10617 10620 10623 10626 10629 10632 10635 10638 10641 10644 10647 10650 10653 10656 10659 10662 10665 10668 10671 10673 10676 10679 10682 10685 10688 10691 10693 10696 10699 10702 10705 10708 10711 10714 10717 10720 10723 10726 10729 10731 10734 10737 10740 10743 10745 10748 10750 10753 10756 10759 10762 10765 10768 10771 10774 10777 10780 10783 10786 10789 10791 10794 10797 10800 10803 10806 10808 10811 10814 10817 10820 10823 10826 10828 10831 10834 10837 10840 10843 10846 10849 10852 10855 10858 10861 10864 10866 10869 10872 10874 10877 10880 10882 10885 10888 10890 10893 10896 10899 10902 10905 10908 10911 10914 10917 10920 10922 10925 10928 10931 10934 10937 10940 10943 10946 10948 10951 10954 10957 10959 10962 10965 10968 10970 10973 10976 10978 10981 10984 10987 10989 10992 10995 10998 11001 11004 11006 11009 11011 11014 11017 11020 11023 11025 11027 11030 11033 11036 11038 11041 11044 11047 11050 11052 11055 11058 11061 11064 11067 11070 11073 11076 11079 11082 11085 11088 11091 11094 11097 11099 11102 11105 11107 11109 11112 11115 11118 11121 11123 11126 11129 11132 11135 11138 11141 11143 11146 11149 11152 11155 11158 11161 11163 11166 11169 11172 11175 11178 11181 11184 11187 11189 11192 11195 11198 11201 11204 11207 11210 11213 11216 11219 11221 11224 11227 11229 11232 11235 11237 11240 11243 11246 11249 11252 11254 11256 11259 11262 11264 11266 11269 11271 11274 11276 11279 11281 11283 11286 11289 11291 11294 11296 11299 11301 11304 11306 11309 11311 11314 11317 11319 11322 11324 11327 11329 11332 11335 11338 11341 11344 11347 11349 11352 11355 11358 11360 11363 11366 11369 11372 11375 11378 11381 11384 11387 11389 11392 11395 11397 11400 11402 11405 11407 11410 11413 11416 11418 11420 11423 11426 11429 11432 11435 11438 11441 11444 11447 11450 11453 11455 11458 11461 11464 11467 11470 11472 11475 11478 11481 11484 11487 11490 11493 11496 11499 11502 11505 11508 11511 11514 11517 11520 11523 11525 11528 11531 11534 11537 11540 11543 11545 11548 11551 11554 11556 11559 11562 11564 11567 11570 11573 11575 11578 11580 11582 11585 11588 11591 11594 11597 11600 11603 11606 11609 11611 11614 11617 11620 11623 11626 11629 11632 11634 11637 11639 11642 11644 11647 11650 11653 11656 11659 11662 11665 11668 11671 11674 11677 11680 11683 11686 11689 11692 11695 11698 11701 11704 11707 11710 11713 11716 11719 11722 11725 11728 11731 11734 11737 11740 11743 11746 11749 11752 11755 11757 11760 11763 11765 11767 11770 11773 11776 11779 11781 11784 11787 11790 11793 11796 11798 11801 11804 11806 11808 11811 11814 11817 11820 11823 11826 11828 11831 11833 11836 11839 11841 11843 11846 11848 11851 11854 11857 11859 11862 11865 11868 11871 11873 11876 11879 11882 11884 11887 11890 11892 11894 11897 11900 11903 11905 11908 11911 11914 11917 11919 11922 11925 11927 11930 11933 11936 11938 11941 11944 11946 11949 11952 11955 11957 11960 11962 11965 11968 11970 11973 11976 11978 11980 11983 11986 11988 11991 11993 11995 11998 12001 12004 12007 12009 12012 12015 12018 12021 12023 12026 12029 12032 12035 12038 12041 12044 12047 12050 12053 12056 12059 12061 12064 12067 12070 12073 12075 12078 12080 12083 12086 12089 12092 12095 12097 12099 12101 12104 12107 12110 12113 12116 12119 12122 12125 12127 12130 12133 12136 12139 12142 12145 12147 12150 12153 12156 12159 12161 12164 12167 12170 12173 12176 12179 12182 12185 12188 12191 12194 12197 12200 12203 12206 12209 12212 12215 12217 12220 12222 12225 12228 12230 12232 12235 12237 12240 12243 12245 12248 12250 12253 12255 12258 12260 12263 12266 12269 12272 12274 12277 12280 12283 12285 12288 12291 12294 12297 12300 12303 12306 12309 12312 12315 12318 12321 12324 12327 12330 12333 12336 12339 12342 12345 12348 12351 12354 12357 12360 12362 12365 12368 12371 12374 12377 12379 12382 12385 12388 12391 12394 12397 12400 12403 12406 12409 12412 12414 12417 12420 12423 12426 12429 12431 12434 12437 12439 12441 12444 12447 12450 12452 12455 12458 12460 12462 12465 12467 12470 12473 12476 12479 12482 12485 12488 12491 12494 12497 12500 12503 12506 12509 12512 12515 12517 12520 12523 12526 12529 12531 12534 12537 12540 12543 12546 12549 12552 12555 12557 12559 12562 12565 12567 12570 12573 12576 12579 12582 12585 12588 12591 12594 12596 12598 12601 12604 12606 12609 12612 12615 12617 12620 12623 12626 12629 12632 12635 12638 12641 12644 12647 12650 12653 12656 12659 12662 12665 12668 12671 12674 12677 12680 12683 12686 12689 12692 12695 12697 12700 12703 12706 12709 12712 12715 12718 12721 12724 12727 12730 12733 12736 12739 12742 12745 12748 12751 12754 12757 12759 12762 12765 12768 12770 12772 12775 12778 12781 12783 12786 12789 12791 12794 12797 12800 12803 12806 12808 12811 12813 12816 12819 12822 12825 12828 12831 12834 12837 12839 12842 12845 12848 12850 12853 12856 12858 12861 12863 12866 12869 12872 12874 12877 12880 12883 12885 12888 12891 12894 12897 12900 12903 12906 12909 12912 12915 12918 12921 12924 12927 12930 12933 12936 12938 12941 12944 12947 12950 12953 12956 12959 12962 12965 12967 12970 12973 12976 12979 12982 12985 12988 12991 12993 12996 12999 13002 13005 13008 13011 13014 13017 13020 13023 13026 13029 13032 13034 13037 13040 13043 13045 13048 13051 13054 13057 13060 13063 13066 13069 13072 13075 13078 13081 13084 13087 13090 13093 13096 13099 13102 13104 13107 13110 13113 13115 13118 13120 13123 13126 13129 13131 13134 13137 13140 13142 13144 13147 13150 13153 13156 13159 13162 13165 13168 13171 13174 13177 13180 13183 13186 13189 13192 13195 13198 13201 13204 13207 13210 13212 13215 13218 13221 13224 13226 13229 13232 13235 13238 13240 13243 13246 13249 13252 13255 13258 13261 13263 13266 13269 13272 13275 13277 13280 13283 13286 13289 13292 13295 13297 13300 13303 13306 13309 13312 13315 13317 13320 13323 13326 13328 13331 13334 13337 13340 13343 13346 13349 13352 13355 13357 13360 13363 13366 13369 13372 13375 13377 13380 13383 13386 13389 13392 13395 13398 13401 13404 13407 13410 13412 13415 13418 13420 13423 13426 13429 13432 13435 13437 13440 13443 13445 13448 13451 13454 13457 13460 13463 13466 13468 13470 13473 13476 13479 13482 13484 13487 13490 13493 13496 13499 13502 13504 13507 13510 13513 13516 13519 13522 13525 13528 13531 13534 13536 13539 13542 13545 13548 13551 13554 13557 13560 13563 13566 13569 13572 13574 13577 13579 13582 13585 13588 13590 13593 13596 13598 13601 13604 13607 13610 13612 13615 13618 13621 13624 13627 13629 13632 13635 13638 13641 13644 13647 13650 13653 13655 13658 13661 13664 13667 13669 13672 13675 13678 13681 13684 13687 13690 13692 13695 13698 13701 13704 13707 13710 13713 13716 13719 13722 13724 13727 13730 13733 13735 13738 13740 13743 13746 13749 13752 13755 13758 13760 13763 13765 13768 13770 13773 13776 13779 13782 13784 13787 13790 13793 13796 13799 13802 13805 13808 13811 13814 13817 13820 13823 13826 13828 13831 13833 13836 13839 13842 13845 13848 13851 13854 13856 13859 13862 13865 13868 13871 13874 13877 13880 13883 13886 13889 13892 13895 13897 13900 13903 13906 13909 13911 13914 13917 13920 13923 13926 13929 13932 13935 13938 13941 13944 13947 13950 13953 13956 13959 13962 13965 13968 13971 13974 13977 13980 13983 13985 13988 13991 13994 13997 13999 14002 14005 14008 14010 14013 14016 14018 14021 14024 14026 14029 14032 14035 14038 14041 14044 14047 14050 14053 14056 14059 14062 14065 14068 14071 14073 14076 14079 14081 14084 14087 14090 14093 14096 14099 14102 14104 14107 14110 14113 14116 14119 14121 14124 14127 14130 14132 14135 14138 14141 14143 14146 14149 14152 14155 14158 14161 14164 14166 14169 14172 14175 14177 14180 14182 14184 14187 14190 14193 14196 14199 14201 14204 14207 14210 14213 14216 14219 14222 14225 14228 14231 14233 14236 14239 14242 14245 14248 14251 14254 14257 14260 14263 14266 14269 14272 14275 14278 14281 14284 14287 14290 14293 14296 14299 14302 14305 14308 14311 14314 14317 14320 14323 14326 14329 14332 14335 14338 14341 14344 14346 14349 14352 14355 14358 14361 14364 14367 14370 14373 14376 14379 14382 14385 14388 14391 14394 14396 14399 14402 14405 14408 14411 14414 14417 14420 14423 14425 14428 14431 14434 14437 14440 14443 14446 14448 14451 14454 14457 14460 14463 14466 14469 14472 14475 14478 14481 14484 14487 14490 14493 14496 14499 14502 14505 14508 14511 14513 14516 14519 14522 14525 14528 14531 14534 14537 14540 14543 14546 14549 14552 14555 14558 14561 14564 14566 14569 14572 14575 14578 14581 14584 14587 14590 14593 14596 14599 14602 14605 14608 14611 14614 14617 14620 14623 14626 14629 14632 14635 14638 14641 14644 14647 14650 14653 14656 14659 14662 14665 14668 14671 14674 14677 14680 14683 14686 14689 14692 14695 14698 14701 14704 14706 14709 14712 14715 14718 14721 14724 14727 14730 14733 14736 14739 14742 14745 14747 14750 14752 14755 14758 14761 14764 14767 14769 14772 14775 14778 14781 14784 14786 14788 14791 14794 14797 14800 14803 14806 14809 14812 14815 14818 14821 14824 14827 14830 14833 14836 14839 14841 14843 14846 14849 14852 14855 14858 14861 14863 14866 14868 14871 14874 14877 14880 14883 14886 14889 14892 14895 14897 14900 14903 14906 14909 14912 14915 14918 14921 14924 14927 14930 14933 14936 14939 14942 14945 14948 14951 14954 14956 14959 14962 14965 14968 14971 14973 14976 14978 14981 14984 14987 14990 14993 14996 14999 15001 15004 15007 15010 15012 15015 15018 15021 15023 15026 15029 15031 15034 15037 15040 15042 15045 15048 15050 15053 15055 15058 15060 15063 15066 15068 15071 15074 15077 15080 15083 15086 15089 15092 15095 15098 15101 15104 15107 15110 15113 15116 15119 15122 15125 15128 15131 15133 15136 15138 15141 15144 15147 15150 15153 15156 15159 15161 15164 15167 15170 15173 15176 15179 15182 15185 15188 15191 15194 15197 15200 15203 15206 15209 15212 15215 15218 15220 15223 15226 15229 15231 15234 15237 15240 15243 15246 15249 15252 15255 15258 15261 15263 15266 15269 15272 15275 15277 15280 15283 15285 15288 15291 15294 15297 15300 15302 15305 15308 15311 15314 15316 15319 15321 15324 15327 15329 15332 15335 15338 15341 15344 15347 15350 15352 15355 15358 15360 15363 15365 15368 15371 15374 15377 15380 15383 15386 15389 15392 15395 15398 15401 15404 15407 15410 15413 15416 15419 15421 15424 15427 15430 15433 15436 15439 15442 15444 15447 15450 15453 15456 15458 15461 15464 15467 15470 15473 15476 15479 15482 15485 15487 15490 15493 15496 15499 15501 15504 15507 15510 15513 15516 15519 15522 15525 15528 15531 15534 15537 15539 15542 15545 15548 15551 15554 15557 15560 15563 15566 15568 15571 15574 15577 15580 15583 15586 15589 15592 15595 15598 15601 15604 15606 15609 15612 15614 15617 15620 15623 15626 15629 15632 15635 15638 15641 15643 15645 15647 15650 15653 15656 15658 15661 15664 15667 15670 15673 15676 15678 15681 15684 15687 15689 15691 15694 15697 15700 15703 15706 15709 15712 15715 15718 15721 15724 15727 15729 15732 15735 15738 15740 15742 15745 15748 15751 15754 15757 15759 15762 15765 15768 15771 15773 15776 15779 15782 15785 15787 15790 15793 15796 15799 15802 15804 15806 15808 15811 15814 15817 15819 15821 15824 15827 15830 15833 15836 15839 15842 15845 15848 15850 15852 15855 15858 15861 15863 15865 15868 15871 15874 15877 15880 15883 15886 15889 15892 15895 15898 15901 15904 15907 15910 15913 15916 15918 15921 15923 15926 15929 15932 15935 15937 15940 15943 15946 15949 15952 15955 15958 15960 15963 15966 15969 15972 15975 15978 15981 15983 15986 15989 15991 15994 15996 15998 16001 16004 16007 16009 16011 16014 16017 16020 16022 16024 16027 16030 16033 16036 16039 16042 16045 16048 16051 16054 16056 16059 16062 16065 16068 16071 16074 16077 16079 16082 16085 16088 16091 16093 16096 16099 16102 16105 16108 16111 16113 16116 16119 16122 16125 16127 16130 16132 16135 16138 16141 16144 16147 16150 16153 16156 16159 16162 16165 16168 16171 16174 16176 16179 16182 16185 16188 16191 16194 16197 16199 16202 16205 16208 16211 16213 16216 16219 16222 16224 16227 16230 16233 16236 16239 16242 16245 16248 16251 16254 16257 16260 16263 16266 16269 16272 16275 16278 16281 16284 16287 16290 16292 16295 16297 16300 16303 16305 16308 16311 16314 16316 16319 16322 16324 16327 16330 16333 16336 16339 16342 16345 16348 16351 16354 16357 16360 16363 16366 16369 16372 16375 16378 16381 16384 16386 16388 16390 16393 16396 16399 16402 16405 16408 16411 16414 16417 16420 16423 16426 16429 16431 16434 16437 16440 16442 16445 16448 16450 16453 16456 16459 16462 16464 16467 16470 16472 16474 16477 16480 16483 16486 16488 16491 16494 16496 16499 16501 16504 16507 16510 16513 16516 16519 16522 16525 16528 16531 16534 16537 16539 16542 16545 16548 16551 16554 16557 16560 16562 16565 16567 16570 16573 16576 16579 16581 16584 16587 16590 16593 16596 16599 16602 16605 16608 16611 16614 16617 16620 16623 16626 16629 16632 16635 16638 16641 16644 16647 16650 16652 16655 16658 16661 16663 16666 16668 16671 16674 16677 16679 16682 16685 16688 16691 16694 16696 16699 16702 16704 16707 16710 16713 16716 16719 16722 16725 16728 16730 16733 16736 16739 16742 16745 16747 16750 16753 16756 16759 16762 16765 16768 16771 16774 16777 16780 16783 16786 16789 16791 16794 16797 16800 16803 16805 16808 16811 16814 16817 16820 16823 16826 16829 16832 16835 16838 16841 16843 16846 16849 16852 16855 16857 16860 16863 16866 16869 16872 16875 16878 16881 16884 16887 16890 16893 16896 16898 16901 16904 16906 16909 16912 16915 16917 16920 16923 16926 16929 16932 16935 16938 16941 16944 16947 16950 16953 16956 16958 16960 16963 16965 16967 16970 16973 16976 16978 16980 16983 16985 16988 16990 16993 16995 16998 17001 17004 17006 17009 17011 17014 17017 17020 17023 17025 17028 17031 17034 17037 17040 17043 17045 17048 17051 17054 17057 17060 17062 17065 17068 17070 17073 17076 17078 17081 17084 17086 17089 17092 17095 17098 17101 17103 17106 17108 17111 17114 17117 17120 17123 17126 17129 17132 17135 17138 17141 17144 17147 17149 17152 17155 17157 17160 17163 17166 17169 17172 17175 17178 17181 17184 17186 17189 17192 17195 17198 17201 17204 17207 17210 17213 17215 17218 17221 17223 17226 17228 17231 17234 17237 17240 17243 17246 17249 17251 17254 17257 17260 17263 17266 17269 17272 17274 17277 17279 17282 17285 17287 17290 17293 17296 17298 17301 17304 17307 17310 17312 17315 17318 17321 17324 17327 17329 17332 17335 17338 17341 17344 17347 17350 17353 17356 17359 17362 17365 17368 17371 17374 17377 17380 17383 17386 17389 17392 17394 17397 17400 17402 17405 17408 17411 17413 17416 17419 17422 17425 17427 17430 17433 17436 17439 17442 17445 17448 17451 17454 17457 17460 17463 17466 17469 17472 17475 17478 17481 17484 17487 17490 17493 17496 17498 17501 17504 17507 17510 17513 17516 17518 17521 17524 17527 17530 17533 17536 17539 17542 17545 17548 17551 17554 17557 17559 17562 17564 17567 17570 17572 17575 17578 17581 17584 17586 17588 17591 17593 17596 17598 17601 17604 17607 17610 17613 17615 17618 17621 17623 17625 17628 17631 17634 17637 17640 17642 17645 17648 17650 17653 17656 17659 17662 17665 17668 17671 17674 17676 17678 17681 17684 17687 17689 17692 17694 17697 17700 17703 17706 17709 17711 17714 17716 17719 17722 17725 17728 17731 17733 17735 17738 17741 17744 17747 17749 17752 17755 17758 17761 17763 17766 17769 17772 17775 17778 17781 17784 17787 17790 17793 17796 17799 17802 17805 17808 17811 17814 17816 17819 17822 17824 17827 17830 17833 17835 17838 17841 17844 17847 17850 17853 17856 17859 17862 17865 17868 17871 17874 17877 17880 17883 17886 17889 17892 17894 17897 17900 17903 17906 17909 17912 17915 17918 17921 17924 17927 17930 17933 17936 17938 17940 17943 17946 17949 17951 17954 17957 17960 17963 17966 17968 17971 17974 17977 17980 17983 17986 17989 17992 17995 17998 18001 18003 18006 18009 18011 18014 18017 18020 18023 18026 18029 18032 18035 18038 18041 18043 18046 18049 18052 18054 18057 18059 18062 18064 18067 18070 18073 18075 18077 18080 18082 18085 18088 18090 18093 18096 18098 18100 18103 18106 18109 18111 18114 18117 18119 18122 18124 18127 18130 18133 18135 18138 18141 18143 18145 18148 18150 18153 18156 18158 18161 18163 18166 18169 18172 18175 18178 18181 18184 18187 18190 18192 18195 18198 18201 18204 18207 18209 18212 18215 18218 18221 18224 18227 18230 18233 18236 18239 18241 18244 18247 18250 18253 18255 18257 18260 18263 18265 18268 18270 18273 18276 18279 18282 18285 18287 18290 18293 18295 18298 18300 18303 18306 18309 18312 18315 18318 18321 18323 18326 18329 18332 18335 18338 18341 18344 18347 18350 18352 18355 18357 18360 18362 18365 18367 18370 18373 18376 18379 18381 18384 18387 18390 18393 18396 18398 18400 18403 18406 18409 18412 18415 18418 18420 18423 18426 18429 18432 18435 18437 18440 18443 18446 18449 18451 18454 18457 18459 18462 18464 18467 18470 18473 18475 18478 18480 18483 18486 18488 18490 18492 18495 18498 18501 18504 18507 18510 18512 18514 18516 18519 18522 18525 18528 18530 18533 18535 18538 18540 18543 18546 18549 18552 18555 18558 18560 18563 18566 18569 18572 18575 18578 18581 18584 18587 18590 18593 18596 18599 18602 18605 18608 18611 18614 18617 18620 18623 18626 18629 18632 18635 18638 18641 18644 18647 18650 18653 18656 18659 18662 18665 18668 18671 18674 18677 18680 18683 18686 18689 18692 18695 18698 18701 18704 18707 18709 18712 18715 18718 18720 18722 18725 18728 18731 18734 18737 18740 18743 18746 18749 18752 18755 18758 18761 18764 18767 18770 18773 18776 18779 18781 18784 18787 18790 18793 18796 18799 18802 18804 18807 18810 18812 18815 18818 18820 18823 18826 18828 18831 18833 18836 18839 18841 18844 18847 18850 18852 18855 18857 18860 18862 18864 18867 18870 18873 18875 18877 18880 18883 18885 18888 18891 18893 18896 18899 18902 18905 18908 18911 18914 18917 18920 18923 18926 18929 18931 18934 18937 18940 18943 18945 18948 18951 18954 18957 18959 18962 18965 18968 18971 18974 18977 18980 18983 18986 18988 18991 18993 18996 18999 19002 19005 19007 19010 19013 19016 19018 19021 19024 19027 19030 19033 19036 19038 19041 19044 19046 19049 19052 19055 19057 19060 19063 19066 19069 19072 19075 19078 19080 19083 19086 19089 19092 19095 19097 19100 19103 19106 19109 19112 19115 19118 19121 19124 19127 19130 19133 19136 19139 19142 19144 19147 19150 19153 19156 19159 19161 19164 19167 19169 19172 19174 19177 19180 19183 19186 19188 19190 19193 19196 19198 19201 19204 19207 19210 19213 19216 19219 19222 19225 19228 19231 19233 19236 19238 19241 19244 19247 19250 19253 19255 19258 19261 19264 19266 19269 19272 19275 19277 19280 19283 19286 19289 19292 19295 19298 19301 19304 19307 19310 19313 19316 19318 19321 19324 19327 19330 19333 19336 19339 19341 19344 19346 19349 19352 19355 19358 19361 19364 19367 19369 19371 19374 19377 19380 19383 19386 19389 19392 19395 19398 19400 19403 19406 19409 19412 19415 19418 19420 19422 19424 19427 19429 19432 19435 19438 19441 19444 19447 19449 19452 19454 19457 19459 19462 19464 19467 19470 19473 19476 19479 19482 19484 19487 19490 19492 19495 19498 19501 19504 19506 19509 19512 19515 19518 19521 19524 19527 19530 19533 19536 19539 19542 19545 19548 19551 19554 19557 19560 19563 19566 19569 19571 19574 19576 19579 19582 19585 19588 19591 19594 19597 19600 19603 19606 19609 19612 19615 19618 19621 19624 19627 19630 19633 19636 19639 19642 19645 19648 19651 19654 19657 19660 19663 19666 19669 19672 19675 19678 19681 19684 19687 19690 19693 19696 19699 19702 19705 19708 19711 19714 19717 19720 19723 19726 19729 19732 19735 19738 19741 19744 19747 19750 19752 19755 19758 19761 19764 19767 19770 19773 19776 19779 19782 19785 19788 19791 19794 19797 19800 19803 19806 19809 19812 19815 19818 19821 19823 19826 19829 19832 19834 19837 19839 19842 19845 19848 19851 19854 19857 19860 19863 19866 19869 19872 19875 19878 19881 19884 19887 19890 19893 19896 19899 19902 19905 19908 19911 19914 19917 19920 19923 19926 19929 19932 19935 19938 19941 19944 19947 19950 19953 19956 19958 19961 19963 19966 19969 19972 19975 19978 19981 19984 19987 19990 19993 19996 19999 20002 20005 20008 20011 20014 20017 20020 20023 20026 20029 20032 20035 20038 20040 20043 20046 20049 20052 20055 20058 20061 20064 20067 20070 20073 20076 20079 20082 20085 20088 20091 20094 20097 20100 20103 20106 20109 20112 20115 20118 20121 20124 20127 20130 20133 20136 20139 20142 20145 20148 20151 20154 20157 20160 20163 20166 20169 20172 20175 20178 20181 20184 20187 20190 20193 20196 20199 20202 20205 20208 20211 20214 20217 20220 20223 20226 20229 20232 20235 20238 20241 20244 20247 20249 20252 20255 20258 20261 20264 20267 20270 20272 20275 20278 20280 20283 20286 20289 20292 20295 20298 20301 20304 20307 20310 20313 20316 20319 20322 20325 20328 20331 20334 20337 20340 20342 20345 20348 20351 20354 20357 20360 20363 20366 20369 20372 20375 20378 20381 20384 20387 20390 20393 20396 20399 20402 20405 20408 20411 20414 20417 20420 20423 20426 20429 20432 20435 20438 20440 20443 20446 20449 20452 20454 20457 20459 20462 20465 20468 20471 20474 20477 20479 20482 20485 20487 20490 20493 20495 20497 20500 20502 20505 20508 20511 20513 20516 20519 20522 20525 20528 20531 20534 20537 20540 20543 20546 20549 20552 20555 20558 20560 20563 20566 20569 20572 20575 20578 20581 20584 20586 20589 20592 20595 20598 20601 20604 20607 20610 20613 20616 20619 20622 20625 20628 20631 20634 20637 20640 20643 20646 20649 20652 20655 20658 20661 20664 20667 20670 20673 20676 20679 20682 20685 20688 20691 20694 20696 20699 20702 20705 20708 20711 20714 20717 20719 20722 20725 20727 20730 20732 20735 20738 20741 20744 20747 20750 20753 20756 20759 20762 20765 20767 20769 20772 20775 20777 20780 20783 20785 20787 20790 20793 20796 20799 20801 20804 20806 20809 20812 20814 20817 20819 20821 20824 20826 20829 20831 20834 20837 20840 20843 20846 20849 20852 20854 20857 20859 20862 20865 20868 20871 20874 20876 20879 20882 20885 20887 20890 20893 20895 20898 20900 20903 20905 20907 20910 20913 20915 20918 20921 20924 20927 20930 20933 20935 20938 20941 20944 20947 20950 20953 20956 20959 20961 20963 20966 20969 20972 20974 20977 20980 20983 20986 20988 20990 20993 20995 20998 21001 21004 21006 21009 21012 21015 21018 21021 21024 21027 21030 21033 21036 21039 21042 21045 21048 21051 21054 21056 21059 21062 21065 21068 21071 21074 21076 21079 21081 21084 21087 21090 21092 21094 21097 21100 21102 21105 21107 21110 21113 21116 21119 21122 21125 21128 21131 21134 21137 21140 21143 21145 21147 21150 21153 21156 21159 21162 21164 21167 21170 21173 21176 21179 21182 21185 21187 21190 21193 21196 21198 21201 21203 21206 21209 21211 21214 21217 21220 21223 21226 21229 21232 21235 21238 21240 21243 21246 21248 21251 21254 21257 21260 21263 21266 21269 21272 21275 21278 21281 21283 21286 21289 21292 21295 21298 21301 21304 21307 21310 21313 21316 21319 21322 21325 21328 21331 21334 21337 21340 21343 21346 21349 21351 21354 21357 21360 21363 21366 21369 21372 21375 21378 21381 21384 21386 21389 21392 21395 21398 21400 21403 21406 21409 21412 21415 21418 21421 21424 21427 21430 21433 21435 21438 21441 21444 21447 21450 21452 21455 21457 21460 21463 21466 21469 21472 21475 21478 21481 21484 21486 21489 21492 21494 21497 21500 21502 21505 21508 21511 21514 21516 21519 21522 21525 21528 21531 21534 21537 21540 21543 21546 21549 21552 21555 21558 21561 21564 21567 21570 21573 21576 21579 21581 21584 21587 21589 21592 21594 21597 21600 21603 21606 21609 21612 21615 21618 21621 21623 21626 21629 21631 21633 21635 21638 21641 21644 21646 21649 21652 21655 21658 21661 21664 21666 21668 21671 21673 21676 21679 21681 21684 21687 21689 21692 21695 21698 21701 21703 21706 21709 21712 21715 21717 21720 21723 21726 21729 21732 21735 21738 21741 21744 21747 21750 21752 21755 21758 21760 21763 21765 21767 21770 21773 21775 21777 21779 21782 21785 21788 21791 21794 21797 21800 21803 21806 21809 21811 21814 21817 21820 21823 21826 21829 21832 21835 21838 21840 21843 21846 21849 21852 21855 21857 21860 21863 21866 21869 21872 21875 21878 21881 21884 21887 21889 21892 21895 21898 21901 21904 21907 21910 21913 21916 21919 21922 21925 21928 21931 21934 21937 21940 21943 21946 21949 21952 21955 21958 21961 21963 21965 21968 21971 21974 21977 21980 21983 21986 21989 21991 21994 21997 22000 22003 22006 22009 22012 22015 22018 22021 22024 22027 22030 22033 22036 22039 22041 22044 22047 22050 22053 22055 22058 22061 22064 22066 22068 22071 22074 22077 22080 22083 22086 22088 22091 22093 22096 22099 22102 22104 22107 22110 22113 22116 22119 22122 22125 22128 22130 22133 22135 22137 22140 22143 22146 22149 22152 22155 22158 22161 22164 22167 22170 22173 22175 22178 22181 22183 22186 22188 22191 22194 22197 22200 22203 22206 22209 22212 22215 22218 22221 22224 22227 22230 22233 22236 22239 22242 22245 22248 22251 22254 22257 22259 22262 22265 22268 22271 22274 22276 22279 22282 22285 22288 22291 22294 22297 22300 22303 22306 22308 22311 22314 22317 22319 22322 22325 22328 22331 22334 22337 22340 22343 22346 22349 22352 22354 22356 22359 22362 22365 22368 22371 22373 22376 22379 22382 22384 22387 22390 22393 22396 22399 22402 22405 22408 22411 22414 22416 22419 22422 22425 22428 22431 22434 22437 22439 22441 22444 22446 22449 22452 22455 22458 22460 22463 22466 22469 22472 22475 22477 22480 22483 22486 22489 22492 22495 22498 22501 22504 22507 22509 22512 22515 22518 22521 22524 22527 22530 22533 22536 22539 22541 22544 22547 22550 22553 22556 22559 22562 22564 22567 22570 22573 22576 22579 22582 22585 22588 22591 22594 22597 22600 22603 22606 22609 22612 22615 22618 22621 22624 22626 22629 22632 22635 22637 22640 22643 22646 22649 22652 22655 22658 22661 22664 22667 22670 22673 22676 22678 22681 22683 22685 22688 22690 22692 22695 22698 22701 22704 22707 22709 22712 22715 22718 22721 22724 22727 22730 22732 22735 22738 22740 22743 22746 22748 22751 22754 22756 22759 22762 22764 22766 22768 22770 22773 22776 22778 22780 22783 22786 22788 22791 22794 22796 22799 22802 22805 22808 22810 22812 22814 22816 22819 22822 22825 22827 22830 22832 22835 22837 22840 22842 22844 22847 22850 22853 22856 22859 22862 22865 22867 22870 22873 22875 22878 22880 22883 22886 22888 22890 22893 22896 22899 22902 22905 22908 22911 22914 22917 22920 22923 22926 22929 22932 22935 22938 22941 22943 22946 22949 22952 22955 22958 22961 22964 22967 22970 22973 22976 22979 22982 22985 22988 22991 22994 22996 22999 23002 23005 23008 23011 23014 23017 23020 23023 23026 23029 23032 23035 23038 23040 23042 23045 23048 23051 23054 23056 23059 23061 23064 23067 23070 23072 23074 23077 23079 23082 23085 23088 23091 23094 23097 23100 23103 23106 23109 23112 23115 23118 23121 23124 23127 23130 23133 23136 23138 23141 23143 23146 23149 23152 23155 23157 23160 23163 23166 23169 23172 23175 23178 23181 23184 23187 23190 23193 23196 23199 23202 23205 23208 23211 23214 23217 23219 23222 23225 23228 23231 23234 23237 23240 23243 23246 23249 23252 23255 23258 23261 23263 23266 23269 23272 23275 23278 23281 23284 23287 23290 23293 23296 23299 23302 23305 23308 23311 23314 23317 23320 23323 23326 23329 23332 23335 23338 23341 23344 23347 23350 23353 23356 23359 23362 23365 23368 23371 23374 23377 23380 23383 23386 23389 23392 23395 23398 23401 23404 23407 23410 23413 23416 23419 23422 23425 23428 23431 23434 23437 23440 23443 23446 23449 23451 23454 23457 23460 23462 23465 23468 23470 23473 23476 23479 23482 23485 23488 23491 23494 23497 23500 23503 23505 23508 23511 23514 23517 23519 23522 23525 23528 23531 23534 23537 23540 23543 23546 23549 23552 23555 23558 23561 23564 23567 23570 23573 23576 23579 23582 23585 23588 23591 23594 23597 23600 23603 23606 23608 23611 23614 23617 23620 23622 23625 23628 23631 23634 23637 23640 23643 23646 23649 23652 23654 23657 23660 23662 23665 23668 23671 23674 23677 23680 23683 23686 23689 23692 23695 23698 23700 23703 23706 23709 23712 23715 23718 23721 23724 23726 23729 23732 23735 23738 23741 23744 23747 23750 23753 23756 23758 23761 23763 23766 23769 23772 23774 23777 23780 23783 23785 23788 23790 23793 23795 23797 23800 23803 23806 23809 23812 23814 23817 23820 23823 23826 23829 23832 23835 23838 23841 23844 23847 23850 23853 23856 23859 23862 23865 23868 23871 23874 23877 23880 23883 23885 23888 23891 23893 23896 23899 23902 23904 23907 23909 23912 23915 23918 23921 23924 23927 23930 23933 23936 23939 23942 23945 23947 23950 23953 23956 23959 23962 23965 23968 23971 23974 23977 23980 23983 23986 23989 23992 23995 23998 24001 24004 24006 24009 24012 24015 24018 24021 24024 24027 24030 24033 24036 24039 24042 24045 24048 24051 24054 24057 24060 24063 24066 24069 24072 24075 24078 24081 24084 24087 24089 24092 24095 24098 24101 24104 24107 24110 24113 24116 24119 24122 24125 24128 24131 24134 24137 24140 24143 24145 24148 24151 24154 24156 24159 24162 24165 24167 24169 24172 24175 24178 24181 24184 24186 24189 24192 24195 24198 24201 24204 24207 24209 24211 24214 24217 24220 24222 24225 24227 24230 24233 24236 24239 24242 24245 24247 24249 24252 24255 24257 24259 24262 24265 24268 24271 24274 24277 24280 24283 24286 24289 24291 24294 24297 24300 24303 24306 24309 24311 24314 24317 24320 24323 24326 24329 24332 24335 24338 24341 24344 24347 24350 24353 24356 24359 24362 24364 24367 24370 24373 24376 24378 24381 24384 24386 24389 24392 24395 24398 24401 24404 24407 24410 24413 24416 24419 24421 24424 24426 24429 24431 24434 24437 24440 24443 24446 24449 24452 24455 24458 24461 24464 24467 24470 24473 24476 24479 24482 24485 24488 24490 24493 24496 24498 24501 24504 24507 24509 24512 24515 24517 24520 24523 24526 24529 24531 24534 24537 24540 24543 24546 24549 24552 24554 24557 24560 24563 24566 24569 24572 24575 24578 24581 24584 24587 24590 24593 24596 24599 24602 24605 24608 24611 24614 24617 24620 24623 24626 24629 24632 24635 24638 24641 24643 24646 24649 24652 24655 24658 24661 24664 24667 24670 24673 24676 24679 24682 24685 24688 24691 24694 24697 24700 24703 24706 24709 24712 24715 24718 24721 24724 24727 24730 24733 24736 24739 24742 24745 24748 24751 24754 24756 24758 24760 24763 24766 24768 24771 24774 24777 24779 24782 24784 24787 24790 24793 24796 24799 24801 24804 24807 24810 24813 24816 24819 24822 24824 24827 24830 24833 24836 24839 24842 24845 24848 24851 24854 24857 24860 24863 24866 24868 24871 24874 24877 24879 24882 24884 24887 24890 24893 24896 24899 24902 24905 24908 24910 24913 24916 24919 24922 24925 24928 24931 24933 24936 24938 24941 24943 24946 24949 24952 24955 24958 24961 24964 24967 24969 24972 24975 24977 24979 24981 24984 24986 24989 24991 24994 24997 25000 25003 25006 25009 25012 25015 25018 25021 25024 25027 25030 25033 25036 25039 25042 25045 25048 25051 25054 25056 25059 25062 25064 25066 25069 25072 25075 25077 25080 25083 25086 25089 25092 25095 25098 25100 25103 25105 25108 25111 25114 25117 25119 25122 25125 25127 25130 25133 25136 25139 25142 25145 25148 25150 25153 25156 25158 25161 25164 25167 25169 25172 25175 25178 25181 25184 25187 25190 25193 25196 25198 25201 25204 25207 25210 25213 25216 25218 25221 25224 25226 25229 25232 25235 25238 25240 25243 25246 25249 25252 25255 25258 25260 25262 25264 25267 25270 25273 25275 25278 25280 25283 25285 25288 25291 25294 25297 25300 25303 25305 25308 25311 25314 25316 25319 25322 25325 25327 25330 25333 25336 25339 25342 25345 25348 25351 25354 25357 25360 25363 25365 25368 25371 25374 25376 25379 25382 25385 25388 25391 25393 25395 25398 25401 25403 25406 25408 25410 25412 25415 25418 25421 25423 25426 25429 25432 25435 25438 25440 25443 25446 25449 25452 25455 25458 25461 25464 25467 25470 25473 25476 25478 25481 25484 25487 25490 25493 25496 25498 25501 25504 25506 25509 25512 25514 25517 25520 25523 25526 25529 25531 25534 25537 25539 25542 25544 25547 25549 25552 25555 25558 25561 25564 25567 25569 25572 25575 25578 25581 25583 25586 25589 25592 25595 25598 25601 25604 25607 25610 25613 25615 25618 25621 25624 25627 25630 25632 25635 25638 25641 25644 25647 25650 25653 25656 25659 25662 25665 25668 25671 25674 25677 25679 25682 25685 25688 25691 25694 25696 25699 25701 25704 25707 25710 25713 25716 25718 25721 25724 25727 25730 25733 25735 25738 25741 25744 25747 25750 25752 25755 25758 25761 25764 25767 25770 25773 25776 25779 25782 25784 25787 25789 25792 25794 25797 25800 25802 25805 25808 25811 25814 25817 25820 25823 25826 25828 25831 25833 25836 25839 25842 25845 25848 25851 25854 25857 25860 25863 25865 25868 25871 25874 25877 25880 25883 25886 25889 25892 25895 25897 25900 25903 25906 25908 25911 25913 25915 25918 25921 25924 25926 25929 25932 25935 25937 25939 25942 25945 25948 25951 25954 25957 25960 25963 25966 25969 25971 25973 25976 25979 25982 25985 25988 25990 25993 25996 25999 26002 26005 26008 26011 26014 26017 26020 26022 26025 26027 26029 26031 26034 26037 26040 26043 26046 26049 26052 26055 26057 26060 26063 26066 26069 26072 26075 26078 26081 26084 26087 26090 26093 26096 26099 26102 26105 26108 26111 26114 26117 26120 26123 26126 26129 26132 26135 26138 26141 26144 26146 26149 26152 26155 26158 26160 26163 26166 26169 26172 26175 26178 26181 26184 26186 26189 26192 26195 26198 26201 26204 26207 26210 26212 26215 26218 26221 26224 26227 26230 26233 26236 26239 26242 26245 26248 26251 26254 26257 26260 26263 26266 26269 26272 26275 26278 26281 26284 26287 26290 26292 26295 26298 26301 26304 26307 26310 26312 26315 26317 26320 26323 26325 26328 26331 26334 26336 26339 26341 26344 26347 26350 26352 26355 26358 26361 26363 26366 26369 26372 26375 26378 26381 26383 26386 26389 26392 26395 26398 26401 26404 26407 26410 26413 26416 26419 26422 26425 26428 26431 26434 26437 26440 26443 26446 26449 26452 26455 26458 26461 26464 26466 26469 26471 26474 26477 26480 26483 26485 26488 26491 26494 26497 26500 26503 26506 26509 26512 26515 26518 26521 26524 26526 26529 26532 26534 26537 26540 26542 26545 26548 26551 26554 26557 26559 26562 26565 26568 26571 26574 26577 26580 26583 26585 26588 26590 26593 26596 26599 26602 26605 26607 26609 26612 26615 26617 26620 26623 26626 26628 26631 26634 26637 26640 26643 26646 26649 26651 26654 26657 26660 26663 26666 26669 26672 26675 26678 26681 26684 26687 26690 26693 26696 26699 26701 26704 26707 26710 26713 26716 26718 26721 26723 26726 26729 26732 26735 26738 26741 26744 26747 26750 26753 26756 26759 26761 26764 26766 26769 26772 26775 26778 26781 26784 26786 26788 26791 26794 26797 26800 26803 26806 26809 26812 26815 26818 26821 26824 26827 26830 26833 26836 26839 26842 26845 26848 26851 26853 26856 26859 26861 26864 26867 26870 26873 26876 26878 26881 26884 26887 26890 26893 26896 26898 26901 26904 26907 26910 26913 26916 26919 26922 26925 26928 26931 26934 26937 26940 26943 26946 26948 26951 26954 26956 26959 26962 26965 26968 26970 26973 26976 26979 26982 26985 26988 26991 26994 26997 27000 27003 27005 27008 27011 27014 27017 27020 27023 27026 27029 27032 27035 27038 27041 27044 27047 27050 27053 27056 27059 27062 27064 27067 27070 27073 27076 27079 27082 27085 27088 27091 27094 27097 27100 27102 27105 27108 27111 27114 27117 27120 27123 27126 27129 27132 27135 27138 27141 27143 27145 27148 27151 27154 27157 27160 27163 27165 27168 27171 27174 27177 27180 27183 27186 27189 27192 27195 27198 27201 27204 27207 27210 27213 27216 27219 27222 27225 27228 27231 27234 27237 27240 27243 27246 27249 27252 27255 27258 27261 27264 27267 27270 27272 27275 27278 27281 27284 27287 27290 27293 27296 27298 27301 27304 27307 27310 27313 27316 27319 27322 27325 27328 27331 27334 27336 27339 27342 27345 27348 27350 27353 27355 27358 27361 27364 27367 27370 27373 27376 27379 27381 27384 27387 27390 27393 27396 27399 27402 27405 27408 27411 27413 27416 27419 27422 27424 27427 27430 27432 27435 27438 27441 27444 27446 27449 27452 27454 27457 27460 27463 27466 27469 27472 27475 27478 27480 27483 27486 27489 27491 27494 27497 27500 27503 27506 27509 27512 27514 27517 27519 27522 27524 27527 27529 27531 27534 27537 27540 27542 27544 27546 27549 27552 27554 27557 27560 27563 27565 27568 27571 27574 27577 27579 27582 27585 27588 27591 27594 27597 27600 27603 27606 27609 27612 27615 27618 27621 27624 27627 27630 27633 27636 27639 27642 27645 27648 27651 27654 27657 27660 27663 27666 27669 27672 27675 27678 27681 27684 27687 27690 27693 27695 27698 27701 27704 27707 27710 27713 27716 27719 27721 27724 27727 27730 27733 27735 27738 27741 27743 27746 27749 27751 27754 27757 27760 27763 27765 27768 27771 27774 27777 27780 27782 27785 27788 27791 27794 27797 27800 27803 27806 27809 27812 27815 27818 27821 27823 27825 27828 27831 27834 27836 27839 27842 27845 27848 27851 27854 27857 27860 27863 27866 27869 27872 27875 27878 27880 27883 27886 27889 27892 27895 27898 27900 27903 27906 27908 27911 27914 27917 27920 27923 27926 27929 27932 27935 27938 27940 27943 27946 27949 27952 27955 27957 27960 27963 27966 27969 27972 27975 27978 27981 27984 27987 27989 27992 27995 27998 28001 28004 28007 28010 28013 28016 28019 28022 28025 28028 28031 28034 28036 28039 28042 28045 28048 28051 28054 28057 28060 28063 28066 28069 28072 28075 28078 28081 28084 28087 28090 28093 28096 28099 28102 28105 28107 28110 28112 28115 28118 28121 28123 28126 28129 28132 28135 28138 28141 28144 28147 28150 28152 28155 28158 28161 28163 28166 28169 28172 28175 28178 28181 28184 28187 28190 28193 28196 28199 28202 28205 28208 28211 28213 28216 28219 28222 28225 28228 28230 28233 28236 28239 28241 28244 28246 28249 28252 28255 28258 28261 28264 28266 28269 28272 28275 28278 28281 28284 28287 28290 28293 28296 28299 28302 28305 28308 28311 28314 28317 28320 28323 28326 28329 28332 28335 28338 28341 28344 28347 28349 28352 28355 28357 28360 28363 28366 28369 28372 28375 28378 28380 28383 28386 28389 28392 28394 28397 28400 28402 28405 28408 28411 28414 28417 28420 28422 28425 28428 28431 28433 28436 28439 28442 28444 28447 28450 28453 28456 28459 28461 28464 28467 28470 28473 28476 28478 28481 28484 28487 28490 28493 28496 28499 28502 28504 28507 28510 28512 28515 28518 28521 28524 28526 28529 28532 28535 28538 28540 28543 28546 28549 28552 28554 28557 28560 28563 28565 28568 28570 28573 28576 28579 28582 28585 28588 28591 28594 28597 28600 28602 28605 28608 28611 28614 28617 28620 28623 28625 28627 28630 28633 28636 28639 28642 28644 28647 28650 28653 28656 28659 28661 28664 28667 28670 28672 28675 28678 28680 28683 28686 28688 28691 28694 28697 28699 28702 28705 28708 28711 28714 28717 28719 28722 28725 28728 28731 28734 28736 28739 28742 28745 28748 28751 28753 28756 28759 28762 28765 28768 28771 28773 28776 28779 28782 28785 28787 28790 28793 28796 28799 28802 28804 28807 28810 28813 28816 28819 28822 28825 28828 28831 28834 28836 28839 28842 28845 28848 28851 28854 28857 28859 28862 28865 28868 28871 28873 28875 28878 28881 28883 28886 28889 28892 28895 28898 28901 28904 28906 28909 28912 28915 28918 28921 28924 28927 28929 28932 28934 28937 28940 28942 28945 28948 28951 28954 28956 28959 28961 28964 28967 28970 28973 28976 28979 28982 28985 28988 28991 28993 28996 28999 29002 29005 29008 29010 29013 29016 29019 29021 29024 29027 29030 29033 29035 29038 29041 29043 29046 29049 29052 29055 29058 29060 29063 29065 29068 29070 29072 29075 29078 29081 29084 29086 29088 29091 29094 29097 29100 29103 29106 29109 29112 29115 29118 29121 29124 29127 29129 29132 29135 29138 29141 29144 29147 29149 29151 29154 29157 29160 29163 29166 29169 29172 29175 29178 29181 29184 29187 29190 29192 29195 29198 29201 29204 29207 29210 29213 29216 29219 29222 29225 29228 29231 29234 29237 29240 29243 29246 29249 29252 29255 29258 29261 29264 29267 29270 29273 29276 29279 29282 29285 29288 29291 29293 29296 29299 29301 29304 29307 29310 29313 29316 29319 29322 29324 29327 29330 29333 29335 29338 29341 29343 29346 29349 29352 29354 29356 29359 29362 29365 29368 29370 29372 29375 29378 29381 29384 29387 29390 29393 29396 29399 29402 29405 29408 29411 29414 29416 29419 29422 29424 29427 29430 29433 29435 29438 29441 29444 29447 29449 29452 29455 29457 29460 29463 29466 29469 29472 29475 29478 29481 29484 29487 29490 29492 29495 29498 29501 29504 29507 29510 29513 29515 29518 29521 29524 29527 29530 29533 29536 29539 29542 29545 29548 29551 29554 29557 29560 29563 29566 29569 29571 29574 29577 29580 29583 29586 29589 29591 29594 29596 29599 29602 29605 29608 29611 29613 29616 29619 29621 29624 29627 29630 29632 29635 29638 29641 29643 29646 29649 29652 29655 29658 29661 29664 29667 29670 29673 29676 29679 29682 29685 29687 29690 29693 29696 29699 29701 29703 29706 29709 29712 29715 29718 29721 29724 29727 29730 29733 29736 29739 29742 29745 29748 29751 29754 29757 29760 29762 29765 29768 29771 29774 29777 29780 29783 29786 29788 29791 29793 29796 29799 29802 29805 29808 29811 29814 29816 29819 29821 29824 29827 29830 29833 29836 29838 29841 29844 29847 29850 29853 29856 29858 29861 29864 29867 29870 29873 29875 29877 29880 29883 29886 29888 29890 29892 29895 29898 29901 29904 29907 29909 29912 29915 29918 29921 29924 29926 29929 29932 29935 29938 29940 29943 29945 29947 29950 29952 29954 29957 29960 29963 29965 29968 29971 29974 29976 29979 29982 29985 29987 29990 29993 29996 29998 30001 30004 30007 30010 30013 30016 30019 30022 30024 30027 30030 30033 30035 30038 30041 30044 30047 30050 30053 30055 30058 30061 30064 30067 30070 30073 30075 30078 30081 30084 30087 30090 30093 30096 30099 30102 30105 30108 30111 30114 30117 30119 30122 30124 30127 30130 30133 30135 30138 30141 30143 30146 30148 30151 30153 30156 30159 30161 30164 30167 30170 30173 30176 30179 30181 30184 30187 30190 30193 30195 30198 30201 30204 30207 30210 30213 30215 30218 30221 30224 30227 30230 30233 30236 30239 30242 30245 30247 30250 30253 30256 30259 30262 30265 30268 30271 30274 30277 30280 30283 30286 30289 30292 30295 30298 30301 30304 30306 30308 30311 30314 30317 30319 30322 30325 30327 30330 30333 30335 30338 30341 30343 30346 30349 30351 30353 30356 30359 30362 30365 30367 30370 30373 30376 30379 30382 30385 30388 30391 30394 30397 30400 30402 30404 30407 30410 30413 30415 30418 30420 30423 30425 30428 30431 30434 30437 30440 30442 30445 30448 30450 30453 30455 30458 30461 30463 30465 30467 30470 30473 30476 30479 30481 30484 30487 30489 30492 30494 30497 30500 30502 30505 30508 30511 30514 30517 30520 30523 30526 30528 30531 30533 30535 30538 30541 30544 30547 30550 30552 30554 30557 30560 30563 30565 30567 30570 30573 30576 30579 30582 30585 30588 30591 30593 30596 30598 30601 30604 30607 30610 30613 30616 30619 30622 30625 30628 30631 30634 30637 30640 30643 30646 30649 30652 30655 30658 30661 30664 30667 30670 30673 30676 30679 30682 30685 30687 30690 30693 30696 30699 30702 30705 30708 30711 30714 30717 30720 30723 30726 30729 30732 30734 30737 30740 30742 30745 30748 30751 30754 30757 30759 30762 30765 30768 30771 30774 30777 30780 30783 30786 30789 30792 30795 30798 30800 30803 30806 30809 30812 30815 30818 30821 30824 30827 30829 30832 30835 30837 30840 30843 30846 30849 30851 30853 30855 30858 30861 30864 30867 30870 30872 30875 30878 30881 
</DataArray>
<DataArray type="UInt32" Name="types" format="ascii">
5 5 3 5 5 5 5 3 5 5 5 5 5 5 5 5 5 5 5 5 3 5 5 5 5 3 5 5 5 5 5 5 5 3 5 5 5 5 5 5 5 5 3 5 5 5 5 5 5 5 5 5 5 5 3 3 5 5 5 5 5 5 5 5 3 5 5 5 5 5 5 5 5 5 5 5 5 5 5 5 5 5 5 5 5 5 5 3 5 5 5 5 5 5 5 5 5 5 5 3 5 5 5 3 5 5 5 5 5 5 5 5 5 5 5 5 5 5 5 5 5 5 5 5 5 5 5 5 5 5 5 5 5 5 5 5 5 5 5 5 5 5 5 5 5 5 5 5 5 3 5 3 5 5 5 5 5 5 5 5 5 5 5 5 5 5 5 5 5 5 5 5 5 5 5 5 5 5 3 5 5 3 5 3 5 5 5 5 5 5 5 5 5 5 5 5 5 5 3 5 3 5 5 5 5 5 5 5 3 5 3 5 5 5 5 5 5 3 5 5 3 5 5 5 5 5 5 3 3 5 5 3 5 3 5 3 3 5 5 5 3 5 5 5 5 5 5 5 5 5 5 5 5 5 3 5 5 5 5 5 5 5 3 5 5 5 5 5 5 5 3 5 5 5 5 3 5 5 5 5 5 5 3 5 5 5 3 5 5 5 5 5 5 5 3 5 5 5 5 5 5 3 5 5 5 5 5 5 3 5 5 5 5 5 5 5 3 5 5 5 5 5 5 5 5 5 5 5 5 5 5 5 5 5 5 5 5 5 3 3 5 5 5 5 5 3 5 5 5 5 5 5 5 3 5 3 5 5 5 3 5 5 5 3 5 3 5 5 5 5 5 5 5 3 5 5 5 5 5 5 5 3 5 5 5 3 5 5 5 5 5 5 5 5 5 5 5 5 5 5 5 5 5 5 5 5 5 5 5 5 5 5 5 5 5 5 5 5 3 5 5 5 5 5 5 5 5 5 5 5 5 5 5 5 5 5 5 5 5 5 5 5 5 5 5 5 5 5 5 5 5 3 5 5 5 5 5 5 5 5 5 5 5 5 5 5 5 5 5 5 5 5 3 5 5 5 5 5 5 5 3 5 5 5 5 5 3 5 5 3 5 3 5 5 5 5 3 5 5 3 5 5 5 5 5 5 3 5 5 5 5 5 5 5 5 5 5 5 5 5 5 5 5 5 5 5 3 5 5 5 5 5 5 5 5 5 5 5 3 3 5 5 5 5 5 5 5 5 5 5 5 5 5 5 5 5 5 5 5 5 5 3 5 3 3 5 5 3 5 5 5 5 5 5 5 5 5 5 5 5 5 3 5 5 5 5 5 5 5 3 3 5 5 5 5 5 5 5 5 3 3 5 5 5 3 5 5 5 5 5 5 5 5 5 5 5 5 5 5 5 5 5 5 5 5 5 5 5 5 5 5 5 5 5 5 5 5 5 5 5 3 5 5 3 5 5 5 5 3 5 5 5 3 5 5 5 3 5 5 3 5 5 5 5 5 5 5 5 5 5 5 5 5 5 5 5 5 5 5 5 5 3 5 5 5 3 5 5 5 5 5 3 5 5 5 5 5 5 3 5 5 5 5 5 5 5 5 5 5 5 5 5 5 5 5 5 5 3 5 5 5 5 5 5 5 5 5 5 5 5 5 5 5 5 5 5 5 5 5 3 5 5 5 5 5 5 5 5 5 5 5 5 5 5 5 3 5 5 5 5 5 5 5 5 5 5 5 5 5 5 5 5 5 5 3 5 5 5 5 5 5 5 3 5 5 5 5 5 5 5 5 5 5 5 5 5 5 5 5 5 5 5 5 5 3 5 5 5 5 5 5 5 5 5 3 5 5 5 5 5 5 5 5 3 5 5 5 5 5 5 5 5 5 5 5 5 5 5 5 5 5 5 5 3 5 5 5 5 5 3 5 5 5 3 5 5 5 5 5 5 3 5 5 5 5 5 5 5 5 5 5 3 5 5 5 5 5 5 5 5 5 5 5 5 3 5 3 5 5 5 5 5 5 5 3 5 3 5 5 5 5 5 5 5 5 5 5 5 5 5 5 5 5 5 5 5 5 5 5 5 5 5 5 5 5 5 5 5 5 5 5 5 5 5 5 5 5 5 5 5 5 5 3 3 5 5 3 5 5 5 5 5 5 5 5 5 5 5 5 5 5 5 5 3 5 5 5 5 3 5 5 3 5 5 5 5 5 5 3 5 3 5 5 3 5 5 5 5 5 5 5 5 5 5 3 5 5 5 5 5 3 3 5 5 5 5 3 5 5 3 5 3 5 5 5 5 5 3 5 5 3 5 5 5 5 5 5 5 5 5 5 5 5 3 5 5 5 5 5 5 5 5 5 5 5 5 5 5 5 3 5 3 5 3 3 5 3 5 5 3 5 5 5 5 5 5 3 5 3 5 5 3 5 5 5 3 5 5 3 5 5 5 5 5 3 5 5 3 5 5 5 5 5 3 5 3 5 5 3 5 5 3 5 5 5 5 5 5 5 5 3 5 5 5 5 5 5 5 5 5 5 3 5 5 5 5 3 5 5 3 5 5 5 5 5 3 5 5 5 5 5 3 5 3 5 5 5 5 5 5 3 5 5 5 5 5 5 5 5 3 3 3 5 5 5 5 3 5 3 5 5 5 3 3 5 5 5 3 5 5 5 3 5 3 5 3 3 5 3 5 5 5 5 3 5 5 5 3 5 3 5 3 5 5 5 5 5 5 5 3 5 5 5 5 3 5 5 5 5 5 5 5 5 3 5 3 3 5 5 5 3 5 5 5 5 3 3 5 5 3 3 5 5 5 5 5 3 5 5 5 5 5 5 5 5 3 5 3 5 5 5 5 5 5 5 5 5 5 5 5 5 5 5 5 5 3 5 5 5 5 5 5 5 5 5 5 5 5 5 5 5 5 5 5 5 5 5 5 5 5 5 3 5 3 5 5 5 5 5 3 3 5 5 5 5 3 3 5 3 5 5 3 5 5 3 5 5 5 5 3 3 5 5 5 5 5 5 5 5 3 5 5 3 5 5 5 3 5 5 3 5 5 5 5 5 5 3 5 5 5 5 5 5 3 5 5 5 5 5 3 5 5 3 3 5 5 3 5 5 3 5 5 5 5 5 5 5 5 5 5 5 5 3 5 3 5 5 3 5 5 5 5 5 5 3 5 5 5 3 3 3 5 5 5 3 3 5 3 3 5 5 3 5 5 3 5 3 5 3 5 5 5 3 3 5 5 3 3 3 3 5 5 5 3 3 5 5 3 3 3 5 3 3 5 5 3 5 3 3 5 3 5 5 3 5 3 3 5 5 5 5 3 3 5 5 3 5 5 5 3 5 5 5 5 5 5 5 5 5 5 5 5 5 5 5 5 5 5 5 5 5 5 5 5 5 5 5 5 5 5 5 5 5 5 5 5 5 5 5 5 5 5 5 5 5 5 5 5 5 5 5 5 5 5 5 5 5 5 3 5 3 5 5 5 5 5 5 5 5 5 5 5 5 5 5 3 5 5 5 5 5 5 5 5 5 5 3 5 5 5 5 5 5 5 5 5 5 5 5 5 5 5 5 5 5 5 5 5 5 5 5 5 5 5 5 5 5 5 5 5 5 5 5 5 5 5 5 5 5 5 5 5 5 3 5 5 5 3 5 3 5 5 5 5 5 3 5 3 5 5 5 5 5 5 5 5 5 5 5 5 5 5 5 5 5 5 5 5 5 5 5 5 5 3 5 5 5 5 5 5 3 5 3 5 5 5 3 5 5 3 5 5 5 5 5 5 5 5 5 5 5 5 5 5 5 5 5 5 5 5 5 5 5 5 5 5 5 5 5 5 5 5 5 5 5 5 5 3 5 3 5 5 5 5 5 5 5 5 5 5 3 5 5 5 5 5 5 5 5 5 5 5 5 5 5 5 5 5 3 5 5 5 3 3 5 3 5 5 5 5 5 5 5 5 3 5 5 5 5 3 5 5 5 5 5 5 5 3 5 5 3 5 3 5 5 3 5 5 3 3 5 5 5 5 5 5 5 5 5 5 5 5 5 5 5 3 5 3 5 5 5 3 5 3 5 5 5 5 5 5 5 5 5 5 5 5 3 5 3 5 5 5 5 5 5 5 5 3 5 5 3 5 5 5 3 3 5 5 5 5 5 5 5 5 5 5 5 5 5 5 5 5 5 5 5 5 5 3 5 5 5 5 5 3 5 3 5 5 5 5 3 5 5 3 5 5 5 5 5 3 5 5 5 5 3 5 5 5 5 5 5 5 3 5 5 5 3 5 5 5 5 5 5 5 5 5 5 5 3 5 5 5 5 5 5 5 5 3 5 5 5 5 5 5 3 5 5 5 5 5 5 3 5 5 5 5 5 5 5 5 5 5 5 3 5 5 5 3 5 5 5 3 5 3 5 5 5 5 5 5 3 5 5 5 5 5 5 5 5 5 5 5 5 5 5 5 3 5 5 5 5 5 3 5 5 5 5 5 5 5 5 3 5 5 5 5 5 5 5 5 5 5 5 5 5 5 5 5 3 5 5 5 5 3 5 5 5 5 5 5 5 5 5 5 5 5 5 5 5 5 5 5 5 5 5 5 5 5 5 5 3 5 5 5 3 5 3 5 5 5 5 3 5 3 5 5 5 5 5 3 5 5 5 5 5 5 5 5 5 3 5 5 5 5 5 5 5 5 5 5 5 5 5 5 5 5 5 5 5 5 5 5 5 5 3 3 5 5 5 5 5 3 5 5 5 3 5 5 5 3 5 5 3 5 3 5 5 5 5 3 5 5 5 5 3 3 5 5 5 5 5 5 5 5 5 5 5 5 3 5 5 5 5 3 5 5 5 5 5 3 5 5 3 5 5 5 5 5 5 5 5 5 5 5 5 5 5 5 5 3 5 5 3 5 5 5 3 5 5 5 5 5 5 5 5 5 5 5 3 5 5 5 5 5 5 5 5 5 5 5 5 5 5 5 5 3 5 5 3 5 3 5 5 3 5 3 5 3 5 5 5 5 5 5 5 5 5 5 5 5 5 3 5 3 3 5 5 3 3 5 5 3 3 5 5 5 3 5 3 5 5 3 5 5 5 5 3 3 5 3 5 5 3 3 5 5 3 5 5 5 3 5 5 5 3 3 3 5 5 3 5 3 3 5 5 5 5 5 5 5 5 5 5 5 3 3 5 3 5 3 5 3 5 5 5 3 5 5 5 5 5 3 5 5 5 5 5 5 5 5 5 5 5 5 5 5 5 5 5 5 5 5 5 5 5 5 3 5 5 5 5 5 5 5 5 5 5 5 5 5 5 5 5 5 5 3 5 5 5 5 5 5 5 5 5 5 5 3 5 5 5 5 5 3 5 5 5 5 5 5 5 5 5 5 5 5 5 5 3 5 5 5 5 5 5 5 5 5 5 5 5 5 5 3 5 3 5 5 5 5 3 5 5 5 5 5 5 5 5 5 5 5 5 3 5 3 5 5 5 5 3 5 5 5 5 5 5 5 3 5 5 5 5 5 5 5 3 5 5 5 3 5 3 5 5 5 5 5 5 5 5 5 3 5 5 5 5 5 5 5 5 5 5 5 5 5 5 5 5 5 5 5 5 5 5 5 5 5 5 5 5 5 5 5 5 5 5 5 5 5 5 5 5 5 5 5 3 5 5 3 5 5 5 5 5 5 5 5 5 5 3 5 5 5 5 5 3 5 5 3 5 5 5 5 5 5 3 5 5 5 5 3 5 5 3 5 3 5 5 5 5 5 5 5 5 5 5 5 3 5 3 5 5 5 5 3 5 5 5 5 5 5 5 5 5 5 5 5 5 5 5 5 5 5 5 5 5 3 5 5 5 5 3 5 5 5 5 5 5 5 3 5 5 5 5 5 3 5 5 5 3 5 5 5 3 5 5 3 5 5 5 3 5 5 3 5 5 5 5 5 5 5 5 5 5 5 5 5 5 5 5 5 5 5 5 5 5 5 5 5 5 5 5 5 5 5 3 5 5 5 5 5 5 5 5 5 5 5 3 5 5 5 5 5 5 5 5 5 5 5 5 5 5 5 3 3 5 5 5 3 5 5 5 5 3 5 5 3 5 5 5 5 5 5 5 5 5 5 5 5 5 3 3 5 5 5 5 5 5 5 5 5 5 5 3 5 5 3 5 5 5 5 5 5 5 5 5 5 5 5 5 5 5 5 5 5 5 3 5 5 5 3 5 5 5 5 5 3 5 5 5 5 5 5 5 5 5 5 5 5 5 5 5 5 5 5 5 5 3 5 5 3 5 5 5 5 5 5 5 5 5 5 5 5 5 5 5 5 5 5 5 3 5 5 5 5 5 5 5 5 5 5 5 5 5 5 5 5 5 5 5 5 5 5 5 5 5 5 5 5 5 5 5 5 3 5 5 5 5 5 5 3 5 5 5 5 5 3 5 5 5 5 3 5 5 5 5 5 5 5 5 5 5 5 5 5 5 5 5 5 5 5 5 5 5 3 5 5 5 5 5 5 5 3 5 5 3 5 5 3 5 5 5 5 5 5 3 5 5 5 5 5 5 5 5 5 5 3 5 3 5 5 5 5 5 5 5 5 3 5 5 3 5 5 5 3 5 5 5 3 5 5 5 3 3 5 5 3 5 5 3 5 5 3 5 5 5 5 5 5 5 5 5 3 5 5 5 3 5 5 5 3 5 5 5 3 5 3 5 5 3 5 5 5 5 5 5 5 5 3 5 5 3 5 5 5 5 5 5 5 5 5 5 5 5 5 3 5 3 5 5 5 3 3 5 3 5 5 5 5 3 5 3 5 5 5 5 5 5 5 5 5 3 5 5 5 5 5 5 5 5 5 5 5 5 5 5 5 5 5 5 5 5 5 5 5 5 5 5 5 5 3 5 5 5 5 5 5 3 5 5 5 5 5 5 3 5 5 5 5 5 5 3 5 5 5 3 5 5 5 3 5 5 3 5 5 5 5 5 5 3 5 5 5 3 3 5 5 5 5 5 5 5 5 5 5 5 5 5 5 5 5 5 3 5 5 5 5 5 5 5 3 5 5 5 5 5 3 5 5 5 5 5 3 5 5 3 5 5 5 5 3 5 5 5 5 5 5 3 5 3 5 3 3 5 3 5 5 5 3 5 5 5 5 5 3 5 5 5 3 5 5 5 5 3 3 3 5 5 5 5 3 3 5 3 5 5 5 5 5 5 3 5 3 5 5 3 5 5 5 3 5 5 3 5 5 5 5 5 5 5 5 5 5 5 5 3 5 5 5 5 3 5 5 5 5 3 5 5 5 5 5 5 5 5 5 3 3 3 5 5 5 3 3 5 5 3 5 3 5 5 5 5 5 5 5 3 5 5 5 5 5 5 5 5 5 5 5 5 5 5 5 5 3 5 5 5 5 5 5 5 5 5 3 5 5 3 5 3 5 3 5 5 3 5 5 5 3 3 5 5 3 5 5 5 3 5 5 5 5 3 5 5 5 5 5 5 5 5 5 5 5 3 3 5 5 5 5 5 5 5 5 5 5 5 5 5 5 5 5 5 5 5 5 5 5 5 5 5 5 5 5 5 5 5 5 3 5 5 5 5 5 5 5 5 5 5 5 5 5 5 5 5 5 5 5 3 5 5 5 5 5 5 3 3 5 5 3 3 5 5 5 3 5 5 5 5 5 5 5 5 5 5 5 5 5 5 5 5 5 5 5 5 5 5 5 3 5 3 5 3 5 5 5 5 5 5 3 5 3 3 5 5 3 5 5 5 5 5 5 3 3 5 5 3 3 5 5 3 3 5 5 5 5 5 5 5 5 3 5 5 5 5 5 3 5 5 3 5 5 5 3 5 5 5 5 5 5 5 5 5 5 5 5 5 5 5 5 5 5 5 5 5 5 5 5 5 5 5 5 5 5 5 5 5 5 3 5 5 3 5 3 3 5 5 5 5 5 5 5 5 5 3 5 5 5 5 5 3 5 5 5 5 5 5 5 3 5 5 5 5 5 5 5 5 3 5 5 5 5 5 3 5 5 5 5 5 5 5 5 5 5 5 5 5 5 5 5 5 5 5 5 5 5 5 5 5 5 5 5 5 5 3 3 5 5 5 5 5 5 5 3 5 5 5 3 5 3 5 5 5 5 5 5 5 5 5 5 5 5 5 5 5 5 5 5 5 5 5 3 5 5 5 5 5 5 3 5 5 5 5 5 5 5 3 5 5 3 5 5 5 5 5 5 3 5 5 5 3 5 5 3 3 5 5 5 5 5 5 5 5 5 5 5 5 5 5 5 5 5 5 5 5 5 5 5 5 5 5 5 5 3 5 5 5 5 5 5 5 5 5 5 5 5 5 5 5 5 5 5 5 3 5 5 5 3 3 5 5 5 5 5 3 5 5 5 3 5 5 5 5 5 3 5 5 5 5 5 5 5 5 5 5 5 5 5 5 5 5 5 5 5 5 5 3 5 5 5 5 5 5 3 5 5 5 5 5 5 5 5 5 5 5 5 3 5 5 5 5 3 5 3 5 5 5 5 5 5 5 5 5 5 5 5 5 3 5 5 5 5 5 3 5 5 5 5 5 5 3 5 5 5 5 5 5 5 5 5 5 5 5 3 5 5 3 5 5 3 5 5 3 5 5 5 5 5 5 5 5 5 5 3 5 5 5 5 5 5 5 5 3 5 5 5 3 5 5 5 3 5 5 3 5 5 5 3 5 5 5 5 5 3 5 3 5 5 5 5 3 3 5 5 5 3 5 5 5 5 3 5 5 5 5 5 5 5 5 5 5 5 5 5 5 5 3 5 5 3 3 5 5 5 5 3 5 5 5 5 5 5 3 5 5 5 5 5 5 3 5 5 5 5 5 5 5 5 3 5 5 5 5 5 5 5 5 5 5 3 5 5 3 5 5 3 5 5 5 5 5 3 3 5 5 3 3 5 3 5 3 5 3 3 5 5 3 5 3 5 3 5 3 5 3 5 5 3 5 3 5 3 5 5 5 5 5 5 3 5 5 5 3 5 5 5 5 5 5 5 5 5 3 5 5 3 5 3 5 3 5 5 5 3 3 5 5 5 5 5 5 5 5 5 5 5 3 5 5 5 5 5 3 5 5 5 5 5 5 5 5 5 5 5 5 5 5 5 5 5 3 5 5 5 5 5 5 3 5 5 5 3 5 5 3 5 5 5 3 5 3 3 5 5 5 5 5 5 5 5 5 3 5 5 5 5 5 5 5 3 5 3 5 3 5 5 5 5 5 5 5 5 5 5 5 5 5 5 5 5 5 5 5 5 5 5 5 5 5 5 5 5 5 5 5 5 5 5 5 5 5 3 5 5 3 3 5 5 5 5 3 5 5 5 5 5 3 5 5 3 3 5 5 5 5 5 5 3 5 3 5 5 3 3 5 3 5 5 5 3 5 5 5 5 3 5 5 5 3 5 5 3 3 5 5 5 3 5 5 5 5 3 5 5 3 5 5 5 3 5 5 3 5 5 5 3 5 3 5 5 3 5 5 3 3 5 5 3 5 3 3 5 5 5 5 3 5 5 5 5 3 5 5 5 5 5 5 5 5 5 5 5 5 3 5 5 5 5 3 5 3 5 5 5 5 5 3 3 3 5 5 5 5 5 5 5 5 3 5 5 5 5 5 5 3 5 5 5 5 3 5 5 5 5 5 5 5 5 5 5 5 5 5 5 5 5 5 5 3 5 3 5 5 3 3 5 3 5 5 3 5 3 5 3 5 3 5 5 5 5 3 5 5 5 3 5 5 5 5 5 5 5 5 5 5 5 5 5 5 5 5 5 5 5 5 5 5 5 5 5 3 5 5 5 5 5 3 5 5 5 5 5 5 5 5 5 5 5 3 5 5 5 5 5 3 5 5 3 3 5 5 5 3 5 5 3 3 5 3 5 5 5 5 5 5 5 5 5 5 5 5 5 5 5 5 3 5 5 5 5 3 5 5 5 5 5 5 5 5 3 3 5 5 3 5 5 5 5 5 5 5 5 5 3 3 5 5 3 5 5 5 3 5 5 5 5 5 5 5 5 5 5 5 5 5 5 5 5 5 5 5 5 5 5 5 5 5 5 3 5 5 5 5 5 5 5 5 5 5 5 5 5 5 5 5 5 5 5 5 3 5 5 5 3 3 5 5 5 3 5 5 3 5 5 5 5 5 3 5 3 5 5 5 5 5 5 5 5 3 5 5 5 3 5 5 3 5 3 5 5 5 3 5 5 5 3 5 5 5 5 5 5 5 5 5 5 5 5 5 5 5 5 5 3 5 5 5 5 5 5 5 5 5 3 5 5 5 5 5 5 5 5 3 5 5 5 5 5 5 5 5 5 5 5 5 5 3 5 5 5 3 5 5 5 5 5 5 5 5 5 5 5 5 5 5 5 5 5 5 5 3 5 5 5 3 5 3 5 5 5 3 5 5 5 3 3 5 5 5 5 5 5 5 5 5 5 5 5 5 5 5 5 5 5 5 5 5 5 3 5 5 5 5 3 5 5 5 5 3 5 5 5 5 5 5 5 3 5 5 5 5 3 5 5 5 5 5 5 3 5 5 5 5 5 5 3 5 5 5 3 5 5 5 5 5 5 5 5 5 3 5 5 5 5 5 5 3 5 5 5 5 5 5 5 5 5 5 5 3 5 5 3 5 5 5 5 5 3 5 5 3 5 5 5 5 5 5 5 3 3 5 5 5 5 3 5 5 5 5 5 5 3 5 5 5 5 5 5 5 5 5 5 3 5 5 5 5 5 5 5 5 5 5 5 5 3 5 3 5 5 5 3 5 5 3 5 5 5 5 3 5 5 5 5 5 3 5 5 5 5 5 5 5 5 3 5 5 5 5 3 5 5 5 5 5 5 5 3 5 5 5 5 5 5 5 5 5 5 3 5 5 5 3 5 3 5 5 5 5 5 5 3 5 3 5 3 5 5 5 5 3 5 5 5 5 5 5 5 5 5 5 5 5 5 5 3 5 3 5 5 5 5 5 5 5 3 5 5 5 5 5 5 5 5 5 5 5 5 5 3 5 5 5 5 3 5 5 5 5 5 5 5 5 5 5 5 5 5 5 5 5 5 5 5 5 5 5 5 5 3 5 5 5 5 3 5 5 5 3 5 5 3 5 5 3 5 5 5 5 5 5 5 5 5 5 5 5 5 5 5 3 5 5 3 5 5 5 5 5 5 5 3 5 5 5 5 5 3 5 5 5 3 5 5 5 3 5 5 5 5 5 5 5 3 5 5 5 3 5 3 3 5 5 5 5 5 3 5 5 5 5 5 5 5 5 5 5 3 5 5 5 5 5 5 5 5 5 5 5 5 5 5 5 5 5 5 5 5 5 5 5 5 5 5 5 5 5 5 5 5 5 5 5 5 5 3 5 5 5 5 5 5 5 5 5 5 5 5 5 5 5 5 3 5 5 5 5 5 5 5 5 5 3 5 5 5 5 5 5 5 3 5 5 5 5 5 5 5 5 5 5 5 5 5 5 5 5 5 5 5 5 5 3 5 5 5 5 5 5 5 5 5 5 5 5 5 5 5 5 5 3 5 5 5 5 5 5 5 5 5 5 5 5 5 5 5 5 5 5 5 5 5 5 5 5 5 5 5 5 5 5 5 5 5 5 5 5 5 5 5 5 5 5 5 5 5 5 3 5 5 5 5 5 5 5 5 5 5 5 5 5 3 5 3 5 5 5 5 5 3 5 5 5 5 5 3 3 5 5 5 5 5 5 5 5 5 5 5 5 5 5 5 5 5 3 3 5 5 5 5 5 5 3 5 3 5 5 5 5 5 5 5 5 5 3 5 5 5 5 5 5 5 5 5 5 5 5 5 5 5 5 5 5 5 3 5 5 5 5 5 3 5 3 5 5 5 5 5 5 5 3 5 5 5 3 5 5 5 3 5 5 3 5 5 5 3 5 5 3 5 3 5 3 5 5 3 5 5 5 5 5 5 5 5 5 5 5 5 5 5 5 5 5 5 5 5 5 3 5 3 5 5 5 5 5 5 5 3 5 5 5 5 5 5 5 5 5 5 5 5 5 5 5 5 5 5 5 3 5 5 5 3 5 5 5 5 5 5 5 5 5 5 3 5 5 5 5 3 5 5 3 5 5 5 5 5 3 5 5 5 5 3 5 3 5 5 3 5 5 5 5 5 5 5 3 5 5 3 5 3 5 5 5 5 5 5 5 5 5 5 5 5 5 5 5 5 5 5 3 5 5 5 5 5 5 5 3 5 5 5 5 3 5 5 5 5 5 5 5 5 5 3 5 5 5 5 3 5 5 5 5 5 5 5 5 5 5 5 5 3 5 5 5 5 5 5 5 5 5 3 5 5 5 5 5 5 5 5 5 5 5 5 3 5 5 3 5 5 5 5 5 5 5 5 5 3 3 3 5 5 5 3 5 5 5 5 5 5 3 5 5 5 3 3 5 5 5 5 5 5 5 5 5 5 5 5 3 5 5 5 3 3 5 5 5 5 5 3 5 5 5 5 3 5 5 5 5 3 5 5 5 5 5 3 3 3 5 5 5 3 3 5 5 5 5 5 5 5 5 5 3 3 5 5 5 3 3 5 5 5 5 5 5 5 5 5 5 5 5 5 5 5 5 5 3 5 3 5 5 5 5 3 5 5 5 5 5 5 5 3 5 5 5 5 5 5 5 3 5 5 3 5 3 3 5 5 5 3 3 5 5 5 3 3 5 5 5 5 5 5 5 5 5 5 3 5 5 5 5 5 5 5 3 5 5 5 5 3 5 5 5 5 5 5 3 5 5 5 5 3 5 3 5 5 5 5 5 5 5 5 5 5 5 5 5 5 3 5 5 5 5 5 5 5 3 5 5 5 5 3 5 5 5 3 5 5 5 5 5 5 5 5 5 5 5 5 5 5 5 5 5 5 5 5 5 5 3 5 3 5 5 3 5 5 5 3 5 5 3 5 5 5 5 5 5 5 5 5 5 5 5 5 5 5 5 5 5 5 5 3 3 3 5 5 5 5 5 5 5 5 5 5 5 5 5 3 5 5 5 3 5 5 3 5 5 5 5 3 5 5 3 3 5 5 5 5 3 5 5 3 5 3 5 5 5 5 5 5 5 5 5 5 5 5 3 5 5 5 5 5 5 5 3 5 3 5 5 5 5 3 5 5 5 5 5 5 5 5 5 5 5 5 5 5 5 5 5 5 5 5 5 5 5 3 5 5 5 3 5 3 5 5 5 3 5 5 5 5 5 3 5 5 3 5 5 5 5 5 5 5 5 3 5 5 5 5 5 3 5 5 5 5 5 5 5 5 5 5 5 5 5 5 3 5 5 5 5 3 5 5 5 5 5 5 5 5 5 5 5 5 3 5 5 5 5 3 5 5 5 5 5 5 5 5 5 5 5 5 5 3 5 5 3 5 5 5 3 5 5 5 5 5 5 5 5 5 5 5 5 5 3 3 5 3 3 5 5 5 3 3 5 3 5 3 5 3 5 5 5 3 5 3 5 5 5 5 3 5 5 5 5 5 5 3 5 5 5 5 5 3 5 5 3 5 5 3 5 5 3 5 5 5 5 5 3 5 3 5 5 5 5 5 5 5 5 5 5 5 5 5 3 5 5 3 5 5 5 5 5 5 5 5 5 3 5 5 5 5 5 5 5 5 5 3 5 5 3 5 3 5 5 5 5 5 5 5 3 5 5 5 5 5 5 5 3 5 3 5 5 3 5 5 5 3 5 5 5 5 3 5 5 5 5 5 3 5 5 5 5 5 5 5 5 5 5 5 5 5 5 5 5 5 5 5 5 5 3 5 5 3 5 5 5 3 5 5 5 5 3 5 5 5 5 5 5 5 5 5 5 5 5 5 5 5 5 5 5 5 5 5 5 5 3 5 5 5 5 5 5 3 5 5 5 5 5 5 5 5 5 5 5 5 5 3 5 3 5 5 3 5 5 5 5 3 3 5 3 5 3 5 5 5 5 5 3 5 5 3 3 5 5 5 5 5 3 5 5 3 5 5 5 5 5 5 5 5 3 3 5 5 5 3 5 3 5 5 5 5 5 3 5 3 5 5 5 5 5 3 3 5 5 5 5 3 5 5 5 5 3 5 5 5 5 5 5 5 5 5 5 5 5 5 5 5 5 5 3 5 5 3 5 5 5 3 5 5 5 5 5 5 5 5 5 5 5 5 5 5 5 5 5 5 5 3 5 5 5 5 5 5 5 5 5 5 5 5 5 5 3 3 5 5 5 3 5 5 5 5 5 3 5 5 5 5 5 5 5 5 5 5 5 3 5 5 3 5 5 5 5 5 5 5 5 5 5 3 5 5 5 3 5 3 5 3 5 5 5 3 3 5 3 5 5 3 5 5 3 3 5 5 5 3 5 5 3 5 3 5 5 5 3 5 5 3 3 5 3 5 5 3 5 3 5 5 5 5 5 5 5 5 5 3 5 5 5 5 5 3 5 5 5 5 5 5 5 5 5 5 3 5 5 5 5 3 3 5 5 3 5 3 5 5 5 5 5 3 5 5 3 5 3 5 5 5 5 5 5 5 3 5 5 5 5 5 5 5 5 5 3 5 3 5 3 5 3 5 5 5 5 3 5 5 5 5 5 3 3 5 5 5 5 5 5 3 5 5 5 5 5 3 5 5 5 5 3 5 5 3 5 3 5 5 5 3 5 3 5 5 3 3 3 5 5 5 5 5 5 3 3 3 5 5 5 5 3 5 3 5 3 5 5 5 5 5 5 3 5 5 5 5 5 5 5 5 5 5 5 5 5 5 5 5 5 5 5 5 5 5 5 5 5 5 5 5 5 5 5 5 5 5 5 5 5 5 5 5 5 5 5 5 5 5 5 5 5 3 5 5 5 3 3 5 5 5 5 5 5 5 5 5 5 5 5 5 5 5 5 5 5 5 3 5 5 5 5 5 5 5 3 5 5 3 5 5 3 5 5 3 5 3 5 5 3 5 5 5 3 5 3 5 3 3 5 5 5 3 3 5 5 3 5 5 3 5 5 5 5 5 5 5 5 5 5 5 5 3 5 5 5 5 3 5 5 5 5 3 5 5 5 5 5 5 5 5 5 3 5 3 5 5 5 5 3 5 5 5 3 5 5 5 5 5 5 3 5 5 3 5 5 5 3 5 5 5 5 5 5 5 3 5 5 5 5 5 3 5 5 5 5 5 5 5 5 5 5 5 5 5 5 5 3 5 5 5 5 5 3 5 5 3 5 3 5 5 5 5 3 3 5 5 3 5 5 5 5 5 5 5 5 5 5 5 3 5 3 5 5 5 5 5 3 5 5 5 3 5 5 5 3 5 5 5 5 5 5 5 5 5 5 5 5 5 3 5 5 5 5 5 5 5 3 5 3 5 5 5 5 5 5 5 3 3 5 5 5 5 5 5 5 5 5 3 5 5 5 5 5 5 3 3 3 5 3 5 5 5 5 5 5 3 5 3 5 3 5 3 5 5 5 5 5 5 3 5 5 3 5 5 5 5 3 5 5 5 5 5 5 5 5 5 5 5 5 5 5 5 5 5 5 5 5 5 3 5 3 5 5 5 5 5 5 5 5 5 5 5 5 5 5 5 5 5 5 5 5 5 5 5 5 5 5 5 5 5 5 5 5 5 5 5 5 5 5 5 5 5 5 5 5 5 5 5 5 5 5 5 5 5 5 5 5 5 5 3 5 5 5 5 5 5 5 5 5 5 5 5 5 5 5 5 5 5 5 5 5 5 5 3 5 5 5 3 5 3 5 5 5 5 5 5 5 5 5 5 5 5 5 5 5 5 5 5 5 5 5 5 5 5 5 5 5 5 5 5 5 5 5 5 5 5 5 5 5 3 5 3 5 5 5 5 5 5 5 5 5 5 5 5 5 5 5 5 5 5 5 5 5 5 5 5 5 3 5 5 5 5 5 5 5 5 5 5 5 5 5 5 5 5 5 5 5 5 5 5 5 5 5 5 5 5 5 5 5 5 5 5 5 5 5 5 5 5 5 5 5 5 5 5 5 5 5 5 5 5 5 5 5 5 5 5 5 5 5 5 5 5 5 5 5 5 5 3 5 5 5 5 5 5 5 3 5 5 3 5 5 5 5 5 5 5 5 5 5 5 5 5 5 5 5 5 5 5 5 3 5 5 5 5 5 5 5 5 5 5 5 5 5 5 5 5 5 5 5 5 5 5 5 5 5 5 5 5 5 5 5 5 3 5 5 5 5 3 5 3 5 5 5 5 5 5 3 5 5 3 5 5 3 3 5 3 5 5 5 3 5 5 5 5 5 5 5 5 5 5 5 5 5 5 5 3 5 5 5 5 5 5 5 5 3 5 5 5 5 5 5 5 5 5 5 5 5 5 5 5 5 5 5 5 5 5 5 5 5 5 5 5 5 5 5 5 5 5 5 5 5 3 5 5 5 5 5 5 5 3 5 5 3 5 3 5 5 5 5 5 5 5 5 5 5 5 3 3 5 5 3 5 5 3 3 5 5 5 5 3 5 3 5 5 3 5 3 3 5 3 5 3 5 5 5 5 5 5 5 3 5 3 5 5 5 5 5 3 5 5 5 3 5 5 3 5 3 5 3 3 5 5 3 5 5 5 5 5 5 3 5 5 5 5 5 5 5 5 3 3 5 5 5 3 5 5 5 5 3 3 5 3 5 5 5 3 5 5 5 5 5 5 5 5 5 5 5 5 5 5 5 5 3 5 5 5 5 5 5 3 5 3 5 5 5 3 3 5 5 3 5 3 5 5 5 5 5 5 5 5 5 5 5 5 3 3 5 5 5 5 5 3 5 5 5 5 5 5 5 3 5 5 5 3 5 3 5 5 3 5 5 5 5 5 5 5 5 5 3 5 5 3 5 5 5 5 5 5 5 5 5 5 5 3 5 5 5 5 5 5 5 5 5 5 5 5 5 5 5 5 5 5 5 5 5 5 3 5 5 5 5 5 5 5 5 5 5 5 3 5 5 5 5 3 5 5 5 5 5 5 5 5 5 5 5 3 5 5 5 5 5 3 5 3 5 5 5 5 5 5 5 5 5 3 5 5 3 5 5 3 5 5 5 5 3 5 5 5 5 5 5 5 5 5 5 5 5 5 5 5 5 5 5 5 5 5 3 5 5 3 5 3 5 5 5 5 5 5 5 5 5 3 5 5 3 3 3 5 5 5 3 5 5 5 5 5 5 3 3 5 3 5 5 3 5 5 3 5 5 5 5 3 5 5 5 5 3 5 5 5 5 5 5 5 5 5 5 5 3 5 5 3 5 3 3 5 5 3 3 3 5 5 5 5 5 5 5 5 5 5 3 5 5 5 5 5 5 5 5 5 3 5 5 5 5 5 3 5 5 5 5 5 5 5 5 5 5 3 5 5 5 5 5 5 5 5 5 5 5 5 5 5 5 5 5 5 5 5 5 5 5 5 3 3 5 5 5 5 5 5 5 5 3 5 5 5 5 5 5 5 5 5 5 5 5 5 5 5 5 3 5 5 5 5 3 5 5 5 3 3 5 5 5 5 5 5 3 5 3 5 5 5 3 5 5 5 5 5 5 5 5 3 5 3 3 5 5 5 5 5 5 5 5 5 5 5 5 3 5 5 3 5 3 5 5 5 5 5 5 5 5 5 5 5 5 5 5 5 5 5 5 5 5 5 5 5 3 5 5 5 5 5 3 5 5 5 5 5 5 5 5 5 5 3 5 5 5 3 5 5 5 5 5 5 5 5 5 5 5 3 3 5 5 5 5 5 3 5 5 5 3 5 5 5 5 5 5 5 5 5 5 3 5 5 5 5 5 5 5 3 3 5 3 5 5 5 5 3 5 5 5 5 5 3 5 5 5 5 5 5 5 5 5 5 3 5 5 5 5 5 5 5 5 5 5 3 5 5 5 5 5 5 5 3 5 5 5 5 5 5 5 5 5 5 5 5 5 5 5 5 5 5 5 5 3 5 5 5 3 5 5 5 5 5 5 5 5 5 5 5 5 5 3 5 3 3 5 3 3 5 5 5 5 5 3 5 5 5 5 5 5 5 3 5 5 3 5 5 3 5 5 3 5 5 3 3 3 3 5 5 3 3 5 5 3 5 5 3 5 5 5 5 3 3 3 3 5 5 5 3 5 3 5 3 5 3 3 5 5 5 5 5 5 5 3 5 5 3 5 3 5 5 3 3 5 5 5 5 5 5 5 5 5 5 5 5 5 5 5 5 5 3 5 5 5 5 5 5 5 5 5 5 5 5 5 5 5 5 5 3 5 5 5 5 5 5 5 5 5 5 5 5 5 5 3 3 5 5 5 5 3 5 3 5 5 5 3 3 5 3 5 5 5 5 5 5 5 5 5 5 5 5 5 5 5 5 5 5 5 3 5 3 5 5 5 5 3 5 5 5 5 5 5 5 5 5 5 5 5 5 5 5 5 5 5 5 5 3 5 5 5 5 5 5 5 5 5 5 5 5 5 5 3 5 5 5 5 5 5 5 5 5 5 5 5 5 5 5 5 5 5 5 5 5 5 5 5 5 5 5 5 5 5 5 5 5 5 5 5 5 5 5 5 5 5 5 5 5 5 5 5 5 5 5 5 5 5 5 5 5 5 5 5 5 5 3 5 5 5 3 5 5 3 5 5 5 5 5 5 5 5 5 5 5 3 5 5 5 5 3 5 5 5 5 5 5 5 5 5 5 5 5 5 5 5 5 5 5 5 5 5 5 5 5 5 5 5 5 5 3 5 5 5 5 3 5 5 5 5 5 5 5 5 5 5 3 5 5 3 5 5 5 5 5 5 5 5 5 5 5 5 3 5 5 5 5 5 5 5 5 3 5 5 5 5 5 5 5 5 5 5 3 5 3 5 5 5 3 5 5 5 3 5 3 5 3 3 5 5 5 5 5 3 5 5 5 5 5 5 5 5 5 5 5 5 5 5 5 5 5 5 5 5 5 5 5 3 5 5 3 5 5 5 3 5 3 5 5 5 5 5 5 5 5 5 5 5 5 3 5 5 5 5 5 5 5 5 5 5 5 5 5 5 5 5 5 5 5 3 5 5 5 5 5 5 5 5 5 5 5 5 5 5 5 5 5 5 5 5 5 5 5 5 5 5 5 3 5 5 5 5 5 5 5 5 5 5 5 5 5 5 5 5 5 5 3 5 5 5 3 5 5 5 3 3 5 5 5 5 5 3 5 5 5 5 5 5 5 3 3 5 5 5 3 5 3 5 5 5 5 5 5 3 3 5 5 3 3 5 5 5 5 5 5 5 5 5 5 3 5 5 5 5 5 5 3 5 5 5 5 5 5 5 5 5 5 5 5 5 5 5 5 5 3 5 5 5 5 3 5 5 3 5 5 5 5 5 5 5 5 5 5 5 3 5 3 5 3 5 5 5 5 5 5 5 5 5 5 5 5 5 5 5 5 5 5 5 3 5 5 3 5 5 5 3 5 5 3 5 5 5 5 3 5 5 5 5 5 5 5 3 5 5 5 5 5 5 5 5 5 5 5 5 5 5 5 5 5 5 5 5 5 5 5 5 5 5 5 5 5 3 5 5 5 5 5 5 5 5 5 5 5 5 5 5 5 5 5 5 5 5 5 5 5 5 5 5 5 5 5 5 5 5 5 5 5 5 5 3 3 3 5 5 3 5 5 5 3 5 3 5 5 5 5 5 3 5 5 5 5 5 5 5 3 5 5 5 5 5 5 5 5 5 5 5 5 5 5 3 5 5 5 3 5 3 5 5 5 5 5 5 5 5 3 5 5 5 5 5 5 5 3 5 3 5 3 5 5 5 5 5 5 5 5 3 5 5 3 3 3 5 3 5 3 5 5 5 5 5 5 5 5 5 5 5 5 5 5 5 5 5 5 5 5 5 3 5 5 3 3 5 5 5 3 5 5 5 5 5 5 5 3 5 3 5 5 5 5 3 5 5 3 5 5 5 5 5 5 5 3 5 5 3 5 5 5 3 5 5 5 5 5 5 5 5 5 3 5 5 5 5 5 5 3 5 5 3 5 5 5 5 3 5 5 5 5 5 5 3 3 3 5 5 5 3 5 3 5 3 5 5 5 5 5 5 3 5 5 5 3 5 5 5 3 5 5 5 5 5 5 5 5 5 5 5 5 3 5 5 5 3 5 5 5 5 5 3 3 5 5 3 5 3 3 3 5 5 5 3 5 5 5 5 5 3 5 5 5 5 5 5 5 5 5 5 5 5 3 5 5 5 5 5 5 3 5 5 3 5 5 3 5 5 5 5 5 3 5 5 3 5 3 5 3 5 5 5 5 5 5 3 5 5 5 5 3 5 5 5 5 5 5 5 5 5 5 3 5 5 5 5 5 3 5 5 5 5 5 5 5 5 5 5 5 5 5 5 5 3 5 5 5 5 5 3 5 3 5 5 5 5 5 3 5 5 5 5 5 3 5 5 5 5 5 3 5 5 5 5 5 5 5 5 5 5 3 5 3 5 3 5 5 3 5 5 5 5 5 5 5 5 3 5 3 5 5 5 5 5 5 5 5 5 5 3 5 5 5 5 5 5 5 5 5 5 3 5 5 5 3 5 3 3 5 5 5 3 5 5 5 3 3 5 5 5 5 5 5 5 5 5 5 3 3 5 5 5 5 5 3 5 5 5 5 5 5 5 5 5 5 3 5 3 3 3 5 5 5 5 5 5 5 5 3 5 5 5 5 5 5 5 5 5 5 5 5 5 5 5 5 5 5 5 5 5 5 5 5 5 5 5 5 5 3 5 5 5 5 3 5 5 5 5 5 5 5 5 3 5 5 5 5 5 5 5 5 3 5 5 5 5 5 5 5 5 5 5 5 5 5 5 5 5 5 5 5 5 5 5 5 5 5 5 3 5 5 5 5 5 5 3 5 3 5 5 3 5 5 5 3 5 3 5 5 5 3 5 5 5 3 5 5 5 5 5 5 3 5 5 5 5 5 5 5 5 5 5 5 5 5 5 5 5 5 5 5 5 5 5 5 5 5 5 5 3 5 3 5 5 5 5 3 5 5 5 5 5 5 5 5 5 5 5 5 5 3 5 5 3 5 5 3 5 5 5 5 5 3 5 5 5 5 5 5 5 5 3 5 3 5 5 5 5 5 3 3 5 5 3 5 5 5 3 5 5 5 5 5 5 5 3 5 5 5 5 5 5 5 5 5 5 5 5 5 5 5 5 3 5 5 5 5 5 3 5 3 5 5 5 5 5 5 5 5 5 5 5 5 3 5 3 5 5 5 5 5 5 3 3 5 5 5 5 5 5 5 5 5 5 5 5 5 5 5 5 5 5 5 5 5 3 5 5 3 5 5 5 5 5 3 5 5 5 5 5 5 3 5 5 5 5 5 5 5 5 5 5 5 5 5 5 5 5 3 5 5 3 5 5 5 5 3 5 5 5 5 5 5 5 5 5 5 5 3 5 5 5 5 5 5 5 5 5 5 5 5 5 5 5 5 5 5 5 3 5 5 5 5 5 5 5 5 5 5 5 5 3 5 5 5 5 5 5 5 5 5 5 5 5 5 3 3 5 5 5 5 5 5 3 5 5 5 5 5 5 5 5 5 5 5 5 5 5 5 5 5 5 5 5 5 5 5 5 5 5 5 5 5 5 5 5 5 5 5 3 5 5 5 5 5 5 5 5 3 5 5 5 5 5 5 5 5 5 5 5 5 3 5 5 5 5 3 5 3 5 5 5 5 5 5 5 5 3 5 5 5 5 5 5 5 5 5 5 3 5 5 5 3 5 5 3 5 5 5 5 3 5 5 3 5 5 5 5 5 5 5 5 3 5 5 5 3 5 5 5 5 5 5 5 3 5 3 5 3 5 3 3 5 5 5 3 3 3 5 5 3 5 5 5 3 5 5 5 5 3 5 5 5 5 5 5 5 5 5 5 5 5 5 5 5 5 5 5 5 5 5 5 5 5 5 5 5 5 5 5 5 5 5 5 5 5 5 5 3 5 5 5 5 5 5 5 5 3 5 5 5 5 3 5 5 3 5 5 3 5 5 5 5 3 5 5 5 5 5 3 5 5 5 5 5 5 5 5 5 5 5 5 5 3 3 5 5 5 3 5 5 5 5 5 5 5 5 5 5 5 5 5 5 3 5 5 5 5 5 5 3 5 5 3 5 5 5 5 5 5 5 5 5 5 3 5 5 5 5 5 3 5 5 5 5 5 5 5 5 5 5 3 5 5 5 5 5 5 5 5 5 5 5 5 5 5 5 3 5 5 5 5 5 5 5 5 5 5 5 5 5 5 5 5 5 5 5 5 5 5 5 3 5 3 5 5 5 3 5 5 5 5 5 5 5 5 5 3 5 5 5 3 5 5 5 5 5 5 5 5 5 5 5 5 5 5 5 5 3 5 5 5 5 5 3 5 5 5 3 5 3 5 5 5 5 5 5 3 5 5 5 5 5 5 5 5 5 5 5 5 5 5 5 5 5 5 5 5 5 5 5 5 5 5 5 3 5 5 3 5 5 5 5 5 5 5 3 5 5 5 5 3 5 5 3 5 5 5 5 5 5 3 5 5 5 3 5 5 5 3 5 5 5 5 5 3 5 5 5 5 5 3 5 5 5 5 5 5 5 5 3 5 5 3 5 5 5 5 3 5 5 5 5 3 5 5 5 5 3 5 5 5 3 5 3 5 5 5 5 5 5 5 5 5 5 3 5 5 5 5 5 5 5 3 3 5 5 5 5 5 3 5 5 5 5 5 3 5 5 5 3 5 5 3 5 5 3 5 5 5 3 5 5 5 5 5 5 3 5 5 5 5 5 3 5 5 5 5 5 3 5 5 5 5 5 5 3 5 5 5 5 3 5 5 5 5 5 3 5 5 5 5 5 5 5 5 5 5 3 5 5 5 5 5 5 5 3 5 5 5 5 3 3 5 5 3 5 5 5 5 5 5 5 3 5 5 5 5 5 5 5 3 5 3 5 5 3 5 5 5 5 3 5 3 5 5 5 5 5 5 5 5 5 5 3 5 5 5 5 5 3 5 5 5 3 5 5 5 5 3 5 5 3 5 5 5 5 5 3 5 3 5 3 3 5 5 5 5 3 3 5 5 5 5 5 5 5 5 5 5 5 5 5 3 5 5 5 5 5 5 3 3 5 5 5 5 5 5 5 5 5 5 5 5 5 3 5 5 5 5 5 5 5 5 5 5 5 5 5 5 5 5 5 5 5 5 5 5 5 5 5 5 5 5 5 5 5 5 5 3 5 5 3 5 5 5 5 5 5 5 3 5 5 5 3 5 5 3 5 5 5 3 3 5 5 5 5 3 3 5 5 5 5 5 5 5 5 5 5 5 5 5 5 3 5 5 3 5 5 5 3 5 5 5 5 3 5 5 3 5 5 5 5 5 5 5 5 5 5 5 3 5 5 5 5 5 5 5 3 5 5 5 5 5 5 5 5 5 5 5 5 5 5 5 5 5 5 3 5 5 5 5 5 5 3 5 3 5 5 5 5 5 3 5 5 3 5 5 5 3 5 5 5 3 5 5 5 5 5 5 5 5 5 5 5 5 5 5 3 5 5 5 5 3 3 5 5 5 5 5 5 5 5 5 5 5 5 5 5 5 5 5 5 5 3 5 5 5 5 5 5 5 5 3 5 3 5 5 5 5 5 5 5 3 5 3 5 5 5 5 5 3 5 5 5 5 5 5 3 5 5 5 5 5 3 3 5 5 5 3 3 3 5 5 5 5 5 3 5 5 5 5 5 3 5 5 5 5 3 5 3 3 5 3 3 5 5 5 3 5 5 5 3 5 5 5 3 5 5 5 3 5 5 5 5 5 5 5 5 3 5 5 5 3 5 5 5 5 5 5 3 5 5 5 5 5 5 3 5 5 5 5 5 5 5 5 5 5 5 5 5 5 3 5 3 5 5 5 3 5 5 3 5 3 5 3 5 5 3 5 5 5 5 5 5 3 5 5 5 5 3 5 5 5 5 5 5 3 5 5 5 5 5 5 5 5 5 5 3 5 5 5 5 5 5 5 5 5 5 5 5 5 5 5 5 5 5 5 3 3 5 5 5 3 5 5 3 5 5 3 5 5 3 5 5 3 3 5 5 5 5 3 5 5 5 5 5 5 5 5 5 5 5 3 3 5 5 5 3 5 3 5 3 5 5 5 5 5 3 5 5 3 5 3 5 5 3 3 3 5 5 5 5 3 5 5 3 5 3 5 5 3 5 5 5 5 5 5 5 5 3 5 3 3 5 5 5 5 5 3 3 5 5 5 3 3 5 5 5 5 5 5 5 5 3 5 3 5 5 5 5 5 5 5 5 5 5 5 5 5 5 5 5 5 5 5 5 5 5 5 5 5 5 5 5 5 3 5 5 5 5 5 5 5 5 5 5 5 5 5 5 5 3 5 5 3 5 5 5 5 5 3 5 5 5 5 5 5 5 5 5 5 5 5 5 3 5 5 5 5 5 5 5 5 5 3 5 5 3 5 5 5 5 3 3 3 5 5 5 5 5 3 5 5 5 
</DataArray>
</Cells>
<PointData Scalars="" Vectors="displacement," Tensors="">
<DataArray type="Float64" Name="displacement" NumberOfComponents="3" format="ascii">
0.073023314034590892 0.074998757022872592 0 0.07499605254844241 0.074999699401197745 0 0.075592312106323306 0.072523643038275978 0 0.07499605254844241 0.074999699401197745 0 0.075592312106323306 0.072523643038275978 0 0.075001124638779379 0.069389689772295218 0 0.073019630720192186 0.074994838315277312 0 0.073966199827343315 0.0721390759831846 0 0.073010518139369388 0.074996817449370326 0 0.071485973067794834 0.072586598432201554 0 0.071854728283509653 0.071595350217384099 0 0.073010518139369388 0.074996817449370326 0 0.071485973067794834 0.072586598432201554 0 0.06989998191641679 0.074997443790271484 0 0.071485973067794834 0.072586598432201554 0 0.072367496706341045 0.070233750537566322 0 0.071223080772197953 0.070160339400249738 0 0.071485973067794834 0.072586598432201554 0 0.071854728283509653 0.071595350217384099 0 0.072367496706341045 0.070233750537566322 0 0.073966199827343315 0.0721390759831846 0 0.074996689011921289 0.06939282434194903 0 0.071854728283509653 0.071595350217384099 0 0.074989790716102442 0.069386003213615211 0 0.072367496706341045 0.070233750537566322 0 0.074989790716102442 0.069386003213615211 0 0.072367496706341045 0.070233750537566322 0 0.073144117159125097 0.068407072338338176 0 0.072367496706341045 0.070233750537566322 0 0.073144117159125097 0.068407072338338176 0 0.071223080772197953 0.070160339400249738 0 0.071913816360312813 0.068302836936350614 0 0.073144117159125097 0.068407072338338176 0 0.071223080772197953 0.070160339400249738 0 0.071913816360312813 0.068302836936350614 0 0.073144117159125097 0.068407072338338176 0 0.073197854386980121 0.066520181650853924 0 0.073144117159125097 0.068407072338338176 0 0.074998546129056931 0.064916705370127087 0 0.073197854386980121 0.066520181650853924 0 0.074989790716102442 0.069386003213615211 0 0.073144117159125097 0.068407072338338176 0 0.074998546129056931 0.064916705370127087 0 0.070599238376490445 0.069068958916159592 0 0.068028636001366147 0.070135226589230576 0 0.06952697445108931 0.068645346373862201 0 0.071913816360312813 0.068302836936350614 0 0.070599238376490445 0.069068958916159592 0 0.071223080772197953 0.070160339400249738 0 0.071913816360312813 0.068302836936350614 0 0.070599238376490445 0.069068958916159592 0 0.071060843817044458 0.067522281259516204 0 0.070599238376490445 0.069068958916159592 0 0.071223080772197953 0.070160339400249738 0 0.070808949278471589 0.070907678184098877 0 0.070599238376490445 0.069068958916159592 0 0.070808949278471589 0.070907678184098877 0 0.068028636001366147 0.070135226589230576 0 0.067352709671205796 0.07315783133387134 0 0.067532246147537736 0.072494611785877558 0 0.071223080772197953 0.070160339400249738 0 0.070808949278471589 0.070907678184098877 0 0.069973906784461984 0.073005907265732278 0 0.071485973067794834 0.072586598432201554 0 0.071223080772197953 0.070160339400249738 0 0.069973906784461984 0.073005907265732278 0 0.071485973067794834 0.072586598432201554 0 0.069973906784461984 0.073005907265732278 0 0.06989998191641679 0.074997443790271484 0 0.069973906784461984 0.073005907265732278 0 0.06989998191641679 0.074997443790271484 0 0.066791716406999324 0.074997516318021262 0 0.067352709671205796 0.07315783133387134 0 0.066783065805665009 0.074997143179084541 0 0.064693253679205143 0.075397886610529527 0 0.066777679543751897 0.074999491624627393 0 0.064499629783668341 0.075518842160890887 0 0.070808949278471589 0.070907678184098877 0 0.069973906784461984 0.073005907265732278 0 0.066791716406999324 0.074997516318021262 0 0.066777679543751897 0.074999491624627393 0 0.064499629783668341 0.075518842160890887 0 0.06239092533856655 0.074998525248518799 0 0.064499629783668341 0.075518842160890887 0 0.06239092533856655 0.074998525248518799 0 0.064207828539529457 0.075519042020699131 0 0.06239092533856655 0.074998525248518799 0 0.064207828539529457 0.075519042020699131 0 0.061422063608783911 0.075512926875034858 0 0.064693253679205143 0.075397886610529527 0 0.064499629783668341 0.075518842160890887 0 0.064207828539529457 0.075519042020699131 0 0.057996506330695863 0.074998861125412777 0 0.06078962642392069 0.076414867505195522 0 0.056361442816745794 0.07561874015737971 0 0.060605353961516326 0.075082393038449408 0 0.059369790961618943 0.074702313945188781 0 0.057996506330695863 0.074998861125412777 0 0.061422063608783911 0.075512926875034858 0 0.06078962642392069 0.076414867505195522 0 0.06239092533856655 0.074998525248518799 0 0.057996506330695863 0.074998861125412777 0 0.061422063608783911 0.075512926875034858 0 0.064207828539529457 0.075519042020699131 0 0.061422063608783911 0.075512926875034858 0 0.06078962642392069 0.076414867505195522 0 0.064207828539529457 0.075519042020699131 0 0.06078962642392069 0.076414867505195522 0 0.065204090267751161 0.074682262855253492 0 0.059152533095003228 0.078114600853393598 0 0.056763068640163158 0.077409185039460954 0 0.057765623893647387 0.078775084475052812 0 0.059152533095003228 0.078114600853393598 0 0.056361442816745794 0.07561874015737971 0 0.056763068640163158 0.077409185039460954 0 0.059176075720093202 0.079641656565792321 0 0.057765623893647387 0.078775084475052812 0 0.058224312189465527 0.079623377802573045 0 0.059152533095003228 0.078114600853393598 0 0.059176075720093202 0.079641656565792321 0 0.057765623893647387 0.078775084475052812 0 0.060605353961516326 0.075082393038449408 0 0.062735400568396299 0.074848043969658593 0 0.059152533095003228 0.078114600853393598 0 0.059176075720093202 0.079641656565792321 0 0.059702544343077597 0.079627539079290946 0 0.059554176225853038 0.079835362294912518 0 0.059216115523152445 0.079954297050174608 0 0.059514374718268259 0.079460651688427336 0 0.059176075720093202 0.079641656565792321 0 0.059554176225853038 0.079835362294912518 0 0.059871646412734486 0.079781881999243368 0 0.059176075720093202 0.079641656565792321 0 0.059554176225853038 0.079835362294912518 0 0.059702544343077597 0.079627539079290946 0 0.059176075720093202 0.079641656565792321 0 0.059969193803842136 0.079992139116879343 0 0.059871646412734486 0.079781881999243368 0 0.059176075720093202 0.079641656565792321 0 0.059969193803842136 0.079992139116879343 0 0.058224312189465527 0.079623377802573045 0 0.064693253679205143 0.075397886610529527 0 0.066421676508295946 0.073373407596095022 0 0.068028636001366147 0.070135226589230576 0 0.064693253679205143 0.075397886610529527 0 0.064207828539529457 0.075519042020699131 0 0.066421676508295946 0.073373407596095022 0 0.066421676508295946 0.073373407596095022 0 0.065204090267751161 0.074682262855253492 0 0.067018324171471896 0.072479476890098829 0 0.064207828539529457 0.075519042020699131 0 0.066421676508295946 0.073373407596095022 0 0.065204090267751161 0.074682262855253492 0 0.059554176225853038 0.079835362294912518 0 0.059702544343077597 0.079627539079290946 0 0.059216115523152445 0.079954297050174608 0 0.062735400568396299 0.074848043969658593 0 0.064150705094070559 0.074460785260659981 0 0.064150705094070559 0.074460785260659981 0 0.064177886822750399 0.074034222911573591 0 0.066421676508295946 0.073373407596095022 0 0.068172954823117374 0.070144257980273086 0 0.068028636001366147 0.070135226589230576 0 0.066421676508295946 0.073373407596095022 0 0.067018324171471896 0.072479476890098829 0 0.068172954823117374 0.070144257980273086 0 0.068172954823117374 0.070144257980273086 0 0.068028636001366147 0.070135226589230576 0 0.068426295987757485 0.06907214370673645 0 0.068426295987757485 0.06907214370673645 0 0.068440242656583813 0.068749742797480862 0 0.068783164158798038 0.068054202716303844 0 0.068172954823117374 0.070144257980273086 0 0.068426295987757485 0.06907214370673645 0 0.068440242656583813 0.068749742797480862 0 0.059216115523152445 0.079954297050174608 0 0.05825718119475172 0.078495063595992023 0 0.059514374718268259 0.079460651688427336 0 0.069094867499574955 0.070962889377633342 0 0.068172954823117374 0.070144257980273086 0 0.068440242656583813 0.068749742797480862 0 0.069094867499574955 0.070962889377633342 0 0.068440242656583813 0.068749742797480862 0 0.068890298694002608 0.067903653155399188 0 0.064150705094070559 0.074460785260659981 0 0.063626276485961281 0.073018835627254655 0 0.068440242656583813 0.068749742797480862 0 0.068890298694002608 0.067903653155399188 0 0.068400215834998238 0.067889341647971016 0 0.068890298694002608 0.067903653155399188 0 0.068400215834998238 0.067889341647971016 0 0.068001192027820151 0.067314358248282108 0 0.068400215834998238 0.067889341647971016 0 0.068001192027820151 0.067314358248282108 0 0.068783164158798038 0.068054202716303844 0 0.068440242656583813 0.068749742797480862 0 0.068400215834998238 0.067889341647971016 0 0.068783164158798038 0.068054202716303844 0 0.059969193803842136 0.079992139116879343 0 0.060516473210112214 0.079382566783113478 0 0.06163333537292482 0.079173594235777731 0 0.059969193803842136 0.079992139116879343 0 0.060516473210112214 0.079382566783113478 0 0.059871646412734486 0.079781881999243368 0 0.060516473210112214 0.079382566783113478 0 0.059871646412734486 0.079781881999243368 0 0.059514374718268259 0.079460651688427336 0 0.059554176225853038 0.079835362294912518 0 0.059871646412734486 0.079781881999243368 0 0.059514374718268259 0.079460651688427336 0 0.05825718119475172 0.078495063595992023 0 0.060950271013404618 0.07764605115333785 0 0.06074447778061666 0.074565133711737203 0 0.060516473210112214 0.079382566783113478 0 0.059514374718268259 0.079460651688427336 0 0.060950271013404618 0.07764605115333785 0 0.05825718119475172 0.078495063595992023 0 0.059514374718268259 0.079460651688427336 0 0.060950271013404618 0.07764605115333785 0 0.060516473210112214 0.079382566783113478 0 0.060950271013404618 0.07764605115333785 0 0.06163333537292482 0.079173594235777731 0 0.060950271013404618 0.07764605115333785 0 0.06163333537292482 0.079173594235777731 0 0.062878222302708675 0.077165991145289131 0 0.063091769226764557 0.074694202792586192 0 0.062878222302708675 0.077165991145289131 0 0.065080004141445602 0.075489318784637591 0 0.060950271013404618 0.07764605115333785 0 0.063091769226764557 0.074694202792586192 0 0.062878222302708675 0.077165991145289131 0 0.060950271013404618 0.07764605115333785 0 0.063091769226764557 0.074694202792586192 0 0.06074447778061666 0.074565133711737203 0 0.06074447778061666 0.074565133711737203 0 0.058545117599535547 0.072707513152531753 0 0.061823436985559047 0.069866881760408728 0 0.06074447778061666 0.074565133711737203 0 0.064175330219560137 0.069875380130156067 0 0.061823436985559047 0.069866881760408728 0 0.063091769226764557 0.074694202792586192 0 0.06074447778061666 0.074565133711737203 0 0.064175330219560137 0.069875380130156067 0 0.063091769226764557 0.074694202792586192 0 0.064175330219560137 0.069875380130156067 0 0.065822034642462293 0.072496735913838775 0 0.068890298694002608 0.067903653155399188 0 0.068001192027820151 0.067314358248282108 0 0.067030660163127379 0.066954752423827174 0 0.05825718119475172 0.078495063595992023 0 0.06074447778061666 0.074565133711737203 0 0.058545117599535547 0.072707513152531753 0 0.063626276485961281 0.073018835627254655 0 0.063258091608026326 0.071127691048856717 0 0.067030660163127379 0.066954752423827174 0 0.06720753854984314 0.06721608005576768 0 0.065461413935888391 0.06729719593500956 0 0.06720753854984314 0.06721608005576768 0 0.068476297413563994 0.0674907753393479 0 0.067037071199193263 0.067584454720601261 0 0.068001192027820151 0.067314358248282108 0 0.06720753854984314 0.06721608005576768 0 0.068476297413563994 0.0674907753393479 0 0.068001192027820151 0.067314358248282108 0 0.067030660163127379 0.066954752423827174 0 0.06720753854984314 0.06721608005576768 0 0.068476297413563994 0.0674907753393479 0 0.069377400611869006 0.06731811438138928 0 0.070261133164328929 0.067521514992975554 0 0.068001192027820151 0.067314358248282108 0 0.068476297413563994 0.0674907753393479 0 0.069377400611869006 0.06731811438138928 0 0.069377400611869006 0.06731811438138928 0 0.070261133164328929 0.067521514992975554 0 0.071211896040942857 0.066793211871257974 0 0.068476297413563994 0.0674907753393479 0 0.070261133164328929 0.067521514992975554 0 0.069774120241923476 0.068230145182535507 0 0.070261133164328929 0.067521514992975554 0 0.071560909868737491 0.068166990562855509 0 0.069774120241923476 0.068230145182535507 0 0.071560909868737491 0.068166990562855509 0 0.073511574796502777 0.067507582809842565 0 0.071748528219256799 0.067235007332328345 0 0.070261133164328929 0.067521514992975554 0 0.071560909868737491 0.068166990562855509 0 0.071748528219256799 0.067235007332328345 0 0.074312587070230751 0.061041031888947127 0 0.073920103001483897 0.057356909591170888 0 0.076148916339286873 0.058709607012282436 0 0.074997673471224005 0.060441968447996382 0 0.075001352130443247 0.055960063364014233 0 0.076148916339286873 0.058709607012282436 0 0.075844063378807253 0.055588598799633133 0 0.075001352130443247 0.055960063364014233 0 0.071560909868737491 0.068166990562855509 0 0.073511574796502777 0.067507582809842565 0 0.073062634592076708 0.068985400568279481 0 0.074312587070230751 0.061041031888947127 0 0.074413256791751467 0.061770793387520312 0 0.073511574796502777 0.067507582809842565 0 0.071748528219256799 0.067235007332328345 0 0.072570830252288457 0.066054875598481749 0 0.076148916339286873 0.058709607012282436 0 0.074997673471224005 0.060441968447996382 0 0.074808882352011788 0.063554677527834169 0 0.073511574796502777 0.067507582809842565 0 0.072570830252288457 0.066054875598481749 0 0.074808882352011788 0.063554677527834169 0 0.070261133164328929 0.067521514992975554 0 0.071748528219256799 0.067235007332328345 0 0.071211896040942857 0.066793211871257974 0 0.071748528219256799 0.067235007332328345 0 0.072570830252288457 0.066054875598481749 0 0.071211896040942857 0.066793211871257974 0 0.071211896040942857 0.066793211871257974 0 0.072286213732961027 0.065864667908805755 0 0.070621370664109895 0.066957825355679887 0 0.072570830252288457 0.066054875598481749 0 0.072286213732961027 0.065864667908805755 0 0.074808882352011788 0.063554677527834169 0 0.072570830252288457 0.066054875598481749 0 0.071211896040942857 0.066793211871257974 0 0.072286213732961027 0.065864667908805755 0 0.072286213732961027 0.065864667908805755 0 0.074808882352011788 0.063554677527834169 0 0.073950104558952734 0.065159746192739273 0 0.074997673471224005 0.060441968447996382 0 0.074808882352011788 0.063554677527834169 0 0.074998546129056931 0.064916705370127087 0 0.074808882352011788 0.063554677527834169 0 0.073950104558952734 0.065159746192739273 0 0.074998546129056931 0.064916705370127087 0 0.073950104558952734 0.065159746192739273 0 0.074998546129056931 0.064916705370127087 0 0.073197854386980121 0.066520181650853924 0 0.071913816360312813 0.068302836936350614 0 0.073197854386980121 0.066520181650853924 0 0.071060843817044458 0.067522281259516204 0 0.072286213732961027 0.065864667908805755 0 0.073197854386980121 0.066520181650853924 0 0.071060843817044458 0.067522281259516204 0 0.072286213732961027 0.065864667908805755 0 0.073950104558952734 0.065159746192739273 0 0.073197854386980121 0.066520181650853924 0 0.070599238376490445 0.069068958916159592 0 0.071060843817044458 0.067522281259516204 0 0.06952697445108931 0.068645346373862201 0 0.071060843817044458 0.067522281259516204 0 0.069769530530050902 0.067669781723644712 0 0.070621370664109895 0.066957825355679887 0 0.071060843817044458 0.067522281259516204 0 0.06952697445108931 0.068645346373862201 0 0.069769530530050902 0.067669781723644712 0 0.068028636001366147 0.070135226589230576 0 0.068426295987757485 0.06907214370673645 0 0.06952697445108931 0.068645346373862201 0 0.068426295987757485 0.06907214370673645 0 0.06952697445108931 0.068645346373862201 0 0.068783164158798038 0.068054202716303844 0 0.06952697445108931 0.068645346373862201 0 0.069769530530050902 0.067669781723644712 0 0.068783164158798038 0.068054202716303844 0 0.068001192027820151 0.067314358248282108 0 0.069377400611869006 0.06731811438138928 0 0.068783164158798038 0.068054202716303844 0 0.069377400611869006 0.06731811438138928 0 0.069769530530050902 0.067669781723644712 0 0.068783164158798038 0.068054202716303844 0 0.069377400611869006 0.06731811438138928 0 0.069769530530050902 0.067669781723644712 0 0.070621370664109895 0.066957825355679887 0 0.069377400611869006 0.06731811438138928 0 0.071211896040942857 0.066793211871257974 0 0.070621370664109895 0.066957825355679887 0 0.072286213732961027 0.065864667908805755 0 0.071060843817044458 0.067522281259516204 0 0.070621370664109895 0.066957825355679887 0 0.038262317676422186 0.082683322068384094 0 0.039072462336835527 0.085989217356574069 0 0.036696057096515869 0.084999191087971548 0 0.038262317676422186 0.082683322068384094 0 0.041191072941308964 0.084707109226992316 0 0.039072462336835527 0.085989217356574069 0 0.038262317676422186 0.082683322068384094 0 0.036696057096515869 0.084999191087971548 0 0.036651412123427325 0.082523629966684386 0 0.038262317676422186 0.082683322068384094 0 0.041191072941308964 0.084707109226992316 0 0.040749756773841593 0.080695588602989074 0 0.041191072941308964 0.084707109226992316 0 0.040749756773841593 0.080695588602989074 0 0.044243042322089851 0.083008583757505597 0 0.040749756773841593 0.080695588602989074 0 0.038092868722679231 0.077708139858352329 0 0.036856775063890505 0.080633314295645617 0 0.038262317676422186 0.082683322068384094 0 0.040749756773841593 0.080695588602989074 0 0.036856775063890505 0.080633314295645617 0 0.038262317676422186 0.082683322068384094 0 0.036856775063890505 0.080633314295645617 0 0.036651412123427325 0.082523629966684386 0 0.038092868722679231 0.077708139858352329 0 0.040417536513201707 0.075000023033070254 0 0.03602158345315154 0.074999064178857489 0 0.038092868722679231 0.077708139858352329 0 0.040417536513201707 0.075000023033070254 0 0.042172030741735776 0.077475257961420102 0 0.040749756773841593 0.080695588602989074 0 0.038092868722679231 0.077708139858352329 0 0.042172030741735776 0.077475257961420102 0 0.040749756773841593 0.080695588602989074 0 0.042172030741735776 0.077475257961420102 0 0.045074188108824589 0.079349024056348083 0 0.042172030741735776 0.077475257961420102 0 0.044811708191230225 0.074999581006320343 0 0.045074188108824589 0.079349024056348083 0 0.040417536513201707 0.075000023033070254 0 0.042172030741735776 0.077475257961420102 0 0.044811708191230225 0.074999581006320343 0 0.044811708191230225 0.074999581006320343 0 0.045074188108824589 0.079349024056348083 0 0.049143678752354904 0.077992857272654148 0 0.045074188108824589 0.079349024056348083 0 0.044243042322089851 0.083008583757505597 0 0.049454539379485782 0.082434833326748724 0 0.040749756773841593 0.080695588602989074 0 0.045074188108824589 0.079349024056348083 0 0.044243042322089851 0.083008583757505597 0 0.041191072941308964 0.084707109226992316 0 0.044243042322089851 0.083008583757505597 0 0.043803036743768009 0.085590358574874487 0 0.044243042322089851 0.083008583757505597 0 0.049454539379485782 0.082434833326748724 0 0.046360105456930263 0.085776452463097924 0 0.046021418378661166 0.081236698570871319 0 0.045385137572903855 0.080538772683426366 0 0.049454539379485782 0.082434833326748724 0 0.053905769489438191 0.079743887052470971 0 0.052827366183425734 0.085384328781628882 0 0.057759422113431658 0.080528787431092277 0 0.058828369948992425 0.080807505889662068 0 0.049454539379485782 0.082434833326748724 0 0.053905769489438191 0.079743887052470971 0 0.049143678752354904 0.077992857272654148 0 0.045074188108824589 0.079349024056348083 0 0.049454539379485782 0.082434833326748724 0 0.049143678752354904 0.077992857272654148 0 0.044811708191230225 0.074999581006320343 0 0.049143678752354904 0.077992857272654148 0 0.049207112943287015 0.074999370995807446 0 0.049143678752354904 0.077992857272654148 0 0.049207112943287015 0.074999370995807446 0 0.052512869303011099 0.076719145119442417 0 0.049207112943287015 0.074999370995807446 0 0.053601430126482878 0.07499980354212496 0 0.052512869303011099 0.076719145119442417 0 0.053905769489438191 0.079743887052470971 0 0.049143678752354904 0.077992857272654148 0 0.052512869303011099 0.076719145119442417 0 0.053905769489438191 0.079743887052470971 0 0.055358036402530203 0.077898623727402472 0 0.052512869303011099 0.076719145119442417 0 0.055358036402530203 0.077898623727402472 0 0.052512869303011099 0.076719145119442417 0 0.054966667119483691 0.076515528797456461 0 0.053601430126482878 0.07499980354212496 0 0.052512869303011099 0.076719145119442417 0 0.054966667119483691 0.076515528797456461 0 0.053601430126482878 0.07499980354212496 0 0.056361442816745794 0.07561874015737971 0 0.054966667119483691 0.076515528797456461 0 0.057996506330695863 0.074998861125412777 0 0.053601430126482878 0.07499980354212496 0 0.056361442816745794 0.07561874015737971 0 0.056361442816745794 0.07561874015737971 0 0.054966667119483691 0.076515528797456461 0 0.056763068640163158 0.077409185039460954 0 0.055358036402530203 0.077898623727402472 0 0.056763068640163158 0.077409185039460954 0 0.057765623893647387 0.078775084475052812 0 0.055358036402530203 0.077898623727402472 0 0.054966667119483691 0.076515528797456461 0 0.056763068640163158 0.077409185039460954 0 0.057765623893647387 0.078775084475052812 0 0.056498437729080073 0.079331300398721036 0 0.058224312189465527 0.079623377802573045 0 0.055358036402530203 0.077898623727402472 0 0.057765623893647387 0.078775084475052812 0 0.056498437729080073 0.079331300398721036 0 0.053905769489438191 0.079743887052470971 0 0.055358036402530203 0.077898623727402472 0 0.056498437729080073 0.079331300398721036 0 0.053905769489438191 0.079743887052470971 0 0.056498437729080073 0.079331300398721036 0 0.057822537549247981 0.079909200841856418 0 0.053905769489438191 0.079743887052470971 0 0.057822537549247981 0.079909200841856418 0 0.056693271291595904 0.080104782681127418 0 0.059969193803842136 0.079992139116879343 0 0.057822537549247981 0.079909200841856418 0 0.058224312189465527 0.079623377802573045 0 0.056498437729080073 0.079331300398721036 0 0.057822537549247981 0.079909200841856418 0 0.058224312189465527 0.079623377802573045 0 0.059969193803842136 0.079992139116879343 0 0.06163333537292482 0.079173594235777731 0 0.060830894387640111 0.080291914457626443 0 0.059969193803842136 0.079992139116879343 0 0.057822537549247981 0.079909200841856418 0 0.060830894387640111 0.080291914457626443 0 0.057822537549247981 0.079909200841856418 0 0.060830894387640111 0.080291914457626443 0 0.058110398916118876 0.081022735459900422 0 0.057822537549247981 0.079909200841856418 0 0.058110398916118876 0.081022735459900422 0 0.056693271291595904 0.080104782681127418 0 0.060830894387640111 0.080291914457626443 0 0.058110398916118876 0.081022735459900422 0 0.05960592586139677 0.082953651975018 0 0.065029288806992033 0.074394024598466973 0 0.063361224484530285 0.073642283193825014 0 0.058110398916118876 0.081022735459900422 0 0.05960592586139677 0.082953651975018 0 0.056532407112816027 0.082356501160055676 0 0.060830894387640111 0.080291914457626443 0 0.064594553319028594 0.078258090336626854 0 0.064248078448329332 0.078131295071655199 0 0.065029288806992033 0.074394024598466973 0 0.065041177251920212 0.074485736272433559 0 0.06163333537292482 0.079173594235777731 0 0.060830894387640111 0.080291914457626443 0 0.064248078448329332 0.078131295071655199 0 0.064284153665906715 0.076089197915617732 0 0.065029288806992033 0.074394024598466973 0 0.06163333537292482 0.079173594235777731 0 0.062878222302708675 0.077165991145289131 0 0.064248078448329332 0.078131295071655199 0 0.062878222302708675 0.077165991145289131 0 0.064248078448329332 0.078131295071655199 0 0.065080004141445602 0.075489318784637591 0 0.067906227386987594 0.078547854098886066 0 0.066285531360866665 0.076444677196447763 0 0.068160557439456537 0.073954793601306884 0 0.064248078448329332 0.078131295071655199 0 0.066285531360866665 0.076444677196447763 0 0.065080004141445602 0.075489318784637591 0 0.067906227386987594 0.078547854098886066 0 0.064248078448329332 0.078131295071655199 0 0.066285531360866665 0.076444677196447763 0 0.068160557439456537 0.073954793601306884 0 0.065080004141445602 0.075489318784637591 0 0.065822034642462293 0.072496735913838775 0 0.066285531360866665 0.076444677196447763 0 0.068160557439456537 0.073954793601306884 0 0.065080004141445602 0.075489318784637591 0 0.063091769226764557 0.074694202792586192 0 0.065080004141445602 0.075489318784637591 0 0.065822034642462293 0.072496735913838775 0 0.068160557439456537 0.073954793601306884 0 0.065822034642462293 0.072496735913838775 0 0.067878760404607899 0.069693583576699691 0 0.064175330219560137 0.069875380130156067 0 0.065822034642462293 0.072496735913838775 0 0.067878760404607899 0.069693583576699691 0 0.068160557439456537 0.073954793601306884 0 0.067878760404607899 0.069693583576699691 0 0.072940178396055572 0.070943308927805218 0 0.067906227386987594 0.078547854098886066 0 0.068160557439456537 0.073954793601306884 0 0.072940178396055572 0.070943308927805218 0 0.072044934313299488 0.069002545051493447 0 0.073920545385547057 0.063640657626714364 0 0.075028008925047351 0.066667714952417356 0 0.072044934313299488 0.069002545051493447 0 0.075028008925047351 0.066667714952417356 0 0.076761002509819473 0.069386572012774275 0 0.065029288806992033 0.074394024598466973 0 0.070976624938692556 0.066593066678771989 0 0.075028008925047351 0.066667714952417356 0 0.077378227612573583 0.064653695941438327 0 0.076761002509819473 0.069386572012774275 0 0.070686149931252856 0.062763399142116733 0 0.063361224484530285 0.073642283193825014 0 0.073920545385547057 0.063640657626714364 0 0.075028008925047351 0.066667714952417356 0 0.077378227612573583 0.064653695941438327 0 0.073920545385547057 0.063640657626714364 0 0.077378227612573583 0.064653695941438327 0 0.076268526146642271 0.061692831350956309 0 0.076859053381110529 0.057069524339965372 0 0.077581770448307413 0.056514315314904161 0 0.07780106344262365 0.057499976698508488 0 0.077581770448307413 0.056514315314904161 0 0.07780106344262365 0.057499976698508488 0 0.078295309755242501 0.056537642084635562 0 0.076859053381110529 0.057069524339965372 0 0.07780106344262365 0.057499976698508488 0 0.076647309110020143 0.058446668207406689 0 0.07780106344262365 0.057499976698508488 0 0.076647309110020143 0.058446668207406689 0 0.077974944060083054 0.058523166186492288 0 0.052088966496862489 0.090250767292783973 0 0.049751927668923113 0.087150648819876317 0 0.047709326474548654 0.089838099127759363 0 0.063361224484530285 0.073642283193825014 0 0.060048782486001047 0.072823768126670921 0 0.058110398916118876 0.081022735459900422 0 0.056532407112816027 0.082356501160055676 0 0.056693271291595904 0.080104782681127418 0 0.063361224484530285 0.073642283193825014 0 0.058828369948992425 0.080807505889662068 0 0.052088966496862489 0.090250767292783973 0 0.052827366183425734 0.085384328781628882 0 0.049751927668923113 0.087150648819876317 0 0.049751927668923113 0.087150648819876317 0 0.046482574487372544 0.086015928639263065 0 0.047709326474548654 0.089838099127759363 0 0.049454539379485782 0.082434833326748724 0 0.052827366183425734 0.085384328781628882 0 0.049751927668923113 0.087150648819876317 0 0.049454539379485782 0.082434833326748724 0 0.049751927668923113 0.087150648819876317 0 0.046482574487372544 0.086015928639263065 0 0.044243042322089851 0.083008583757505597 0 0.046360105456930263 0.085776452463097924 0 0.043803036743768009 0.085590358574874487 0 0.046360105456930263 0.085776452463097924 0 0.043803036743768009 0.085590358574874487 0 0.043453754003058842 0.088838510625684847 0 0.045385137572903855 0.080538772683426366 0 0.049586329132836796 0.070878985947667908 0 0.041191072941308964 0.084707109226992316 0 0.043803036743768009 0.085590358574874487 0 0.043453754003058842 0.088838510625684847 0 0.046482574487372544 0.086015928639263065 0 0.04341980847749944 0.089414593371353795 0 0.047709326474548654 0.089838099127759363 0 0.049586329132836796 0.070878985947667908 0 0.060048782486001047 0.072823768126670921 0 0.07923715057164718 0.058611610355573766 0 0.077974944060083054 0.058523166186492288 0 0.078934906900027996 0.057452935267479813 0 0.07780106344262365 0.057499976698508488 0 0.077974944060083054 0.058523166186492288 0 0.078934906900027996 0.057452935267479813 0 0.07780106344262365 0.057499976698508488 0 0.078295309755242501 0.056537642084635562 0 0.078934906900027996 0.057452935267479813 0 0.078934906900027996 0.057452935267479813 0 0.080220792343457234 0.057482282870283806 0 0.079654567929036094 0.056191807865743161 0 0.078295309755242501 0.056537642084635562 0 0.078934906900027996 0.057452935267479813 0 0.079654567929036094 0.056191807865743161 0 0.07923715057164718 0.058611610355573766 0 0.078934906900027996 0.057452935267479813 0 0.080220792343457234 0.057482282870283806 0 0.049586329132836796 0.070878985947667908 0 0.037134558238993254 0.06209907982369809 0 0.037134558238993254 0.06209907982369809 0 0.041544715338611558 0.056597204197989151 0 0.013382179771454998 0.060040329218487169 0 0.01754200696122812 0.055389498642039875 0 0.010197152564625439 0.054028716168640023 0 0.014785071933418027 0.058848057673300445 0 0.01754200696122812 0.055389498642039875 0 0.01880013946762682 0.060112253649272578 0 0.037134558238993254 0.06209907982369809 0 0.030736316065020624 0.063720506266403978 0 0.014785071933418027 0.058848057673300445 0 0.01880013946762682 0.060112253649272578 0 0.017865366475548806 0.064977392305780382 0 0.037134558238993254 0.06209907982369809 0 0.035285969117905783 0.069338048016338596 0 0.01880013946762682 0.060112253649272578 0 0.017865366475548806 0.064977392305780382 0 0.021872831094830583 0.065393897018796276 0 0.035285969117905783 0.069338048016338596 0 0.032556678318221677 0.068965047906419108 0 0.049586329132836796 0.070878985947667908 0 0.035285969117905783 0.069338048016338596 0 0.043453754003058842 0.088838510625684847 0 0.038495323743707489 0.088388619304764202 0 0.039072462336835527 0.085989217356574069 0 0.040963946545694095 0.069434940210051019 0 0.039627539594710437 0.070882414617430625 0 0.038759881244881791 0.069253986267026238 0 0.041191072941308964 0.084707109226992316 0 0.043453754003058842 0.088838510625684847 0 0.039072462336835527 0.085989217356574069 0 0.035285969117905783 0.069338048016338596 0 0.03339167271436308 0.073978068776529238 0 0.038495323743707489 0.088388619304764202 0 0.039072462336835527 0.085989217356574069 0 0.036696057096515869 0.084999191087971548 0 0.019434496281304663 0.065196473263354066 0 0.022596363367804847 0.069642086983986981 0 0.021872831094830583 0.065393897018796276 0 0.015732572397699839 0.040997922497286822 0 0.016847814121775335 0.045320595395551097 0 0.018927642524631028 0.041652643468718699 0 0.015732572397699839 0.040997922497286822 0 0.012182104689536189 0.039362353608613287 0 0.015203634700382858 0.037426936894312632 0 0.015732572397699839 0.040997922497286822 0 0.012182104689536189 0.039362353608613287 0 0.012535534452073928 0.044258517340465008 0 0.012182104689536189 0.039362353608613287 0 0.012535534452073928 0.044258517340465008 0 0.0088757130307798564 0.041533864705968468 0 0.012535534452073928 0.044258517340465008 0 0.016847814121775335 0.045320595395551097 0 0.014373567500921296 0.049637579215766212 0 0.015732572397699839 0.040997922497286822 0 0.012535534452073928 0.044258517340465008 0 0.016847814121775335 0.045320595395551097 0 0.016847814121775335 0.045320595395551097 0 0.014373567500921296 0.049637579215766212 0 0.019068009582969968 0.049844102371449095 0 0.01754200696122812 0.055389498642039875 0 0.014373567500921296 0.049637579215766212 0 0.019068009582969968 0.049844102371449095 0 0.01754200696122812 0.055389498642039875 0 0.014373567500921296 0.049637579215766212 0 0.010197152564625439 0.054028716168640023 0 0.014373567500921296 0.049637579215766212 0 0.007303301395292801 0.048136089037403018 0 0.010197152564625439 0.054028716168640023 0 0.012535534452073928 0.044258517340465008 0 0.014373567500921296 0.049637579215766212 0 0.007303301395292801 0.048136089037403018 0 0.043736735012649783 0.051330237964093445 0 0.041544715338611558 0.056597204197989151 0 0.078295309755242501 0.056537642084635562 0 0.079654567929036094 0.056191807865743161 0 0.078658190657945992 0.055715507938983763 0 0.079135372875698148 0.054866686366969203 0 0.079654567929036094 0.056191807865743161 0 0.078658190657945992 0.055715507938983763 0 0.078295309755242501 0.056537642084635562 0 0.078658190657945992 0.055715507938983763 0 0.077920672886804029 0.055872014910842205 0 0.078658190657945992 0.055715507938983763 0 0.078093693391236799 0.055100390357460886 0 0.077920672886804029 0.055872014910842205 0 0.079135372875698148 0.054866686366969203 0 0.078223747871648069 0.05430601474206391 0 0.078093693391236799 0.055100390357460886 0 0.079135372875698148 0.054866686366969203 0 0.078658190657945992 0.055715507938983763 0 0.078093693391236799 0.055100390357460886 0 0.079135372875698148 0.054866686366969203 0 0.078733467686805766 0.053522018199008488 0 0.078223747871648069 0.05430601474206391 0 0.043736735012649783 0.051330237964093445 0 0.046247323067544401 0.04605442330045291 0 0.078733467686805766 0.053522018199008488 0 0.078114626924014344 0.053717936695077823 0 0.078223747871648069 0.05430601474206391 0 0.012535534452073928 0.044258517340465008 0 0.007303301395292801 0.048136089037403018 0 0.0088757130307798564 0.041533864705968468 0 0.007303301395292801 0.048136089037403018 0 0.0088757130307798564 0.041533864705968468 0 0.0047213510375022257 0.042408471966176781 0 0.0088757130307798564 0.041533864705968468 0 0.0062491928372089339 0.039179931276478112 0 0.0088835461833729791 0.037357930075530774 0 0.012182104689536189 0.039362353608613287 0 0.0088757130307798564 0.041533864705968468 0 0.0088835461833729791 0.037357930075530774 0 0.0047213510375022257 0.042408471966176781 0 0.0023730675830764937 0.037040742614085929 0 0.0062491928372089339 0.039179931276478112 0 0.0088757130307798564 0.041533864705968468 0 0.0047213510375022257 0.042408471966176781 0 0.0062491928372089339 0.039179931276478112 0 0.046247323067544401 0.04605442330045291 0 0.051736457541081131 0.040595745865395494 0 0.078019603883070193 0.052804350312516561 0 0.077607776601559111 0.054351922852061633 0 0.078386010920047364 0.055984377189691084 0 0.078733467686805766 0.053522018199008488 0 0.078019603883070193 0.052804350312516561 0 0.078434626797750512 0.051856933797934976 0 0.078019603883070193 0.052804350312516561 0 0.077445752865134859 0.054267487658067166 0 0.078114626924014344 0.053717936695077823 0 0.078733467686805766 0.053522018199008488 0 0.078019603883070193 0.052804350312516561 0 0.078114626924014344 0.053717936695077823 0 0.076343666822229553 0.05460593316259385 0 0.075831563740959368 0.055738443797255247 0 0.078019603883070193 0.052804350312516561 0 0.076820204558308292 0.052786627906207098 0 0.077607776601559111 0.054351922852061633 0 0.077607776601559111 0.054351922852061633 0 0.07461083647889126 0.054593056237192801 0 0.075546528484475031 0.053190272638419724 0 0.076820204558308292 0.052786627906207098 0 0.077607776601559111 0.054351922852061633 0 0.075546528484475031 0.053190272638419724 0 0.076820204558308292 0.052786627906207098 0 0.075546528484475031 0.053190272638419724 0 0.075634014459759896 0.052298528239334979 0 0.077607776601559111 0.054351922852061633 0 0.078386010920047364 0.055984377189691084 0 0.075883744384953919 0.058524904076822794 0 0.077607776601559111 0.054351922852061633 0 0.077202672214080406 0.061316971629263882 0 0.075494331178572821 0.056758344975610962 0 0.075784542091802118 0.057743327057080997 0 0.074460343700338522 0.060653343226837839 0 0.077607776601559111 0.054351922852061633 0 0.075494331178572821 0.056758344975610962 0 0.07461083647889126 0.054593056237192801 0 0.077445752865134859 0.054267487658067166 0 0.078114626924014344 0.053717936695077823 0 0.078223747871648069 0.05430601474206391 0 0.077445752865134859 0.054267487658067166 0 0.078223747871648069 0.05430601474206391 0 0.078093693391236799 0.055100390357460886 0 0.075831563740959368 0.055738443797255247 0 0.07417668079818289 0.058328237390322966 0 0.077445752865134859 0.054267487658067166 0 0.078093693391236799 0.055100390357460886 0 0.077113599312911993 0.055678285063050358 0 0.076859053381110529 0.057069524339965372 0 0.077581770448307413 0.056514315314904161 0 0.077113599312911993 0.055678285063050358 0 0.078093693391236799 0.055100390357460886 0 0.077920672886804029 0.055872014910842205 0 0.077113599312911993 0.055678285063050358 0 0.077581770448307413 0.056514315314904161 0 0.077920672886804029 0.055872014910842205 0 0.077113599312911993 0.055678285063050358 0 0.077581770448307413 0.056514315314904161 0 0.078295309755242501 0.056537642084635562 0 0.077920672886804029 0.055872014910842205 0 0.077378227612573583 0.064653695941438327 0 0.076268526146642271 0.061692831350956309 0 0.077927914309264004 0.060037984663898356 0 0.076268526146642271 0.061692831350956309 0 0.077927914309264004 0.060037984663898356 0 0.075883744384953919 0.058524904076822794 0 0.070686149931252856 0.062763399142116733 0 0.07417668079818289 0.058328237390322966 0 0.073920545385547057 0.063640657626714364 0 0.076268526146642271 0.061692831350956309 0 0.075883744384953919 0.058524904076822794 0 0.078386010920047364 0.055984377189691084 0 0.077927914309264004 0.060037984663898356 0 0.075883744384953919 0.058524904076822794 0 0.077202672214080406 0.061316971629263882 0 0.071212110594111852 0.0652236408601575 0 0.072380634250596487 0.05732616385403147 0 0.077202672214080406 0.061316971629263882 0 0.072380634250596487 0.05732616385403147 0 0.075494331178572821 0.056758344975610962 0 0.067878760404607899 0.069693583576699691 0 0.072940178396055572 0.070943308927805218 0 0.071212110594111852 0.0652236408601575 0 0.072940178396055572 0.070943308927805218 0 0.077202672214080406 0.061316971629263882 0 0.071212110594111852 0.0652236408601575 0 0.070976624938692556 0.066593066678771989 0 0.074460343700338522 0.060653343226837839 0 0.064175330219560137 0.069875380130156067 0 0.067878760404607899 0.069693583576699691 0 0.066260441904252079 0.065625026415091353 0 0.067878760404607899 0.069693583576699691 0 0.071212110594111852 0.0652236408601575 0 0.066260441904252079 0.065625026415091353 0 0.071212110594111852 0.0652236408601575 0 0.066260441904252079 0.065625026415091353 0 0.072380634250596487 0.05732616385403147 0 0.066260441904252079 0.065625026415091353 0 0.072380634250596487 0.05732616385403147 0 0.064176811875686052 0.062373179212033017 0 0.072380634250596487 0.05732616385403147 0 0.07461083647889126 0.054593056237192801 0 0.073536618275241716 0.053399614840385246 0 0.072380634250596487 0.05732616385403147 0 0.073536618275241716 0.053399614840385246 0 0.074566800105618919 0.052001803996227725 0 0.073564796990251327 0.056832669584967375 0 0.072857086463864837 0.056713640209725059 0 0.072380634250596487 0.05732616385403147 0 0.075494331178572821 0.056758344975610962 0 0.07461083647889126 0.054593056237192801 0 0.07461083647889126 0.054593056237192801 0 0.074388902606663504 0.053181055117728325 0 0.073536618275241716 0.053399614840385246 0 0.07461083647889126 0.054593056237192801 0 0.075546528484475031 0.053190272638419724 0 0.074388902606663504 0.053181055117728325 0 0.075546528484475031 0.053190272638419724 0 0.074388902606663504 0.053181055117728325 0 0.074826835061227226 0.052386224913400767 0 0.074388902606663504 0.053181055117728325 0 0.073536618275241716 0.053399614840385246 0 0.074109036137259013 0.05230156682823766 0 0.073536618275241716 0.053399614840385246 0 0.07353829051981052 0.051324238342945083 0 0.074109036137259013 0.05230156682823766 0 0.073536618275241716 0.053399614840385246 0 0.073938786950704369 0.054652484665813857 0 0.074570784318159652 0.053788206140890631 0 0.075434076898468733 0.052350939362457639 0 0.076296234782568556 0.050728251758737956 0 0.07353829051981052 0.051324238342945083 0 0.07416730161810417 0.051487556898354825 0 0.074109036137259013 0.05230156682823766 0 0.073938786950704369 0.054652484665813857 0 0.074520930204427654 0.054754405911678593 0 0.074570784318159652 0.053788206140890631 0 0.074388902606663504 0.053181055117728325 0 0.074109036137259013 0.05230156682823766 0 0.074826835061227226 0.052386224913400767 0 0.074109036137259013 0.05230156682823766 0 0.074826835061227226 0.052386224913400767 0 0.074586589017378468 0.051786576845444895 0 0.075546528484475031 0.053190272638419724 0 0.074826835061227226 0.052386224913400767 0 0.075634014459759896 0.052298528239334979 0 0.074826835061227226 0.052386224913400767 0 0.075634014459759896 0.052298528239334979 0 0.075369376630939011 0.051539008151061161 0 0.075634014459759896 0.052298528239334979 0 0.075369376630939011 0.051539008151061161 0 0.076257027983628531 0.051831981214282376 0 0.074826835061227226 0.052386224913400767 0 0.075369376630939011 0.051539008151061161 0 0.074586589017378468 0.051786576845444895 0 0.07416730161810417 0.051487556898354825 0 0.074109036137259013 0.05230156682823766 0 0.074586589017378468 0.051786576845444895 0 0.075369376630939011 0.051539008151061161 0 0.074586589017378468 0.051786576845444895 0 0.074824196974174625 0.051210003416614081 0 0.07416730161810417 0.051487556898354825 0 0.074586589017378468 0.051786576845444895 0 0.074824196974174625 0.051210003416614081 0 0.07416730161810417 0.051487556898354825 0 0.074824196974174625 0.051210003416614081 0 0.074483885871187247 0.050503740083279 0 0.074483885871187247 0.050503740083279 0 0.075100583452514288 0.049690124927522901 0 0.074080899790601923 0.048485690693575619 0 0.074824196974174625 0.051210003416614081 0 0.074483885871187247 0.050503740083279 0 0.075222755755555329 0.050714515184123857 0 0.075222755755555329 0.050714515184123857 0 0.075904533902021745 0.050009179807352089 0 0.076155800830166417 0.051046168065005622 0 0.075369376630939011 0.051539008151061161 0 0.074824196974174625 0.051210003416614081 0 0.075222755755555329 0.050714515184123857 0 0.075369376630939011 0.051539008151061161 0 0.075222755755555329 0.050714515184123857 0 0.076155800830166417 0.051046168065005622 0 0.075222755755555329 0.050714515184123857 0 0.075100583452514288 0.049690124927522901 0 0.075904533902021745 0.050009179807352089 0 0.075100583452514288 0.049690124927522901 0 0.075589945105592221 0.049030188810882155 0 0.075904533902021745 0.050009179807352089 0 0.074483885871187247 0.050503740083279 0 0.075222755755555329 0.050714515184123857 0 0.075100583452514288 0.049690124927522901 0 0.073966010430732823 0.05494371664814951 0 0.073615148815421597 0.056016309137665171 0 0.0748437100863098 0.055400774328832031 0 0.076296234782568556 0.050728251758737956 0 0.0803401059983892 0.040694354297970033 0 0.079381275301833587 0.046590145947636372 0 0.080125930712545673 0.045375589211081077 0 0.073966010430732823 0.05494371664814951 0 0.074520930204427654 0.054754405911678593 0 0.075266948642040851 0.056106610274324675 0 0.07353829051981052 0.051324238342945083 0 0.074483885871187247 0.050503740083279 0 0.074080899790601923 0.048485690693575619 0 0.073938786950704369 0.054652484665813857 0 0.073966010430732823 0.05494371664814951 0 0.073615148815421597 0.056016309137665171 0 0.07353829051981052 0.051324238342945083 0 0.07416730161810417 0.051487556898354825 0 0.074483885871187247 0.050503740083279 0 0.073938786950704369 0.054652484665813857 0 0.073966010430732823 0.05494371664814951 0 0.074520930204427654 0.054754405911678593 0 0.0803401059983892 0.040694354297970033 0 0.080125930712545673 0.045375589211081077 0 0.08806546661948951 0.035742217000545709 0 0.086301931264691503 0.036600622274197338 0 0.086498461406961324 0.034862260940826749 0 0.08806546661948951 0.035742217000545709 0 0.087599745824951558 0.034596586663648697 0 0.086498461406961324 0.034862260940826749 0 0.08806546661948951 0.035742217000545709 0 0.087599745824951558 0.034596586663648697 0 0.088544197064005167 0.03389264849175988 0 0.087599745824951558 0.034596586663648697 0 0.087311473129944361 0.033876263261286503 0 0.088544197064005167 0.03389264849175988 0 0.087599745824951558 0.034596586663648697 0 0.086498461406961324 0.034862260940826749 0 0.087311473129944361 0.033876263261286503 0 0.088188705164886874 0.026104549790601551 0 0.088106131376117419 0.02613596722184304 0 0.088216233007285483 0.026204421329516846 0 0.088188705164886874 0.026104549790601551 0 0.088089553943365165 0.026120826326180263 0 0.088106131376117419 0.02613596722184304 0 0.0803401059983892 0.040694354297970033 0 0.085081191667555164 0.031993319783355699 0 0.074080899790601923 0.048485690693575619 0 0.075589945105592221 0.049030188810882155 0 0.076283587286820623 0.047379100876037743 0 0.0803401059983892 0.040694354297970033 0 0.078708398425631321 0.034942000185370699 0 0.075100583452514288 0.049690124927522901 0 0.074080899790601923 0.048485690693575619 0 0.075589945105592221 0.049030188810882155 0 0.075589945105592221 0.049030188810882155 0 0.076386148923888994 0.049211574227615837 0 0.075904533902021745 0.050009179807352089 0 0.075589945105592221 0.049030188810882155 0 0.076386148923888994 0.049211574227615837 0 0.076283587286820623 0.047379100876037743 0 0.065921494157722124 0.037411441463733354 0 0.078708398425631321 0.034942000185370699 0 0.084492623495803831 0.030790201719736995 0 0.083209325144991311 0.028274608487622487 0 0.084753655352276094 0.029042842150845072 0 0.076386148923888994 0.049211574227615837 0 0.077326870265627859 0.04944310495690641 0 0.076283587286820623 0.047379100876037743 0 0.083209325144991311 0.028274608487622487 0 0.085278779270867675 0.028195035218944356 0 0.084753655352276094 0.029042842150845072 0 0.078708398425631321 0.034942000185370699 0 0.084390382079608153 0.030800146795470166 0 0.088037076603158321 0.025984376077435749 0 0.087935468670644432 0.026126108332064309 0 0.087686834606106503 0.026058659646336968 0 0.078708398425631321 0.034942000185370699 0 0.078818841392580011 0.034541030662040555 0 0.087935468670644432 0.026126108332064309 0 0.088106131376117419 0.02613596722184304 0 0.088014458309634586 0.026234986514565888 0 0.088037076603158321 0.025984376077435749 0 0.087935468670644432 0.026126108332064309 0 0.088106131376117419 0.02613596722184304 0 0.085383924863190006 0.02728286482149879 0 0.08622719348791523 0.028128084823967 0 0.087132653671621083 0.0265272643559726 0 0.083209325144991311 0.028274608487622487 0 0.085383924863190006 0.02728286482149879 0 0.085278779270867675 0.028195035218944356 0 0.085278779270867675 0.028195035218944356 0 0.08622719348791523 0.028128084823967 0 0.084753655352276094 0.029042842150845072 0 0.085383924863190006 0.02728286482149879 0 0.085278779270867675 0.028195035218944356 0 0.08622719348791523 0.028128084823967 0 -9.1944657595085318e-05 0.031910481316020436 0 0.0030774987441894545 0.02715056552324278 0 0.0027082008932692316 0.030385188811710311 0 0.065921494157722124 0.037411441463733354 0 0.053947480296950345 0.032284666246066643 0 0.0030774987441894545 0.02715056552324278 0 0.0027082008932692316 0.030385188811710311 0 0.0041592281062271851 0.028863916774702288 0 0.084492623495803831 0.030790201719736995 0 0.08622719348791523 0.028128084823967 0 0.084753655352276094 0.029042842150845072 0 -9.1944657595085318e-05 0.031910481316020436 0 0.0027082008932692316 0.030385188811710311 0 0.0019085574402612506 0.031963629149472962 0 0.0027082008932692316 0.030385188811710311 0 0.0035078142526630551 0.032231099985928928 0 0.0019085574402612506 0.031963629149472962 0 0.0035078142526630551 0.032231099985928928 0 0.0024515332322252508 0.033569119966227745 0 0.0042708172366060504 0.034709343387589346 0 -9.1944657595085318e-05 0.031910481316020436 0 0.0024515332322252508 0.033569119966227745 0 0.0023730675830764937 0.037040742614085929 0 0.07731102193481125 0.049360938297265518 0 0.077174111452481403 0.050880881125621502 0 0.078434626797750512 0.051856933797934976 0 0.065921494157722124 0.037411441463733354 0 0.051736457541081131 0.040595745865395494 0 0.0035078142526630551 0.032231099985928928 0 0.0019085574402612506 0.031963629149472962 0 0.0024515332322252508 0.033569119966227745 0 0.0024515332322252508 0.033569119966227745 0 0.0023730675830764937 0.037040742614085929 0 0.0042708172366060504 0.034709343387589346 0 -9.1944657595085318e-05 0.031910481316020436 0 0.0019085574402612506 0.031963629149472962 0 0.0024515332322252508 0.033569119966227745 0 0.065921494157722124 0.037411441463733354 0 0.066055548861803343 0.038033515437764918 0 0.076386148923888994 0.049211574227615837 0 0.077326870265627859 0.04944310495690641 0 0.076817741837512901 0.050167592960814744 0 0.07731102193481125 0.049360938297265518 0 0.076817741837512901 0.050167592960814744 0 0.077174111452481403 0.050880881125621502 0 0.076386148923888994 0.049211574227615837 0 0.076817741837512901 0.050167592960814744 0 0.075904533902021745 0.050009179807352089 0 0.076817741837512901 0.050167592960814744 0 0.075904533902021745 0.050009179807352089 0 0.076155800830166417 0.051046168065005622 0 0.076817741837512901 0.050167592960814744 0 0.076155800830166417 0.051046168065005622 0 0.077174111452481403 0.050880881125621502 0 0.076155800830166417 0.051046168065005622 0 0.077174111452481403 0.050880881125621502 0 0.077134566468130605 0.051896642114187728 0 0.075369376630939011 0.051539008151061161 0 0.076155800830166417 0.051046168065005622 0 0.076257027983628531 0.051831981214282376 0 0.076155800830166417 0.051046168065005622 0 0.077134566468130605 0.051896642114187728 0 0.076257027983628531 0.051831981214282376 0 0.076820204558308292 0.052786627906207098 0 0.075634014459759896 0.052298528239334979 0 0.076257027983628531 0.051831981214282376 0 0.078019603883070193 0.052804350312516561 0 0.076820204558308292 0.052786627906207098 0 0.077134566468130605 0.051896642114187728 0 0.076820204558308292 0.052786627906207098 0 0.077134566468130605 0.051896642114187728 0 0.076257027983628531 0.051831981214282376 0 0.078019603883070193 0.052804350312516561 0 0.077134566468130605 0.051896642114187728 0 0.078434626797750512 0.051856933797934976 0 0.077174111452481403 0.050880881125621502 0 0.077134566468130605 0.051896642114187728 0 0.078434626797750512 0.051856933797934976 0 0.0023730675830764937 0.037040742614085929 0 0.0059163039252013898 0.036422573210536421 0 0.0062491928372089339 0.039179931276478112 0 0.0023730675830764937 0.037040742614085929 0 0.0059163039252013898 0.036422573210536421 0 0.0042708172366060504 0.034709343387589346 0 0.0059163039252013898 0.036422573210536421 0 0.0088835461833729791 0.037357930075530774 0 0.0074074531437985404 0.033614942987429397 0 0.0059163039252013898 0.036422573210536421 0 0.0062491928372089339 0.039179931276478112 0 0.0088835461833729791 0.037357930075530774 0 0.0074074531437985404 0.033614942987429397 0 0.010160405747003332 0.031646178164698092 0 0.011934048638826893 0.034795029679559566 0 0.0088835461833729791 0.037357930075530774 0 0.0074074531437985404 0.033614942987429397 0 0.011934048638826893 0.034795029679559566 0 0.0074074531437985404 0.033614942987429397 0 0.005443774496706172 0.032293154259149671 0 0.00748790229892758 0.030156194519226825 0 0.0074074531437985404 0.033614942987429397 0 0.005443774496706172 0.032293154259149671 0 0.0042708172366060504 0.034709343387589346 0 0.0059163039252013898 0.036422573210536421 0 0.0074074531437985404 0.033614942987429397 0 0.0042708172366060504 0.034709343387589346 0 0.0035078142526630551 0.032231099985928928 0 0.005443774496706172 0.032293154259149671 0 0.0042708172366060504 0.034709343387589346 0 0.0027082008932692316 0.030385188811710311 0 0.0035078142526630551 0.032231099985928928 0 0.0045121928116002305 0.03053566277045416 0 0.0035078142526630551 0.032231099985928928 0 0.005443774496706172 0.032293154259149671 0 0.0045121928116002305 0.03053566277045416 0 0.005443774496706172 0.032293154259149671 0 0.0045121928116002305 0.03053566277045416 0 0.00748790229892758 0.030156194519226825 0 0.0056108267797780548 0.028876486719063062 0 0.0070044698168008094 0.02759203932677641 0 0.00748790229892758 0.030156194519226825 0 0.0045121928116002305 0.03053566277045416 0 0.0056108267797780548 0.028876486719063062 0 0.00748790229892758 0.030156194519226825 0 0.0027082008932692316 0.030385188811710311 0 0.0045121928116002305 0.03053566277045416 0 0.0041592281062271851 0.028863916774702288 0 0.0045121928116002305 0.03053566277045416 0 0.0056108267797780548 0.028876486719063062 0 0.0041592281062271851 0.028863916774702288 0 0.0056108267797780548 0.028876486719063062 0 0.0041592281062271851 0.028863916774702288 0 0.0052193136526188736 0.027671541489183493 0 0.0030774987441894545 0.02715056552324278 0 0.006220650147549826 0.025878207988302031 0 0.006381409788726481 0.022586137282387571 0 0.053947480296950345 0.032284666246066643 0 0.048888581213455302 0.026662221193362735 0 0.0030774987441894545 0.02715056552324278 0 0.0052193136526188736 0.027671541489183493 0 0.006220650147549826 0.025878207988302031 0 0.0030774987441894545 0.02715056552324278 0 0.0041592281062271851 0.028863916774702288 0 0.0052193136526188736 0.027671541489183493 0 0.0052193136526188736 0.027671541489183493 0 0.0070044698168008094 0.02759203932677641 0 0.006220650147549826 0.025878207988302031 0 0.0070044698168008094 0.02759203932677641 0 0.006220650147549826 0.025878207988302031 0 0.0082555608144188556 0.02627411789856067 0 0.0056108267797780548 0.028876486719063062 0 0.0052193136526188736 0.027671541489183493 0 0.0070044698168008094 0.02759203932677641 0 0.010348223178019087 0.026102918079709266 0 0.0082555608144188556 0.02627411789856067 0 0.0087397017801874224 0.024193548751781459 0 0.006220650147549826 0.025878207988302031 0 0.0082555608144188556 0.02627411789856067 0 0.0087397017801874224 0.024193548751781459 0 0.0070044698168008094 0.02759203932677641 0 0.0082555608144188556 0.02627411789856067 0 0.0089209430428844293 0.027778000872352118 0 0.010348223178019087 0.026102918079709266 0 0.0089209430428844293 0.027778000872352118 0 0.010824154058316741 0.028971070111246538 0 0.010348223178019087 0.026102918079709266 0 0.0082555608144188556 0.02627411789856067 0 0.0089209430428844293 0.027778000872352118 0 0.0089209430428844293 0.027778000872352118 0 0.00748790229892758 0.030156194519226825 0 0.010824154058316741 0.028971070111246538 0 0.0070044698168008094 0.02759203932677641 0 0.0089209430428844293 0.027778000872352118 0 0.00748790229892758 0.030156194519226825 0 0.0074074531437985404 0.033614942987429397 0 0.00748790229892758 0.030156194519226825 0 0.010160405747003332 0.031646178164698092 0 0.00748790229892758 0.030156194519226825 0 0.010160405747003332 0.031646178164698092 0 0.010824154058316741 0.028971070111246538 0 0.013623329449213189 0.030762315089594185 0 0.010824154058316741 0.028971070111246538 0 0.01300831509432142 0.02680778358181745 0 0.010160405747003332 0.031646178164698092 0 0.013623329449213189 0.030762315089594185 0 0.010824154058316741 0.028971070111246538 0 0.010348223178019087 0.026102918079709266 0 0.010824154058316741 0.028971070111246538 0 0.01300831509432142 0.02680778358181745 0 0.010348223178019087 0.026102918079709266 0 0.01300831509432142 0.02680778358181745 0 0.012092494552983016 0.023584049761184479 0 0.016178827803747582 0.027597048478032089 0 0.016883704503277686 0.023711699748432544 0 0.019548458787436499 0.026527383923357059 0 0.01300831509432142 0.02680778358181745 0 0.016178827803747582 0.027597048478032089 0 0.016883704503277686 0.023711699748432544 0 0.013623329449213189 0.030762315089594185 0 0.016178827803747582 0.027597048478032089 0 0.017699004496573443 0.030278455624224539 0 0.013623329449213189 0.030762315089594185 0 0.01300831509432142 0.02680778358181745 0 0.016178827803747582 0.027597048478032089 0 0.013623329449213189 0.030762315089594185 0 0.015976984923625329 0.033814891317788198 0 0.017699004496573443 0.030278455624224539 0 0.010160405747003332 0.031646178164698092 0 0.013623329449213189 0.030762315089594185 0 0.011934048638826893 0.034795029679559566 0 0.013623329449213189 0.030762315089594185 0 0.015976984923625329 0.033814891317788198 0 0.011934048638826893 0.034795029679559566 0 0.012182104689536189 0.039362353608613287 0 0.011934048638826893 0.034795029679559566 0 0.015203634700382858 0.037426936894312632 0 0.012182104689536189 0.039362353608613287 0 0.0088835461833729791 0.037357930075530774 0 0.011934048638826893 0.034795029679559566 0 0.015976984923625329 0.033814891317788198 0 0.011934048638826893 0.034795029679559566 0 0.015203634700382858 0.037426936894312632 0 0.015976984923625329 0.033814891317788198 0 0.015203634700382858 0.037426936894312632 0 0.0184742434100756 0.037851118801230661 0 0.015732572397699839 0.040997922497286822 0 0.015203634700382858 0.037426936894312632 0 0.0184742434100756 0.037851118801230661 0 0.079485802759285212 0.050664374048483903 0 0.079964478356026311 0.049843649029568192 0 0.079240919693086942 0.049276321092098008 0 0.079485802759285212 0.050664374048483903 0 0.079240919693086942 0.049276321092098008 0 0.077922511206150277 0.049784329695153694 0 0.077921647869911986 0.052659954770621673 0 0.0757662741045457 0.05467703429851558 0 0.079485802759285212 0.050664374048483903 0 0.080499146248485864 0.049961563289073543 0 0.079964478356026311 0.049843649029568192 0 0.079485802759285212 0.050664374048483903 0 0.080499146248485864 0.049961563289073543 0 0.080941648331829819 0.049997453995432158 0 0.080499146248485864 0.049961563289073543 0 0.079964478356026311 0.049843649029568192 0 0.080302998328908234 0.049425102061767569 0 0.080499146248485864 0.049961563289073543 0 0.080302998328908234 0.049425102061767569 0 0.08085566695853609 0.049882378330237585 0 0.080302998328908234 0.049425102061767569 0 0.080663594436213432 0.04902208228058056 0 0.08085566695853609 0.049882378330237585 0 0.080302998328908234 0.049425102061767569 0 0.080663594436213432 0.04902208228058056 0 0.079865682905354063 0.048082062415823204 0 0.079240919693086942 0.049276321092098008 0 0.078592928957478159 0.047797221326679865 0 0.079865682905354063 0.048082062415823204 0 0.079240919693086942 0.049276321092098008 0 0.078592928957478159 0.047797221326679865 0 0.077669821566224678 0.048624730446157026 0 0.080302998328908234 0.049425102061767569 0 0.079240919693086942 0.049276321092098008 0 0.079865682905354063 0.048082062415823204 0 0.079964478356026311 0.049843649029568192 0 0.080302998328908234 0.049425102061767569 0 0.079240919693086942 0.049276321092098008 0 0.078592928957478159 0.047797221326679865 0 0.077669821566224678 0.048624730446157026 0 0.077015819329908211 0.046231882835140181 0 0.077669821566224678 0.048624730446157026 0 0.076421402619770054 0.048536156875132866 0 0.077015819329908211 0.046231882835140181 0 0.079240919693086942 0.049276321092098008 0 0.077669821566224678 0.048624730446157026 0 0.077922511206150277 0.049784329695153694 0 0.077669821566224678 0.048624730446157026 0 0.076421402619770054 0.048536156875132866 0 0.076796104377818586 0.049617336345761799 0 0.074999757014252016 0.048009472902689421 0 0.076421402619770054 0.048536156875132866 0 0.077015819329908211 0.046231882835140181 0 0.074999757014252016 0.048009472902689421 0 0.076421402619770054 0.048536156875132866 0 0.075548650300253109 0.050293176502053602 0 0.074999757014252016 0.048009472902689421 0 0.075548650300253109 0.050293176502053602 0 0.074999975836427424 0.051985689021371288 0 0.075548650300253109 0.050293176502053602 0 0.076188865628327315 0.050863383385818091 0 0.07577828170990776 0.051701567384735511 0 0.076421402619770054 0.048536156875132866 0 0.075548650300253109 0.050293176502053602 0 0.076796104377818586 0.049617336345761799 0 0.075548650300253109 0.050293176502053602 0 0.076796104377818586 0.049617336345761799 0 0.076188865628327315 0.050863383385818091 0 0.077921647869911986 0.052659954770621673 0 0.077212813858381038 0.052137503427064601 0 0.079485802759285212 0.050664374048483903 0 0.076188865628327315 0.050863383385818091 0 0.077922511206150277 0.049784329695153694 0 0.076796104377818586 0.049617336345761799 0 0.076188865628327315 0.050863383385818091 0 0.077922511206150277 0.049784329695153694 0 0.077669821566224678 0.048624730446157026 0 0.076796104377818586 0.049617336345761799 0 0.077922511206150277 0.049784329695153694 0 0.076188865628327315 0.050863383385818091 0 0.077309662556573719 0.051479936483256813 0 0.076575926902277408 0.051677898342088441 0 0.077995731357995535 0.051037160559871592 0 0.076188865628327315 0.050863383385818091 0 0.077309662556573719 0.051479936483256813 0 0.076575926902277408 0.051677898342088441 0 0.076362885232066829 0.052095068201523792 0 0.077226484615128529 0.052169006315025176 0 0.077309662556573719 0.051479936483256813 0 0.076575926902277408 0.051677898342088441 0 0.077226484615128529 0.052169006315025176 0 0.074412454061072511 0.052959023115572955 0 0.074306295339885739 0.054116982735728618 0 0.075548650300253109 0.050293176502053602 0 0.074999975836427424 0.051985689021371288 0 0.075726418957558203 0.052965216589372408 0 0.074999975836427424 0.051985689021371288 0 0.075726418957558203 0.052965216589372408 0 0.075000013223779805 0.055962686711877846 0 0.076188865628327315 0.050863383385818091 0 0.076575926902277408 0.051677898342088441 0 0.07577828170990776 0.051701567384735511 0 0.076575926902277408 0.051677898342088441 0 0.07577828170990776 0.051701567384735511 0 0.076362885232066829 0.052095068201523792 0 0.07577828170990776 0.051701567384735511 0 0.076362885232066829 0.052095068201523792 0 0.07585571923919554 0.052819831676100819 0 0.074306295339885739 0.054116982735728618 0 0.073920103001483897 0.057356909591170888 0 0.076362885232066829 0.052095068201523792 0 0.07585571923919554 0.052819831676100819 0 0.077226484615128529 0.052169006315025176 0 0.075726418957558203 0.052965216589372408 0 0.075859136747111103 0.055585091952801105 0 0.075000013223779805 0.055962686711877846 0 0.073920103001483897 0.057356909591170888 0 0.074997224523145042 0.055970995304773521 0 0.071560909868737491 0.068166990562855509 0 0.073062634592076708 0.068985400568279481 0 0.07100511737970655 0.069365216711145469 0 0.073920103001483897 0.057356909591170888 0 0.073599287689490991 0.058207837833603344 0 0.071560909868737491 0.068166990562855509 0 0.07100511737970655 0.069365216711145469 0 0.069774120241923476 0.068230145182535507 0 0.069774120241923476 0.068230145182535507 0 0.069512065816887875 0.068832343590247091 0 0.068343537514933481 0.068357795711039032 0 0.07100511737970655 0.069365216711145469 0 0.069774120241923476 0.068230145182535507 0 0.069512065816887875 0.068832343590247091 0 0.07100511737970655 0.069365216711145469 0 0.069512065816887875 0.068832343590247091 0 0.068887904090856447 0.069468941768282735 0 0.073599287689490991 0.058207837833603344 0 0.073734077411107712 0.057551883388401316 0 0.077309662556573719 0.051479936483256813 0 0.077226484615128529 0.052169006315025176 0 0.078456767654518325 0.051574549680124496 0 0.077995731357995535 0.051037160559871592 0 0.077309662556573719 0.051479936483256813 0 0.078456767654518325 0.051574549680124496 0 0.073734077411107712 0.057551883388401316 0 0.0757662741045457 0.05467703429851558 0 0.068887904090856447 0.069468941768282735 0 0.068343537514933481 0.068357795711039032 0 0.066359402330287018 0.069474523898189325 0 0.077995731357995535 0.051037160559871592 0 0.078456767654518325 0.051574549680124496 0 0.079590173484385338 0.051082085053561044 0 0.068476297413563994 0.0674907753393479 0 0.068343537514933481 0.068357795711039032 0 0.067037071199193263 0.067584454720601261 0 0.068476297413563994 0.0674907753393479 0 0.069774120241923476 0.068230145182535507 0 0.068343537514933481 0.068357795711039032 0 0.069512065816887875 0.068832343590247091 0 0.068887904090856447 0.069468941768282735 0 0.068343537514933481 0.068357795711039032 0 0.06720753854984314 0.06721608005576768 0 0.067037071199193263 0.067584454720601261 0 0.065461413935888391 0.06729719593500956 0 0.063258091608026326 0.071127691048856717 0 0.06315839048360844 0.070086632786310873 0 0.067030660163127379 0.066954752423827174 0 0.065461413935888391 0.06729719593500956 0 0.062887109954471332 0.067095939705598254 0 0.06449280301066411 0.068000798481817087 0 0.063002907628067165 0.067458825948251547 0 0.066359402330287018 0.069474523898189325 0 0.065461413935888391 0.06729719593500956 0 0.062887109954471332 0.067095939705598254 0 0.06449280301066411 0.068000798481817087 0 0.062887109954471332 0.067095939705598254 0 0.06449280301066411 0.068000798481817087 0 0.063002907628067165 0.067458825948251547 0 0.068343537514933481 0.068357795711039032 0 0.067037071199193263 0.067584454720601261 0 0.066359402330287018 0.069474523898189325 0 0.067037071199193263 0.067584454720601261 0 0.065461413935888391 0.06729719593500956 0 0.066359402330287018 0.069474523898189325 0 0.065461413935888391 0.06729719593500956 0 0.06449280301066411 0.068000798481817087 0 0.066359402330287018 0.069474523898189325 0 0.064175330219560137 0.069875380130156067 0 0.061823436985559047 0.069866881760408728 0 0.063267389171399666 0.066543254591794693 0 0.064175330219560137 0.069875380130156067 0 0.066260441904252079 0.065625026415091353 0 0.063267389171399666 0.066543254591794693 0 0.058545117599535547 0.072707513152531753 0 0.062887109954471332 0.067095939705598254 0 0.061823436985559047 0.069866881760408728 0 0.062887109954471332 0.067095939705598254 0 0.061823436985559047 0.069866881760408728 0 0.063267389171399666 0.066543254591794693 0 0.062887109954471332 0.067095939705598254 0 0.063056800516497299 0.066010351130420322 0 0.063267389171399666 0.066543254591794693 0 0.063056800516497299 0.066010351130420322 0 0.064176811875686052 0.062373179212033017 0 0.063002907628067165 0.067458825948251547 0 0.062887109954471332 0.067095939705598254 0 0.063056800516497299 0.066010351130420322 0 0.063002907628067165 0.067458825948251547 0 0.066260441904252079 0.065625026415091353 0 0.063267389171399666 0.066543254591794693 0 0.064176811875686052 0.062373179212033017 0 0.063056800516497299 0.066010351130420322 0 0.063267389171399666 0.066543254591794693 0 0.064176811875686052 0.062373179212033017 0 0.073536618275241716 0.053399614840385246 0 0.074566800105618919 0.052001803996227725 0 0.075234089550791347 0.052590502077955507 0 0.074566800105618919 0.052001803996227725 0 0.076695283433987821 0.051468591760482303 0 0.075234089550791347 0.052590502077955507 0 0.074566800105618919 0.052001803996227725 0 0.076695283433987821 0.051468591760482303 0 0.078609350053628069 0.049485217188990571 0 0.072857086463864837 0.056713640209725059 0 0.073183559877435467 0.056237773377714982 0 0.076695283433987821 0.051468591760482303 0 0.078108944601808311 0.051297620689706537 0 0.079192782793049601 0.05038482909657277 0 0.076695283433987821 0.051468591760482303 0 0.078609350053628069 0.049485217188990571 0 0.079192782793049601 0.05038482909657277 0 0.078108944601808311 0.051297620689706537 0 0.076796610759666109 0.052378109602970881 0 0.078820256742851008 0.051453232869664432 0 0.076796610759666109 0.052378109602970881 0 0.078820256742851008 0.051453232869664432 0 0.078341698700795201 0.05248642733480164 0 0.076695283433987821 0.051468591760482303 0 0.078108944601808311 0.051297620689706537 0 0.076796610759666109 0.052378109602970881 0 0.076695283433987821 0.051468591760482303 0 0.076796610759666109 0.052378109602970881 0 0.075234089550791347 0.052590502077955507 0 0.076796610759666109 0.052378109602970881 0 0.075234089550791347 0.052590502077955507 0 0.074570784318159652 0.053788206140890631 0 0.073536618275241716 0.053399614840385246 0 0.075234089550791347 0.052590502077955507 0 0.074570784318159652 0.053788206140890631 0 0.080941648331829819 0.049997453995432158 0 0.080858930074009114 0.050327174847492093 0 0.08085566695853609 0.049882378330237585 0 0.080499146248485864 0.049961563289073543 0 0.080941648331829819 0.049997453995432158 0 0.08085566695853609 0.049882378330237585 0 0.080941648331829819 0.049997453995432158 0 0.07997918388241626 0.050605441226745713 0 0.080858930074009114 0.050327174847492093 0 0.0757662741045457 0.05467703429851558 0 0.078184980607010165 0.053133650211315366 0 0.073183559877435467 0.056237773377714982 0 0.0757662741045457 0.05467703429851558 0 0.080941648331829819 0.049997453995432158 0 0.079192782793049601 0.05038482909657277 0 0.07997918388241626 0.050605441226745713 0 0.078609350053628069 0.049485217188990571 0 0.081274142149988821 0.049485191451314893 0 0.079192782793049601 0.05038482909657277 0 0.078108944601808311 0.051297620689706537 0 0.079192782793049601 0.05038482909657277 0 0.07997918388241626 0.050605441226745713 0 0.07997918388241626 0.050605441226745713 0 0.080252647289368928 0.050988586337141498 0 0.080858930074009114 0.050327174847492093 0 0.078108944601808311 0.051297620689706537 0 0.07997918388241626 0.050605441226745713 0 0.078820256742851008 0.051453232869664432 0 0.07997918388241626 0.050605441226745713 0 0.078820256742851008 0.051453232869664432 0 0.080252647289368928 0.050988586337141498 0 0.078820256742851008 0.051453232869664432 0 0.080252647289368928 0.050988586337141498 0 0.078341698700795201 0.05248642733480164 0 0.080252647289368928 0.050988586337141498 0 0.080858930074009114 0.050327174847492093 0 0.081352086705348353 0.050451466706627542 0 0.080858930074009114 0.050327174847492093 0 0.081292448254609323 0.049590417513353489 0 0.081352086705348353 0.050451466706627542 0 0.080858930074009114 0.050327174847492093 0 0.08085566695853609 0.049882378330237585 0 0.081292448254609323 0.049590417513353489 0 0.080663594436213432 0.04902208228058056 0 0.08085566695853609 0.049882378330237585 0 0.081292448254609323 0.049590417513353489 0 0.081292448254609323 0.049590417513353489 0 0.081614701095954117 0.047810694834865768 0 0.080713863751024573 0.047799092525383342 0 0.081292448254609323 0.049590417513353489 0 0.081614701095954117 0.047810694834865768 0 0.08226754371295715 0.04991837516729556 0 0.081614701095954117 0.047810694834865768 0 0.08226754371295715 0.04991837516729556 0 0.083266161879749681 0.046172140415257495 0 0.081292448254609323 0.049590417513353489 0 0.08226754371295715 0.04991837516729556 0 0.081352086705348353 0.050451466706627542 0 0.080252647289368928 0.050988586337141498 0 0.081352086705348353 0.050451466706627542 0 0.080677148128942472 0.051536441693449106 0 0.08226754371295715 0.04991837516729556 0 0.081352086705348353 0.050451466706627542 0 0.080677148128942472 0.051536441693449106 0 0.080252647289368928 0.050988586337141498 0 0.080677148128942472 0.051536441693449106 0 0.078341698700795201 0.05248642733480164 0 0.080677148128942472 0.051536441693449106 0 0.078341698700795201 0.05248642733480164 0 0.078776486704602119 0.053516683183601123 0 0.080677148128942472 0.051536441693449106 0 0.080634202662366428 0.053779024734038929 0 0.078776486704602119 0.053516683183601123 0 0.08226754371295715 0.04991837516729556 0 0.085308214951678674 0.048471985458862013 0 0.083266161879749681 0.046172140415257495 0 0.08024567838270584 0.046896282213465708 0 0.080195738648462647 0.046772238784093305 0 0.08226754371295715 0.04991837516729556 0 0.080677148128942472 0.051536441693449106 0 0.080786247740699341 0.051934138141017633 0 0.080198637422585844 0.047119828716012488 0 0.080195738648462647 0.046772238784093305 0 0.080195738648462647 0.046772238784093305 0 0.079515913273605687 0.046788068915294335 0 0.081008238687264422 0.044642670399084004 0 0.081011858013420923 0.044533442446006356 0 0.081106318348299386 0.044588690915768468 0 0.085308214951678674 0.048471985458862013 0 0.085560539705820671 0.044380730609876171 0 0.083266161879749681 0.046172140415257495 0 0.080195738648462647 0.046772238784093305 0 0.081120828799838562 0.0440261085798846 0 0.085560539705820671 0.044380730609876171 0 0.083266161879749681 0.046172140415257495 0 0.083203492456050535 0.04295104445527375 0 0.083266161879749681 0.046172140415257495 0 0.083203492456050535 0.04295104445527375 0 0.081045531606106697 0.044936587723093391 0 0.081614701095954117 0.047810694834865768 0 0.083266161879749681 0.046172140415257495 0 0.081045531606106697 0.044936587723093391 0 0.076796610759666109 0.052378109602970881 0 0.074570784318159652 0.053788206140890631 0 0.076267771122278671 0.053763731171613607 0 0.074520930204427654 0.054754405911678593 0 0.075173311556101033 0.054661082060469525 0 0.074570784318159652 0.053788206140890631 0 0.075173311556101033 0.054661082060469525 0 0.076267771122278671 0.053763731171613607 0 0.076066594136828175 0.054966902892189924 0 0.075173311556101033 0.054661082060469525 0 0.074570784318159652 0.053788206140890631 0 0.076267771122278671 0.053763731171613607 0 0.077385197456306926 0.053991260386523965 0 0.076267771122278671 0.053763731171613607 0 0.078341698700795201 0.05248642733480164 0 0.077385197456306926 0.053991260386523965 0 0.076267771122278671 0.053763731171613607 0 0.076066594136828175 0.054966902892189924 0 0.076796610759666109 0.052378109602970881 0 0.076267771122278671 0.053763731171613607 0 0.078341698700795201 0.05248642733480164 0 0.077385197456306926 0.053991260386523965 0 0.078776486704602119 0.053516683183601123 0 0.077337531932843581 0.055463438758712624 0 0.077385197456306926 0.053991260386523965 0 0.078341698700795201 0.05248642733480164 0 0.078776486704602119 0.053516683183601123 0 0.080634202662366428 0.053779024734038929 0 0.078776486704602119 0.053516683183601123 0 0.077337531932843581 0.055463438758712624 0 0.079515913273605687 0.046788068915294335 0 0.080125930712545673 0.045375589211081077 0 0.081106318348299386 0.044588690915768468 0 0.081201067223715576 0.044538541056217539 0 0.081109585454909705 0.044483637448554381 0 0.081011858013420923 0.044533442446006356 0 0.081106318348299386 0.044588690915768468 0 0.081109585454909705 0.044483637448554381 0 0.077385197456306926 0.053991260386523965 0 0.077337531932843581 0.055463438758712624 0 0.076066594136828175 0.054966902892189924 0 0.077337531932843581 0.055463438758712624 0 0.076066594136828175 0.054966902892189924 0 0.075266948642040851 0.056106610274324675 0 0.075173311556101033 0.054661082060469525 0 0.076066594136828175 0.054966902892189924 0 0.075266948642040851 0.056106610274324675 0 0.074520930204427654 0.054754405911678593 0 0.075173311556101033 0.054661082060469525 0 0.075266948642040851 0.056106610274324675 0 0.086301931264691503 0.036600622274197338 0 0.085153047295328341 0.03593187408303785 0 0.086498461406961324 0.034862260940826749 0 0.080125930712545673 0.045375589211081077 0 0.081245204623284065 0.042849572687489484 0 0.081245204623284065 0.042849572687489484 0 0.081576830794473615 0.040827574736167438 0 0.085153047295328341 0.03593187408303785 0 0.084969218952589062 0.034893907429360306 0 0.0840483343735903 0.035280332083964 0 0.084969218952589062 0.034893907429360306 0 0.086498461406961324 0.034862260940826749 0 0.085342723300262102 0.033995886744709262 0 0.085153047295328341 0.03593187408303785 0 0.084969218952589062 0.034893907429360306 0 0.086498461406961324 0.034862260940826749 0 0.084969218952589062 0.034893907429360306 0 0.084127752481714363 0.033882810833041718 0 0.085342723300262102 0.033995886744709262 0 0.083203492456050535 0.04295104445527375 0 0.082266690899577527 0.039067325929068454 0 0.081618425676364181 0.041958326016019572 0 0.083203492456050535 0.04295104445527375 0 0.081618425676364181 0.041958326016019572 0 0.081045531606106697 0.044936587723093391 0 0.085560539705820671 0.044380730609876171 0 0.083203492456050535 0.04295104445527375 0 0.085661866947534693 0.041468738643965448 0 0.081011858013420923 0.044533442446006356 0 0.081109585454909705 0.044483637448554381 0 0.081015141927147274 0.04442424259641322 0 0.081120828799838562 0.0440261085798846 0 0.081576830794473615 0.040827574736167438 0 0.081576830794473615 0.040827574736167438 0 0.082421571079137945 0.03667908765863593 0 0.084188383885960894 0.037884202244076688 0 0.081458181394560139 0.036384755271538533 0 0.084242148909069003 0.035647753180132705 0 0.084969218952589062 0.034893907429360306 0 0.0840483343735903 0.035280332083964 0 0.084127752481714363 0.033882810833041718 0 0.083203492456050535 0.04295104445527375 0 0.085661866947534693 0.041468738643965448 0 0.082266690899577527 0.039067325929068454 0 0.081576830794473615 0.040827574736167438 0 0.080930978093588665 0.038907277097895744 0 0.082266690899577527 0.039067325929068454 0 0.078910698450083305 0.039394059980785601 0 0.079932135969531901 0.041902267334534136 0 0.082266690899577527 0.039067325929068454 0 0.079932135969531901 0.041902267334534136 0 0.081618425676364181 0.041958326016019572 0 0.082266690899577527 0.039067325929068454 0 0.078910698450083305 0.039394059980785601 0 0.079114029215739443 0.035930301423522305 0 0.079932135969531901 0.041902267334534136 0 0.079247524176001866 0.044350321675671871 0 0.078168289671764105 0.04207339110150074 0 0.078910698450083305 0.039394059980785601 0 0.079932135969531901 0.041902267334534136 0 0.078168289671764105 0.04207339110150074 0 0.079932135969531901 0.041902267334534136 0 0.081618425676364181 0.041958326016019572 0 0.081045531606106697 0.044936587723093391 0 0.081045531606106697 0.044936587723093391 0 0.079874400822835645 0.046256281776233352 0 0.079247524176001866 0.044350321675671871 0 0.081045531606106697 0.044936587723093391 0 0.079874400822835645 0.046256281776233352 0 0.080713863751024573 0.047799092525383342 0 0.079932135969531901 0.041902267334534136 0 0.081045531606106697 0.044936587723093391 0 0.079247524176001866 0.044350321675671871 0 0.081614701095954117 0.047810694834865768 0 0.081045531606106697 0.044936587723093391 0 0.080713863751024573 0.047799092525383342 0 0.079247524176001866 0.044350321675671871 0 0.07790021317348346 0.044252819037019366 0 0.078168289671764105 0.04207339110150074 0 0.079247524176001866 0.044350321675671871 0 0.078785666184009187 0.046217229151951443 0 0.07790021317348346 0.044252819037019366 0 0.079874400822835645 0.046256281776233352 0 0.079247524176001866 0.044350321675671871 0 0.078785666184009187 0.046217229151951443 0 0.079874400822835645 0.046256281776233352 0 0.078785666184009187 0.046217229151951443 0 0.079865682905354063 0.048082062415823204 0 0.078592928957478159 0.047797221326679865 0 0.078785666184009187 0.046217229151951443 0 0.079865682905354063 0.048082062415823204 0 0.080663594436213432 0.04902208228058056 0 0.079865682905354063 0.048082062415823204 0 0.080713863751024573 0.047799092525383342 0 0.080663594436213432 0.04902208228058056 0 0.081292448254609323 0.049590417513353489 0 0.080713863751024573 0.047799092525383342 0 0.079874400822835645 0.046256281776233352 0 0.079865682905354063 0.048082062415823204 0 0.080713863751024573 0.047799092525383342 0 0.074999757014252016 0.048009472902689421 0 0.077015819329908211 0.046231882835140181 0 0.07499938140928232 0.044033531148433232 0 0.078785666184009187 0.046217229151951443 0 0.077015819329908211 0.046231882835140181 0 0.07790021317348346 0.044252819037019366 0 0.078592928957478159 0.047797221326679865 0 0.078785666184009187 0.046217229151951443 0 0.077015819329908211 0.046231882835140181 0 0.077015819329908211 0.046231882835140181 0 0.07790021317348346 0.044252819037019366 0 0.076330154034742095 0.042273879480286401 0 0.077015819329908211 0.046231882835140181 0 0.07499938140928232 0.044033531148433232 0 0.076330154034742095 0.042273879480286401 0 0.074999350923969463 0.040056772476383194 0 0.076330154034742095 0.042273879480286401 0 0.076879359100586422 0.039928766622887912 0 0.07499938140928232 0.044033531148433232 0 0.074999350923969463 0.040056772476383194 0 0.076330154034742095 0.042273879480286401 0 0.076330154034742095 0.042273879480286401 0 0.078168289671764105 0.04207339110150074 0 0.076879359100586422 0.039928766622887912 0 0.07790021317348346 0.044252819037019366 0 0.076330154034742095 0.042273879480286401 0 0.078168289671764105 0.04207339110150074 0 0.078910698450083305 0.039394059980785601 0 0.078168289671764105 0.04207339110150074 0 0.076879359100586422 0.039928766622887912 0 0.078910698450083305 0.039394059980785601 0 0.076879359100586422 0.039928766622887912 0 0.077380359214922478 0.037394715292065533 0 0.074999350923969463 0.040056772476383194 0 0.076879359100586422 0.039928766622887912 0 0.074999331587219803 0.036079556572915034 0 0.076879359100586422 0.039928766622887912 0 0.074999331587219803 0.036079556572915034 0 0.077380359214922478 0.037394715292065533 0 0.074999331587219803 0.036079556572915034 0 0.077380359214922478 0.037394715292065533 0 0.077520489839798562 0.033635104243596357 0 0.077380359214922478 0.037394715292065533 0 0.077520489839798562 0.033635104243596357 0 0.08035854534296577 0.033717163815872836 0 0.074999331587219803 0.036079556572915034 0 0.077520489839798562 0.033635104243596357 0 0.074999686556423903 0.032103685870779428 0 0.081458181394560139 0.036384755271538533 0 0.080787979856079745 0.034790109634977216 0 0.079114029215739443 0.035930301423522305 0 0.080930978093588665 0.038907277097895744 0 0.079750887509560511 0.037792716489017865 0 0.078910698450083305 0.039394059980785601 0 0.077380359214922478 0.037394715292065533 0 0.079114029215739443 0.035930301423522305 0 0.077380359214922478 0.037394715292065533 0 0.079114029215739443 0.035930301423522305 0 0.07920307096744171 0.033634749788230313 0 0.078494575350280191 0.03515234140384145 0 0.079794037828065129 0.033442628214744231 0 0.077520489839798562 0.033635104243596357 0 0.08035854534296577 0.033717163815872836 0 0.079830731701882665 0.031631582441401941 0 0.080787979856079745 0.034790109634977216 0 0.079114029215739443 0.035930301423522305 0 0.07920307096744171 0.033634749788230313 0 0.080787979856079745 0.034790109634977216 0 0.07920307096744171 0.033634749788230313 0 0.081714086988532914 0.033221635200488049 0 0.08035854534296577 0.033717163815872836 0 0.079830731701882665 0.031631582441401941 0 0.082350910080628864 0.030403034678153543 0 0.079794037828065129 0.033442628214744231 0 0.081710508133694057 0.030863419292072543 0 0.079830731701882665 0.031631582441401941 0 0.080869738779008049 0.029934703846476642 0 0.082350910080628864 0.030403034678153543 0 0.07920307096744171 0.033634749788230313 0 0.081331421518268832 0.030347693416399656 0 0.081714086988532914 0.033221635200488049 0 0.079830731701882665 0.031631582441401941 0 0.080869738779008049 0.029934703846476642 0 0.077907061727903307 0.031152130443396257 0 0.080410871554040447 0.029894788006386192 0 0.077851281035511866 0.030937162790523966 0 0.079174219755045114 0.028729448556580012 0 0.080794495352015341 0.029225862412215742 0 0.078213919027043097 0.030538664541061179 0 0.079174219755045114 0.028729448556580012 0 0.080794495352015341 0.029225862412215742 0 0.080352767085578647 0.027949370682099049 0 0.080869738779008049 0.029934703846476642 0 0.082350910080628864 0.030403034678153543 0 0.082953813312838562 0.028663808825175986 0 0.080410871554040447 0.029894788006386192 0 0.081673433531965961 0.029390127174219908 0 0.080794495352015341 0.029225862412215742 0 0.081458737512370816 0.028276213291111803 0 0.082953813312838562 0.028663808825175986 0 0.080794495352015341 0.029225862412215742 0 0.080352767085578647 0.027949370682099049 0 0.081458737512370816 0.028276213291111803 0 0.075002695505070521 0.032101600976735839 0 0.077851281035511866 0.030937162790523966 0 0.074999958416861842 0.032102213391108927 0 0.078213919027043097 0.030538664541061179 0 0.077333537666438995 0.028696776886312534 0 0.077520489839798562 0.033635104243596357 0 0.074999686556423903 0.032103685870779428 0 0.077907061727903307 0.031152130443396257 0 0.077520489839798562 0.033635104243596357 0 0.079830731701882665 0.031631582441401941 0 0.077907061727903307 0.031152130443396257 0 0.079174219755045114 0.028729448556580012 0 0.078213919027043097 0.030538664541061179 0 0.077333537666438995 0.028696776886312534 0 0.079174219755045114 0.028729448556580012 0 0.077333537666438995 0.028696776886312534 0 0.078937625867691721 0.027260801467879667 0 0.074999958416861842 0.032102213391108927 0 0.077333537666438995 0.028696776886312534 0 0.074999817025141927 0.027629481886604104 0 0.077333537666438995 0.028696776886312534 0 0.074999817025141927 0.027629481886604104 0 0.077172722770744717 0.026140566733377064 0 0.074999817025141927 0.027629481886604104 0 0.077172722770744717 0.026140566733377064 0 0.074999939104950619 0.023156989328373435 0 0.07802402027887978 0.024197342172624686 0 0.077172722770744717 0.026140566733377064 0 0.074999939104950619 0.023156989328373435 0 0.07802402027887978 0.024197342172624686 0 0.077172722770744717 0.026140566733377064 0 0.079030543045327709 0.025836966772577189 0 0.077172722770744717 0.026140566733377064 0 0.078937625867691721 0.027260801467879667 0 0.079030543045327709 0.025836966772577189 0 0.077333537666438995 0.028696776886312534 0 0.077172722770744717 0.026140566733377064 0 0.078937625867691721 0.027260801467879667 0 0.079174219755045114 0.028729448556580012 0 0.078937625867691721 0.027260801467879667 0 0.080352767085578647 0.027949370682099049 0 0.078937625867691721 0.027260801467879667 0 0.080352767085578647 0.027949370682099049 0 0.080248235889983532 0.026513801133377191 0 0.078937625867691721 0.027260801467879667 0 0.080248235889983532 0.026513801133377191 0 0.079030543045327709 0.025836966772577189 0 0.081458737512370816 0.028276213291111803 0 0.081339910270453508 0.027347305924848794 0 0.082107943246150936 0.027848411139728205 0 0.080352767085578647 0.027949370682099049 0 0.081458737512370816 0.028276213291111803 0 0.081339910270453508 0.027347305924848794 0 0.080248235889983532 0.026513801133377191 0 0.081339910270453508 0.027347305924848794 0 0.081508008852354263 0.026399780360920562 0 0.080352767085578647 0.027949370682099049 0 0.080248235889983532 0.026513801133377191 0 0.081339910270453508 0.027347305924848794 0 0.081339910270453508 0.027347305924848794 0 0.081508008852354263 0.026399780360920562 0 0.082698192920044225 0.02712074849360584 0 0.081411858286877747 0.024552948300988756 0 0.082137443533569179 0.024032332962716705 0 0.082807549082505122 0.025225345693914283 0 0.080480150804843983 0.024587728955337628 0 0.082373353781892381 0.025088116152072498 0 0.081508008852354263 0.026399780360920562 0 0.080533213135894136 0.025153572422604579 0 0.08257398841232147 0.02584488885960011 0 0.080248235889983532 0.026513801133377191 0 0.081508008852354263 0.026399780360920562 0 0.080533213135894136 0.025153572422604579 0 0.07802402027887978 0.024197342172624686 0 0.079030543045327709 0.025836966772577189 0 0.080533213135894136 0.025153572422604579 0 0.077918658220092557 0.023919201069238772 0 0.080480150804843983 0.024587728955337628 0 0.080248235889983532 0.026513801133377191 0 0.079030543045327709 0.025836966772577189 0 0.080533213135894136 0.025153572422604579 0 0.07844672973653688 0.02400748309081412 0 0.081411858286877747 0.024552948300988756 0 0.080806047800247929 0.023077345575625942 0 0.081411858286877747 0.024552948300988756 0 0.080806047800247929 0.023077345575625942 0 0.082137443533569179 0.024032332962716705 0 0.080806047800247929 0.023077345575625942 0 0.082137443533569179 0.024032332962716705 0 0.082363286905342198 0.023302946293392003 0 0.084327603325314748 0.020213857029195988 0 0.080871935239883438 0.020046534829210476 0 0.082422204110644132 0.017663036432864952 0 0.081322459756694401 0.021338816736495101 0 0.082240246556120028 0.020210620285979159 0 0.080806047800247929 0.023077345575625942 0 0.080871935239883438 0.020046534829210476 0 0.077912772631046553 0.020943996447456072 0 0.080806047800247929 0.023077345575625942 0 0.084327603325314748 0.020213857029195988 0 0.080871935239883438 0.020046534829210476 0 0.077912772631046553 0.020943996447456072 0 0.079127932769582174 0.018382256407399253 0 0.076982296735558037 0.018211401602497897 0 0.080871935239883438 0.020046534829210476 0 0.077912772631046553 0.020943996447456072 0 0.079127932769582174 0.018382256407399253 0 0.077912772631046553 0.020943996447456072 0 0.074999892870783499 0.019667984561655839 0 0.076982296735558037 0.018211401602497897 0 0.07844672973653688 0.02400748309081412 0 0.077912772631046553 0.020943996447456072 0 0.07499993383752801 0.023156402305781029 0 0.077918658220092557 0.023919201069238772 0 0.075003164627193794 0.023157171099230676 0 0.077912772631046553 0.020943996447456072 0 0.074999892870783499 0.019667984561655839 0 0.07499993383752801 0.023156402305781029 0 0.07844672973653688 0.02400748309081412 0 0.080806047800247929 0.023077345575625942 0 0.077912772631046553 0.020943996447456072 0 0.085112803271956847 0.024066014317058848 0 0.084187744233602049 0.024846726510678527 0 0.085872654316063779 0.025791518265325428 0 0.086266959617684449 0.024219532641175587 0 0.085112803271956847 0.024066014317058848 0 0.085872654316063779 0.025791518265325428 0 0.086266959617684449 0.024219532641175587 0 0.085872654316063779 0.025791518265325428 0 0.087361319560389616 0.025148659839609372 0 0.086266959617684449 0.024219532641175587 0 0.085531190950529454 0.023286624541869458 0 0.085112803271956847 0.024066014317058848 0 0.086266959617684449 0.024219532641175587 0 0.087356941919189232 0.023872926345397942 0 0.086402588200195501 0.023126881430360048 0 0.086266959617684449 0.024219532641175587 0 0.085531190950529454 0.023286624541869458 0 0.086402588200195501 0.023126881430360048 0 0.085531190950529454 0.023286624541869458 0 0.085112803271956847 0.024066014317058848 0 0.08461304340588785 0.023249107399986209 0 0.085112803271956847 0.024066014317058848 0 0.08461304340588785 0.023249107399986209 0 0.083849278309088504 0.023714652560190706 0 0.085112803271956847 0.024066014317058848 0 0.083849278309088504 0.023714652560190706 0 0.084187744233602049 0.024846726510678527 0 0.08461304340588785 0.023249107399986209 0 0.083849278309088504 0.023714652560190706 0 0.083665367175188118 0.02260184002196583 0 0.082363286905342198 0.023302946293392003 0 0.083849278309088504 0.023714652560190706 0 0.082997363577427305 0.024160502362018454 0 0.082363286905342198 0.023302946293392003 0 0.083849278309088504 0.023714652560190706 0 0.083665367175188118 0.02260184002196583 0 0.082137443533569179 0.024032332962716705 0 0.082997363577427305 0.024160502362018454 0 0.082807549082505122 0.025225345693914283 0 0.082137443533569179 0.024032332962716705 0 0.082363286905342198 0.023302946293392003 0 0.082997363577427305 0.024160502362018454 0 0.082997363577427305 0.024160502362018454 0 0.084187744233602049 0.024846726510678527 0 0.082807549082505122 0.025225345693914283 0 0.083849278309088504 0.023714652560190706 0 0.082997363577427305 0.024160502362018454 0 0.084187744233602049 0.024846726510678527 0 0.083255973993800941 0.025305116692503977 0 0.082373353781892381 0.025088116152072498 0 0.084187744233602049 0.024846726510678527 0 0.084340024925441209 0.026114685612124131 0 0.082807549082505122 0.025225345693914283 0 0.084340024925441209 0.026114685612124131 0 0.08257398841232147 0.02584488885960011 0 0.082698192920044225 0.02712074849360584 0 0.081508008852354263 0.026399780360920562 0 0.08257398841232147 0.02584488885960011 0 0.082698192920044225 0.02712074849360584 0 0.081458737512370816 0.028276213291111803 0 0.082107943246150936 0.027848411139728205 0 0.082953813312838562 0.028663808825175986 0 0.081339910270453508 0.027347305924848794 0 0.082698192920044225 0.02712074849360584 0 0.082107943246150936 0.027848411139728205 0 0.082698192920044225 0.02712074849360584 0 0.083676111883803569 0.027702193036152897 0 0.082953813312838562 0.028663808825175986 0 0.082698192920044225 0.02712074849360584 0 0.082107943246150936 0.027848411139728205 0 0.082953813312838562 0.028663808825175986 0 0.083676111883803569 0.027702193036152897 0 0.085346858669073905 0.027996434082939278 0 0.084383886194082977 0.028985714744341699 0 0.084340024925441209 0.026114685612124131 0 0.082698192920044225 0.02712074849360584 0 0.083676111883803569 0.027702193036152897 0 0.084340024925441209 0.026114685612124131 0 0.083676111883803569 0.027702193036152897 0 0.085346858669073905 0.027996434082939278 0 0.084340024925441209 0.026114685612124131 0 0.085346858669073905 0.027996434082939278 0 0.085872654316063779 0.025791518265325428 0 0.084187744233602049 0.024846726510678527 0 0.084340024925441209 0.026114685612124131 0 0.085872654316063779 0.025791518265325428 0 0.085872654316063779 0.025791518265325428 0 0.086801631902921422 0.028172004283520069 0 0.087344980234855263 0.026679850545471444 0 0.085346858669073905 0.027996434082939278 0 0.085872654316063779 0.025791518265325428 0 0.086801631902921422 0.028172004283520069 0 0.085346858669073905 0.027996434082939278 0 0.086801631902921422 0.028172004283520069 0 0.086350448070675295 0.029908211525289184 0 0.085346858669073905 0.027996434082939278 0 0.085098718621944666 0.030140917139708494 0 0.084383886194082977 0.028985714744341699 0 0.085346858669073905 0.027996434082939278 0 0.086350448070675295 0.029908211525289184 0 0.085098718621944666 0.030140917139708494 0 0.085098718621944666 0.030140917139708494 0 0.084374306285292813 0.031290933746704219 0 0.085536099832343185 0.031743786322814452 0 0.086350448070675295 0.029908211525289184 0 0.085098718621944666 0.030140917139708494 0 0.085536099832343185 0.031743786322814452 0 0.086350448070675295 0.029908211525289184 0 0.085536099832343185 0.031743786322814452 0 0.087213761538943502 0.031391814974045751 0 0.083676111883803569 0.027702193036152897 0 0.082350910080628864 0.030403034678153543 0 0.082953813312838562 0.028663808825175986 0 0.082796751734232815 0.029435113609399762 0 0.081710508133694057 0.030863419292072543 0 0.081331421518268832 0.030347693416399656 0 0.083402608146228144 0.029194927870105764 0 0.082904205224145044 0.03029917930112393 0 0.083676111883803569 0.027702193036152897 0 0.081331421518268832 0.030347693416399656 0 0.083402608146228144 0.029194927870105764 0 0.083402608146228144 0.029194927870105764 0 0.083885831975642769 0.030199481645562489 0 0.082904205224145044 0.03029917930112393 0 0.083676111883803569 0.027702193036152897 0 0.083402608146228144 0.029194927870105764 0 0.084383886194082977 0.028985714744341699 0 0.083402608146228144 0.029194927870105764 0 0.084383886194082977 0.028985714744341699 0 0.083885831975642769 0.030199481645562489 0 0.085098718621944666 0.030140917139708494 0 0.084383886194082977 0.028985714744341699 0 0.083885831975642769 0.030199481645562489 0 0.085098718621944666 0.030140917139708494 0 0.083885831975642769 0.030199481645562489 0 0.084374306285292813 0.031290933746704219 0 0.084374306285292813 0.031290933746704219 0 0.082908833851160699 0.031447702954660692 0 0.084158977958060585 0.032863569362850731 0 0.083885831975642769 0.030199481645562489 0 0.082904205224145044 0.03029917930112393 0 0.082908833851160699 0.031447702954660692 0 0.083885831975642769 0.030199481645562489 0 0.084374306285292813 0.031290933746704219 0 0.082908833851160699 0.031447702954660692 0 0.081331421518268832 0.030347693416399656 0 0.082908833851160699 0.031447702954660692 0 0.081714086988532914 0.033221635200488049 0 0.081331421518268832 0.030347693416399656 0 0.082904205224145044 0.03029917930112393 0 0.082908833851160699 0.031447702954660692 0 0.080787979856079745 0.034790109634977216 0 0.081714086988532914 0.033221635200488049 0 0.082647558880317135 0.034495772770156058 0 0.081714086988532914 0.033221635200488049 0 0.084158977958060585 0.032863569362850731 0 0.082647558880317135 0.034495772770156058 0 0.082908833851160699 0.031447702954660692 0 0.081714086988532914 0.033221635200488049 0 0.084158977958060585 0.032863569362850731 0 0.082675827956501663 0.035345920122307251 0 0.082421571079137945 0.03667908765863593 0 0.084158977958060585 0.032863569362850731 0 0.084242148909069003 0.035647753180132705 0 0.082647558880317135 0.034495772770156058 0 0.084158977958060585 0.032863569362850731 0 0.084127752481714363 0.033882810833041718 0 0.085063611351803278 0.03312742083085668 0 0.081458181394560139 0.036384755271538533 0 0.084242148909069003 0.035647753180132705 0 0.082647558880317135 0.034495772770156058 0 0.081458181394560139 0.036384755271538533 0 0.080787979856079745 0.034790109634977216 0 0.082647558880317135 0.034495772770156058 0 0.085536099832343185 0.031743786322814452 0 0.086244451542357561 0.033122273601889914 0 0.087213761538943502 0.031391814974045751 0 0.085536099832343185 0.031743786322814452 0 0.085063611351803278 0.03312742083085668 0 0.086244451542357561 0.033122273601889914 0 0.084374306285292813 0.031290933746704219 0 0.084158977958060585 0.032863569362850731 0 0.085536099832343185 0.031743786322814452 0 0.084158977958060585 0.032863569362850731 0 0.085536099832343185 0.031743786322814452 0 0.085063611351803278 0.03312742083085668 0 0.085063611351803278 0.03312742083085668 0 0.085342723300262102 0.033995886744709262 0 0.086244451542357561 0.033122273601889914 0 0.084127752481714363 0.033882810833041718 0 0.085063611351803278 0.03312742083085668 0 0.085342723300262102 0.033995886744709262 0 0.086498461406961324 0.034862260940826749 0 0.085342723300262102 0.033995886744709262 0 0.086244451542357561 0.033122273601889914 0 0.086498461406961324 0.034862260940826749 0 0.086244451542357561 0.033122273601889914 0 0.087311473129944361 0.033876263261286503 0 0.086244451542357561 0.033122273601889914 0 0.087311473129944361 0.033876263261286503 0 0.087647353088819838 0.032827417481054937 0 0.087311473129944361 0.033876263261286503 0 0.087647353088819838 0.032827417481054937 0 0.088544197064005167 0.03389264849175988 0 0.087647353088819838 0.032827417481054937 0 0.087213761538943502 0.031391814974045751 0 0.0889703120561713 0.031842152887405557 0 0.086244451542357561 0.033122273601889914 0 0.087647353088819838 0.032827417481054937 0 0.087213761538943502 0.031391814974045751 0 0.088276442174201233 0.026539310858100289 0 0.088216233007285483 0.026204421329516846 0 0.088126557086918633 0.026288492115373836 0 0.087647353088819838 0.032827417481054937 0 0.0889703120561713 0.031842152887405557 0 0.088544197064005167 0.03389264849175988 0 0.08697752008182702 0.029585400230381802 0 0.085081191667555164 0.031993319783355699 0 0.088106131376117419 0.02613596722184304 0 0.088216233007285483 0.026204421329516846 0 0.088126557086918633 0.026288492115373836 0 0.088106131376117419 0.02613596722184304 0 0.088126557086918633 0.026288492115373836 0 0.088014458309634586 0.026234986514565888 0 0.087935468670644432 0.026126108332064309 0 0.088014458309634586 0.026234986514565888 0 0.087819507127626859 0.026285619823233356 0 0.088024487218145292 0.026401446404635896 0 0.087819507127626859 0.026285619823233356 0 0.087830498614935276 0.026450464154207466 0 0.088014458309634586 0.026234986514565888 0 0.088024487218145292 0.026401446404635896 0 0.087819507127626859 0.026285619823233356 0 0.088126557086918633 0.026288492115373836 0 0.088014458309634586 0.026234986514565888 0 0.088024487218145292 0.026401446404635896 0 0.087686834606106503 0.026058659646336968 0 0.087421067276445538 0.026372178346316805 0 0.087132653671621083 0.0265272643559726 0 0.084390382079608153 0.030800146795470166 0 0.085786614451621862 0.029715266135565886 0 0.087686834606106503 0.026058659646336968 0 0.087421067276445538 0.026372178346316805 0 0.087627947908363354 0.026293691964238131 0 0.087686834606106503 0.026058659646336968 0 0.087819507127626859 0.026285619823233356 0 0.087627947908363354 0.026293691964238131 0 0.087935468670644432 0.026126108332064309 0 0.087686834606106503 0.026058659646336968 0 0.087819507127626859 0.026285619823233356 0 0.087819507127626859 0.026285619823233356 0 0.087627947908363354 0.026293691964238131 0 0.087582026650309328 0.026381989781068513 0 0.087819507127626859 0.026285619823233356 0 0.087582026650309328 0.026381989781068513 0 0.087830498614935276 0.026450464154207466 0 0.087421067276445538 0.026372178346316805 0 0.087582026650309328 0.026381989781068513 0 0.087357437355493547 0.026343173787355484 0 0.087421067276445538 0.026372178346316805 0 0.087627947908363354 0.026293691964238131 0 0.087582026650309328 0.026381989781068513 0 0.087739045337797236 0.026561907904096172 0 0.087457840961553734 0.026422460195813381 0 0.087524050590639044 0.02676018080074595 0 0.087582026650309328 0.026381989781068513 0 0.087739045337797236 0.026561907904096172 0 0.087457840961553734 0.026422460195813381 0 0.087582026650309328 0.026381989781068513 0 0.087830498614935276 0.026450464154207466 0 0.087739045337797236 0.026561907904096172 0 0.087830498614935276 0.026450464154207466 0 0.087739045337797236 0.026561907904096172 0 0.088032257759144236 0.02661099803218701 0 0.088276442174201233 0.026539310858100289 0 0.088024487218145292 0.026401446404635896 0 0.088032257759144236 0.02661099803218701 0 0.088276442174201233 0.026539310858100289 0 0.088126557086918633 0.026288492115373836 0 0.088024487218145292 0.026401446404635896 0 0.088024487218145292 0.026401446404635896 0 0.087830498614935276 0.026450464154207466 0 0.088032257759144236 0.02661099803218701 0 0.088032257759144236 0.02661099803218701 0 0.08790207746550012 0.02684056609578999 0 0.088416952014113315 0.026969023509855371 0 0.088276442174201233 0.026539310858100289 0 0.088032257759144236 0.02661099803218701 0 0.088416952014113315 0.026969023509855371 0 0.087739045337797236 0.026561907904096172 0 0.08790207746550012 0.02684056609578999 0 0.087524050590639044 0.02676018080074595 0 0.087739045337797236 0.026561907904096172 0 0.088032257759144236 0.02661099803218701 0 0.08790207746550012 0.02684056609578999 0 0.08790207746550012 0.02684056609578999 0 0.087775403270264798 0.027132823462127038 0 0.087524050590639044 0.02676018080074595 0 0.08790207746550012 0.02684056609578999 0 0.087775403270264798 0.027132823462127038 0 0.088155562978837088 0.027137794757349811 0 0.087775403270264798 0.027132823462127038 0 0.088155562978837088 0.027137794757349811 0 0.08808499707576084 0.027443960520186949 0 0.08777575149244024 0.028672848693520103 0 0.087998235662110652 0.028368702318476584 0 0.088155562978837088 0.027137794757349811 0 0.088416952014113315 0.026969023509855371 0 0.088701101261359327 0.027712559293204441 0 0.08790207746550012 0.02684056609578999 0 0.088155562978837088 0.027137794757349811 0 0.088416952014113315 0.026969023509855371 0 0.089134177873579287 0.029651392623011568 0 0.087844613679969957 0.029916725721774437 0 0.087962121453811298 0.028394543136210482 0 0.089134177873579287 0.029651392623011568 0 0.087962121453811298 0.028394543136210482 0 0.088701101261359327 0.027712559293204441 0 0.086801631902921422 0.028172004283520069 0 0.086350448070675295 0.029908211525289184 0 0.087844613679969957 0.029916725721774437 0 0.086801631902921422 0.028172004283520069 0 0.087844613679969957 0.029916725721774437 0 0.087962121453811298 0.028394543136210482 0 0.087213761538943502 0.031391814974045751 0 0.0889703120561713 0.031842152887405557 0 0.087844613679969957 0.029916725721774437 0 0.086350448070675295 0.029908211525289184 0 0.087213761538943502 0.031391814974045751 0 0.087844613679969957 0.029916725721774437 0 0.0889703120561713 0.031842152887405557 0 0.089134177873579287 0.029651392623011568 0 0.087844613679969957 0.029916725721774437 0 0.08697752008182702 0.029585400230381802 0 0.08777575149244024 0.028672848693520103 0 0.016883704503277686 0.023711699748432544 0 0.013986166912331219 0.020902358526507691 0 0.017200384767376179 0.018027762088594936 0 0.013986166912331219 0.020902358526507691 0 0.013000561385980103 0.017991291416704889 0 0.017200384767376179 0.018027762088594936 0 0.016883704503277686 0.023711699748432544 0 0.012092494552983016 0.023584049761184479 0 0.013986166912331219 0.020902358526507691 0 0.01300831509432142 0.02680778358181745 0 0.016883704503277686 0.023711699748432544 0 0.012092494552983016 0.023584049761184479 0 0.012092494552983016 0.023584049761184479 0 0.013986166912331219 0.020902358526507691 0 0.010748914167879507 0.021227250819829104 0 0.0095524949489447855 0.01819600270601816 0 0.010748914167879507 0.021227250819829104 0 0.013000561385980103 0.017991291416704889 0 0.013986166912331219 0.020902358526507691 0 0.010748914167879507 0.021227250819829104 0 0.013000561385980103 0.017991291416704889 0 0.0095524949489447855 0.01819600270601816 0 0.010748914167879507 0.021227250819829104 0 0.006381409788726481 0.022586137282387571 0 0.044397953974722106 0.022960598634316723 0 0.048888581213455302 0.026662221193362735 0 0.086875519013418265 0.026528254496946322 0 0.087473823159838066 0.026150345529650107 0 0.087278766082677817 0.026549956684636986 0 0.012092494552983016 0.023584049761184479 0 0.010748914167879507 0.021227250819829104 0 0.0087397017801874224 0.024193548751781459 0 0.010748914167879507 0.021227250819829104 0 0.0087397017801874224 0.024193548751781459 0 0.006381409788726481 0.022586137282387571 0 0.010348223178019087 0.026102918079709266 0 0.012092494552983016 0.023584049761184479 0 0.0087397017801874224 0.024193548751781459 0 0.08622719348791523 0.028128084823967 0 0.087473823159838066 0.026150345529650107 0 0.087132653671621083 0.0265272643559726 0 0.006220650147549826 0.025878207988302031 0 0.0087397017801874224 0.024193548751781459 0 0.006381409788726481 0.022586137282387571 0 0.087473823159838066 0.026150345529650107 0 0.087357437355493547 0.026343173787355484 0 0.087457840961553734 0.026422460195813381 0 0.087421067276445538 0.026372178346316805 0 0.087132653671621083 0.0265272643559726 0 0.087357437355493547 0.026343173787355484 0 0.087473823159838066 0.026150345529650107 0 0.087132653671621083 0.0265272643559726 0 0.087357437355493547 0.026343173787355484 0 0.087582026650309328 0.026381989781068513 0 0.087357437355493547 0.026343173787355484 0 0.087457840961553734 0.026422460195813381 0 0.087457840961553734 0.026422460195813381 0 0.087278766082677817 0.026549956684636986 0 0.087524050590639044 0.02676018080074595 0 0.087473823159838066 0.026150345529650107 0 0.087457840961553734 0.026422460195813381 0 0.087278766082677817 0.026549956684636986 0 0.087278766082677817 0.026549956684636986 0 0.087524050590639044 0.02676018080074595 0 0.087098708768746591 0.026977559288850129 0 0.087524050590639044 0.02676018080074595 0 0.087456213226414684 0.027025198768808236 0 0.087098708768746591 0.026977559288850129 0 0.087775403270264798 0.027132823462127038 0 0.087524050590639044 0.02676018080074595 0 0.087456213226414684 0.027025198768808236 0 0.087410710838022029 0.027294927579306291 0 0.087098708768746591 0.026977559288850129 0 0.087055253560336679 0.027575312104625559 0 0.087775403270264798 0.027132823462127038 0 0.087456213226414684 0.027025198768808236 0 0.087410710838022029 0.027294927579306291 0 0.087775403270264798 0.027132823462127038 0 0.087410710838022029 0.027294927579306291 0 0.087790703392102487 0.027546808318372234 0 0.087456213226414684 0.027025198768808236 0 0.087410710838022029 0.027294927579306291 0 0.087098708768746591 0.026977559288850129 0 0.034543820386034985 0.024493193618860709 0 0.054122955195567125 0.026572191643094697 0 0.087098708768746591 0.026977559288850129 0 0.086352288863874388 0.027020755183148122 0 0.087055253560336679 0.027575312104625559 0 0.086875519013418265 0.026528254496946322 0 0.087098708768746591 0.026977559288850129 0 0.086352288863874388 0.027020755183148122 0 0.086875519013418265 0.026528254496946322 0 0.087278766082677817 0.026549956684636986 0 0.087098708768746591 0.026977559288850129 0 0.013000561385980103 0.017991291416704889 0 0.012630664218124203 0.0137672579088274 0 0.017200384767376179 0.018027762088594936 0 0.0095524949489447855 0.01819600270601816 0 0.013000561385980103 0.017991291416704889 0 0.012630664218124203 0.0137672579088274 0 0.044397953974722106 0.022960598634316723 0 0.034543820386034985 0.024493193618860709 0 0.021802113454167615 0.020569426297882609 0 0.020975857490734238 0.02053024440557202 0 0.023785360180468857 0.023723453250469859 0 0.021802113454167615 0.020569426297882609 0 0.022098771522131019 0.020122170156990332 0 0.023785360180468857 0.023723453250469859 0 0.021802113454167615 0.020569426297882609 0 0.021668965502767694 0.020359768496084965 0 0.020975857490734238 0.02053024440557202 0 0.034463843562460676 0.024520171994263377 0 0.034543820386034985 0.024493193618860709 0 0.021668965502767694 0.020359768496084965 0 0.020975857490734238 0.02053024440557202 0 0.021140974497908867 0.020691000315442319 0 0.020975857490734238 0.02053024440557202 0 0.021325333172122006 0.020152644959324124 0 0.021116340429110491 0.019578854056772715 0 0.020975857490734238 0.02053024440557202 0 0.021325333172122006 0.020152644959324124 0 0.021140974497908867 0.020691000315442319 0 0.021325333172122006 0.020152644959324124 0 0.021140974497908867 0.020691000315442319 0 0.021742960670895681 0.020533887051891058 0 0.021668965502767694 0.020359768496084965 0 0.021140974497908867 0.020691000315442319 0 0.021047569253319628 0.021292602852631987 0 0.021140974497908867 0.020691000315442319 0 0.021047569253319628 0.021292602852631987 0 0.021742960670895681 0.020533887051891058 0 0.034543820386034985 0.024493193618860709 0 0.023515369982497675 0.019069170364805033 0 0.020681832556278704 0.018425614585623536 0 0.021188449579260103 0.018767208220175125 0 0.021793154769231781 0.017670966946433074 0 0.020681832556278704 0.018425614585623536 0 0.020209757021029433 0.018099445665040206 0 0.021793154769231781 0.017670966946433074 0 0.020681832556278704 0.018425614585623536 0 0.021188449579260103 0.018767208220175125 0 0.020692231864795518 0.019025608809039862 0 0.021188449579260103 0.018767208220175125 0 0.021116340429110491 0.019578854056772715 0 0.021701793880056094 0.019094017320282156 0 0.021325333172122006 0.020152644959324124 0 0.021116340429110491 0.019578854056772715 0 0.021701793880056094 0.019094017320282156 0 0.020975857490734238 0.02053024440557202 0 0.021116340429110491 0.019578854056772715 0 0.020559579720986522 0.019639207088140348 0 0.021188449579260103 0.018767208220175125 0 0.021116340429110491 0.019578854056772715 0 0.020692231864795518 0.019025608809039862 0 0.021116340429110491 0.019578854056772715 0 0.020692231864795518 0.019025608809039862 0 0.020559579720986522 0.019639207088140348 0 0.020975857490734238 0.02053024440557202 0 0.020559579720986522 0.019639207088140348 0 0.019675770360030057 0.019247752821240149 0 0.020692231864795518 0.019025608809039862 0 0.020261866740462826 0.019157842395004569 0 0.020106466788984902 0.018744995718921346 0 0.026642161772432532 0.017110621273565111 0 0.030070033975164834 0.017364744561085221 0 0.020692231864795518 0.019025608809039862 0 0.020261866740462826 0.019157842395004569 0 0.020559579720986522 0.019639207088140348 0 0.020261866740462826 0.019157842395004569 0 0.020559579720986522 0.019639207088140348 0 0.019675770360030057 0.019247752821240149 0 0.020261866740462826 0.019157842395004569 0 0.020106466788984902 0.018744995718921346 0 0.019675770360030057 0.019247752821240149 0 0.020106466788984902 0.018744995718921346 0 0.019739580027410268 0.018759168674098981 0 0.019675770360030057 0.019247752821240149 0 0.020106466788984902 0.018744995718921346 0 0.019748246718581296 0.018441098264245476 0 0.019739580027410268 0.018759168674098981 0 0.020681832556278704 0.018425614585623536 0 0.020692231864795518 0.019025608809039862 0 0.020106466788984902 0.018744995718921346 0 0.020681832556278704 0.018425614585623536 0 0.020106466788984902 0.018744995718921346 0 0.020132369764357186 0.01840751271729393 0 0.020681832556278704 0.018425614585623536 0 0.020132369764357186 0.01840751271729393 0 0.020209757021029433 0.018099445665040206 0 0.020132369764357186 0.01840751271729393 0 0.019748246718581296 0.018441098264245476 0 0.020209757021029433 0.018099445665040206 0 0.020106466788984902 0.018744995718921346 0 0.020132369764357186 0.01840751271729393 0 0.019748246718581296 0.018441098264245476 0 0.019748246718581296 0.018441098264245476 0 0.019437691191595986 0.018603827101501751 0 0.01877993472821652 0.01830198356120669 0 0.019748246718581296 0.018441098264245476 0 0.01877993472821652 0.01830198356120669 0 0.020209757021029433 0.018099445665040206 0 0.046596139697083108 0.021814653328421744 0 0.02839480625988795 0.019233001963300508 0 0.019437691191595986 0.018603827101501751 0 0.019675770360030057 0.019247752821240149 0 0.01877993472821652 0.01830198356120669 0 0.030070033975164834 0.017364744561085221 0 0.046596139697083108 0.021814653328421744 0 0.019437691191595986 0.018603827101501751 0 0.019739580027410268 0.018759168674098981 0 0.019675770360030057 0.019247752821240149 0 0.019748246718581296 0.018441098264245476 0 0.019437691191595986 0.018603827101501751 0 0.019739580027410268 0.018759168674098981 0 0.023785360180468857 0.023723453250469859 0 0.026063944261175975 0.023244119811712878 0 0.027961185001597774 0.027488992698838179 0 0.022098771522131019 0.020122170156990332 0 0.023785360180468857 0.023723453250469859 0 0.026063944261175975 0.023244119811712878 0 0.087055253560336679 0.027575312104625559 0 0.087535829631394932 0.027630195532045772 0 0.08789016031074301 0.028109341883472194 0 0.087410710838022029 0.027294927579306291 0 0.087055253560336679 0.027575312104625559 0 0.087535829631394932 0.027630195532045772 0 0.087410710838022029 0.027294927579306291 0 0.087535829631394932 0.027630195532045772 0 0.087790703392102487 0.027546808318372234 0 0.054122955195567125 0.026572191643094697 0 0.068423320980100927 0.026349472364904522 0 0.026063944261175975 0.023244119811712878 0 0.027961185001597774 0.027488992698838179 0 0.030677733267894754 0.02718479337056753 0 0.046596139697083108 0.021814653328421744 0 0.068423320980100927 0.026349472364904522 0 0.039595168326189915 0.016374332188797067 0 0.040281321758890938 0.018450356684712493 0 0.045035500992204998 0.01813321123039946 0 0.038948869603285995 0.012689736082748161 0 0.039595168326189915 0.016374332188797067 0 0.045035500992204998 0.01813321123039946 0 0.038948869603285995 0.012689736082748161 0 0.039595168326189915 0.016374332188797067 0 0.03656766225949365 0.015221403446714013 0 0.037138278208967125 0.017383890689554711 0 0.039595168326189915 0.016374332188797067 0 0.03656766225949365 0.015221403446714013 0 0.037138278208967125 0.017383890689554711 0 0.039595168326189915 0.016374332188797067 0 0.040281321758890938 0.018450356684712493 0 0.040281321758890938 0.018450356684712493 0 0.037937071215834541 0.020251834238492063 0 0.041936256918055012 0.021485007006073153 0 0.037937071215834541 0.020251834238492063 0 0.041936256918055012 0.021485007006073153 0 0.037776173962666297 0.023679251938033812 0 0.037138278208967125 0.017383890689554711 0 0.040281321758890938 0.018450356684712493 0 0.037937071215834541 0.020251834238492063 0 0.037138278208967125 0.017383890689554711 0 0.037937071215834541 0.020251834238492063 0 0.03470799553215221 0.01853671072972855 0 0.037937071215834541 0.020251834238492063 0 0.03470799553215221 0.01853671072972855 0 0.034895733031305401 0.021576653228770198 0 0.037937071215834541 0.020251834238492063 0 0.034895733031305401 0.021576653228770198 0 0.037776173962666297 0.023679251938033812 0 0.034895733031305401 0.021576653228770198 0 0.031841124674071963 0.019483784704951709 0 0.032034542254534781 0.022789188501850619 0 0.034895733031305401 0.021576653228770198 0 0.032034542254534781 0.022789188501850619 0 0.034169596395829956 0.024721791903342973 0 0.03470799553215221 0.01853671072972855 0 0.034895733031305401 0.021576653228770198 0 0.031841124674071963 0.019483784704951709 0 0.038948869603285995 0.012689736082748161 0 0.033790447704777057 0.015131526248581979 0 0.029599089179047171 0.014054212299499205 0 0.03470799553215221 0.01853671072972855 0 0.032473879696886351 0.01682885995345686 0 0.031841124674071963 0.019483784704951709 0 0.038948869603285995 0.012689736082748161 0 0.03656766225949365 0.015221403446714013 0 0.033790447704777057 0.015131526248581979 0 0.032473879696886351 0.01682885995345686 0 0.034566289935063214 0.016520841742432863 0 0.033790447704777057 0.015131526248581979 0 0.03470799553215221 0.01853671072972855 0 0.032473879696886351 0.01682885995345686 0 0.034566289935063214 0.016520841742432863 0 0.037138278208967125 0.017383890689554711 0 0.034566289935063214 0.016520841742432863 0 0.03656766225949365 0.015221403446714013 0 0.037138278208967125 0.017383890689554711 0 0.03470799553215221 0.01853671072972855 0 0.034566289935063214 0.016520841742432863 0 0.034566289935063214 0.016520841742432863 0 0.03656766225949365 0.015221403446714013 0 0.033790447704777057 0.015131526248581979 0 0.032473879696886351 0.01682885995345686 0 0.033790447704777057 0.015131526248581979 0 0.030706784944846993 0.015343995621567227 0 0.033790447704777057 0.015131526248581979 0 0.030706784944846993 0.015343995621567227 0 0.029599089179047171 0.014054212299499205 0 0.030706784944846993 0.015343995621567227 0 0.02983862084076272 0.014948128524453376 0 0.02984187772377447 0.015874319105557415 0 0.030706784944846993 0.015343995621567227 0 0.02983862084076272 0.014948128524453376 0 0.029599089179047171 0.014054212299499205 0 0.02984187772377447 0.015874319105557415 0 0.029203106856032092 0.014618432831160101 0 0.028757156289689986 0.017406094831501288 0 0.02983862084076272 0.014948128524453376 0 0.029599089179047171 0.014054212299499205 0 0.029203106856032092 0.014618432831160101 0 0.02983862084076272 0.014948128524453376 0 0.02984187772377447 0.015874319105557415 0 0.029203106856032092 0.014618432831160101 0 0.02984187772377447 0.015874319105557415 0 0.028757156289689986 0.017406094831501288 0 0.030514177418450392 0.017285523472727739 0 0.028757156289689986 0.017406094831501288 0 0.030514177418450392 0.017285523472727739 0 0.029614961883951817 0.019031845923102617 0 0.032473879696886351 0.01682885995345686 0 0.030514177418450392 0.017285523472727739 0 0.031841124674071963 0.019483784704951709 0 0.030706784944846993 0.015343995621567227 0 0.02984187772377447 0.015874319105557415 0 0.030514177418450392 0.017285523472727739 0 0.032473879696886351 0.01682885995345686 0 0.030706784944846993 0.015343995621567227 0 0.030514177418450392 0.017285523472727739 0 0.031841124674071963 0.019483784704951709 0 0.029450389756054608 0.021581316112125642 0 0.029614961883951817 0.019031845923102617 0 0.030514177418450392 0.017285523472727739 0 0.031841124674071963 0.019483784704951709 0 0.029614961883951817 0.019031845923102617 0 0.031841124674071963 0.019483784704951709 0 0.032034542254534781 0.022789188501850619 0 0.029450389756054608 0.021581316112125642 0 0.029450389756054608 0.021581316112125642 0 0.027541516404926896 0.019810866307941856 0 0.026348941061107342 0.021847489720968578 0 0.028757156289689986 0.017406094831501288 0 0.029614961883951817 0.019031845923102617 0 0.027541516404926896 0.019810866307941856 0 0.029450389756054608 0.021581316112125642 0 0.029614961883951817 0.019031845923102617 0 0.027541516404926896 0.019810866307941856 0 0.027541516404926896 0.019810866307941856 0 0.026348941061107342 0.021847489720968578 0 0.024849742081851638 0.019265179911145198 0 0.028757156289689986 0.017406094831501288 0 0.027541516404926896 0.019810866307941856 0 0.024849742081851638 0.019265179911145198 0 0.026348941061107342 0.021847489720968578 0 0.024849742081851638 0.019265179911145198 0 0.020735609333251637 0.023489108828422221 0 0.029203106856032092 0.014618432831160101 0 0.026488336637543321 0.016726637405659918 0 0.024951453401751367 0.015236106663300124 0 0.029599089179047171 0.014054212299499205 0 0.029203106856032092 0.014618432831160101 0 0.024951453401751367 0.015236106663300124 0 0.02839480625988795 0.019233001963300508 0 0.024741208890941647 0.017960560019169208 0 0.029889763628597663 0.017036181859044874 0 0.030366822039253935 0.017196210108725664 0 0.029203106856032092 0.014618432831160101 0 0.028757156289689986 0.017406094831501288 0 0.024849742081851638 0.019265179911145198 0 0.087344980234855263 0.026679850545471444 0 0.088704629647461675 0.025898420231697823 0 0.088111117167428615 0.025556512415223789 0 0.086251959820829269 0.025899698282161699 0 0.08429860726445941 0.025808377085450099 0 0.087344980234855263 0.026679850545471444 0 0.088265742627236715 0.027601630051972619 0 0.08863453793649885 0.027562451544393272 0 0.087344980234855263 0.026679850545471444 0 0.088111117167428615 0.025556512415223789 0 0.087361319560389616 0.025148659839609372 0 0.085872654316063779 0.025791518265325428 0 0.087344980234855263 0.026679850545471444 0 0.087361319560389616 0.025148659839609372 0 0.086801631902921422 0.028172004283520069 0 0.087344980234855263 0.026679850545471444 0 0.087962121453811298 0.028394543136210482 0 0.087344980234855263 0.026679850545471444 0 0.087962121453811298 0.028394543136210482 0 0.088265742627236715 0.027601630051972619 0 0.087962121453811298 0.028394543136210482 0 0.088265742627236715 0.027601630051972619 0 0.088701101261359327 0.027712559293204441 0 0.088265742627236715 0.027601630051972619 0 0.088701101261359327 0.027712559293204441 0 0.08863453793649885 0.027562451544393272 0 0.088155562978837088 0.027137794757349811 0 0.088701101261359327 0.027712559293204441 0 0.08808499707576084 0.027443960520186949 0 0.088701101261359327 0.027712559293204441 0 0.08808499707576084 0.027443960520186949 0 0.088270764858794856 0.027723544035010296 0 0.088701101261359327 0.027712559293204441 0 0.088270764858794856 0.027723544035010296 0 0.08863453793649885 0.027562451544393272 0 0.087535829631394932 0.027630195532045772 0 0.087790703392102487 0.027546808318372234 0 0.08789016031074301 0.028109341883472194 0 0.087775403270264798 0.027132823462127038 0 0.087790703392102487 0.027546808318372234 0 0.08808499707576084 0.027443960520186949 0 0.087790703392102487 0.027546808318372234 0 0.08808499707576084 0.027443960520186949 0 0.088270764858794856 0.027723544035010296 0 0.087790703392102487 0.027546808318372234 0 0.088270764858794856 0.027723544035010296 0 0.08789016031074301 0.028109341883472194 0 0.088270764858794856 0.027723544035010296 0 0.08789016031074301 0.028109341883472194 0 0.08863453793649885 0.027562451544393272 0 0.089827234374625614 0.025641973600855558 0 0.088704629647461675 0.025898420231697823 0 0.089194200649780689 0.025010686981341727 0 0.068423320980100927 0.026349472364904522 0 0.08429860726445941 0.025808377085450099 0 0.088704629647461675 0.025898420231697823 0 0.088668231841217582 0.025232772735416732 0 0.089194200649780689 0.025010686981341727 0 0.089194200649780689 0.025010686981341727 0 0.089221767029864799 0.024942739117730942 0 0.089057571347112854 0.024744913920574384 0 0.089194200649780689 0.025010686981341727 0 0.088814677652878288 0.024756667096603881 0 0.089057571347112854 0.024744913920574384 0 0.088668231841217582 0.025232772735416732 0 0.089194200649780689 0.025010686981341727 0 0.088814677652878288 0.024756667096603881 0 0.046596139697083108 0.021814653328421744 0 0.062822868440202267 0.022929609492307761 0 0.089003045986227283 0.024812940205495859 0 0.089194200649780689 0.025010686981341727 0 0.089221767029864799 0.024942739117730942 0 0.088761396483307789 0.024844023618816383 0 0.089003045986227283 0.024812940205495859 0 0.089221767029864799 0.024942739117730942 0 0.068423320980100927 0.026349472364904522 0 0.074191259590276767 0.028963465053247133 0 0.045035500992204998 0.01813321123039946 0 0.045648633776775409 0.022301390274405392 0 0.041936256918055012 0.021485007006073153 0 0.040281321758890938 0.018450356684712493 0 0.045035500992204998 0.01813321123039946 0 0.041936256918055012 0.021485007006073153 0 0.045035500992204998 0.01813321123039946 0 0.045648633776775409 0.022301390274405392 0 0.049274858160386695 0.021879359013334577 0 0.045648633776775409 0.022301390274405392 0 0.049274858160386695 0.021879359013334577 0 0.051346923860451782 0.023739875993632868 0 0.088814677652878288 0.024756667096603881 0 0.088962731566518266 0.024179566580634936 0 0.088425441222198947 0.024319160652554423 0 0.088814677652878288 0.024756667096603881 0 0.089057571347112854 0.024744913920574384 0 0.088962731566518266 0.024179566580634936 0 0.062822868440202267 0.022929609492307761 0 0.069331264863074171 0.021749380918221081 0 0.089221767029864799 0.024942739117730942 0 0.089057571347112854 0.024744913920574384 0 0.088962731566518266 0.024179566580634936 0 0.069331264863074171 0.021749380918221081 0 0.072262921394893195 0.020917208863474687 0 0.088962731566518266 0.024179566580634936 0 0.088425441222198947 0.024319160652554423 0 0.088647288697493026 0.02380020278891504 0 0.088425441222198947 0.024319160652554423 0 0.087356941919189232 0.023872926345397942 0 0.088647288697493026 0.02380020278891504 0 0.080552675148567607 0.019941910721618685 0 0.072262921394893195 0.020917208863474687 0 0.088425441222198947 0.024319160652554423 0 0.08823386975363183 0.024868268582977637 0 0.087356941919189232 0.023872926345397942 0 0.088814677652878288 0.024756667096603881 0 0.088425441222198947 0.024319160652554423 0 0.08823386975363183 0.024868268582977637 0 0.088668231841217582 0.025232772735416732 0 0.088814677652878288 0.024756667096603881 0 0.08823386975363183 0.024868268582977637 0 0.08823386975363183 0.024868268582977637 0 0.088111117167428615 0.025556512415223789 0 0.087361319560389616 0.025148659839609372 0 0.088704629647461675 0.025898420231697823 0 0.088668231841217582 0.025232772735416732 0 0.088111117167428615 0.025556512415223789 0 0.088668231841217582 0.025232772735416732 0 0.08823386975363183 0.024868268582977637 0 0.088111117167428615 0.025556512415223789 0 0.08823386975363183 0.024868268582977637 0 0.087361319560389616 0.025148659839609372 0 0.087356941919189232 0.023872926345397942 0 0.086266959617684449 0.024219532641175587 0 0.087361319560389616 0.025148659839609372 0 0.087356941919189232 0.023872926345397942 0 0.087356941919189232 0.023872926345397942 0 0.087328086121370496 0.022700608680702183 0 0.088848343400851335 0.022939301999386076 0 0.087356941919189232 0.023872926345397942 0 0.087328086121370496 0.022700608680702183 0 0.086402588200195501 0.023126881430360048 0 0.077252130680648845 0.016533830229312669 0 0.079485811270994855 0.014936212455554661 0 0.087328086121370496 0.022700608680702183 0 0.087681308754447823 0.021656096538462979 0 0.08640251322545052 0.022178356635433241 0 0.077460054921257238 0.015354526194298414 0 0.078295650325222788 0.015377080568502498 0 0.078033151683198146 0.01560321741008534 0 0.077460054921257238 0.015354526194298414 0 0.077870375187321664 0.015794446027551829 0 0.078033151683198146 0.01560321741008534 0 0.074541860451884503 0.01522157420344664 0 0.074995229781381137 0.017089379254197113 0 0.077038647013176517 0.017923140391562321 0 0.074541860451884503 0.01522157420344664 0 0.074995229781381137 0.017089379254197113 0 0.073222226594243434 0.016727496358647637 0 0.077252130680648845 0.016533830229312669 0 0.077277518154254779 0.013523580396821907 0 0.077252130680648845 0.016533830229312669 0 0.073233708073992293 0.016106938897343725 0 0.074693950249196492 0.01526966598967212 0 0.070920137939701575 0.015143244977158942 0 0.071201401949420651 0.011489036311363216 0 0.074541860451884503 0.01522157420344664 0 0.073222226594243434 0.016727496358647637 0 0.070880584176965813 0.015106466328454847 0 0.073222226594243434 0.016727496358647637 0 0.070880584176965813 0.015106466328454847 0 0.06991968310496692 0.017292100338832224 0 0.087328086121370496 0.022700608680702183 0 0.087681308754447823 0.021656096538462979 0 0.088848343400851335 0.022939301999386076 0 0.077252130680648845 0.016533830229312669 0 0.073791832402245239 0.020243993130809278 0 0.087356941919189232 0.023872926345397942 0 0.088848343400851335 0.022939301999386076 0 0.089128803591438377 0.023250821135937707 0 0.070920137939701575 0.015143244977158942 0 0.071201401949420651 0.011489036311363216 0 0.07034128264926183 0.010557911060979351 0 0.073791832402245239 0.020243993130809278 0 0.072262921394893195 0.020917208863474687 0 0.070920137939701575 0.015143244977158942 0 0.068535385309927005 0.012659487965599849 0 0.07034128264926183 0.010557911060979351 0 0.072262921394893195 0.020917208863474687 0 0.056373964161890118 0.018534343101988586 0 0.068535385309927005 0.012659487965599849 0 0.07034128264926183 0.010557911060979351 0 0.064058720833564883 0.012150570799951755 0 0.045648633776775409 0.022301390274405392 0 0.051346923860451782 0.023739875993632868 0 0.042811701472711593 0.025878098509293589 0 0.068535385309927005 0.012659487965599849 0 0.064058720833564883 0.012150570799951755 0 0.067144196874674947 0.015001420278517414 0 0.045648633776775409 0.022301390274405392 0 0.041936256918055012 0.021485007006073153 0 0.042811701472711593 0.025878098509293589 0 0.064058720833564883 0.012150570799951755 0 0.063920973930758102 0.015627573629799683 0 0.067144196874674947 0.015001420278517414 0 0.063116485474044332 0.012191453222981187 0 0.069144695085460006 0.011887937491171625 0 0.065782953825921683 0.0040107734946215222 0 0.068864463268055079 0.0049255950615787374 0 0.06744852910381148 0.005589347662117489 0 0.063920973930758102 0.015627573629799683 0 0.067144196874674947 0.015001420278517414 0 0.06991968310496692 0.017292100338832224 0 0.073233708073992293 0.016106938897343725 0 0.071603517048292292 0.015961999706676857 0 0.070880584176965813 0.015106466328454847 0 0.067144196874674947 0.015001420278517414 0 0.06991968310496692 0.017292100338832224 0 0.070920137939701575 0.015143244977158942 0 0.068535385309927005 0.012659487965599849 0 0.067144196874674947 0.015001420278517414 0 0.068864463268055079 0.0049255950615787374 0 0.06744852910381148 0.005589347662117489 0 0.068594212530438251 0.0063288777059059649 0 0.06744852910381148 0.005589347662117489 0 0.068594212530438251 0.0063288777059059649 0 0.067555713734955961 0.0067141312957454914 0 0.068864463268055079 0.0049255950615787374 0 0.068594212530438251 0.0063288777059059649 0 0.069850453339071583 0.0063981452003893883 0 0.065782953825921683 0.0040107734946215222 0 0.066333921295759865 0.0058292438365195034 0 0.065327161130830674 0.0050654476090661177 0 0.065782953825921683 0.0040107734946215222 0 0.06744852910381148 0.005589347662117489 0 0.066333921295759865 0.0058292438365195034 0 0.066333921295759865 0.0058292438365195034 0 0.066500785483918495 0.0067955826570517625 0 0.067555713734955961 0.0067141312957454914 0 0.06744852910381148 0.005589347662117489 0 0.066333921295759865 0.0058292438365195034 0 0.067555713734955961 0.0067141312957454914 0 0.066333921295759865 0.0058292438365195034 0 0.066500785483918495 0.0067955826570517625 0 0.065252649855574177 0.0066189860360656265 0 0.066333921295759865 0.0058292438365195034 0 0.065327161130830674 0.0050654476090661177 0 0.065252649855574177 0.0066189860360656265 0 0.066997568345975117 0.0078965377340598653 0 0.065252649855574177 0.0066189860360656265 0 0.066453097978324008 0.0092884534391051241 0 0.064760116776524934 0.0059054103914782151 0 0.064127305634743031 0.0044404382551224827 0 0.066500785483918495 0.0067955826570517625 0 0.066997568345975117 0.0078965377340598653 0 0.065252649855574177 0.0066189860360656265 0 0.066500785483918495 0.0067955826570517625 0 0.066997568345975117 0.0078965377340598653 0 0.067555713734955961 0.0067141312957454914 0 0.066997568345975117 0.0078965377340598653 0 0.068826075062588282 0.0075281084759364781 0 0.068774332464612301 0.0092427910560918102 0 0.066997568345975117 0.0078965377340598653 0 0.067555713734955961 0.0067141312957454914 0 0.068826075062588282 0.0075281084759364781 0 0.068594212530438251 0.0063288777059059649 0 0.067555713734955961 0.0067141312957454914 0 0.068826075062588282 0.0075281084759364781 0 0.068594212530438251 0.0063288777059059649 0 0.068826075062588282 0.0075281084759364781 0 0.069850453339071583 0.0063981452003893883 0 0.068826075062588282 0.0075281084759364781 0 0.070597013106190099 0.0079271575645398062 0 0.068774332464612301 0.0092427910560918102 0 0.068826075062588282 0.0075281084759364781 0 0.070597013106190099 0.0079271575645398062 0 0.069850453339071583 0.0063981452003893883 0 0.070597013106190099 0.0079271575645398062 0 0.070994301541407193 0.0068242091899272401 0 0.069850453339071583 0.0063981452003893883 0 0.070597013106190099 0.0079271575645398062 0 0.071744209494875436 0.0071327717560254987 0 0.072015897821213121 0.0088177750164561662 0 0.071744209494875436 0.0071327717560254987 0 0.072015897821213121 0.0088177750164561662 0 0.073267687708841914 0.0062755952371755458 0 0.070597013106190099 0.0079271575645398062 0 0.071744209494875436 0.0071327717560254987 0 0.070994301541407193 0.0068242091899272401 0 0.071744209494875436 0.0071327717560254987 0 0.070994301541407193 0.0068242091899272401 0 0.0717834883572563 0.0058413998956743018 0 0.07707992502769466 0.011719895239264871 0 0.07713893241399572 0.011701751994363728 0 0.077182617042152818 0.011745474316951407 0 0.071744209494875436 0.0071327717560254987 0 0.0717834883572563 0.0058413998956743018 0 0.073267687708841914 0.0062755952371755458 0 0.075097823020680882 0.01212605399964581 0 0.077295932639299972 0.011958607377711353 0 0.074995229781381137 0.017089379254197113 0 0.07576376037199406 0.018919410123725812 0 0.077036901769932956 0.017920192734616768 0 0.077213843884947467 0.013672298970222815 0 0.077277518154254779 0.013523580396821907 0 0.07576376037199406 0.018919410123725812 0 0.077036901769932956 0.017920192734616768 0 0.0774791767492405 0.018399020752948501 0 0.075097823020680882 0.01212605399964581 0 0.077086339299402298 0.013053140260442743 0 0.077277518154254779 0.013523580396821907 0 0.077086339299402298 0.013053140260442743 0 0.074995229781381137 0.017089379254197113 0 0.073222226594243434 0.016727496358647637 0 0.07576376037199406 0.018919410123725812 0 0.069144695085460006 0.011887937491171625 0 0.075097823020680882 0.01212605399964581 0 0.070994301541407193 0.0068242091899272401 0 0.0717834883572563 0.0058413998956743018 0 0.069850453339071583 0.0063981452003893883 0 0.068864463268055079 0.0049255950615787374 0 0.071859267222317155 0.0058212516074041499 0 0.069850453339071583 0.0063981452003893883 0 0.075097823020680882 0.01212605399964581 0 0.07382875038418911 0.011608247139512546 0 0.073222226594243434 0.016727496358647637 0 0.06991968310496692 0.017292100338832224 0 0.07576376037199406 0.018919410123725812 0 0.050886787953740437 0.0014618428222657523 0 0.05119466935125238 0.0024747643675946478 0 0.049621808716368399 0.0017586549908200474 0 0.050886787953740437 0.0014618428222657523 0 0.05059877228703219 0.00056687687066568507 0 0.049621808716368399 0.0017586549908200474 0 0.026348941061107342 0.021847489720968578 0 0.025245138263762026 0.024800284567962315 0 0.029777769125695228 0.026067015964405787 0 0.026348941061107342 0.021847489720968578 0 0.025245138263762026 0.024800284567962315 0 0.020735609333251637 0.023489108828422221 0 0.050886787953740437 0.0014618428222657523 0 0.05059877228703219 0.00056687687066568507 0 0.051784005345042031 0.00090225103155942149 0 0.040221470284399104 0.012208170765938929 0 0.046186373969811151 0.011603190140291358 0 0.032034542254534781 0.022789188501850619 0 0.029450389756054608 0.021581316112125642 0 0.029998217665182923 0.026674616973123746 0 0.043048323619563705 0.012777900736098625 0 0.046186373969811151 0.011603190140291358 0 0.029450389756054608 0.021581316112125642 0 0.026348941061107342 0.021847489720968578 0 0.029998217665182923 0.026674616973123746 0 0.032034542254534781 0.022789188501850619 0 0.029998217665182923 0.026674616973123746 0 0.034169596395829956 0.024721791903342973 0 0.046186373969811151 0.011603190140291358 0 0.052856502779322724 0.013176521675593491 0 0.051784005345042031 0.00090225103155942149 0 0.05289443752955629 0.0022552793014353517 0 0.05119466935125238 0.0024747643675946478 0 0.050886787953740437 0.0014618428222657523 0 0.051784005345042031 0.00090225103155942149 0 0.05119466935125238 0.0024747643675946478 0 0.060549060700577993 0.0025991629588187877 0 0.061720014166146801 0.0033231521133694169 0 0.062528882025494378 0.0049333746582286946 0 0.046186373969811151 0.011603190140291358 0 0.053412172644448336 0.007347356056218347 0 0.062466380851425814 0.0031098938072308315 0 0.063914426536895191 0.0037823513087285889 0 0.062528882025494378 0.0049333746582286946 0 0.060549060700577993 0.0025991629588187877 0 0.062456804841528143 0.0031164007746446796 0 0.061720014166146801 0.0033231521133694169 0 0.052856502779322724 0.013176521675593491 0 0.053480924713407881 0.012888113161510633 0 0.062466380851425814 0.0031098938072308315 0 0.061720014166146801 0.0033231521133694169 0 0.062528882025494378 0.0049333746582286946 0 0.029998217665182923 0.026674616973123746 0 0.034592486595858653 0.028067906813055384 0 0.034169596395829956 0.024721791903342973 0 0.034895733031305401 0.021576653228770198 0 0.034169596395829956 0.024721791903342973 0 0.037776173962666297 0.023679251938033812 0 0.034592486595858653 0.028067906813055384 0 0.034169596395829956 0.024721791903342973 0 0.037776173962666297 0.023679251938033812 0 0.042811701472711593 0.025878098509293589 0 0.034592486595858653 0.028067906813055384 0 0.037776173962666297 0.023679251938033812 0 0.056373964161890118 0.018534343101988586 0 0.052856502779322724 0.013176521675593491 0 0.041936256918055012 0.021485007006073153 0 0.042811701472711593 0.025878098509293589 0 0.037776173962666297 0.023679251938033812 0 0.064058720833564883 0.012150570799951755 0 0.063920973930758102 0.015627573629799683 0 0.057839874164497658 0.013875718803924995 0 0.063116485474044332 0.012191453222981187 0 0.052856502779322724 0.013176521675593491 0 0.065782953825921683 0.0040107734946215222 0 0.062466380851425814 0.0031098938072308315 0 0.063914426536895191 0.0037823513087285889 0 0.065782953825921683 0.0040107734946215222 0 0.063914426536895191 0.0037823513087285889 0 0.065327161130830674 0.0050654476090661177 0 0.064968753245338726 0.0066075924647752936 0 0.064336298980622125 0.0071332900453511903 0 0.062528882025494378 0.0049333746582286946 0 0.063914426536895191 0.0037823513087285889 0 0.064968753245338726 0.0066075924647752936 0 0.062528882025494378 0.0049333746582286946 0 0.063914426536895191 0.0037823513087285889 0 0.065327161130830674 0.0050654476090661177 0 0.065252649855574177 0.0066189860360656265 0 0.064453554866884491 0.0051254981356275943 0 0.064760116776524934 0.0059054103914782151 0 0.064968753245338726 0.0066075924647752936 0 0.064336298980622125 0.0071332900453511903 0 0.065990951735769507 0.0092022949743458728 0 0.058805139706553343 0.0057210580594294069 0 0.064127305634743031 0.0044404382551224827 0 0.053994930805559956 0.0035950531141290577 0 0.052644903150516162 0.0037786742247119726 0 0.053829222084110902 0.0048178787183468562 0 0.053994930805559956 0.0035950531141290577 0 0.052644903150516162 0.0037786742247119726 0 0.05289443752955629 0.0022552793014353517 0 0.058805139706553343 0.0057210580594294069 0 0.053412172644448336 0.007347356056218347 0 0.052644903150516162 0.0037786742247119726 0 0.05289443752955629 0.0022552793014353517 0 0.05119466935125238 0.0024747643675946478 0 0.052644903150516162 0.0037786742247119726 0 0.051160843442628542 0.0043266839992784235 0 0.05119466935125238 0.0024747643675946478 0 0.057770770544556545 -0.0048565590583786256 0 0.054665503060719219 -0.0027299193512884501 0 0.051160843442628542 0.0043266839992784235 0 0.05119466935125238 0.0024747643675946478 0 0.049543083707875357 0.0034543943453802031 0 0.067323088703753725 -0.019440233525245033 0 0.066952853784672847 -0.019064898878157998 0 0.067054839168693536 -0.019872114011293147 0 0.067949915715205186 -0.019406071423855139 0 0.067653502661384285 -0.019436197570777903 0 0.067734102683098776 -0.019687269370073649 0 0.067653502661384285 -0.019436197570777903 0 0.067506533853971928 -0.01964920355400478 0 0.067734102683098776 -0.019687269370073649 0 0.067653502661384285 -0.019436197570777903 0 0.067904272910312827 -0.019196305361255928 0 0.067422298001678344 -0.019132479933620484 0 0.067949915715205186 -0.019406071423855139 0 0.067653502661384285 -0.019436197570777903 0 0.067904272910312827 -0.019196305361255928 0 0.067595211028935231 -0.018675801921563463 0 0.067904272910312827 -0.019196305361255928 0 0.068384212757319221 -0.018962975073707779 0 0.067595211028935231 -0.018675801921563463 0 0.067904272910312827 -0.019196305361255928 0 0.067422298001678344 -0.019132479933620484 0 0.057770770544556545 -0.0048565590583786256 0 0.059359945431744901 -0.0059484586749986275 0 0.052644903150516162 0.0037786742247119726 0 0.051160843442628542 0.0043266839992784235 0 0.052767954077139238 0.0051775017298269482 0 0.067595211028935231 -0.018675801921563463 0 0.067422298001678344 -0.019132479933620484 0 0.066952853784672847 -0.019064898878157998 0 0.067422298001678344 -0.019132479933620484 0 0.067323088703753725 -0.019440233525245033 0 0.066952853784672847 -0.019064898878157998 0 0.067653502661384285 -0.019436197570777903 0 0.067422298001678344 -0.019132479933620484 0 0.067323088703753725 -0.019440233525245033 0 0.067653502661384285 -0.019436197570777903 0 0.067323088703753725 -0.019440233525245033 0 0.067506533853971928 -0.01964920355400478 0 0.066952853784672847 -0.019064898878157998 0 0.066417118417188989 -0.019359943653453133 0 0.067054839168693536 -0.019872114011293147 0 0.052644903150516162 0.0037786742247119726 0 0.052767954077139238 0.0051775017298269482 0 0.053829222084110902 0.0048178787183468562 0 0.053994930805559956 0.0035950531141290577 0 0.053829222084110902 0.0048178787183468562 0 0.055072991833957752 0.0049082216181281285 0 0.053829222084110902 0.0048178787183468562 0 0.054350760882947394 0.0060019811359834545 0 0.055072991833957752 0.0049082216181281285 0 0.052767954077139238 0.0051775017298269482 0 0.053829222084110902 0.0048178787183468562 0 0.054350760882947394 0.0060019811359834545 0 0.059359945431744901 -0.0059484586749986275 0 0.060809388763406032 -0.0063706997581313932 0 0.066417118417188989 -0.019359943653453133 0 0.066395926212593118 -0.019907315105148777 0 0.067054839168693536 -0.019872114011293147 0 0.063800148170533963 -0.023204113359702162 0 0.063242870544715474 -0.024032832087641468 0 0.064303432059274163 -0.024065449051098437 0 0.063800148170533963 -0.023204113359702162 0 0.06526214287014323 -0.022888834466959187 0 0.064303432059274163 -0.024065449051098437 0 0.06526214287014323 -0.022888834466959187 0 0.065405488285274427 -0.023829215119116384 0 0.064303432059274163 -0.024065449051098437 0 0.065025303374835045 -0.018704247579548385 0 0.066063784548608215 -0.020303870787094978 0 0.067323088703753725 -0.019440233525245033 0 0.067054839168693536 -0.019872114011293147 0 0.067506533853971928 -0.01964920355400478 0 0.067054839168693536 -0.019872114011293147 0 0.067700582379190119 -0.019813750764536821 0 0.067506533853971928 -0.01964920355400478 0 0.066063784548608215 -0.020303870787094978 0 0.067108555839892808 -0.021175149768731884 0 0.06526214287014323 -0.022888834466959187 0 0.066003332925135175 -0.023400983998242007 0 0.066883517774976975 -0.022596817133031816 0 0.06526214287014323 -0.022888834466959187 0 0.065405488285274427 -0.023829215119116384 0 0.066003332925135175 -0.023400983998242007 0 0.065405488285274427 -0.023829215119116384 0 0.066003332925135175 -0.023400983998242007 0 0.066318529381663521 -0.024297325548297208 0 0.067378620566029127 -0.021214710353124489 0 0.067186561967381764 -0.020371487698418681 0 0.066297341447827951 -0.023195162837486065 0 0.066003332925135175 -0.023400983998242007 0 0.066883517774976975 -0.022596817133031816 0 0.066318529381663521 -0.024297325548297208 0 0.067108555839892808 -0.021175149768731884 0 0.066323670673705412 -0.023698211052438117 0 0.067378620566029127 -0.021214710353124489 0 0.067909882227973367 -0.021787347019745551 0 0.066297341447827951 -0.023195162837486065 0 0.067378620566029127 -0.021214710353124489 0 0.067894640526124844 -0.020718642074294785 0 0.067909882227973367 -0.021787347019745551 0 0.067378620566029127 -0.021214710353124489 0 0.067186561967381764 -0.020371487698418681 0 0.067362013001797255 -0.020345878871329139 0 0.067378620566029127 -0.021214710353124489 0 0.067362013001797255 -0.020345878871329139 0 0.067894640526124844 -0.020718642074294785 0 0.067362013001797255 -0.020345878871329139 0 0.067922759649455378 -0.020052321935523514 0 0.067894640526124844 -0.020718642074294785 0 0.067108555839892808 -0.021175149768731884 0 0.067109634778533517 -0.021174280924458697 0 0.067700582379190119 -0.019813750764536821 0 0.067506533853971928 -0.01964920355400478 0 0.067734102683098776 -0.019687269370073649 0 0.067108555839892808 -0.021175149768731884 0 0.067156668307724987 -0.021047450575331018 0 0.067213751400510349 -0.020363484695777048 0 0.067362013001797255 -0.020345878871329139 0 0.067734102683098776 -0.019687269370073649 0 0.067362013001797255 -0.020345878871329139 0 0.067734102683098776 -0.019687269370073649 0 0.067922759649455378 -0.020052321935523514 0 0.069645327973520355 0.010728300958929038 0 0.070806638689762808 0.011345580701382913 0 0.070339914665799252 0.0095827152923282973 0 0.069645327973520355 0.010728300958929038 0 0.068296391626617159 0.011487173319842298 0 0.070014142383712993 0.011974735580143579 0 0.069645327973520355 0.010728300958929038 0 0.070806638689762808 0.011345580701382913 0 0.070014142383712993 0.011974735580143579 0 0.070806638689762808 0.011345580701382913 0 0.072210853426034602 0.010859760473930386 0 0.07141182402323526 0.012766373038936667 0 0.07377010401516923 0.011199679707909723 0 0.074866510606228731 0.010695598354439808 0 0.070806638689762808 0.011345580701382913 0 0.072210853426034602 0.010859760473930386 0 0.071999262397578409 0.0090730293843834121 0 0.072210853426034602 0.010859760473930386 0 0.071999262397578409 0.0090730293843834121 0 0.073041440647179684 0.0090623044752202297 0 0.070806638689762808 0.011345580701382913 0 0.072015897821213121 0.0088177750164561662 0 0.070339914665799252 0.0095827152923282973 0 0.070597013106190099 0.0079271575645398062 0 0.072015897821213121 0.0088177750164561662 0 0.070339914665799252 0.0095827152923282973 0 0.070597013106190099 0.0079271575645398062 0 0.070339914665799252 0.0095827152923282973 0 0.068774332464612301 0.0092427910560918102 0 0.069645327973520355 0.010728300958929038 0 0.070339914665799252 0.0095827152923282973 0 0.068774332464612301 0.0092427910560918102 0 0.066997568345975117 0.0078965377340598653 0 0.068774332464612301 0.0092427910560918102 0 0.066453097978324008 0.0092884534391051241 0 0.068774332464612301 0.0092427910560918102 0 0.066453097978324008 0.0092884534391051241 0 0.068296391626617159 0.011487173319842298 0 0.064127305634743031 0.0044404382551224827 0 0.063855197582989826 0.00014457824626686958 0 0.064127305634743031 0.0044404382551224827 0 0.067484965472868322 0.0037028768760866831 0 0.060809388763406032 -0.0063706997581313932 0 0.063794817538139523 -0.0058778026867147811 0 0.066092452467706425 0.0012808166997507235 0 0.065848242686471575 0.00059579206305964143 0 0.06539576594079731 0.00031754078608065678 0 0.054350760882947394 0.0060019811359834545 0 0.055072991833957752 0.0049082216181281285 0 0.055475832437070244 0.0058634703339841181 0 0.054350760882947394 0.0060019811359834545 0 0.055475832437070244 0.0058634703339841181 0 0.055885788330330151 0.0068004444163329856 0 0.069645327973520355 0.010728300958929038 0 0.068774332464612301 0.0092427910560918102 0 0.068296391626617159 0.011487173319842298 0 0.063855197582989826 0.00014457824626686958 0 0.063794817538139523 -0.0058778026867147811 0 0.065848242686471575 0.00059579206305964143 0 0.06539576594079731 0.00031754078608065678 0 0.065595863882303915 -7.5235955264306222e-05 0 0.063794817538139523 -0.0058778026867147811 0 0.068916465028868723 -0.0012764428950824086 0 0.06539576594079731 0.00031754078608065678 0 0.065595863882303915 -7.5235955264306222e-05 0 0.06472189041568463 -0.00061012919753883647 0 0.064426559116294774 -0.010464392094389641 0 0.064994131119424578 -0.0090854384699835689 0 0.067387846424779213 -0.008822388530452854 0 0.065935450670945833 -0.019638034482329286 0 0.066019960264604521 -0.01969030394575761 0 0.065881228192345223 -0.019804801983104556 0 0.063794817538139523 -0.0058778026867147811 0 0.064727143548575949 -0.013143919830037137 0 0.06446203374206691 -0.013747111326282518 0 0.064727143548575949 -0.013143919830037137 0 0.066417118417188989 -0.019359943653453133 0 0.066395926212593118 -0.019907315105148777 0 0.066019960264604521 -0.01969030394575761 0 0.066417118417188989 -0.019359943653453133 0 0.065935450670945833 -0.019638034482329286 0 0.066019960264604521 -0.01969030394575761 0 0.066395926212593118 -0.019907315105148777 0 0.066019960264604521 -0.01969030394575761 0 0.065840294734574548 -0.019850265309510392 0 0.065025303374835045 -0.018704247579548385 0 0.06492625577125824 -0.015057923001382069 0 0.066395926212593118 -0.019907315105148777 0 0.065795404608720104 -0.019958018277439284 0 0.065840294734574548 -0.019850265309510392 0 0.063800148170533963 -0.023204113359702162 0 0.06252024741677209 -0.023438500252063357 0 0.063242870544715474 -0.024032832087641468 0 0.066766725488683704 -0.015508542875571001 0 0.066709200671601673 -0.015518229514575842 0 0.066673395610974809 -0.015769652344087989 0 0.06492625577125824 -0.015057923001382069 0 0.065794099836902292 -0.019280866167245534 0 0.065886446843834573 -0.0082815972014813211 0 0.064994131119424578 -0.0090854384699835689 0 0.067387846424779213 -0.008822388530452854 0 0.06492625577125824 -0.015057923001382069 0 0.065596650863944644 -0.014040026559609059 0 0.063674884072999871 -0.013573926533538783 0 0.06403625948959811 -0.013520424062890236 0 0.063498656054136085 -0.014007630701260865 0 0.065596650863944644 -0.014040026559609059 0 0.064727143548575949 -0.013143919830037137 0 0.06492625577125824 -0.015057923001382069 0 0.064727143548575949 -0.013143919830037137 0 0.06252024741677209 -0.023438500252063357 0 0.062704889045973558 -0.024106247751545632 0 0.063242870544715474 -0.024032832087641468 0 0.065596650863944644 -0.014040026559609059 0 0.066516968110831354 -0.013262614056823349 0 0.065886446843834573 -0.0082815972014813211 0 0.068355005894969567 -0.0079313079668282948 0 0.067387846424779213 -0.008822388530452854 0 0.065918462759351315 -0.0083165183889920644 0 0.068355005894969567 -0.0079313079668282948 0 0.068947486367088529 -0.0055365590454322586 0 0.068296391626617159 0.011487173319842298 0 0.070072594624451146 0.013706079271757966 0 0.070014142383712993 0.011974735580143579 0 0.070072594624451146 0.013706079271757966 0 0.070014142383712993 0.011974735580143579 0 0.07141182402323526 0.012766373038936667 0 0.067484965472868322 0.0037028768760866831 0 0.068916465028868723 -0.0012764428950824086 0 0.070806638689762808 0.011345580701382913 0 0.070014142383712993 0.011974735580143579 0 0.07141182402323526 0.012766373038936667 0 0.07251825685695594 0.010409715255079558 0 0.07141182402323526 0.012766373038936667 0 0.073179690889938642 0.012151029681942102 0 0.07141182402323526 0.012766373038936667 0 0.072410440757145492 0.015087101402192311 0 0.073179690889938642 0.012151029681942102 0 0.074676738072509991 0.011376391076009065 0 0.073987059546496717 0.012014349749785231 0 0.070072594624451146 0.013706079271757966 0 0.07141182402323526 0.012766373038936667 0 0.072410440757145492 0.015087101402192311 0 0.068916465028868723 -0.0012764428950824086 0 0.072923676508639151 -0.0042255396427621052 0 0.068355005894969567 -0.0079313079668282948 0 0.067387846424779213 -0.008822388530452854 0 0.070193188375463678 -0.0072499243014398874 0 0.072923676508639151 -0.0042255396427621052 0 0.078137373838064308 0.00418429802268744 0 0.092698131424074945 0.000180122040579247 0 0.089993340074593156 0.00081389214047320217 0 0.090315246127443127 0.0035636033969690928 0 0.089993340074593156 0.00081389214047320217 0 0.088019253192220884 9.8631919081392736e-05 0 0.088723626451369414 0.0023801844366922462 0 0.089993340074593156 0.00081389214047320217 0 0.088723626451369414 0.0023801844366922462 0 0.090315246127443127 0.0035636033969690928 0 0.088723626451369414 0.0023801844366922462 0 0.090315246127443127 0.0035636033969690928 0 0.088293487400090839 0.0045200858477721121 0 0.072410440757145492 0.015087101402192311 0 0.074656801503303186 0.012129182227330872 0 0.073179690889938642 0.012151029681942102 0 0.074656801503303186 0.012129182227330872 0 0.073179690889938642 0.012151029681942102 0 0.074018235215504519 0.011225896135039399 0 0.073179690889938642 0.012151029681942102 0 0.073416223363944488 0.010102442517868199 0 0.074018235215504519 0.011225896135039399 0 0.075377365902905613 0.010953973807818037 0 0.075638848433503589 0.010614872946165079 0 0.07251825685695594 0.010409715255079558 0 0.073179690889938642 0.012151029681942102 0 0.073385748980823229 0.010116087842428744 0 0.073416223363944488 0.010102442517868199 0 0.074819231078787504 0.010523455156315031 0 0.074497431038950498 0.009263536971035902 0 0.073416223363944488 0.010102442517868199 0 0.074819231078787504 0.010523455156315031 0 0.074018235215504519 0.011225896135039399 0 0.074656801503303186 0.012129182227330872 0 0.074819231078787504 0.010523455156315031 0 0.074018235215504519 0.011225896135039399 0 0.078137373838064308 0.00418429802268744 0 0.080920081009508857 0.0081719797663912016 0 0.074819231078787504 0.010523455156315031 0 0.075661330072398572 0.0093679086386854581 0 0.076908733988342054 0.0090751574709018994 0 0.074656801503303186 0.012129182227330872 0 0.074819231078787504 0.010523455156315031 0 0.076908733988342054 0.0090751574709018994 0 0.090315246127443127 0.0035636033969690928 0 0.088293487400090839 0.0045200858477721121 0 0.087949514907059878 0.0068401562572528649 0 0.074819231078787504 0.010523455156315031 0 0.075661330072398572 0.0093679086386854581 0 0.074497431038950498 0.009263536971035902 0 0.075661330072398572 0.0093679086386854581 0 0.075383576983196809 0.0084541473769067111 0 0.074497431038950498 0.009263536971035902 0 0.075383576983196809 0.0084541473769067111 0 0.077060349860827382 0.0088278474596146794 0 0.074555686430507959 0.0061178469091387553 0 0.075661330072398572 0.0093679086386854581 0 0.075383576983196809 0.0084541473769067111 0 0.076878545703776488 0.0090796511658068606 0 0.075383576983196809 0.0084541473769067111 0 0.077060349860827382 0.0088278474596146794 0 0.076878545703776488 0.0090796511658068606 0 0.080220586151345932 0.0083362078662852102 0 0.080920081009508857 0.0081719797663912016 0 0.07251825685695594 0.010409715255079558 0 0.073385748980823229 0.010116087842428744 0 0.073603293032239975 0.0081145140545832665 0 0.075638848433503589 0.010614872946165079 0 0.076371271591013076 0.010589293875254091 0 0.074676738072509991 0.011376391076009065 0 0.076371271591013076 0.010589293875254091 0 0.073416223363944488 0.010102442517868199 0 0.073643021559060204 0.0080745851219844508 0 0.074497431038950498 0.009263536971035902 0 0.075383576983196809 0.0084541473769067111 0 0.073643021559060204 0.0080745851219844508 0 0.074497431038950498 0.009263536971035902 0 0.081519077373089874 0.0091706339184731509 0 0.081775434960484339 0.0091116679749615927 0 0.081461135324315107 0.008980972874653612 0 0.082236154519685453 0.0088015682369839872 0 0.081468501721597766 0.0095478838325393136 0 0.085217060398875014 0.0078868139774365808 0 0.084368478423660673 0.0059006628638747895 0 0.083139495561880702 0.0069221733029276493 0 0.081519077373089874 0.0091706339184731509 0 0.08138155719828348 0.0091118837590082272 0 0.081461135324315107 0.008980972874653612 0 0.081519077373089874 0.0091706339184731509 0 0.08138155719828348 0.0091118837590082272 0 0.081244658237280679 0.0092095826546232211 0 0.085217060398875014 0.0078868139774365808 0 0.087995416566603132 0.0074542801904447942 0 0.086224726735805807 0.005504964133672993 0 0.082236154519685453 0.0088015682369839872 0 0.081290048286977598 0.0083738493505229727 0 0.081290048286977598 0.0083738493505229727 0 0.08150511073605346 0.010727274338445808 0 0.08138155719828348 0.0091118837590082272 0 0.081244658237280679 0.0092095826546232211 0 0.081421044600123185 0.0089695794295479095 0 0.087752708559122566 0.0071082808023891567 0 0.087949514907059878 0.0068401562572528649 0 0.087480275345494338 0.0056249358539654836 0 0.081290048286977598 0.0083738493505229727 0 0.080920081009508857 0.0081719797663912016 0 0.081290048286977598 0.0083738493505229727 0 0.082812736348818389 0.00764522507886069 0 0.088293487400090839 0.0045200858477721121 0 0.087949514907059878 0.0068401562572528649 0 0.087480275345494338 0.0056249358539654836 0 0.087752708559122566 0.0071082808023891567 0 0.087480275345494338 0.0056249358539654836 0 0.086077215346025998 0.0052442704203550898 0 0.088293487400090839 0.0045200858477721121 0 0.087480275345494338 0.0056249358539654836 0 0.086771431012627867 0.0038149429708863266 0 0.087480275345494338 0.0056249358539654836 0 0.086077215346025998 0.0052442704203550898 0 0.086771431012627867 0.0038149429708863266 0 0.085217060398875014 0.0078868139774365808 0 0.086224726735805807 0.005504964133672993 0 0.084368478423660673 0.0059006628638747895 0 0.082812736348818389 0.00764522507886069 0 0.082896463030781339 0.0071031384838631207 0 0.086224726735805807 0.005504964133672993 0 0.084368478423660673 0.0059006628638747895 0 0.084591398865778988 0.0036878996131461932 0 0.084368478423660673 0.0059006628638747895 0 0.084591398865778988 0.0036878996131461932 0 0.082913078091748374 0.0050957469620037188 0 0.084591398865778988 0.0036878996131461932 0 0.086771431012627867 0.0038149429708863266 0 0.085533253659210051 0.0014411852299040311 0 0.084591398865778988 0.0036878996131461932 0 0.085533253659210051 0.0014411852299040311 0 0.082803832907883151 0.0028492919204538818 0 0.086077215346025998 0.0052442704203550898 0 0.084591398865778988 0.0036878996131461932 0 0.086771431012627867 0.0038149429708863266 0 0.088723626451369414 0.0023801844366922462 0 0.086771431012627867 0.0038149429708863266 0 0.085533253659210051 0.0014411852299040311 0 0.088723626451369414 0.0023801844366922462 0 0.088293487400090839 0.0045200858477721121 0 0.086771431012627867 0.0038149429708863266 0 0.088019253192220884 9.8631919081392736e-05 0 0.088723626451369414 0.0023801844366922462 0 0.085450832195797674 0.0011172659462743702 0 0.086727891415391334 0.0016801273520996337 0 0.08511113296490215 0.0011292128169383419 0 0.088019253192220884 9.8631919081392736e-05 0 0.085450832195797674 0.0011172659462743702 0 0.086857493514156101 -0.0012922747687542948 0 0.08511113296490215 0.0011292128169383419 0 0.082154739267726179 0.00011708337196542098 0 0.085450832195797674 0.0011172659462743702 0 0.082160641025036632 -3.4841150225168982e-05 0 0.085032773257084915 -0.0016285289176631457 0 0.085533253659210051 0.0014411852299040311 0 0.082241654270181597 0.00030650527981480592 0 0.082803832907883151 0.0028492919204538818 0 0.082241654270181597 0.00030650527981480592 0 0.080556116328165395 0.002165428194055405 0 0.082803832907883151 0.0028492919204538818 0 0.082241654270181597 0.00030650527981480592 0 0.080556116328165395 0.002165428194055405 0 0.078829721746660683 -0.0009381111235957384 0 0.080556116328165395 0.002165428194055405 0 0.079725659162524304 0.0041651822982271764 0 0.081389765316209214 0.0044446125058949714 0 0.080556116328165395 0.002165428194055405 0 0.081389765316209214 0.0044446125058949714 0 0.082803832907883151 0.0028492919204538818 0 0.081389765316209214 0.0044446125058949714 0 0.082803832907883151 0.0028492919204538818 0 0.082913078091748374 0.0050957469620037188 0 0.084591398865778988 0.0036878996131461932 0 0.082803832907883151 0.0028492919204538818 0 0.082913078091748374 0.0050957469620037188 0 0.075000004211139615 0.0022826879258619707 0 0.07825181684251413 0.0021099943433477851 0 0.076634286741799285 -0.00033502974466382516 0 0.07825181684251413 0.0021099943433477851 0 0.078829721746660683 -0.0009381111235957384 0 0.076634286741799285 -0.00033502974466382516 0 0.080556116328165395 0.002165428194055405 0 0.07825181684251413 0.0021099943433477851 0 0.078829721746660683 -0.0009381111235957384 0 0.080556116328165395 0.002165428194055405 0 0.079725659162524304 0.0041651822982271764 0 0.07825181684251413 0.0021099943433477851 0 0.079725659162524304 0.0041651822982271764 0 0.07825181684251413 0.0021099943433477851 0 0.078318416459474446 0.0040885713385237343 0 0.075000004211139615 0.0022826879258619707 0 0.078318416459474446 0.0040885713385237343 0 0.077554120103586685 0.005642190694181236 0 0.075000004211139615 0.0022826879258619707 0 0.07825181684251413 0.0021099943433477851 0 0.078318416459474446 0.0040885713385237343 0 0.075000004211139615 0.0022826879258619707 0 0.074999954240875147 0.0065957735699380578 0 0.077554120103586685 0.005642190694181236 0 0.074999954240875147 0.0065957735699380578 0 0.077554120103586685 0.005642190694181236 0 0.077715951515326592 0.0074480347189696157 0 0.079009135595314972 0.0077069704690487214 0 0.079576799698948791 0.0082916733733817763 0 0.077554120103586685 0.005642190694181236 0 0.079375364998614417 0.0072731738547030652 0 0.077715951515326592 0.0074480347189696157 0 0.078318416459474446 0.0040885713385237343 0 0.077554120103586685 0.005642190694181236 0 0.079273977229361123 0.005631753636717981 0 0.079725659162524304 0.0041651822982271764 0 0.078318416459474446 0.0040885713385237343 0 0.079273977229361123 0.005631753636717981 0 0.079273977229361123 0.005631753636717981 0 0.079239650504774453 0.0069751577554613741 0 0.079954702365915564 0.0065096643018432293 0 0.077554120103586685 0.005642190694181236 0 0.079273977229361123 0.005631753636717981 0 0.079239650504774453 0.0069751577554613741 0 0.079375364998614417 0.0072731738547030652 0 0.07931806498804933 0.0082503995818134241 0 0.077715951515326592 0.0074480347189696157 0 0.079375364998614417 0.0072731738547030652 0 0.07931806498804933 0.0082503995818134241 0 0.080227434845654852 0.0085938581637873251 0 0.07931806498804933 0.0082503995818134241 0 0.078335710415708207 0.0088593257419509169 0 0.080252877550936907 0.0096525164166955616 0 0.078335710415708207 0.0088593257419509169 0 0.077715951515326592 0.0074480347189696157 0 0.076730281961882224 0.0088176568736481938 0 0.07931806498804933 0.0082503995818134241 0 0.078335710415708207 0.0088593257419509169 0 0.077715951515326592 0.0074480347189696157 0 0.078335710415708207 0.0088593257419509169 0 0.076730281961882224 0.0088176568736481938 0 0.077617451731151796 0.010278854685788727 0 0.074999954240875147 0.0065957735699380578 0 0.076730281961882224 0.0088176568736481938 0 0.075000009698405312 0.010909197523976306 0 0.074999954240875147 0.0065957735699380578 0 0.077715951515326592 0.0074480347189696157 0 0.076730281961882224 0.0088176568736481938 0 0.081820376949861343 0.0064469835880578757 0 0.082913078091748374 0.0050957469620037188 0 0.083139495561880702 0.0069221733029276493 0 0.084368478423660673 0.0059006628638747895 0 0.082913078091748374 0.0050957469620037188 0 0.083139495561880702 0.0069221733029276493 0 0.081389765316209214 0.0044446125058949714 0 0.081820376949861343 0.0064469835880578757 0 0.082913078091748374 0.0050957469620037188 0 0.081389765316209214 0.0044446125058949714 0 0.081820376949861343 0.0064469835880578757 0 0.080508737463925284 0.0057721499713047561 0 0.079725659162524304 0.0041651822982271764 0 0.081389765316209214 0.0044446125058949714 0 0.080508737463925284 0.0057721499713047561 0 0.079725659162524304 0.0041651822982271764 0 0.079273977229361123 0.005631753636717981 0 0.080508737463925284 0.0057721499713047561 0 0.079273977229361123 0.005631753636717981 0 0.080508737463925284 0.0057721499713047561 0 0.079954702365915564 0.0065096643018432293 0 0.080508737463925284 0.0057721499713047561 0 0.079954702365915564 0.0065096643018432293 0 0.080868313694010124 0.0067576231519563016 0 0.081820376949861343 0.0064469835880578757 0 0.080508737463925284 0.0057721499713047561 0 0.080868313694010124 0.0067576231519563016 0 0.081820376949861343 0.0064469835880578757 0 0.08166702687011812 0.0072099803855236325 0 0.080868313694010124 0.0067576231519563016 0 0.08166702687011812 0.0072099803855236325 0 0.080868313694010124 0.0067576231519563016 0 0.079895517649042028 0.0074108310556769462 0 0.079895517649042028 0.0074108310556769462 0 0.080858228023889533 0.0083941228584851826 0 0.08256076594650863 0.0085062884359323378 0 0.080965390188605782 0.009100027895459134 0 0.081468501721597766 0.0095478838325393136 0 0.08166702687011812 0.0072099803855236325 0 0.079895517649042028 0.0074108310556769462 0 0.082616224332659097 0.008510116940762787 0 0.079576799698948791 0.0082916733733817763 0 0.08075401230946519 0.009605827458621383 0 0.079239650504774453 0.0069751577554613741 0 0.079895517649042028 0.0074108310556769462 0 0.080858228023889533 0.0083941228584851826 0 0.079239650504774453 0.0069751577554613741 0 0.079954702365915564 0.0065096643018432293 0 0.079895517649042028 0.0074108310556769462 0 0.079954702365915564 0.0065096643018432293 0 0.080868313694010124 0.0067576231519563016 0 0.079895517649042028 0.0074108310556769462 0 0.07931806498804933 0.0082503995818134241 0 0.080227434845654852 0.0085938581637873251 0 0.080252877550936907 0.0096525164166955616 0 0.079375364998614417 0.0072731738547030652 0 0.080227434845654852 0.0085938581637873251 0 0.081159785521515912 0.008868634569124895 0 0.080729379398471177 0.00958453711336992 0 0.08075401230946519 0.009605827458621383 0 0.079625525900137689 0.010244298331941834 0 0.079555040695268336 0.010328709656729003 0 0.080227434845654852 0.0085938581637873251 0 0.080874674244702224 0.0088724228753009476 0 0.080252877550936907 0.0096525164166955616 0 0.080227434845654852 0.0085938581637873251 0 0.080874674244702224 0.0088724228753009476 0 0.081151180031319645 0.0088642134846621326 0 0.080874674244702224 0.0088724228753009476 0 0.081655337705044129 0.0093092497076944034 0 0.080254459754853846 0.0096415421822177924 0 0.080874674244702224 0.0088724228753009476 0 0.081151180031319645 0.0088642134846621326 0 0.081655337705044129 0.0093092497076944034 0 0.08075401230946519 0.009605827458621383 0 0.080944108936336356 0.0099267635943571051 0 0.08075401230946519 0.009605827458621383 0 0.081202639946535676 0.0097986503466971891 0 0.081426389829748216 0.0097798482361398809 0 0.081029103197995375 0.0094289753533243707 0 0.080581380617637657 0.0095356697361147873 0 0.080944108936336356 0.0099267635943571051 0 0.081202639946535676 0.0097986503466971891 0 0.085217060398875014 0.0078868139774365808 0 0.082616224332659097 0.008510116940762787 0 0.083139495561880702 0.0069221733029276493 0 0.080858228023889533 0.0083941228584851826 0 0.081838598317039532 0.0086777676663856614 0 0.08256076594650863 0.0085062884359323378 0 0.081202639946535676 0.0097986503466971891 0 0.081468501721597766 0.0095478838325393136 0 0.08166702687011812 0.0072099803855236325 0 0.082616224332659097 0.008510116940762787 0 0.083139495561880702 0.0069221733029276493 0 0.081820376949861343 0.0064469835880578757 0 0.08166702687011812 0.0072099803855236325 0 0.083139495561880702 0.0069221733029276493 0 0.081202639946535676 0.0097986503466971891 0 0.081637634313199439 0.010564379303137994 0 0.081643063969747257 0.010625110687455384 0 0.082070384443289054 0.010524198213437766 0 0.083529327617822488 0.012291638121055597 0 0.081362253482668248 0.01003803741007258 0 0.083525650226662376 0.012068428215164607 0 0.080861107069071028 0.011555609985279007 0 0.082070384443289054 0.010524198213437766 0 0.083529327617822488 0.012291638121055597 0 0.085204366914938767 0.011436686730278882 0 0.08130691435452081 0.010120356416636006 0 0.081369644669571486 0.010105783502794853 0 0.08163853501230009 0.010218139435568247 0 0.080944108936336356 0.0099267635943571051 0 0.08297956784665457 0.011718566376792042 0 0.080944108936336356 0.0099267635943571051 0 0.079555040695268336 0.010328709656729003 0 0.081362253482668248 0.01003803741007258 0 0.080112590678499684 0.010304703916239796 0 0.080861107069071028 0.011555609985279007 0 0.081136392112105216 0.0129805600100164 0 0.077659249955195644 0.013154091767456131 0 0.080724748051087827 0.0149512133131739 0 0.080861107069071028 0.011555609985279007 0 0.081136392112105216 0.0129805600100164 0 0.077659249955195644 0.013154091767456131 0 0.081136392112105216 0.0129805600100164 0 0.082506976284122527 0.013637260670058467 0 0.080724748051087827 0.0149512133131739 0 0.083525650226662376 0.012068428215164607 0 0.081136392112105216 0.0129805600100164 0 0.082506976284122527 0.013637260670058467 0 0.083525650226662376 0.012068428215164607 0 0.080861107069071028 0.011555609985279007 0 0.081136392112105216 0.0129805600100164 0 0.082506976284122527 0.013637260670058467 0 0.08342413771503257 0.014853804292603535 0 0.083725440824029551 0.013611611315609676 0 0.083525650226662376 0.012068428215164607 0 0.082506976284122527 0.013637260670058467 0 0.083725440824029551 0.013611611315609676 0 0.07500348017212817 0.01090892033314359 0 0.077420319158680279 0.010555605842727637 0 0.076730281961882224 0.0088176568736481938 0 0.075000009698405312 0.010909197523976306 0 0.077617451731151796 0.010278854685788727 0 0.075000008122978898 0.010909192943261689 0 0.077603947059376982 0.010301987953183355 0 0.077607159296336145 0.012917448803324938 0 0.079555040695268336 0.010328709656729003 0 0.077420319158680279 0.010555605842727637 0 0.078335710415708207 0.0088593257419509169 0 0.080252877550936907 0.0096525164166955616 0 0.077617451731151796 0.010278854685788727 0 0.080112590678499684 0.010304703916239796 0 0.080861107069071028 0.011555609985279007 0 0.077659249955195644 0.013154091767456131 0 0.080195326393927582 0.0096852699285799627 0 0.077603947059376982 0.010301987953183355 0 0.077607159296336145 0.012917448803324938 0 0.079555040695268336 0.010328709656729003 0 0.077446527878859903 0.013100084741018678 0 0.075000008122978898 0.010909192943261689 0 0.077607159296336145 0.012917448803324938 0 0.074999987564120948 0.013544426792470702 0 0.077607159296336145 0.012917448803324938 0 0.074999987564120948 0.013544426792470702 0 0.075000003682460903 0.016179718703039303 0 0.077446527878859903 0.013100084741018678 0 0.075002199143991019 0.01617695334784083 0 0.077659249955195644 0.013154091767456131 0 0.075000026507744344 0.016180080763298372 0 0.077956483307261459 0.015951274087393913 0 0.077659249955195644 0.013154091767456131 0 0.077956483307261459 0.015951274087393913 0 0.080724748051087827 0.0149512133131739 0 0.077956483307261459 0.015951274087393913 0 0.079127932769582174 0.018382256407399253 0 0.080724748051087827 0.0149512133131739 0 0.077956483307261459 0.015951274087393913 0 0.079127932769582174 0.018382256407399253 0 0.076982296735558037 0.018211401602497897 0 0.074999892870783499 0.019667984561655839 0 0.075000026507744344 0.016180080763298372 0 0.076982296735558037 0.018211401602497897 0 0.075000026507744344 0.016180080763298372 0 0.077956483307261459 0.015951274087393913 0 0.076982296735558037 0.018211401602497897 0 0.083458653584591244 0.014266113059050232 0 0.082584152049467757 0.014363487844194715 0 0.084283403356178843 0.015079388520660349 0 0.080724748051087827 0.0149512133131739 0 0.082422204110644132 0.017663036432864952 0 0.082506976284122527 0.013637260670058467 0 0.08342413771503257 0.014853804292603535 0 0.080724748051087827 0.0149512133131739 0 0.079127932769582174 0.018382256407399253 0 0.080724748051087827 0.0149512133131739 0 0.082422204110644132 0.017663036432864952 0 0.080871935239883438 0.020046534829210476 0 0.079127932769582174 0.018382256407399253 0 0.082422204110644132 0.017663036432864952 0 0.084327603325314748 0.020213857029195988 0 0.082422204110644132 0.017663036432864952 0 0.08534178809895146 0.017157849421694644 0 0.084283403356178843 0.015079388520660349 0 0.082422204110644132 0.017663036432864952 0 0.08534178809895146 0.017157849421694644 0 0.082240246556120028 0.020210620285979159 0 0.083135738831551051 0.017735129720392765 0 0.084327603325314748 0.020213857029195988 0 0.08534178809895146 0.017157849421694644 0 0.08755035243859137 0.017704117500137711 0 0.08534178809895146 0.017157849421694644 0 0.087471992787379285 0.016376438469782283 0 0.08755035243859137 0.017704117500137711 0 0.08342413771503257 0.014853804292603535 0 0.085880353207833673 0.014858067994232232 0 0.085418995430040848 0.013919105699553192 0 0.08342413771503257 0.014853804292603535 0 0.083725440824029551 0.013611611315609676 0 0.085418995430040848 0.013919105699553192 0 0.084283403356178843 0.015079388520660349 0 0.08534178809895146 0.017157849421694644 0 0.086526696365197359 0.015584766690807642 0 0.083458653584591244 0.014266113059050232 0 0.083650868807175316 0.013861576319403164 0 0.084283403356178843 0.015079388520660349 0 0.086526696365197359 0.015584766690807642 0 0.087704061100614322 0.01524941375199927 0 0.08534178809895146 0.017157849421694644 0 0.086526696365197359 0.015584766690807642 0 0.087471992787379285 0.016376438469782283 0 0.083650868807175316 0.013861576319403164 0 0.081323963908835992 0.014698449285457467 0 0.083135738831551051 0.017735129720392765 0 0.081323963908835992 0.014698449285457467 0 0.085880353207833673 0.014858067994232232 0 0.088028674289196959 0.014173763228079974 0 0.086670329249947442 0.013550979312461771 0 0.087666127416472325 0.015270406408825182 0 0.087471992787379285 0.016376438469782283 0 0.090680483975409371 0.015363096375066315 0 0.083650868807175316 0.013861576319403164 0 0.080452994113578868 0.01279986827722621 0 0.087471992787379285 0.016376438469782283 0 0.08755035243859137 0.017704117500137711 0 0.090680483975409371 0.015363096375066315 0 0.086526696365197359 0.015584766690807642 0 0.087666127416472325 0.015270406408825182 0 0.087471992787379285 0.016376438469782283 0 0.08390285655619116 0.013848878623946945 0 0.083650868807175316 0.013861576319403164 0 0.08461304340588785 0.023249107399986209 0 0.083665367175188118 0.02260184002196583 0 0.08498608135449931 0.022544648049890842 0 0.083665367175188118 0.02260184002196583 0 0.08498608135449931 0.022544648049890842 0 0.08509587290068675 0.02158568630511664 0 0.085531190950529454 0.023286624541869458 0 0.08461304340588785 0.023249107399986209 0 0.08498608135449931 0.022544648049890842 0 0.085531190950529454 0.023286624541869458 0 0.08498608135449931 0.022544648049890842 0 0.085738080860229424 0.022545198691121621 0 0.08498608135449931 0.022544648049890842 0 0.085738080860229424 0.022545198691121621 0 0.085342351326261764 0.022033583143569162 0 0.085531190950529454 0.023286624541869458 0 0.086402588200195501 0.023126881430360048 0 0.085738080860229424 0.022545198691121621 0 0.085738080860229424 0.022545198691121621 0 0.08640251322545052 0.022178356635433241 0 0.085790315035383577 0.022008086945633019 0 0.085738080860229424 0.022545198691121621 0 0.085790315035383577 0.022008086945633019 0 0.085342351326261764 0.022033583143569162 0 0.086402588200195501 0.023126881430360048 0 0.085738080860229424 0.022545198691121621 0 0.08640251322545052 0.022178356635433241 0 0.087328086121370496 0.022700608680702183 0 0.086402588200195501 0.023126881430360048 0 0.08640251322545052 0.022178356635433241 0 0.087681308754447823 0.021656096538462979 0 0.08640251322545052 0.022178356635433241 0 0.085971560823746587 0.021591450132407038 0 0.08640251322545052 0.022178356635433241 0 0.085971560823746587 0.021591450132407038 0 0.085790315035383577 0.022008086945633019 0 0.079485811270994855 0.014936212455554661 0 0.079986833182181361 0.014762842035454624 0 0.085971560823746587 0.021591450132407038 0 0.085790315035383577 0.022008086945633019 0 0.085558210327378495 0.021577379745304087 0 0.079485811270994855 0.014936212455554661 0 0.078750098744490682 0.013489082861408956 0 0.078838813002784724 0.014481796091264621 0 0.078745509365378982 0.014478982050955779 0 0.078806267277589173 0.014350051674315913 0 0.078838813002784724 0.014481796091264621 0 0.078854360693102421 0.01431419305225827 0 0.078806267277589173 0.014350051674315913 0 0.079986833182181361 0.014762842035454624 0 0.079230288582627678 0.013769053647563661 0 0.078295650325222788 0.015377080568502498 0 0.078033151683198146 0.01560321741008534 0 0.078258234649616079 0.015740883256791401 0 0.082616705001026816 0.01302339546866596 0 0.080807401939516951 0.012962782619149509 0 0.081003965666820749 0.013119758037297643 0 0.082616705001026816 0.01302339546866596 0 0.080798822332113371 0.013562898261698335 0 0.081003965666820749 0.013119758037297643 0 0.08498608135449931 0.022544648049890842 0 0.085342351326261764 0.022033583143569162 0 0.08509587290068675 0.02158568630511664 0 0.085790315035383577 0.022008086945633019 0 0.085342351326261764 0.022033583143569162 0 0.085558210327378495 0.021577379745304087 0 0.085342351326261764 0.022033583143569162 0 0.08509587290068675 0.02158568630511664 0 0.085548947199901859 0.021595487430344409 0 0.079994546977971856 0.015100659317003924 0 0.079986833182181361 0.014762842035454624 0 0.080807401939516951 0.012962782619149509 0 0.080798332389341282 0.013561096159236488 0 0.081003965666820749 0.013119758037297643 0 0.080807401939516951 0.012962782619149509 0 0.080798332389341282 0.013561096159236488 0 0.079884616439130737 0.013628489330283829 0 0.079272262516988296 0.014502654134893747 0 0.07962911213467104 0.014513566961005296 0 0.079831363658303359 0.014091801747881407 0 0.081323963908835992 0.014698449285457467 0 0.079230288582627678 0.013769053647563661 0 0.081323963908835992 0.014698449285457467 0 0.079986833182181361 0.014762842035454624 0 0.080452994113578868 0.01279986827722621 0 0.080455554612141031 0.012812434087384408 0 0.088028674289196959 0.014173763228079974 0 0.087592612492051872 0.013221295412843703 0 0.086670329249947442 0.013550979312461771 0 0.088028674289196959 0.014173763228079974 0 0.088605778527168555 0.012903371259627495 0 0.087592612492051872 0.013221295412843703 0 0.079213084638001433 0.013322136575323985 0 0.079473872811369084 0.01275087411044315 0 0.079764664325899945 0.013156260639103558 0 0.080452994113578868 0.01279986827722621 0 0.079178808601882228 0.012342458524190376 0 0.080452994113578868 0.01279986827722621 0 0.078896252926361113 0.01340535243803209 0 0.079504891946762329 0.010794038725824661 0 0.079399412767207689 0.011022661294152643 0 0.08041497956612384 0.011309837484227155 0 0.079178808601882228 0.012342458524190376 0 0.078759090383613242 0.011744007445174067 0 0.079178808601882228 0.012342458524190376 0 0.081315823210873606 0.011819567961135582 0 0.088605778527168555 0.012903371259627495 0 0.087592612492051872 0.013221295412843703 0 0.087062540984728806 0.012253935510685408 0 0.087592612492051872 0.013221295412843703 0 0.087062540984728806 0.012253935510685408 0 0.086670329249947442 0.013550979312461771 0 0.077277518154254779 0.013523580396821907 0 0.077525899849167565 0.013157487576155862 0 0.077357359326115996 0.013840272566647027 0 0.07742922510400628 0.013818822061472552 0 0.077212615303592011 0.01358191051242974 0 0.076747982583423122 0.013617551739722839 0 0.076284569420609336 0.013425105800248008 0 0.076510288421103786 0.013357961144457491 0 0.077525899849167565 0.013157487576155862 0 0.077086339299402298 0.013053140260442743 0 0.077870375187321664 0.015794446027551829 0 0.078033151683198146 0.01560321741008534 0 0.078012665347120591 0.015851897011272369 0 0.077525899849167565 0.013157487576155862 0 0.078750098744490682 0.013489082861408956 0 0.078033151683198146 0.01560321741008534 0 0.078012665347120591 0.015851897011272369 0 0.078258234649616079 0.015740883256791401 0 0.077525899849167565 0.013157487576155862 0 0.078217168739993667 0.012748135229714195 0 0.078958887214608559 0.013614591471514077 0 0.079151400230340896 0.013672312806064934 0 0.079166955879737544 0.013521018379317037 0 0.079473872811369084 0.01275087411044315 0 0.079866480697918463 0.012945602822770698 0 0.079764664325899945 0.013156260639103558 0 0.080798332389341282 0.013561096159236488 0 0.079767661993059139 0.013867011045308375 0 0.079884616439130737 0.013628489330283829 0 0.078217168739993667 0.012748135229714195 0 0.078750098744490682 0.013489082861408956 0 0.078217168739993667 0.012748135229714195 0 0.078896252926361113 0.01340535243803209 0 0.077829299205806016 0.013285578163968697 0 0.077831760277779286 0.013264188026113283 0 0.077839235347132579 0.013266653695629666 0 0.079833266664928113 0.013937292925370015 0 0.079672615106055694 0.013883298389639274 0 0.079544592102190087 0.014147282724614562 0 0.078896252926361113 0.01340535243803209 0 0.079230288582627678 0.013769053647563661 0 0.078750098744490682 0.013489082861408956 0 0.079230288582627678 0.013769053647563661 0 0.078750098744490682 0.013489082861408956 0 0.078896252926361113 0.01340535243803209 0 0.079178808601882228 0.012342458524190376 0 0.078217168739993667 0.012748135229714195 0 0.078562769879257463 0.012055292072080377 0 0.077824470896856651 0.011690989387644185 0 0.077775752562030259 0.012178860283583479 0 0.078562769879257463 0.012055292072080377 0 0.078420105379148897 0.012364774733933643 0 0.077775752562030259 0.012178860283583479 0 0.077738294737985436 0.01251726595764732 0 0.078008779862329902 0.012596052772573411 0 0.077822031902676975 0.012334887583437705 0 0.078759090383613242 0.011744007445174067 0 0.077708780005834172 0.011784912850381319 0 0.078217168739993667 0.012748135229714195 0 0.077708780005834172 0.011784912850381319 0 0.077357359326115996 0.013840272566647027 0 0.077122179540330307 0.013768241182643684 0 0.077212615303592011 0.01358191051242974 0 0.078707044266279294 0.012446018602829479 0 0.078802110771109893 0.011492563597696504 0 0.079125772254856633 0.011585523950357507 0 0.078217168739993667 0.012748135229714195 0 0.077295932639299972 0.011958607377711353 0 0.077708780005834172 0.011784912850381319 0 0.077295932639299972 0.011958607377711353 0 0.077086339299402298 0.013053140260442743 0 0.077295932639299972 0.011958607377711353 0 0.075383576983196809 0.0084541473769067111 0 0.073643021559060204 0.0080745851219844508 0 0.074555686430507959 0.0061178469091387553 0 0.076371271591013076 0.010589293875254091 0 0.078144301915428441 0.011172261195946028 0 0.074866510606228731 0.010695598354439808 0 0.077295932639299972 0.011958607377711353 0 0.071999262397578409 0.0090730293843834121 0 0.073270234150043176 0.0069599559539040836 0 0.073096420343797361 0.0069103880737158329 0 0.076912933350798851 0.010788955491166263 0 0.076864614401918357 0.011307302639304078 0 0.076750358312305533 0.011149260105325203 0 0.076371271591013076 0.010589293875254091 0 0.077708780005834172 0.011784912850381319 0 0.071999262397578409 0.0090730293843834121 0 0.073041440647179684 0.0090623044752202297 0 0.073270234150043176 0.0069599559539040836 0 0.077708780005834172 0.011784912850381319 0 0.078144301915428441 0.011172261195946028 0 0.078759090383613242 0.011744007445174067 0 0.078144301915428441 0.011172261195946028 0 0.079897170473097398 0.010387663755493196 0 0.079829701649389864 0.010534141647651306 0 0.080366662689544163 0.010521444411398885 0 0.081290048286977598 0.0083738493505229727 0 0.078144301915428441 0.011172261195946028 0 0.080445140049083777 0.01119344166761394 0 0.079829701649389864 0.010534141647651306 0 0.080366662689544163 0.010521444411398885 0 0.079504891946762329 0.010794038725824661 0 0.08041497956612384 0.011309837484227155 0 0.080474142776223639 0.011186679654028467 0 0.078759090383613242 0.011744007445174067 0 0.080189815701864148 0.011214713538358755 0 0.080445140049083777 0.01119344166761394 0 0.080366662689544163 0.010521444411398885 0 0.080835334473235224 0.010655879550410065 0 0.081315823210873606 0.011819567961135582 0 0.08150511073605346 0.010727274338445808 0 0.080189815701864148 0.011214713538358755 0 0.08150511073605346 0.010727274338445808 0 0.08041497956612384 0.011309837484227155 0 0.080474142776223639 0.011186679654028467 0 0.081426240692734769 0.01158586281617349 0 0.085514672672919442 0.011562028151039169 0 0.084967547605158858 0.012309307851707384 0 0.085742978176610543 0.012420917338088196 0 0.087062540984728806 0.012253935510685408 0 0.085514672672919442 0.011562028151039169 0 0.085742978176610543 0.012420917338088196 0 0.08138155719828348 0.0091118837590082272 0 0.081421044600123185 0.0089695794295479095 0 0.081461135324315107 0.008980972874653612 0 0.081468501721597766 0.0095478838325393136 0 0.081637634313199439 0.010564379303137994 0 0.08150511073605346 0.010727274338445808 0 0.081637634313199439 0.010564379303137994 0 0.083529327617822488 0.012291638121055597 0 0.085204366914938767 0.011436686730278882 0 0.084967547605158858 0.012309307851707384 0 0.0855260372027703 0.011529855210800301 0 0.085204366914938767 0.011436686730278882 0 0.084967547605158858 0.012309307851707384 0 0.08150511073605346 0.010727274338445808 0 0.081661426413995236 0.010697052822859879 0 0.084967547605158858 0.012309307851707384 0 0.085169910828214707 0.012932012134176803 0 0.085742978176610543 0.012420917338088196 0 0.083529327617822488 0.012291638121055597 0 0.085169910828214707 0.012932012134176803 0 0.085418995430040848 0.013919105699553192 0 0.083525650226662376 0.012068428215164607 0 0.083725440824029551 0.013611611315609676 0 0.085418995430040848 0.013919105699553192 0 0.08297956784665457 0.011718566376792042 0 0.083919562396741074 0.012552557288901913 0 0.083529327617822488 0.012291638121055597 0 0.084967547605158858 0.012309307851707384 0 0.085169910828214707 0.012932012134176803 0 0.085880353207833673 0.014858067994232232 0 0.085418995430040848 0.013919105699553192 0 0.086670329249947442 0.013550979312461771 0 0.085169910828214707 0.012932012134176803 0 0.085418995430040848 0.013919105699553192 0 0.086009608689788658 0.013020905598137636 0 0.085418995430040848 0.013919105699553192 0 0.086670329249947442 0.013550979312461771 0 0.086009608689788658 0.013020905598137636 0 0.087062540984728806 0.012253935510685408 0 0.086670329249947442 0.013550979312461771 0 0.086009608689788658 0.013020905598137636 0 0.087062540984728806 0.012253935510685408 0 0.085742978176610543 0.012420917338088196 0 0.086009608689788658 0.013020905598137636 0 0.085169910828214707 0.012932012134176803 0 0.085742978176610543 0.012420917338088196 0 0.086009608689788658 0.013020905598137636 0 0.025513863167852379 0.011385336617767645 0 0.025550370673647318 0.011172887717243377 0 0.025553928275600862 0.011437356676714302 0 0.025513863167852379 0.011385336617767645 0 0.025553928275600862 0.011437356676714302 0 0.02556615740456843 0.011634710523909067 0 0.025513863167852379 0.011385336617767645 0 0.02556615740456843 0.011634710523909067 0 0.025609207046231534 0.01176735264972318 0 0.025513863167852379 0.011385336617767645 0 0.02562224888865117 0.011661918101521488 0 0.025534962905086094 0.011324406947467874 0 0.025513863167852379 0.011385336617767645 0 0.02562224888865117 0.011661918101521488 0 0.025609207046231534 0.01176735264972318 0 0.02562224888865117 0.011661918101521488 0 0.025609207046231534 0.01176735264972318 0 0.025717487787775346 0.01194467629207536 0 0.02562224888865117 0.011661918101521488 0 0.025534962905086094 0.011324406947467874 0 0.025673355781948813 0.011521406692758935 0 0.025513863167852379 0.011385336617767645 0 0.025534962905086094 0.011324406947467874 0 0.025442466870467605 0.011041283429665904 0 0.025442466870467605 0.011041283429665904 0 0.025496975896033145 0.011016807545057941 0 0.025347926932671898 0.010707158420471602 0 0.025534962905086094 0.011324406947467874 0 0.025442466870467605 0.011041283429665904 0 0.025496975896033145 0.011016807545057941 0 0.025442466870467605 0.011041283429665904 0 0.025462314076182685 0.010992201032339249 0 0.025347926932671898 0.010707158420471602 0 0.025513863167852379 0.011385336617767645 0 0.025462314076182685 0.010992201032339249 0 0.025550370673647318 0.011172887717243377 0 0.025513863167852379 0.011385336617767645 0 0.025442466870467605 0.011041283429665904 0 0.025462314076182685 0.010992201032339249 0 0.025462314076182685 0.010992201032339249 0 0.025550370673647318 0.011172887717243377 0 0.025572578383515482 0.010868917946402809 0 0.025550370673647318 0.011172887717243377 0 0.025655283828343357 0.011021580237308265 0 0.025572578383515482 0.010868917946402809 0 0.025550370673647318 0.011172887717243377 0 0.025655283828343357 0.011021580237308265 0 0.025628074094251427 0.011263749893161916 0 0.025655283828343357 0.011021580237308265 0 0.025742591330049365 0.010970775319142874 0 0.025686498608485823 0.011179211314463389 0 0.025628074094251427 0.011263749893161916 0 0.02566056664683174 0.011405148482348639 0 0.025686498608485823 0.011179211314463389 0 0.025655283828343357 0.011021580237308265 0 0.025628074094251427 0.011263749893161916 0 0.025686498608485823 0.011179211314463389 0 0.025628074094251427 0.011263749893161916 0 0.02566056664683174 0.011405148482348639 0 0.025590827155028532 0.011439776438567412 0 0.02566056664683174 0.011405148482348639 0 0.025590827155028532 0.011439776438567412 0 0.025614100541520024 0.011588496629339298 0 0.02566056664683174 0.011405148482348639 0 0.025614100541520024 0.011588496629339298 0 0.025666319307593187 0.011653536656635471 0 0.025553928275600862 0.011437356676714302 0 0.025590827155028532 0.011439776438567412 0 0.025572682038291602 0.011687304519059609 0 0.025550370673647318 0.011172887717243377 0 0.025553928275600862 0.011437356676714302 0 0.025590827155028532 0.011439776438567412 0 0.025550370673647318 0.011172887717243377 0 0.025628074094251427 0.011263749893161916 0 0.025590827155028532 0.011439776438567412 0 0.025553928275600862 0.011437356676714302 0 0.025572682038291602 0.011687304519059609 0 0.02556615740456843 0.011634710523909067 0 0.025590827155028532 0.011439776438567412 0 0.025572682038291602 0.011687304519059609 0 0.025614100541520024 0.011588496629339298 0 0.025572682038291602 0.011687304519059609 0 0.025614100541520024 0.011588496629339298 0 0.02559661532428386 0.011722917359791956 0 0.025614100541520024 0.011588496629339298 0 0.02559661532428386 0.011722917359791956 0 0.025666319307593187 0.011653536656635471 0 0.02559661532428386 0.011722917359791956 0 0.025579683177337584 0.011831241932075227 0 0.025572451863064432 0.011771930106690457 0 0.025572682038291602 0.011687304519059609 0 0.025579683177337584 0.011831241932075227 0 0.025617153027310359 0.011954871672607347 0 0.025572682038291602 0.011687304519059609 0 0.02559661532428386 0.011722917359791956 0 0.025579683177337584 0.011831241932075227 0 0.025617153027310359 0.011954871672607347 0 0.025609964054502291 0.011868536423290721 0 0.0256998371363974 0.012101714810960699 0 0.025572682038291602 0.011687304519059609 0 0.025617153027310359 0.011954871672607347 0 0.025609964054502291 0.011868536423290721 0 0.025572682038291602 0.011687304519059609 0 0.025609964054502291 0.011868536423290721 0 0.02556615740456843 0.011634710523909067 0 0.025609964054502291 0.011868536423290721 0 0.02556615740456843 0.011634710523909067 0 0.025609207046231534 0.01176735264972318 0 0.025609207046231534 0.01176735264972318 0 0.025679187672588762 0.011978270359327487 0 0.025717487787775346 0.01194467629207536 0 0.025609964054502291 0.011868536423290721 0 0.025679187672588762 0.011978270359327487 0 0.0256998371363974 0.012101714810960699 0 0.025609964054502291 0.011868536423290721 0 0.025609207046231534 0.01176735264972318 0 0.025679187672588762 0.011978270359327487 0 0.025679187672588762 0.011978270359327487 0 0.025717487787775346 0.01194467629207536 0 0.025804823145448505 0.012195562402966981 0 0.025679187672588762 0.011978270359327487 0 0.0256998371363974 0.012101714810960699 0 0.025804823145448505 0.012195562402966981 0 0.025617153027310359 0.011954871672607347 0 0.0256998371363974 0.012101714810960699 0 0.025701551130450157 0.012162490732005114 0 0.0256998371363974 0.012101714810960699 0 0.025841660449664561 0.012326445797081944 0 0.025701551130450157 0.012162490732005114 0 0.025841660449664561 0.012326445797081944 0 0.025969275034243462 0.012547450834474073 0 0.025701551130450157 0.012162490732005114 0 0.018145605976087571 0.023489708566945731 0 0.018174610285285723 0.022925434544132279 0 0.019293431062754485 0.024236839543872485 0 0.025841660449664561 0.012326445797081944 0 0.025947868240493346 0.012413884612152913 0 0.025804823145448505 0.012195562402966981 0 0.0256998371363974 0.012101714810960699 0 0.025841660449664561 0.012326445797081944 0 0.025804823145448505 0.012195562402966981 0 0.025841660449664561 0.012326445797081944 0 0.025947868240493346 0.012413884612152913 0 0.025959968961990678 0.012483534139455375 0 0.025841660449664561 0.012326445797081944 0 0.025959968961990678 0.012483534139455375 0 0.025969275034243462 0.012547450834474073 0 0.018145605976087571 0.023489708566945731 0 0.018174610285285723 0.022925434544132279 0 0.021093731709525203 0.021215561793793383 0 0.026119159445599522 0.01264058157779583 0 0.026295418817871116 0.01276524699715212 0 0.026605620382488163 0.013185795047717667 0 0.023624766500276961 0.017106413661661917 0 0.0252581500515301 0.016064174823356654 0 0.025969275034243462 0.012547450834474073 0 0.026119159445599522 0.01264058157779583 0 0.026605620382488163 0.013185795047717667 0 0.017179762913031874 0.023035037096489512 0 0.017118422357727949 0.022949206866726992 0 0.025959968961990678 0.012483534139455375 0 0.025969275034243462 0.012547450834474073 0 0.026119159445599522 0.01264058157779583 0 0.025947868240493346 0.012413884612152913 0 0.025959968961990678 0.012483534139455375 0 0.026119159445599522 0.01264058157779583 0 0.025947868240493346 0.012413884612152913 0 0.026119159445599522 0.01264058157779583 0 0.026123569576242369 0.012528447624312124 0 0.025947868240493346 0.012413884612152913 0 0.026123569576242369 0.012528447624312124 0 0.025917499891185747 0.012231974476570172 0 0.026123569576242369 0.012528447624312124 0 0.026295418817871116 0.01276524699715212 0 0.026407718815492948 0.012735972498780177 0 0.026119159445599522 0.01264058157779583 0 0.026123569576242369 0.012528447624312124 0 0.026295418817871116 0.01276524699715212 0 0.026129334087349423 0.012357015240680473 0 0.026407718815492948 0.012735972498780177 0 0.026310578753409187 0.012333972050193688 0 0.026123569576242369 0.012528447624312124 0 0.026129334087349423 0.012357015240680473 0 0.026407718815492948 0.012735972498780177 0 0.026123569576242369 0.012528447624312124 0 0.026129334087349423 0.012357015240680473 0 0.025917499891185747 0.012231974476570172 0 0.026129334087349423 0.012357015240680473 0 0.025917499891185747 0.012231974476570172 0 0.025986299848260688 0.011948491906059512 0 0.025917499891185747 0.012231974476570172 0 0.025717487787775346 0.01194467629207536 0 0.025804823145448505 0.012195562402966981 0 0.025917499891185747 0.012231974476570172 0 0.025717487787775346 0.01194467629207536 0 0.025780655696146543 0.011870812357641094 0 0.025947868240493346 0.012413884612152913 0 0.025917499891185747 0.012231974476570172 0 0.025804823145448505 0.012195562402966981 0 0.026951278747012641 0.020000254739762063 0 0.021668216575621877 0.018171591654782316 0 0.027722272817610319 0.014506265910959147 0 0.015183191665716843 0.022800617468887931 0 0.017118422357727949 0.022949206866726992 0 0.026951278747012641 0.020000254739762063 0 0.021668216575621877 0.018171591654782316 0 0.021093731709525203 0.021215561793793383 0 0.018174610285285723 0.022925434544132279 0 0.021668216575621877 0.018171591654782316 0 0.021093731709525203 0.021215561793793383 0 0.026295418817871116 0.01276524699715212 0 0.026605620382488163 0.013185795047717667 0 0.026407718815492948 0.012735972498780177 0 0.026407718815492948 0.012735972498780177 0 0.026654397927557676 0.012528066794851857 0 0.026310578753409187 0.012333972050193688 0 0.026407718815492948 0.012735972498780177 0 0.026862840168082644 0.013168765548121077 0 0.026654397927557676 0.012528066794851857 0 0.026862840168082644 0.013168765548121077 0 0.027236846769575378 0.012943711725157563 0 0.026654397927557676 0.012528066794851857 0 0.026605620382488163 0.013185795047717667 0 0.026407718815492948 0.012735972498780177 0 0.026862840168082644 0.013168765548121077 0 0.026862840168082644 0.013168765548121077 0 0.027236846769575378 0.012943711725157563 0 0.027722272817610319 0.014506265910959147 0 0.026605620382488163 0.013185795047717667 0 0.026862840168082644 0.013168765548121077 0 0.027722272817610319 0.014506265910959147 0 0.027236846769575378 0.012943711725157563 0 0.027722272817610319 0.014506265910959147 0 0.028145269635590373 0.012599730851665573 0 0.0252581500515301 0.016064174823356654 0 0.026555605636844084 0.015447739710287754 0 0.027236846769575378 0.012943711725157563 0 0.027229423691388623 0.011922339400351065 0 0.028145269635590373 0.012599730851665573 0 0.027236846769575378 0.012943711725157563 0 0.026654397927557676 0.012528066794851857 0 0.027229423691388623 0.011922339400351065 0 0.026654397927557676 0.012528066794851857 0 0.026618582583342168 0.011586178209627117 0 0.027229423691388623 0.011922339400351065 0 0.026654397927557676 0.012528066794851857 0 0.026618582583342168 0.011586178209627117 0 0.026246963839375293 0.011896456333173168 0 0.026654397927557676 0.012528066794851857 0 0.026310578753409187 0.012333972050193688 0 0.026246963839375293 0.011896456333173168 0 0.026618582583342168 0.011586178209627117 0 0.027229423691388623 0.011922339400351065 0 0.027230853720071883 0.010822671521828853 0 0.026618582583342168 0.011586178209627117 0 0.027230853720071883 0.010822671521828853 0 0.026392804738159317 0.010863898853488721 0 0.027229423691388623 0.011922339400351065 0 0.028145269635590373 0.012599730851665573 0 0.028283955710131023 0.011119259286877662 0 0.027229423691388623 0.011922339400351065 0 0.027230853720071883 0.010822671521828853 0 0.028283955710131023 0.011119259286877662 0 0.025673355781948813 0.011521406692758935 0 0.025986299848260688 0.011948491906059512 0 0.025844337696832562 0.011442236697204978 0 0.025673355781948813 0.011521406692758935 0 0.025780655696146543 0.011870812357641094 0 0.025986299848260688 0.011948491906059512 0 0.02562224888865117 0.011661918101521488 0 0.025673355781948813 0.011521406692758935 0 0.025780655696146543 0.011870812357641094 0 0.02562224888865117 0.011661918101521488 0 0.025717487787775346 0.01194467629207536 0 0.025780655696146543 0.011870812357641094 0 0.025917499891185747 0.012231974476570172 0 0.025780655696146543 0.011870812357641094 0 0.025986299848260688 0.011948491906059512 0 0.026129334087349423 0.012357015240680473 0 0.025986299848260688 0.011948491906059512 0 0.026310578753409187 0.012333972050193688 0 0.025986299848260688 0.011948491906059512 0 0.026310578753409187 0.012333972050193688 0 0.026246963839375293 0.011896456333173168 0 0.025986299848260688 0.011948491906059512 0 0.026246963839375293 0.011896456333173168 0 0.025844337696832562 0.011442236697204978 0 0.026246963839375293 0.011896456333173168 0 0.026155183379750431 0.011364650912795576 0 0.025844337696832562 0.011442236697204978 0 0.026618582583342168 0.011586178209627117 0 0.026246963839375293 0.011896456333173168 0 0.026155183379750431 0.011364650912795576 0 0.026618582583342168 0.011586178209627117 0 0.026155183379750431 0.011364650912795576 0 0.026392804738159317 0.010863898853488721 0 0.026155183379750431 0.011364650912795576 0 0.025847237802655069 0.010918040943434286 0 0.026392804738159317 0.010863898853488721 0 0.026155183379750431 0.011364650912795576 0 0.025844337696832562 0.011442236697204978 0 0.025847237802655069 0.010918040943434286 0 0.025844337696832562 0.011442236697204978 0 0.025496975896033145 0.011016807545057941 0 0.025847237802655069 0.010918040943434286 0 0.025673355781948813 0.011521406692758935 0 0.025844337696832562 0.011442236697204978 0 0.025496975896033145 0.011016807545057941 0 0.025534962905086094 0.011324406947467874 0 0.025673355781948813 0.011521406692758935 0 0.025496975896033145 0.011016807545057941 0 0.025496975896033145 0.011016807545057941 0 0.025488637693853001 0.010476719300380216 0 0.025338862711216891 0.010624391259063592 0 0.025496975896033145 0.011016807545057941 0 0.025488637693853001 0.010476719300380216 0 0.025847237802655069 0.010918040943434286 0 0.025488637693853001 0.010476719300380216 0 0.025129696167927061 0.010260228934880902 0 0.025338862711216891 0.010624391259063592 0 0.025847237802655069 0.010918040943434286 0 0.025941830059168215 0.010239178998754126 0 0.026392804738159317 0.010863898853488721 0 0.025488637693853001 0.010476719300380216 0 0.025847237802655069 0.010918040943434286 0 0.025941830059168215 0.010239178998754126 0 0.025941830059168215 0.010239178998754126 0 0.025198982999180681 0.0099513159092699307 0 0.026051942253540121 0.0090577149571958882 0 0.025198982999180681 0.0099513159092699307 0 0.025023167881144316 0.0087329353874224559 0 0.026051942253540121 0.0090577149571958882 0 0.025941830059168215 0.010239178998754126 0 0.027020617725910048 0.0098344295069834053 0 0.026051942253540121 0.0090577149571958882 0 0.025198982999180681 0.0099513159092699307 0 0.024673556604731639 0.0096955202032890341 0 0.025023167881144316 0.0087329353874224559 0 0.025198982999180681 0.0099513159092699307 0 0.024673556604731639 0.0096955202032890341 0 0.025129696167927061 0.010260228934880902 0 0.025488637693853001 0.010476719300380216 0 0.025198982999180681 0.0099513159092699307 0 0.025129696167927061 0.010260228934880902 0 0.025488637693853001 0.010476719300380216 0 0.025941830059168215 0.010239178998754126 0 0.025198982999180681 0.0099513159092699307 0 0.027230853720071883 0.010822671521828853 0 0.027020617725910048 0.0098344295069834053 0 0.02827272172376552 0.0097202410734315327 0 0.027230853720071883 0.010822671521828853 0 0.02827272172376552 0.0097202410734315327 0 0.028283955710131023 0.011119259286877662 0 0.025941830059168215 0.010239178998754126 0 0.026392804738159317 0.010863898853488721 0 0.027020617725910048 0.0098344295069834053 0 0.027230853720071883 0.010822671521828853 0 0.026392804738159317 0.010863898853488721 0 0.027020617725910048 0.0098344295069834053 0 0.027020617725910048 0.0098344295069834053 0 0.027859149920524094 0.0085648150108179645 0 0.026051942253540121 0.0090577149571958882 0 0.027020617725910048 0.0098344295069834053 0 0.02827272172376552 0.0097202410734315327 0 0.027859149920524094 0.0085648150108179645 0 0.027859149920524094 0.0085648150108179645 0 0.027040246581478401 0.0075676656591922966 0 0.02819634698859385 0.0073558848930236837 0 0.027859149920524094 0.0085648150108179645 0 0.02819634698859385 0.0073558848930236837 0 0.029090490802403758 0.0077049984209030063 0 0.027859149920524094 0.0085648150108179645 0 0.027040246581478401 0.0075676656591922966 0 0.026051942253540121 0.0090577149571958882 0 0.026776418622692675 0.0066856566715216741 0 0.026278173787537908 0.0075629381993015787 0 0.027004319826635249 0.0069927180986603735 0 0.02843521509565558 0.0046309545936155331 0 0.026017084287978203 0.0053290722067339301 0 0.027004319826635249 0.0069927180986603735 0 0.025309075782356961 0.0069901887580583362 0 0.026017084287978203 0.0053290722067339301 0 0.027040246581478401 0.0075676656591922966 0 0.02819634698859385 0.0073558848930236837 0 0.028067732065111387 0.0063342332839585484 0 0.026776418622692675 0.0066856566715216741 0 0.027681358443620973 0.0048246028788052099 0 0.025023167881144316 0.0087329353874224559 0 0.025309075782356961 0.0069901887580583362 0 0.023744128912941649 0.0076486500539959621 0 0.023665841920590916 0.0085686684759343802 0 0.023576231288180132 0.0083189904244953018 0 0.024673556604731639 0.0096955202032890341 0 0.025023167881144316 0.0087329353874224559 0 0.023744128912941649 0.0076486500539959621 0 0.025023167881144316 0.0087329353874224559 0 0.026051942253540121 0.0090577149571958882 0 0.025309075782356961 0.0069901887580583362 0 0.027004319826635249 0.0069927180986603735 0 0.026051942253540121 0.0090577149571958882 0 0.025309075782356961 0.0069901887580583362 0 0.025309075782356961 0.0069901887580583362 0 0.02479938057696135 0.0048170579710390968 0 0.023432335291368952 0.0059899263984921234 0 0.025309075782356961 0.0069901887580583362 0 0.023744128912941649 0.0076486500539959621 0 0.023432335291368952 0.0059899263984921234 0 0.023576231288180132 0.0083189904244953018 0 0.023337275114328974 0.0076054181369022526 0 0.024868541714040474 0.010777135299957353 0 0.024757155436291131 0.011248678154119974 0 0.024532182865169675 0.011425424074203824 0 0.024271635557836478 0.0089229304441431432 0 0.023337275114328974 0.0076054181369022526 0 0.024732478438542028 0.01048654866236857 0 0.025400116828462806 0.010595431063076722 0 0.024746424085820222 0.010918834831345989 0 0.024868541714040474 0.010777135299957353 0 0.02530128303477476 0.011038015581877801 0 0.024757155436291131 0.011248678154119974 0 0.025400116828462806 0.010595431063076722 0 0.025483184315767987 0.010384867390557452 0 0.025725110483773374 0.01041504587494245 0 0.025400116828462806 0.010595431063076722 0 0.025483184315767987 0.010384867390557452 0 0.025209961664799781 0.010244222171182059 0 0.024732478438542028 0.01048654866236857 0 0.025400116828462806 0.010595431063076722 0 0.025209961664799781 0.010244222171182059 0 0.024673556604731639 0.0096955202032890341 0 0.024732478438542028 0.01048654866236857 0 0.025209961664799781 0.010244222171182059 0 0.024673556604731639 0.0096955202032890341 0 0.025209961664799781 0.010244222171182059 0 0.025293943788565521 0.010331715644413347 0 0.024673556604731639 0.0096955202032890341 0 0.025129696167927061 0.010260228934880902 0 0.025293943788565521 0.010331715644413347 0 0.025483184315767987 0.010384867390557452 0 0.025209961664799781 0.010244222171182059 0 0.025293943788565521 0.010331715644413347 0 0.025483184315767987 0.010384867390557452 0 0.025293943788565521 0.010331715644413347 0 0.025540726777160502 0.010611154536792854 0 0.025293943788565521 0.010331715644413347 0 0.025423223569129613 0.010673951033754644 0 0.025347926932671898 0.010707158420471602 0 0.025293943788565521 0.010331715644413347 0 0.025423223569129613 0.010673951033754644 0 0.025540726777160502 0.010611154536792854 0 0.025462314076182685 0.010992201032339249 0 0.025423223569129613 0.010673951033754644 0 0.025572578383515482 0.010868917946402809 0 0.025462314076182685 0.010992201032339249 0 0.025423223569129613 0.010673951033754644 0 0.025347926932671898 0.010707158420471602 0 0.025129696167927061 0.010260228934880902 0 0.025293943788565521 0.010331715644413347 0 0.025347926932671898 0.010707158420471602 0 0.025496975896033145 0.011016807545057941 0 0.025347926932671898 0.010707158420471602 0 0.025338862711216891 0.010624391259063592 0 0.025129696167927061 0.010260228934880902 0 0.025347926932671898 0.010707158420471602 0 0.025338862711216891 0.010624391259063592 0 0.025655283828343357 0.011021580237308265 0 0.025738790384165752 0.010702867590864102 0 0.025572578383515482 0.010868917946402809 0 0.025655283828343357 0.011021580237308265 0 0.025738790384165752 0.010702867590864102 0 0.025742591330049365 0.010970775319142874 0 0.025738790384165752 0.010702867590864102 0 0.025572578383515482 0.010868917946402809 0 0.025540726777160502 0.010611154536792854 0 0.025423223569129613 0.010673951033754644 0 0.025572578383515482 0.010868917946402809 0 0.025540726777160502 0.010611154536792854 0 0.025738790384165752 0.010702867590864102 0 0.025540726777160502 0.010611154536792854 0 0.025725110483773374 0.01041504587494245 0 0.025483184315767987 0.010384867390557452 0 0.025540726777160502 0.010611154536792854 0 0.025725110483773374 0.01041504587494245 0 0.025738790384165752 0.010702867590864102 0 0.025725110483773374 0.01041504587494245 0 0.026053620469920866 0.010512031514734494 0 0.025725110483773374 0.01041504587494245 0 0.026346786164318126 0.010381616538262323 0 0.026053620469920866 0.010512031514734494 0 0.024271635557836478 0.0089229304441431432 0 0.02467928035434239 0.0092122109195926592 0 0.025725110483773374 0.01041504587494245 0 0.026050262270995987 0.010737624061984564 0 0.02530128303477476 0.011038015581877801 0 0.024868541714040474 0.010777135299957353 0 0.025725110483773374 0.01041504587494245 0 0.02530128303477476 0.011038015581877801 0 0.025725110483773374 0.01041504587494245 0 0.026346786164318126 0.010381616538262323 0 0.026050262270995987 0.010737624061984564 0 0.026346786164318126 0.010381616538262323 0 0.026234652379139661 0.010355419694093995 0 0.02756427321339782 0.010102275014803708 0 0.026346786164318126 0.010381616538262323 0 0.02756427321339782 0.010102275014803708 0 0.026050262270995987 0.010737624061984564 0 0.026346786164318126 0.010381616538262323 0 0.026053620469920866 0.010512031514734494 0 0.026234652379139661 0.010355419694093995 0 0.02968631581629394 0.0039963262639702629 0 0.031868902358995727 -0.00030916302849119925 0 0.026053620469920866 0.010512031514734494 0 0.026234652379139661 0.010355419694093995 0 0.025719974973899749 0.010580047683066713 0 0.02968631581629394 0.0039963262639702629 0 0.028718798873920145 0.0063833453106211758 0 0.030416179760204623 -0.0012760156437818411 0 0.03393975035890788 0.0066906052592147578 0 0.02756427321339782 0.010102275014803708 0 0.030416179760204623 -0.0012760156437818411 0 0.045303993294243054 0.0049435337050551262 0 0.03393975035890788 0.0066906052592147578 0 0.030416179760204623 -0.0012760156437818411 0 0.045303993294243054 0.0049435337050551262 0 0.046390511817714378 -0.010390684570945297 0 0.059076090928999278 -0.010772959032714561 0 0.063885324191462423 -0.013857233083591273 0 0.045303993294243054 0.0049435337050551262 0 0.046390511817714378 -0.010390684570945297 0 0.057733096094817818 -0.0059868633163877964 0 0.030416179760204623 -0.0012760156437818411 0 0.046390511817714378 -0.010390684570945297 0 0.034974560307072994 -0.013399714080679716 0 0.031868902358995727 -0.00030916302849119925 0 0.03446528359430364 -0.0032593562160843051 0 0.046390511817714378 -0.010390684570945297 0 0.034974560307072994 -0.013399714080679716 0 0.039672589339786166 -0.025595924109600592 0 0.046390511817714378 -0.010390684570945297 0 0.051935941647495654 -0.020670325397727431 0 0.054132696520515944 -0.013037693331576812 0 0.046390511817714378 -0.010390684570945297 0 0.051935941647495654 -0.020670325397727431 0 0.039672589339786166 -0.025595924109600592 0 0.051935941647495654 -0.020670325397727431 0 0.039672589339786166 -0.025595924109600592 0 0.048334421264284083 -0.028987756433331499 0 0.025719974973899749 0.010580047683066713 0 0.025418782569098648 0.010938750268217638 0 0.025673083809225419 0.010997960769831108 0 0.025719974973899749 0.010580047683066713 0 0.025673083809225419 0.010997960769831108 0 0.025837781711236081 0.010762251382338861 0 0.025738790384165752 0.010702867590864102 0 0.025837781711236081 0.010762251382338861 0 0.025742591330049365 0.010970775319142874 0 0.025673083809225419 0.010997960769831108 0 0.025837781711236081 0.010762251382338861 0 0.025742591330049365 0.010970775319142874 0 0.025738790384165752 0.010702867590864102 0 0.026053620469920866 0.010512031514734494 0 0.025837781711236081 0.010762251382338861 0 0.026053620469920866 0.010512031514734494 0 0.025719974973899749 0.010580047683066713 0 0.025837781711236081 0.010762251382338861 0 0.067734102683098776 -0.019687269370073649 0 0.067922759649455378 -0.020052321935523514 0 0.068195787128523672 -0.019544535599855178 0 0.067922759649455378 -0.020052321935523514 0 0.068305710064554645 -0.020172126883836801 0 0.068195787128523672 -0.019544535599855178 0 0.068622057131977166 -0.019722869176160254 0 0.068305710064554645 -0.020172126883836801 0 0.068981517550361846 -0.020506060690910745 0 0.068622057131977166 -0.019722869176160254 0 0.068305710064554645 -0.020172126883836801 0 0.068195787128523672 -0.019544535599855178 0 0.068305710064554645 -0.020172126883836801 0 0.068469126670797423 -0.020918780600612856 0 0.068981517550361846 -0.020506060690910745 0 0.068305710064554645 -0.020172126883836801 0 0.068469126670797423 -0.020918780600612856 0 0.067894640526124844 -0.020718642074294785 0 0.067922759649455378 -0.020052321935523514 0 0.068305710064554645 -0.020172126883836801 0 0.067894640526124844 -0.020718642074294785 0 0.068469126670797423 -0.020918780600612856 0 0.067894640526124844 -0.020718642074294785 0 0.067909882227973367 -0.021787347019745551 0 0.067909882227973367 -0.021787347019745551 0 0.068818549212895347 -0.021736634785455938 0 0.068410232878849772 -0.023164528847472148 0 0.068469126670797423 -0.020918780600612856 0 0.068818549212895347 -0.021736634785455938 0 0.068981517550361846 -0.020506060690910745 0 0.068469126670797423 -0.020918780600612856 0 0.067909882227973367 -0.021787347019745551 0 0.068818549212895347 -0.021736634785455938 0 0.068818549212895347 -0.021736634785455938 0 0.070339528186648792 -0.021884178561139528 0 0.069531768662713933 -0.022943308403346997 0 0.068818549212895347 -0.021736634785455938 0 0.070339528186648792 -0.021884178561139528 0 0.068981517550361846 -0.020506060690910745 0 0.070339528186648792 -0.021884178561139528 0 0.068981517550361846 -0.020506060690910745 0 0.069915874617022769 -0.020082509164201765 0 0.068622057131977166 -0.019722869176160254 0 0.068981517550361846 -0.020506060690910745 0 0.069066799275114707 -0.019416515263637857 0 0.068981517550361846 -0.020506060690910745 0 0.069915874617022769 -0.020082509164201765 0 0.069066799275114707 -0.019416515263637857 0 0.070339528186648792 -0.021884178561139528 0 0.069915874617022769 -0.020082509164201765 0 0.072524598789091468 -0.020381184818685803 0 0.069915874617022769 -0.020082509164201765 0 0.072524598789091468 -0.020381184818685803 0 0.069093918331985027 -0.018163502200057365 0 0.070339528186648792 -0.021884178561139528 0 0.072524598789091468 -0.020381184818685803 0 0.072517619187144763 -0.023043890203648713 0 0.07483660046688205 -0.022534342968914156 0 0.072524598789091468 -0.020381184818685803 0 0.072517619187144763 -0.023043890203648713 0 0.046390511817714378 -0.010390684570945297 0 0.057733096094817818 -0.0059868633163877964 0 0.054132696520515944 -0.013037693331576812 0 0.057733096094817818 -0.0059868633163877964 0 0.054132696520515944 -0.013037693331576812 0 0.060104489109924872 -0.01723759003988086 0 0.051935941647495654 -0.020670325397727431 0 0.054132696520515944 -0.013037693331576812 0 0.060104489109924872 -0.01723759003988086 0 0.051935941647495654 -0.020670325397727431 0 0.059807701724297953 -0.02595720114413019 0 0.048334421264284083 -0.028987756433331499 0 0.051935941647495654 -0.020670325397727431 0 0.060104489109924872 -0.01723759003988086 0 0.059807701724297953 -0.02595720114413019 0 0.059807701724297953 -0.02595720114413019 0 0.066745502121551392 -0.019857362368661993 0 0.068102936940503914 -0.030249804055337469 0 0.060104489109924872 -0.01723759003988086 0 0.059807701724297953 -0.02595720114413019 0 0.066745502121551392 -0.019857362368661993 0 0.050592723453626587 -0.013358786455724303 0 0.047537231154215272 -0.0071610377880654214 0 0.066745502121551392 -0.019857362368661993 0 0.068339448932427757 -0.019477265598469535 0 0.068163606039467542 -0.020162413283515083 0 0.063885324191462423 -0.013857233083591273 0 0.066430608609819169 -0.016004640484684699 0 0.057733096094817818 -0.0059868633163877964 0 0.060104489109924872 -0.01723759003988086 0 0.069093918331985027 -0.018163502200057365 0 0.060104489109924872 -0.01723759003988086 0 0.066745502121551392 -0.019857362368661993 0 0.069093918331985027 -0.018163502200057365 0 0.066745502121551392 -0.019857362368661993 0 0.069093918331985027 -0.018163502200057365 0 0.068339448932427757 -0.019477265598469535 0 0.069915874617022769 -0.020082509164201765 0 0.069066799275114707 -0.019416515263637857 0 0.069093918331985027 -0.018163502200057365 0 0.069066799275114707 -0.019416515263637857 0 0.069093918331985027 -0.018163502200057365 0 0.068835338397443629 -0.018804665320095247 0 0.069066799275114707 -0.019416515263637857 0 0.068835338397443629 -0.018804665320095247 0 0.068612580732140993 -0.019147430321595747 0 0.068622057131977166 -0.019722869176160254 0 0.069066799275114707 -0.019416515263637857 0 0.068612580732140993 -0.019147430321595747 0 0.068835338397443629 -0.018804665320095247 0 0.068492851365387783 -0.019291648819811921 0 0.068612580732140993 -0.019147430321595747 0 0.069093918331985027 -0.018163502200057365 0 0.068835338397443629 -0.018804665320095247 0 0.068339448932427757 -0.019477265598469535 0 0.068835338397443629 -0.018804665320095247 0 0.068339448932427757 -0.019477265598469535 0 0.068492851365387783 -0.019291648819811921 0 0.059962898697418027 -0.0083600977912382472 0 0.047537231154215272 -0.0071610377880654214 0 0.068339448932427757 -0.019477265598469535 0 0.068492851365387783 -0.019291648819811921 0 0.068163606039467542 -0.020162413283515083 0 0.068492851365387783 -0.019291648819811921 0 0.068384212757319221 -0.018962975073707779 0 0.068163606039467542 -0.020162413283515083 0 0.068492851365387783 -0.019291648819811921 0 0.068384212757319221 -0.018962975073707779 0 0.068361087756998645 -0.019173717872182628 0 0.067904272910312827 -0.019196305361255928 0 0.068384212757319221 -0.018962975073707779 0 0.068361087756998645 -0.019173717872182628 0 0.067949915715205186 -0.019406071423855139 0 0.067904272910312827 -0.019196305361255928 0 0.068361087756998645 -0.019173717872182628 0 0.068492851365387783 -0.019291648819811921 0 0.068361087756998645 -0.019173717872182628 0 0.068612580732140993 -0.019147430321595747 0 0.068622057131977166 -0.019722869176160254 0 0.068612580732140993 -0.019147430321595747 0 0.068195787128523672 -0.019544535599855178 0 0.068361087756998645 -0.019173717872182628 0 0.068612580732140993 -0.019147430321595747 0 0.068195787128523672 -0.019544535599855178 0 0.067949915715205186 -0.019406071423855139 0 0.067734102683098776 -0.019687269370073649 0 0.068195787128523672 -0.019544535599855178 0 0.067949915715205186 -0.019406071423855139 0 0.068361087756998645 -0.019173717872182628 0 0.068195787128523672 -0.019544535599855178 0 0.049543083707875357 0.0034543943453802031 0 0.048782178402702762 0.0021796608329687195 0 0.049621808716368399 0.0017586549908200474 0 0.05119466935125238 0.0024747643675946478 0 0.049543083707875357 0.0034543943453802031 0 0.049621808716368399 0.0017586549908200474 0 0.067595211028935231 -0.018675801921563463 0 0.068384212757319221 -0.018962975073707779 0 0.068387431871129653 -0.018271809843399968 0 0.068384212757319221 -0.018962975073707779 0 0.068387431871129653 -0.018271809843399968 0 0.068789516429582268 -0.01826840911120893 0 0.068384212757319221 -0.018962975073707779 0 0.068789516429582268 -0.01826840911120893 0 0.06907433360189684 -0.018550609736759646 0 0.068789516429582268 -0.01826840911120893 0 0.068964983034835295 -0.017888038779803581 0 0.06907433360189684 -0.018550609736759646 0 0.068387431871129653 -0.018271809843399968 0 0.068789516429582268 -0.01826840911120893 0 0.068964983034835295 -0.017888038779803581 0 0.054665503060719219 -0.0027299193512884501 0 0.045759122618825698 0.00026188701381185892 0 0.049543083707875357 0.0034543943453802031 0 0.047919998759083766 0.0025661158949829084 0 0.048782178402702762 0.0021796608329687195 0 0.024444530750908879 0.015249101098133535 0 0.024072886252925946 0.015329988169726833 0 0.024328276560988901 0.015644115510991867 0 0.024444530750908879 0.015249101098133535 0 0.024347550854229828 0.015178938579313845 0 0.024072886252925946 0.015329988169726833 0 0.045759122618825698 0.00026188701381185892 0 0.045215233062442982 0.0002485894098931367 0 0.045759122618825698 0.00026188701381185892 0 0.047537231154215272 -0.0071610377880654214 0 0.059807701724297953 -0.02595720114413019 0 0.068102936940503914 -0.030249804055337469 0 0.056159723605108618 -0.034088259551144501 0 0.047537231154215272 -0.0071610377880654214 0 0.040218785665086604 -0.0041913330704319461 0 0.024072886252925946 0.015329988169726833 0 0.024328276560988901 0.015644115510991867 0 0.02396723154961599 0.015502998122584483 0 0.059807701724297953 -0.02595720114413019 0 0.056159723605108618 -0.034088259551144501 0 0.048334421264284083 -0.028987756433331499 0 0.024072886252925946 0.015329988169726833 0 0.02396723154961599 0.015502998122584483 0 0.023911009031881671 0.015393575096661595 0 0.024072886252925946 0.015329988169726833 0 0.023911009031881671 0.015393575096661595 0 0.023943547458599761 0.015374712920962765 0 0.023911009031881671 0.015393575096661595 0 0.023943547458599761 0.015374712920962765 0 0.0238263002064769 0.015367018352666325 0 0.024072886252925946 0.015329988169726833 0 0.023943547458599761 0.015374712920962765 0 0.024005275565202901 0.015404016564746355 0 0.023943547458599761 0.015374712920962765 0 0.02388860609632059 0.015343939115493111 0 0.024005275565202901 0.015404016564746355 0 0.023943547458599761 0.015374712920962765 0 0.02388860609632059 0.015343939115493111 0 0.0238263002064769 0.015367018352666325 0 0.028473708226878801 0.012384160337992261 0 0.026913723437141029 0.014198142337474809 0 0.02388860609632059 0.015343939115493111 0 0.023839105823453093 0.015336453231922544 0 0.023718571388597447 0.014967457625674578 0 0.02388860609632059 0.015343939115493111 0 0.0238263002064769 0.015367018352666325 0 0.023718571388597447 0.014967457625674578 0 0.02388860609632059 0.015343939115493111 0 0.023992025968813061 0.015519235021807702 0 0.023839105823453093 0.015336453231922544 0 0.023839105823453093 0.015336453231922544 0 0.024067037166925924 0.015746102781012686 0 0.023622939895777403 0.0151275217118813 0 0.023853256942196598 0.016069037027062492 0 0.023914423566453968 0.016350783944346359 0 0.024067037166925924 0.015746102781012686 0 0.02396338478869638 0.016578274930009965 0 0.024193585554334981 0.016616872039286645 0 0.023992025968813061 0.015519235021807702 0 0.023839105823453093 0.015336453231922544 0 0.024067037166925924 0.015746102781012686 0 0.023992025968813061 0.015519235021807702 0 0.023939372235922074 0.015388634198775272 0 0.024067037166925924 0.015746102781012686 0 0.023992025968813061 0.015519235021807702 0 0.024005275565202901 0.015404016564746355 0 0.023939372235922074 0.015388634198775272 0 0.02388860609632059 0.015343939115493111 0 0.023992025968813061 0.015519235021807702 0 0.024005275565202901 0.015404016564746355 0 0.024347550854229828 0.015178938579313845 0 0.024072886252925946 0.015329988169726833 0 0.024591588454112124 0.014747268184751946 0 0.024535603561775927 0.015273540055827792 0 0.024347550854229828 0.015178938579313845 0 0.024591588454112124 0.014747268184751946 0 0.032034490474308543 0.013684807704206655 0 0.037279199621436436 0.0096816393826395664 0 0.024072886252925946 0.015329988169726833 0 0.024005275565202901 0.015404016564746355 0 0.023939372235922074 0.015388634198775272 0 0.048782178402702762 0.0021796608329687195 0 0.048057781087823735 0.001578437983240784 0 0.049621808716368399 0.0017586549908200474 0 0.045759122618825698 0.00026188701381185892 0 0.037279199621436436 0.0096816393826395664 0 0.047919998759083766 0.0025661158949829084 0 0.048782178402702762 0.0021796608329687195 0 0.048057781087823735 0.001578437983240784 0 0.037279199621436436 0.0096816393826395664 0 0.036591050293329937 0.013206459623064628 0 0.023911870735738482 0.017534285343791315 0 0.02396338478869638 0.016578274930009965 0 0.024521177815654924 0.016882573847879081 0 0.023911870735738482 0.017534285343791315 0 0.024714525267929697 0.016938247651931214 0 0.024521177815654924 0.016882573847879081 0 0.037279199621436436 0.0096816393826395664 0 0.034760973761134129 0.013520122039856653 0 0.023939372235922074 0.015388634198775272 0 0.024067037166925924 0.015746102781012686 0 0.02396338478869638 0.016578274930009965 0 0.05059877228703219 0.00056687687066568507 0 0.04941239144757946 0.00023601624816450882 0 0.049621808716368399 0.0017586549908200474 0 0.040221470284399104 0.012208170765938929 0 0.036591050293329937 0.013206459623064628 0 0.036591050293329937 0.013206459623064628 0 0.036149561652566345 0.013157325725575783 0 0.048057781087823735 0.001578437983240784 0 0.04941239144757946 0.00023601624816450882 0 0.049621808716368399 0.0017586549908200474 0 0.025746888451610259 0.011616418795602797 0 0.025711833150511579 0.011508845979415355 0 0.025682450248451595 0.011344316526546303 0 0.025746888451610259 0.011616418795602797 0 0.025682450248451595 0.011344316526546303 0 0.025544260463027157 0.011238293222757746 0 0.025746888451610259 0.011616418795602797 0 0.02542469354264407 0.01185480994544535 0 0.025842208511863245 0.011966264306710319 0 0.025746888451610259 0.011616418795602797 0 0.025711833150511579 0.011508845979415355 0 0.025745238081416835 0.011742778786970802 0 0.025711833150511579 0.011508845979415355 0 0.025666319307593187 0.011653536656635471 0 0.025745238081416835 0.011742778786970802 0 0.02566056664683174 0.011405148482348639 0 0.025711833150511579 0.011508845979415355 0 0.025666319307593187 0.011653536656635471 0 0.02566056664683174 0.011405148482348639 0 0.025711833150511579 0.011508845979415355 0 0.02570548445217893 0.011254300096388739 0 0.025711833150511579 0.011508845979415355 0 0.02570548445217893 0.011254300096388739 0 0.025682450248451595 0.011344316526546303 0 0.025673083809225419 0.010997960769831108 0 0.025742591330049365 0.010970775319142874 0 0.02570548445217893 0.011254300096388739 0 0.02566056664683174 0.011405148482348639 0 0.02570548445217893 0.011254300096388739 0 0.025686498608485823 0.011179211314463389 0 0.025742591330049365 0.010970775319142874 0 0.02570548445217893 0.011254300096388739 0 0.025686498608485823 0.011179211314463389 0 0.025673083809225419 0.010997960769831108 0 0.02570548445217893 0.011254300096388739 0 0.025682450248451595 0.011344316526546303 0 0.025418782569098648 0.010938750268217638 0 0.025673083809225419 0.010997960769831108 0 0.025544260463027157 0.011238293222757746 0 0.025673083809225419 0.010997960769831108 0 0.025682450248451595 0.011344316526546303 0 0.025544260463027157 0.011238293222757746 0 0.03446528359430364 -0.0032593562160843051 0 0.035659534101405467 0.0018213686054215441 0 0.025418782569098648 0.010938750268217638 0 0.025544260463027157 0.011238293222757746 0 0.025206812559493082 0.011358636733992981 0 0.040218785665086604 -0.0041913330704319461 0 0.035659534101405467 0.0018213686054215441 0 0.039672589339786166 -0.025595924109600592 0 0.048334421264284083 -0.028987756433331499 0 0.044418006537607795 -0.037855198122310883 0 0.056159723605108618 -0.034088259551144501 0 0.048334421264284083 -0.028987756433331499 0 0.044418006537607795 -0.037855198122310883 0 0.02396723154961599 0.015502998122584483 0 0.023911009031881671 0.015393575096661595 0 0.023860647639064335 0.01541070278093357 0 0.035659534101405467 0.0018213686054215441 0 0.028473708226878801 0.012384160337992261 0 0.023911009031881671 0.015393575096661595 0 0.023860647639064335 0.01541070278093357 0 0.0238263002064769 0.015367018352666325 0 0.030495160660048634 0.0033827627729550087 0 0.035659534101405467 0.0018213686054215441 0 0.024835507180208122 0.01122136828003634 0 0.02542469354264407 0.01185480994544535 0 0.025112485181017087 0.012150798612576339 0 0.025746888451610259 0.011616418795602797 0 0.024835507180208122 0.01122136828003634 0 0.02542469354264407 0.01185480994544535 0 0.025746888451610259 0.011616418795602797 0 0.025544260463027157 0.011238293222757746 0 0.025206812559493082 0.011358636733992981 0 0.02542469354264407 0.01185480994544535 0 0.025112485181017087 0.012150798612576339 0 0.025532233877023452 0.012360278014276103 0 0.025112485181017087 0.012150798612576339 0 0.024148780472128012 0.012602988388590778 0 0.025529182371249331 0.013093256861644085 0 0.025112485181017087 0.012150798612576339 0 0.025532233877023452 0.012360278014276103 0 0.025529182371249331 0.013093256861644085 0 0.024835507180208122 0.01122136828003634 0 0.025112485181017087 0.012150798612576339 0 0.024148780472128012 0.012602988388590778 0 0.024148780472128012 0.012602988388590778 0 0.024723251307526964 0.013846506038384993 0 0.025529182371249331 0.013093256861644085 0 0.024148780472128012 0.012602988388590778 0 0.024723251307526964 0.013846506038384993 0 0.023718571388597447 0.014967457625674578 0 0.025532233877023452 0.012360278014276103 0 0.025529182371249331 0.013093256861644085 0 0.026146854820085576 0.013243704834043614 0 0.024723251307526964 0.013846506038384993 0 0.025529182371249331 0.013093256861644085 0 0.025685340459584767 0.014389264264758202 0 0.025529182371249331 0.013093256861644085 0 0.026799347441481124 0.013600941285000737 0 0.025685340459584767 0.014389264264758202 0 0.024933209171634545 0.014688908172295475 0 0.024788552958217941 0.014784936053017875 0 0.025532233877023452 0.012360278014276103 0 0.026146854820085576 0.013243704834043614 0 0.025842208511863245 0.011966264306710319 0 0.024788552958217941 0.014784936053017875 0 0.024903528509117714 0.013811184066939243 0 0.025759979265222121 0.011687450286149051 0 0.025842208511863245 0.011966264306710319 0 0.025676234813487315 0.011751410400631733 0 0.025746888451610259 0.011616418795602797 0 0.025842208511863245 0.011966264306710319 0 0.025745238081416835 0.011742778786970802 0 0.025842208511863245 0.011966264306710319 0 0.025745238081416835 0.011742778786970802 0 0.025676234813487315 0.011751410400631733 0 0.02542469354264407 0.01185480994544535 0 0.025532233877023452 0.012360278014276103 0 0.025842208511863245 0.011966264306710319 0 0.02559661532428386 0.011722917359791956 0 0.025666319307593187 0.011653536656635471 0 0.025676234813487315 0.011751410400631733 0 0.025666319307593187 0.011653536656635471 0 0.025745238081416835 0.011742778786970802 0 0.025676234813487315 0.011751410400631733 0 0.02559661532428386 0.011722917359791956 0 0.025676234813487315 0.011751410400631733 0 0.025572451863064432 0.011771930106690457 0 0.025759979265222121 0.011687450286149051 0 0.025676234813487315 0.011751410400631733 0 0.025572451863064432 0.011771930106690457 0 0.024788552958217941 0.014784936053017875 0 0.02465368933536637 0.015810924735058244 0 0.024711205648744582 0.017107357847540978 0 0.024683833106991987 0.017127741156336786 0 0.024682360369258263 0.017088591315836357 0 0.024739663263333503 0.017141216288482544 0 0.024711205648744582 0.017107357847540978 0 0.024683833106991987 0.017127741156336786 0 0.024982646400646128 0.018496990655162488 0 0.024117612896536141 0.018784938683395175 0 0.024711205648744582 0.017107357847540978 0 0.02473871151592465 0.017072661875758146 0 0.024682360369258263 0.017088591315836357 0 0.026818876988550656 0.01527325970093577 0 0.026181077355717577 0.016410952550119297 0 0.026831184586810507 0.016716408151577711 0 0.024711205648744582 0.017107357847540978 0 0.024738470002495884 0.017107370044546769 0 0.02473871151592465 0.017072661875758146 0 0.025011362730195483 0.016433592928470152 0 0.024982646400646128 0.018496990655162488 0 0.024788552958217941 0.014784936053017875 0 0.025011362730195483 0.016433592928470152 0 0.026799347441481124 0.013600941285000737 0 0.026818876988550656 0.01527325970093577 0 0.025685340459584767 0.014389264264758202 0 0.024739663263333503 0.017141216288482544 0 0.024711205648744582 0.017107357847540978 0 0.024738470002495884 0.017107370044546769 0 0.024723251307526964 0.013846506038384993 0 0.025685340459584767 0.014389264264758202 0 0.024809419687291088 0.014901169903524879 0 0.025685340459584767 0.014389264264758202 0 0.024809419687291088 0.014901169903524879 0 0.02569062242020265 0.015570777181125156 0 0.024809419687291088 0.014901169903524879 0 0.025058125790253516 0.015857999990782377 0 0.02569062242020265 0.015570777181125156 0 0.026818876988550656 0.01527325970093577 0 0.025685340459584767 0.014389264264758202 0 0.02569062242020265 0.015570777181125156 0 0.024723251307526964 0.013846506038384993 0 0.024809419687291088 0.014901169903524879 0 0.023718571388597447 0.014967457625674578 0 0.024809419687291088 0.014901169903524879 0 0.024304954431805671 0.015495814433885539 0 0.023718571388597447 0.014967457625674578 0 0.024809419687291088 0.014901169903524879 0 0.024304954431805671 0.015495814433885539 0 0.025058125790253516 0.015857999990782377 0 0.024304954431805671 0.015495814433885539 0 0.024574551785539443 0.016040910997816793 0 0.024104515390723447 0.016105145496353231 0 0.024304954431805671 0.015495814433885539 0 0.024574551785539443 0.016040910997816793 0 0.025058125790253516 0.015857999990782377 0 0.024574551785539443 0.016040910997816793 0 0.025058125790253516 0.015857999990782377 0 0.024980339061299574 0.016681352571789536 0 0.024574551785539443 0.016040910997816793 0 0.024515839710416876 0.016598902769139529 0 0.024980339061299574 0.016681352571789536 0 0.025058125790253516 0.015857999990782377 0 0.025474152639746547 0.016399974672417435 0 0.024980339061299574 0.016681352571789536 0 0.024574551785539443 0.016040910997816793 0 0.024515839710416876 0.016598902769139529 0 0.024104515390723447 0.016105145496353231 0 0.024515839710416876 0.016598902769139529 0 0.024133719815502296 0.016942047919378367 0 0.024104515390723447 0.016105145496353231 0 0.026818876988550656 0.01527325970093577 0 0.02569062242020265 0.015570777181125156 0 0.026181077355717577 0.016410952550119297 0 0.025058125790253516 0.015857999990782377 0 0.02569062242020265 0.015570777181125156 0 0.025474152639746547 0.016399974672417435 0 0.025474152639746547 0.016399974672417435 0 0.026181077355717577 0.016410952550119297 0 0.025574360726118038 0.017021749985084458 0 0.02569062242020265 0.015570777181125156 0 0.025474152639746547 0.016399974672417435 0 0.026181077355717577 0.016410952550119297 0 0.026181077355717577 0.016410952550119297 0 0.025574360726118038 0.017021749985084458 0 0.0256161218546287 0.017145696268036057 0 0.025304350659142355 0.018629043496352894 0 0.024982646400646128 0.018496990655162488 0 0.026181077355717577 0.016410952550119297 0 0.0256161218546287 0.017145696268036057 0 0.026831184586810507 0.016716408151577711 0 0.025271104528115373 0.016886553088953229 0 0.025574360726118038 0.017021749985084458 0 0.025051165235537461 0.017479004758202122 0 0.025474152639746547 0.016399974672417435 0 0.025271104528115373 0.016886553088953229 0 0.025574360726118038 0.017021749985084458 0 0.025574360726118038 0.017021749985084458 0 0.025619456703650175 0.017142783289537594 0 0.025051165235537461 0.017479004758202122 0 0.025474152639746547 0.016399974672417435 0 0.025271104528115373 0.016886553088953229 0 0.024980339061299574 0.016681352571789536 0 0.025302655416164038 0.018620847645838833 0 0.025304350659142355 0.018629043496352894 0 0.026049035969916971 0.017193477949005633 0 0.025051165235537461 0.017479004758202122 0 0.025386264211963435 0.018658339588423108 0 0.025304350659142355 0.018629043496352894 0 0.025334017637089101 0.01856472067618635 0 0.024515839710416876 0.016598902769139529 0 0.024133719815502296 0.016942047919378367 0 0.025051165235537461 0.017479004758202122 0 0.024515839710416876 0.016598902769139529 0 0.024980339061299574 0.016681352571789536 0 0.025051165235537461 0.017479004758202122 0 0.025271104528115373 0.016886553088953229 0 0.024980339061299574 0.016681352571789536 0 0.025051165235537461 0.017479004758202122 0 0.024133719815502296 0.016942047919378367 0 0.025051165235537461 0.017479004758202122 0 0.02395162175080481 0.018293886257275158 0 0.024527036999585312 0.018338688109095339 0 0.0247873801900148 0.019034447328425162 0 0.025386264211963435 0.018658339588423108 0 0.02395162175080481 0.018293886257275158 0 0.025078049471970218 0.020373450544598083 0 0.025051165235537461 0.017479004758202122 0 0.025386264211963435 0.018658339588423108 0 0.02395162175080481 0.018293886257275158 0 0.025304350659142355 0.018629043496352894 0 0.02564466414887329 0.019740149642326486 0 0.024938130816289341 0.018905104137395067 0 0.025548080882142325 0.019666230840480386 0 0.025255292569867957 0.019769799573926192 0 0.026049035969916971 0.017193477949005633 0 0.025386264211963435 0.018658339588423108 0 0.026765149827044032 0.01979084159290085 0 0.025325856872428186 0.020527582944026103 0 0.024528614152336564 0.021625241248076941 0 0.024222304635052965 0.020740389840592621 0 0.024528614152336564 0.021625241248076941 0 0.025533945194426855 0.022126232260454026 0 0.024040931054778895 0.022810717255430428 0 0.025325856872428186 0.020527582944026103 0 0.024528614152336564 0.021625241248076941 0 0.025533945194426855 0.022126232260454026 0 0.025387686730475922 0.020118073808104115 0 0.024982646400646128 0.018496990655162488 0 0.024938130816289341 0.018905104137395067 0 0.025548080882142325 0.019666230840480386 0 0.025522344706976941 0.018698455923246513 0 0.026488336637543321 0.016726637405659918 0 0.024951453401751367 0.015236106663300124 0 0.024789119758764119 0.016633287582451837 0 0.024951453401751367 0.015236106663300124 0 0.024789119758764119 0.016633287582451837 0 0.02427257079561574 0.016433958199747595 0 0.026488336637543321 0.016726637405659918 0 0.024802953712838013 0.017161939599314582 0 0.024789119758764119 0.016633287582451837 0 0.030366822039253935 0.017196210108725664 0 0.036591050293329937 0.013206459623064628 0 0.024521177815654924 0.016882573847879081 0 0.024789119758764119 0.016633287582451837 0 0.024243566967619552 0.016635295779212297 0 0.024802953712838013 0.017161939599314582 0 0.024521177815654924 0.016882573847879081 0 0.024789119758764119 0.016633287582451837 0 0.024789119758764119 0.016633287582451837 0 0.02427257079561574 0.016433958199747595 0 0.024243566967619552 0.016635295779212297 0 0.02396338478869638 0.016578274930009965 0 0.024521177815654924 0.016882573847879081 0 0.024243566967619552 0.016635295779212297 0 0.02396338478869638 0.016578274930009965 0 0.024243566967619552 0.016635295779212297 0 0.02402598360992347 0.01664500299384046 0 0.02427257079561574 0.016433958199747595 0 0.024243566967619552 0.016635295779212297 0 0.02402598360992347 0.01664500299384046 0 0.02427257079561574 0.016433958199747595 0 0.02402598360992347 0.01664500299384046 0 0.023805323148132759 0.016999779662957626 0 0.024741208890941647 0.017960560019169208 0 0.024324128499582015 0.017639968506009039 0 0.021793154769231781 0.017670966946433074 0 0.023805323148132759 0.016999779662957626 0 0.022798604513384637 0.018429241701723907 0 0.024951453401751367 0.015236106663300124 0 0.02427257079561574 0.016433958199747595 0 0.023805323148132759 0.016999779662957626 0 0.023805323148132759 0.016999779662957626 0 0.024193585554334981 0.016616872039286645 0 0.024536379389041348 0.017387139555359664 0 0.023914423566453968 0.016350783944346359 0 0.0241433782305191 0.017184938707982156 0 0.02402598360992347 0.01664500299384046 0 0.023805323148132759 0.016999779662957626 0 0.024193585554334981 0.016616872039286645 0 0.02396338478869638 0.016578274930009965 0 0.02402598360992347 0.01664500299384046 0 0.024193585554334981 0.016616872039286645 0 0.023839105823453093 0.015336453231922544 0 0.023622939895777403 0.0151275217118813 0 0.023718571388597447 0.014967457625674578 0 0.023622939895777403 0.0151275217118813 0 0.023718571388597447 0.014967457625674578 0 0.023761299751534144 0.015517239848642323 0 0.024304954431805671 0.015495814433885539 0 0.023718571388597447 0.014967457625674578 0 0.023761299751534144 0.015517239848642323 0 0.023622939895777403 0.0151275217118813 0 0.023761299751534144 0.015517239848642323 0 0.023392702058063514 0.016280019547711546 0 0.023761299751534144 0.015517239848642323 0 0.023392702058063514 0.016280019547711546 0 0.024104515390723447 0.016105145496353231 0 0.024304954431805671 0.015495814433885539 0 0.023761299751534144 0.015517239848642323 0 0.024104515390723447 0.016105145496353231 0 0.024133719815502296 0.016942047919378367 0 0.023392702058063514 0.016280019547711546 0 0.024104515390723447 0.016105145496353231 0 0.024133719815502296 0.016942047919378367 0 0.023392702058063514 0.016280019547711546 0 0.02395162175080481 0.018293886257275158 0 0.024536379389041348 0.017387139555359664 0 0.024967999438409966 0.01902731344121034 0 0.02388115271584397 0.018473573727686991 0 0.0241433782305191 0.017184938707982156 0 0.024527036999585312 0.018338688109095339 0 0.024967999438409966 0.01902731344121034 0 0.024137000150943888 0.01944120552584061 0 0.02388115271584397 0.018473573727686991 0 0.024967999438409966 0.01902731344121034 0 0.024137000150943888 0.01944120552584061 0 0.024606153980458699 0.019920399576430877 0 0.024137000150943888 0.01944120552584061 0 0.02388115271584397 0.018473573727686991 0 0.022892372595953461 0.019644207662592037 0 0.023805323148132759 0.016999779662957626 0 0.024536379389041348 0.017387139555359664 0 0.02388115271584397 0.018473573727686991 0 0.023805323148132759 0.016999779662957626 0 0.02388115271584397 0.018473573727686991 0 0.022798604513384637 0.018429241701723907 0 0.02388115271584397 0.018473573727686991 0 0.022798604513384637 0.018429241701723907 0 0.022892372595953461 0.019644207662592037 0 0.022798604513384637 0.018429241701723907 0 0.022892372595953461 0.019644207662592037 0 0.021701793880056094 0.019094017320282156 0 0.022657241460976928 0.019758159859681237 0 0.021701793880056094 0.019094017320282156 0 0.021742960670895681 0.020533887051891058 0 0.022932119641128429 0.019876751016237003 0 0.022404673811775341 0.019558481182985702 0 0.021793154769231781 0.017670966946433074 0 0.022798604513384637 0.018429241701723907 0 0.021701793880056094 0.019094017320282156 0 0.021188449579260103 0.018767208220175125 0 0.021793154769231781 0.017670966946433074 0 0.021701793880056094 0.019094017320282156 0 0.021047569253319628 0.021292602852631987 0 0.021742960670895681 0.020533887051891058 0 0.022680506792761235 0.021385261205878268 0 0.021325333172122006 0.020152644959324124 0 0.021701793880056094 0.019094017320282156 0 0.021742960670895681 0.020533887051891058 0 0.022657241460976928 0.019758159859681237 0 0.021742960670895681 0.020533887051891058 0 0.022680506792761235 0.021385261205878268 0 0.022680506792761235 0.021385261205878268 0 0.02394082249212235 0.020438519336572897 0 0.024266074075340083 0.021667153789395491 0 0.022932119641128429 0.019876751016237003 0 0.023922524506685409 0.020501440645802373 0 0.024137000150943888 0.01944120552584061 0 0.022892372595953461 0.019644207662592037 0 0.023970726366492615 0.020312680691652193 0 0.022657241460976928 0.019758159859681237 0 0.022680506792761235 0.021385261205878268 0 0.02394082249212235 0.020438519336572897 0 0.023970726366492615 0.020312680691652193 0 0.024606153980458699 0.019920399576430877 0 0.024773440051152468 0.021142918666563822 0 0.024137000150943888 0.01944120552584061 0 0.023970726366492615 0.020312680691652193 0 0.024606153980458699 0.019920399576430877 0 0.024266074075340083 0.021667153789395491 0 0.025304261585508407 0.021462426439161676 0 0.025426483976371195 0.022762949051792731 0 0.02394082249212235 0.020438519336572897 0 0.024266074075340083 0.021667153789395491 0 0.025304261585508407 0.021462426439161676 0 0.023922524506685409 0.020501440645802373 0 0.024893718076574384 0.021159988567497522 0 0.024266074075340083 0.021667153789395491 0 0.024275343668580109 0.022908745925567815 0 0.025426483976371195 0.022762949051792731 0 0.025109459807662226 0.023702783470599058 0 0.024868873378911957 0.025085172385717908 0 0.025621950899611862 0.024062296286893742 0 0.025109459807662226 0.023702783470599058 0 0.024275343668580109 0.022908745925567815 0 0.024868873378911957 0.025085172385717908 0 0.025109459807662226 0.023702783470599058 0 0.024275343668580109 0.022908745925567815 0 0.025426483976371195 0.022762949051792731 0 0.024275343668580109 0.022908745925567815 0 0.021784937093893873 0.022715842572328223 0 0.023131848788518858 0.025462203014213935 0 0.024275343668580109 0.022908745925567815 0 0.023131848788518858 0.025462203014213935 0 0.024868873378911957 0.025085172385717908 0 0.022680506792761235 0.021385261205878268 0 0.024266074075340083 0.021667153789395491 0 0.024275343668580109 0.022908745925567815 0 0.022680506792761235 0.021385261205878268 0 0.024275343668580109 0.022908745925567815 0 0.021784937093893873 0.022715842572328223 0 0.016883704503277686 0.023711699748432544 0 0.021784937093893873 0.022715842572328223 0 0.019548458787436499 0.026527383923357059 0 0.016883704503277686 0.023711699748432544 0 0.017200384767376179 0.018027762088594936 0 0.021784937093893873 0.022715842572328223 0 0.021047569253319628 0.021292602852631987 0 0.022680506792761235 0.021385261205878268 0 0.021784937093893873 0.022715842572328223 0 0.023515369982497675 0.019069170364805033 0 0.022789408874883239 0.01974278323140095 0 0.026917819872680472 0.02199521122005647 0 0.026765149827044032 0.01979084159290085 0 0.026469151397990845 0.021542023678162606 0 0.026469151397990845 0.021542023678162606 0 0.026074887503642126 0.022304870577561624 0 0.026736151966067326 0.022399721721798497 0 0.026917819872680472 0.02199521122005647 0 0.026469151397990845 0.021542023678162606 0 0.026736151966067326 0.022399721721798497 0 0.025757196488176991 0.020830096332549113 0 0.025767541864865132 0.020882133725987892 0 0.02497845662202126 0.020139064239988527 0 0.025557679796303301 0.020975252873115007 0 0.024968231486854675 0.019890093393185555 0 0.024756860064461463 0.020367817516346934 0 0.02497845662202126 0.020139064239988527 0 0.025557679796303301 0.020975252873115007 0 0.025325856872428186 0.020527582944026103 0 0.02497845662202126 0.020139064239988527 0 0.024222304635052965 0.020740389840592621 0 0.025757196488176991 0.020830096332549113 0 0.02564466414887329 0.019740149642326486 0 0.025548080882142325 0.019666230840480386 0 0.025574900804523765 0.020636980481839116 0 0.025255292569867957 0.019769799573926192 0 0.025387686730475922 0.020118073808104115 0 0.025757196488176991 0.020830096332549113 0 0.025325856872428186 0.020527582944026103 0 0.024756860064461463 0.020367817516346934 0 0.02497845662202126 0.020139064239988527 0 0.025386264211963435 0.018658339588423108 0 0.026765149827044032 0.01979084159290085 0 0.025078049471970218 0.020373450544598083 0 0.026765149827044032 0.01979084159290085 0 0.025078049471970218 0.020373450544598083 0 0.025773016934537034 0.021072432486562025 0 0.026765149827044032 0.01979084159290085 0 0.025773016934537034 0.021072432486562025 0 0.026469151397990845 0.021542023678162606 0 0.024606153980458699 0.019920399576430877 0 0.025078049471970218 0.020373450544598083 0 0.024773440051152468 0.021142918666563822 0 0.024967999438409966 0.01902731344121034 0 0.024606153980458699 0.019920399576430877 0 0.025078049471970218 0.020373450544598083 0 0.024893718076574384 0.021159988567497522 0 0.025414147675352657 0.021522958912008113 0 0.024773440051152468 0.021142918666563822 0 0.025773016934537034 0.021072432486562025 0 0.026074887503642126 0.022304870577561624 0 0.025078049471970218 0.020373450544598083 0 0.024773440051152468 0.021142918666563822 0 0.025773016934537034 0.021072432486562025 0 0.025773016934537034 0.021072432486562025 0 0.026469151397990845 0.021542023678162606 0 0.026074887503642126 0.022304870577561624 0 0.026074887503642126 0.022304870577561624 0 0.025976684439205193 0.023295050661828635 0 0.026313787361339467 0.022885433991616556 0 0.026074887503642126 0.022304870577561624 0 0.025426483976371195 0.022762949051792731 0 0.025976684439205193 0.023295050661828635 0 0.025304261585508407 0.021462426439161676 0 0.026074887503642126 0.022304870577561624 0 0.025426483976371195 0.022762949051792731 0 0.025426483976371195 0.022762949051792731 0 0.025976684439205193 0.023295050661828635 0 0.025621950899611862 0.024062296286893742 0 0.025109459807662226 0.023702783470599058 0 0.025426483976371195 0.022762949051792731 0 0.025621950899611862 0.024062296286893742 0 0.025976684439205193 0.023295050661828635 0 0.025621950899611862 0.024062296286893742 0 0.025933454911928881 0.024218837814716111 0 0.025976684439205193 0.023295050661828635 0 0.026184833255124815 0.023475564474110294 0 0.025933454911928881 0.024218837814716111 0 0.025976684439205193 0.023295050661828635 0 0.026184833255124815 0.023475564474110294 0 0.026313787361339467 0.022885433991616556 0 0.026184833255124815 0.023475564474110294 0 0.025969353021048979 0.022683987900715401 0 0.026218788034655331 0.02373054618296596 0 0.026184833255124815 0.023475564474110294 0 0.026313787361339467 0.022885433991616556 0 0.025969353021048979 0.022683987900715401 0 0.02688521423433422 0.022344433302847622 0 0.026736151966067326 0.022399721721798497 0 0.025969353021048979 0.022683987900715401 0 0.026074887503642126 0.022304870577561624 0 0.026313787361339467 0.022885433991616556 0 0.026736151966067326 0.022399721721798497 0 0.025757196488176991 0.020830096332549113 0 0.025920072170779254 0.021503077093390468 0 0.026313787361339467 0.022885433991616556 0 0.026736151966067326 0.022399721721798497 0 0.025969353021048979 0.022683987900715401 0 0.024756860064461463 0.020367817516346934 0 0.025557679796303301 0.020975252873115007 0 0.025969353021048979 0.022683987900715401 0 0.025557679796303301 0.020975252873115007 0 0.025969353021048979 0.022683987900715401 0 0.026768798017712338 0.022118112020776421 0 0.025969353021048979 0.022683987900715401 0 0.026768798017712338 0.022118112020776421 0 0.026503811276110199 0.02319767498307404 0 0.024945053006380998 0.017273641704483717 0 0.023686490356191189 0.015930899189917993 0 0.024857023864249896 0.014860562662963258 0 0.025305728729412419 0.02058280227407782 0 0.025097783027300594 0.022288122964715374 0 0.026768798017712338 0.022118112020776421 0 0.027059821593666291 0.023755798699940892 0 0.026503811276110199 0.02319767498307404 0 0.024945053006380998 0.017273641704483717 0 0.023686490356191189 0.015930899189917993 0 0.023554457151101688 0.017198137446208225 0 0.022368432956184611 0.016863488553625971 0 0.023554457151101688 0.017198137446208225 0 0.023261402822999794 0.018515166187313869 0 0.023686490356191189 0.015930899189917993 0 0.022368432956184611 0.016863488553625971 0 0.022381992379594449 0.015185158989055137 0 0.023686490356191189 0.015930899189917993 0 0.022368432956184611 0.016863488553625971 0 0.023554457151101688 0.017198137446208225 0 0.023261402822999794 0.018515166187313869 0 0.021617593396624217 0.018206915751399343 0 0.022274948792031936 0.019557307855419408 0 0.022368432956184611 0.016863488553625971 0 0.023261402822999794 0.018515166187313869 0 0.021617593396624217 0.018206915751399343 0 0.025557679796303301 0.020975252873115007 0 0.026768798017712338 0.022118112020776421 0 0.024968231486854675 0.019890093393185555 0 0.025305728729412419 0.02058280227407782 0 0.025297696425321117 0.020438809101714629 0 0.024945053006380998 0.017273641704483717 0 0.023554457151101688 0.017198137446208225 0 0.023261402822999794 0.018515166187313869 0 0.024945053006380998 0.017273641704483717 0 0.023261402822999794 0.018515166187313869 0 0.024968231486854675 0.019890093393185555 0 0.019413915734773524 0.01623456565416 0 0.019884230268600062 0.018021250074007601 0 0.018133539380521976 0.017063243658712649 0 0.019413915734773524 0.01623456565416 0 0.020948507449922271 0.017142673918481396 0 0.02101672302426057 0.015789128655367822 0 0.019413915734773524 0.01623456565416 0 0.020948507449922271 0.017142673918481396 0 0.019884230268600062 0.018021250074007601 0 0.022368432956184611 0.016863488553625971 0 0.02101672302426057 0.015789128655367822 0 0.022381992379594449 0.015185158989055137 0 0.022368432956184611 0.016863488553625971 0 0.020948507449922271 0.017142673918481396 0 0.02101672302426057 0.015789128655367822 0 0.022368432956184611 0.016863488553625971 0 0.020948507449922271 0.017142673918481396 0 0.021617593396624217 0.018206915751399343 0 0.020930107453884208 0.018833236204104434 0 0.021617593396624217 0.018206915751399343 0 0.019884230268600062 0.018021250074007601 0 0.020948507449922271 0.017142673918481396 0 0.021617593396624217 0.018206915751399343 0 0.019884230268600062 0.018021250074007601 0 0.020930107453884208 0.018833236204104434 0 0.021617593396624217 0.018206915751399343 0 0.022274948792031936 0.019557307855419408 0 0.019884230268600062 0.018021250074007601 0 0.019890053246538069 0.019484403134578755 0 0.01796954351965269 0.019084693478226326 0 0.020930107453884208 0.018833236204104434 0 0.019884230268600062 0.018021250074007601 0 0.019890053246538069 0.019484403134578755 0 0.019884230268600062 0.018021250074007601 0 0.017745748448828959 0.018291175944440064 0 0.018133539380521976 0.017063243658712649 0 0.02104935976530619 0.019537506048685892 0 0.021243475566984995 0.019181988915211581 0 0.021434830098351385 0.019585530290650622 0 0.021243475566984995 0.019181988915211581 0 0.022274948792031936 0.019557307855419408 0 0.021434830098351385 0.019585530290650622 0 0.01980884835206816 0.019101747981009925 0 0.020779190792072515 0.019301263298774025 0 0.020930107453884208 0.018833236204104434 0 0.019890053246538069 0.019484403134578755 0 0.022274948792031936 0.019557307855419408 0 0.022274948792031936 0.019557307855419408 0 0.021355683953133704 0.019829355981595395 0 0.021434830098351385 0.019585530290650622 0 0.022274948792031936 0.019557307855419408 0 0.021355683953133704 0.019829355981595395 0 0.022715367593809432 0.020531213697729821 0 0.02104935976530619 0.019537506048685892 0 0.021355683953133704 0.019829355981595395 0 0.021434830098351385 0.019585530290650622 0 0.018848626878065718 0.019164097491793031 0 0.019613122794461077 0.019547918262234381 0 0.0194508254058408 0.017428189681828066 0 0.021355683953133704 0.019829355981595395 0 0.019120854989128452 0.019629083753571707 0 0.023261402822999794 0.018515166187313869 0 0.024968231486854675 0.019890093393185555 0 0.023624114842840632 0.020207565465427502 0 0.02497845662202126 0.020139064239988527 0 0.024968231486854675 0.019890093393185555 0 0.023624114842840632 0.020207565465427502 0 0.023261402822999794 0.018515166187313869 0 0.022274948792031936 0.019557307855419408 0 0.023624114842840632 0.020207565465427502 0 0.022274948792031936 0.019557307855419408 0 0.023624114842840632 0.020207565465427502 0 0.022715367593809432 0.020531213697729821 0 0.02497845662202126 0.020139064239988527 0 0.023624114842840632 0.020207565465427502 0 0.024222304635052965 0.020740389840592621 0 0.023624114842840632 0.020207565465427502 0 0.024222304635052965 0.020740389840592621 0 0.022715367593809432 0.020531213697729821 0 0.024528614152336564 0.021625241248076941 0 0.024222304635052965 0.020740389840592621 0 0.023369864711624985 0.021594610775984999 0 0.024222304635052965 0.020740389840592621 0 0.023369864711624985 0.021594610775984999 0 0.022715367593809432 0.020531213697729821 0 0.024528614152336564 0.021625241248076941 0 0.023369864711624985 0.021594610775984999 0 0.024040931054778895 0.022810717255430428 0 0.023369864711624985 0.021594610775984999 0 0.022172685345495585 0.021604237505353209 0 0.022298538397008117 0.022566305689376374 0 0.023369864711624985 0.021594610775984999 0 0.022172685345495585 0.021604237505353209 0 0.022715367593809432 0.020531213697729821 0 0.022172685345495585 0.021604237505353209 0 0.022715367593809432 0.020531213697729821 0 0.020854155691072622 0.020999711225264919 0 0.021355683953133704 0.019829355981595395 0 0.022715367593809432 0.020531213697729821 0 0.020854155691072622 0.020999711225264919 0 0.021355683953133704 0.019829355981595395 0 0.020854155691072622 0.020999711225264919 0 0.019120854989128452 0.019629083753571707 0 0.020854155691072622 0.020999711225264919 0 0.018487318843520853 0.021108085130154886 0 0.019120854989128452 0.019629083753571707 0 0.020854155691072622 0.020999711225264919 0 0.019614080504260785 0.0221680304939115 0 0.018487318843520853 0.021108085130154886 0 0.020854155691072622 0.020999711225264919 0 0.021149494023644761 0.022297634407661481 0 0.019614080504260785 0.0221680304939115 0 0.022172685345495585 0.021604237505353209 0 0.020854155691072622 0.020999711225264919 0 0.021149494023644761 0.022297634407661481 0 0.022172685345495585 0.021604237505353209 0 0.021149494023644761 0.022297634407661481 0 0.022298538397008117 0.022566305689376374 0 0.021149494023644761 0.022297634407661481 0 0.020100702670419468 0.023131159979189492 0 0.0216769754198484 0.023564154466023456 0 0.021149494023644761 0.022297634407661481 0 0.0216769754198484 0.023564154466023456 0 0.022298538397008117 0.022566305689376374 0 0.021992888000703814 0.02365880499981135 0 0.0216769754198484 0.023564154466023456 0 0.022298538397008117 0.022566305689376374 0 0.021149494023644761 0.022297634407661481 0 0.019614080504260785 0.0221680304939115 0 0.020100702670419468 0.023131159979189492 0 0.019614080504260785 0.0221680304939115 0 0.020100702670419468 0.023131159979189492 0 0.018704295892118153 0.023356153179098473 0 0.020100702670419468 0.023131159979189492 0 0.019293431062754485 0.024236839543872485 0 0.018704295892118153 0.023356153179098473 0 0.023277463118477986 0.017715599906597917 0 0.024022203035389933 0.017866597144647202 0 0.019293431062754485 0.024236839543872485 0 0.02205858825497041 0.023739326263166105 0 0.0216769754198484 0.023564154466023456 0 0.025617153027310359 0.011954871672607347 0 0.025701551130450157 0.012162490732005114 0 0.025594739933863391 0.011986751247389883 0 0.020100702670419468 0.023131159979189492 0 0.019293431062754485 0.024236839543872485 0 0.0216769754198484 0.023564154466023456 0 0.024022203035389933 0.017866597144647202 0 0.024007991933495749 0.017895244272898812 0 0.025579683177337584 0.011831241932075227 0 0.025594739933863391 0.011986751247389883 0 0.025572451863064432 0.011771930106690457 0 0.024022203035389933 0.017866597144647202 0 0.02465368933536637 0.015810924735058244 0 0.025579683177337584 0.011831241932075227 0 0.025617153027310359 0.011954871672607347 0 0.025594739933863391 0.011986751247389883 0 0.024621985490164575 0.017109442162594038 0 0.024683833106991987 0.017127741156336786 0 0.024682360369258263 0.017088591315836357 0 0.023369864711624985 0.021594610775984999 0 0.024040931054778895 0.022810717255430428 0 0.022298538397008117 0.022566305689376374 0 0.021992888000703814 0.02365880499981135 0 0.024040931054778895 0.022810717255430428 0 0.022298538397008117 0.022566305689376374 0 0.024022203035389933 0.017866597144647202 0 0.024117612896536141 0.018784938683395175 0 0.015770263201222341 0.022337947293647586 0 0.012655222693371312 0.022869173255457228 0 0.014609728897087344 0.021575939142827575 0 0.012593898523380078 0.022032017416822761 0 0.010774178970406233 0.021738821332161696 0 0.015770263201222341 0.022337947293647586 0 0.015460595602838951 0.02363422602321217 0 0.016758482676660694 0.023322397952143702 0 0.012156347003207901 0.02068114989286881 0 0.013846621257718971 0.024011723148821409 0 0.011200691422692954 0.023326228371816034 0 0.015770263201222341 0.022337947293647586 0 0.012156347003207901 0.02068114989286881 0 0.013846621257718971 0.024011723148821409 0 0.012094431897245978 0.025245107138813963 0 0.015415546284021774 0.0249917948803829 0 0.013846621257718971 0.024011723148821409 0 0.011222529032823234 0.025902115427277304 0 0.013846621257718971 0.024011723148821409 0 0.011200691422692954 0.023326228371816034 0 0.015183191665716843 0.022800617468887931 0 0.014462029292901638 0.023330207150105808 0 0.015415546284021774 0.0249917948803829 0 0.013846621257718971 0.024011723148821409 0 0.015460595602838951 0.02363422602321217 0 0.015770263201222341 0.022337947293647586 0 0.013846621257718971 0.024011723148821409 0 0.015460595602838951 0.02363422602321217 0 0.015415546284021774 0.0249917948803829 0 0.015460595602838951 0.02363422602321217 0 0.016758482676660694 0.023322397952143702 0 0.018145605976087571 0.023489708566945731 0 0.015415546284021774 0.0249917948803829 0 0.017126530680533752 0.02372789787341437 0 0.015415546284021774 0.0249917948803829 0 0.017126530680533752 0.02372789787341437 0 0.016758482676660694 0.023322397952143702 0 0.018145605976087571 0.023489708566945731 0 0.017126530680533752 0.02372789787341437 0 0.017907197053179884 0.023352798168003324 0 0.017126530680533752 0.02372789787341437 0 0.016758482676660694 0.023322397952143702 0 0.017907197053179884 0.023352798168003324 0 0.016758482676660694 0.023322397952143702 0 0.017907197053179884 0.023352798168003324 0 0.017906269828807702 0.022660253758817788 0 0.018145605976087571 0.023489708566945731 0 0.019293431062754485 0.024236839543872485 0 0.018704295892118153 0.023356153179098473 0 0.023624766500276961 0.017106413661661917 0 0.023277463118477986 0.017715599906597917 0 0.018145605976087571 0.023489708566945731 0 0.017907197053179884 0.023352798168003324 0 0.018704295892118153 0.023356153179098473 0 0.019614080504260785 0.0221680304939115 0 0.018704295892118153 0.023356153179098473 0 0.017906269828807702 0.022660253758817788 0 0.017907197053179884 0.023352798168003324 0 0.018704295892118153 0.023356153179098473 0 0.017906269828807702 0.022660253758817788 0 0.015770263201222341 0.022337947293647586 0 0.017906269828807702 0.022660253758817788 0 0.016450026140466419 0.021344381785065876 0 0.015770263201222341 0.022337947293647586 0 0.016758482676660694 0.023322397952143702 0 0.017906269828807702 0.022660253758817788 0 0.017906269828807702 0.022660253758817788 0 0.016450026140466419 0.021344381785065876 0 0.018487318843520853 0.021108085130154886 0 0.016450026140466419 0.021344381785065876 0 0.018487318843520853 0.021108085130154886 0 0.017069780225611564 0.019898285214174506 0 0.019614080504260785 0.0221680304939115 0 0.017906269828807702 0.022660253758817788 0 0.018487318843520853 0.021108085130154886 0 0.018487318843520853 0.021108085130154886 0 0.019120854989128452 0.019629083753571707 0 0.017069780225611564 0.019898285214174506 0 0.019120854989128452 0.019629083753571707 0 0.017069780225611564 0.019898285214174506 0 0.017263499041810841 0.018105971820353731 0 0.016450026140466419 0.021344381785065876 0 0.017069780225611564 0.019898285214174506 0 0.014816973252600195 0.020208888160185005 0 0.017069780225611564 0.019898285214174506 0 0.014816973252600195 0.020208888160185005 0 0.015614846628759279 0.018755701973839366 0 0.014816973252600195 0.020208888160185005 0 0.013957898070642384 0.018691168928187969 0 0.015614846628759279 0.018755701973839366 0 0.015770263201222341 0.022337947293647586 0 0.016450026140466419 0.021344381785065876 0 0.014609728897087344 0.021575939142827575 0 0.016450026140466419 0.021344381785065876 0 0.014816973252600195 0.020208888160185005 0 0.014609728897087344 0.021575939142827575 0 0.014816973252600195 0.020208888160185005 0 0.014609728897087344 0.021575939142827575 0 0.013013242403130895 0.021106157724735838 0 0.012655222693371312 0.022869173255457228 0 0.013013242403130895 0.021106157724735838 0 0.010743269277773715 0.020990477074100598 0 0.012655222693371312 0.022869173255457228 0 0.014609728897087344 0.021575939142827575 0 0.013013242403130895 0.021106157724735838 0 0.013013242403130895 0.021106157724735838 0 0.012885291448917461 0.019746444751432876 0 0.010743269277773715 0.020990477074100598 0 0.014816973252600195 0.020208888160185005 0 0.013013242403130895 0.021106157724735838 0 0.012885291448917461 0.019746444751432876 0 0.014816973252600195 0.020208888160185005 0 0.012885291448917461 0.019746444751432876 0 0.013957898070642384 0.018691168928187969 0 0.012885291448917461 0.019746444751432876 0 0.013957898070642384 0.018691168928187969 0 0.01205555815791429 0.017986934350520709 0 0.013654886591067748 0.018861896348118891 0 0.012798452881613867 0.01866774657649093 0 0.012612179975756831 0.019410709974745945 0 0.013957898070642384 0.018691168928187969 0 0.01491324195682078 0.016882338204885418 0 0.01205555815791429 0.017986934350520709 0 0.014397938228747784 0.018537457747147077 0 0.011677110108007451 0.0192229754207776 0 0.011549381645338438 0.018515949063247064 0 0.011677110108007451 0.0192229754207776 0 0.013957898070642384 0.018691168928187969 0 0.015614846628759279 0.018755701973839366 0 0.01491324195682078 0.016882338204885418 0 0.013654886591067748 0.018861896348118891 0 0.013313445559870234 0.018387287684304567 0 0.01381888433017594 0.018095947348027965 0 0.0088816246338955605 0.018545700033069802 0 0.0090744657071268522 0.017887514380437976 0 0.0084586661573750731 0.018350896908282861 0 0.012798452881613867 0.01866774657649093 0 0.013313445559870234 0.018387287684304567 0 0.012982319472832996 0.017922894634072893 0 0.013654886591067748 0.018861896348118891 0 0.012798452881613867 0.01866774657649093 0 0.013313445559870234 0.018387287684304567 0 0.011549381645338438 0.018515949063247064 0 0.011649745083224205 0.017585425258138117 0 0.0194508254058408 0.017428189681828066 0 0.019120854989128452 0.019629083753571707 0 0.017263499041810841 0.018105971820353731 0 0.017069780225611564 0.019898285214174506 0 0.015614846628759279 0.018755701973839366 0 0.017263499041810841 0.018105971820353731 0 0.015614846628759279 0.018755701973839366 0 0.01491324195682078 0.016882338204885418 0 0.017263499041810841 0.018105971820353731 0 0.014397938228747784 0.018537457747147077 0 0.016944513868929013 0.018482445188163863 0 0.013654886591067748 0.018861896348118891 0 0.014748029493387854 0.018289677780940612 0 0.014661112550175262 0.018271426307259427 0 0.01491324195682078 0.016882338204885418 0 0.017263499041810841 0.018105971820353731 0 0.017668725494218145 0.015589880411083501 0 0.013654886591067748 0.018861896348118891 0 0.014661112550175262 0.018271426307259427 0 0.01381888433017594 0.018095947348027965 0 0.01980884835206816 0.019101747981009925 0 0.016944513868929013 0.018482445188163863 0 0.02104935976530619 0.019537506048685892 0 0.021243475566984995 0.019181988915211581 0 0.020514906464210298 0.019038455035684888 0 0.0194508254058408 0.017428189681828066 0 0.017263499041810841 0.018105971820353731 0 0.017668725494218145 0.015589880411083501 0 0.018848626878065718 0.019164097491793031 0 0.016944513868929013 0.018482445188163863 0 0.019884230268600062 0.018021250074007601 0 0.01630759608158237 0.020206889269884076 0 0.017745748448828959 0.018291175944440064 0 0.018069863597916111 0.018174981327574211 0 0.016944513868929013 0.018482445188163863 0 0.01630759608158237 0.020206889269884076 0 0.017745748448828959 0.018291175944440064 0 0.016232623700971362 0.019298400654778721 0 0.017745748448828959 0.018291175944440064 0 0.016657745660973926 0.018201062765062774 0 0.016785993450455054 0.017250869659334887 0 0.017745748448828959 0.018291175944440064 0 0.016232623700971362 0.019298400654778721 0 0.016657745660973926 0.018201062765062774 0 0.015684516400286046 0.019814027670982535 0 0.013998223940260308 0.018330911287586998 0 0.01327120187810276 0.019317854507386278 0 0.016443886174437296 0.018435540155652807 0 0.013878314807750985 0.018083806050480856 0 0.016232623700971362 0.019298400654778721 0 0.016657745660973926 0.018201062765062774 0 0.015395466958300904 0.01777717656060961 0 0.016232623700971362 0.019298400654778721 0 0.014129341684186794 0.018441992415621267 0 0.015395466958300904 0.01777717656060961 0 0.016232623700971362 0.019298400654778721 0 0.016016386025663021 0.020131242236762981 0 0.014129341684186794 0.018441992415621267 0 0.01630759608158237 0.020206889269884076 0 0.016232623700971362 0.019298400654778721 0 0.016016386025663021 0.020131242236762981 0 0.016944513868929013 0.018482445188163863 0 0.016443886174437296 0.018435540155652807 0 0.016443886174437296 0.018435540155652807 0 0.015170421062079484 0.017868897489756296 0 0.014129341684186794 0.018441992415621267 0 0.015395466958300904 0.01777717656060961 0 0.013830292599755978 0.016943300070972202 0 0.014623586379994356 0.01606616585019785 0 0.015395466958300904 0.01777717656060961 0 0.013830292599755978 0.016943300070972202 0 0.014623586379994356 0.01606616585019785 0 0.01584216745504264 0.016642308649946883 0 0.015395466958300904 0.01777717656060961 0 0.014623586379994356 0.01606616585019785 0 0.01584216745504264 0.016642308649946883 0 0.016759941225773144 0.015450235792860112 0 0.01584216745504264 0.016642308649946883 0 0.015395466958300904 0.01777717656060961 0 0.016785993450455054 0.017250869659334887 0 0.019413915734773524 0.01623456565416 0 0.018133539380521976 0.017063243658712649 0 0.016759941225773144 0.015450235792860112 0 0.016657745660973926 0.018201062765062774 0 0.015395466958300904 0.01777717656060961 0 0.016785993450455054 0.017250869659334887 0 0.016785993450455054 0.017250869659334887 0 0.018133539380521976 0.017063243658712649 0 0.016759941225773144 0.015450235792860112 0 0.01584216745504264 0.016642308649946883 0 0.016785993450455054 0.017250869659334887 0 0.016759941225773144 0.015450235792860112 0 0.017745748448828959 0.018291175944440064 0 0.016785993450455054 0.017250869659334887 0 0.018133539380521976 0.017063243658712649 0 0.013313445559870234 0.018387287684304567 0 0.012982319472832996 0.017922894634072893 0 0.01381888433017594 0.018095947348027965 0 0.010845635507393821 0.018822537823245417 0 0.01327120187810276 0.019317854507386278 0 0.012676730695474986 0.018122553625440348 0 0.011649745083224205 0.017585425258138117 0 0.013878314807750985 0.018083806050480856 0 0.013998223940260308 0.018330911287586998 0 0.01327120187810276 0.019317854507386278 0 0.012676730695474986 0.018122553625440348 0 0.010845635507393821 0.018822537823245417 0 0.012676730695474986 0.018122553625440348 0 0.012305831143866762 0.016836608322247558 0 0.014129341684186794 0.018441992415621267 0 0.013830292599755978 0.016943300070972202 0 0.012305831143866762 0.016836608322247558 0 0.013998223940260308 0.018330911287586998 0 0.012676730695474986 0.018122553625440348 0 0.012305831143866762 0.016836608322247558 0 0.015170421062079484 0.017868897489756296 0 0.01451271669101555 0.017459136028870975 0 0.014623586379994356 0.01606616585019785 0 0.013830292599755978 0.016943300070972202 0 0.013014755467310502 0.015303541490372049 0 0.013830292599755978 0.016943300070972202 0 0.012305831143866762 0.016836608322247558 0 0.013014755467310502 0.015303541490372049 0 0.012305831143866762 0.016836608322247558 0 0.011507010145734773 0.016055157908246763 0 0.013014755467310502 0.015303541490372049 0 0.010304573962927813 0.018261980716170346 0 0.011048944150151098 0.01595359158645597 0 0.0090108147137290071 0.016186958874904414 0 0.010845635507393821 0.018822537823245417 0 0.012305831143866762 0.016836608322247558 0 0.011507010145734773 0.016055157908246763 0 0.011649745083224205 0.017585425258138117 0 0.011731829660460536 0.016145792880556571 0 0.011048944150151098 0.01595359158645597 0 0.0099728717909973071 0.014521836839410395 0 0.0090108147137290071 0.016186958874904414 0 0.011048944150151098 0.01595359158645597 0 0.0099728717909973071 0.014521836839410395 0 0.0120686740175894 0.013222903679653644 0 0.011731829660460536 0.016145792880556571 0 0.011920784015136698 0.015089575333184288 0 0.013014755467310502 0.015303541490372049 0 0.0120686740175894 0.013222903679653644 0 0.01486491576180944 0.014248063907855806 0 0.011507010145734773 0.016055157908246763 0 0.013014755467310502 0.015303541490372049 0 0.0120686740175894 0.013222903679653644 0 0.0120686740175894 0.013222903679653644 0 0.014303905136154435 0.010510568606927383 0 0.014919622643748855 0.012413125801362447 0 0.0099728717909973071 0.014521836839410395 0 0.0120686740175894 0.013222903679653644 0 0.0096015032570838429 0.012657922070074575 0 0.0120686740175894 0.013222903679653644 0 0.0096015032570838429 0.012657922070074575 0 0.010489684712012859 0.010990467177914937 0 0.010489684712012859 0.010990467177914937 0 0.012463820891011309 0.0095874995549822279 0 0.0098663143399553392 0.0087198794906421778 0 0.010489684712012859 0.010990467177914937 0 0.0098663143399553392 0.0087198794906421778 0 0.0083907348170659257 0.010710253899775262 0 0.0096015032570838429 0.012657922070074575 0 0.010489684712012859 0.010990467177914937 0 0.0083907348170659257 0.010710253899775262 0 0.0120686740175894 0.013222903679653644 0 0.010489684712012859 0.010990467177914937 0 0.012463820891011309 0.0095874995549822279 0 0.0120686740175894 0.013222903679653644 0 0.012463820891011309 0.0095874995549822279 0 0.014303905136154435 0.010510568606927383 0 0.012463820891011309 0.0095874995549822279 0 0.014303905136154435 0.010510568606927383 0 0.014837232048824063 0.0069726327157444996 0 0.012463820891011309 0.0095874995549822279 0 0.011641942893642159 0.0071443196373158499 0 0.014837232048824063 0.0069726327157444996 0 0.012463820891011309 0.0095874995549822279 0 0.0098663143399553392 0.0087198794906421778 0 0.011641942893642159 0.0071443196373158499 0 0.017666981761627596 0.0095406024069732351 0 0.01756580516492107 0.010109375002981818 0 0.020236048641774158 0.0087667625151492349 0 0.017666981761627596 0.0095406024069732351 0 0.016564176317355097 0.010829247939283809 0 0.016843447907348125 0.0076456569124548077 0 0.017666981761627596 0.0095406024069732351 0 0.01756580516492107 0.010109375002981818 0 0.016564176317355097 0.010829247939283809 0 0.023031397537997648 0.025195886037482476 0 0.022307895760388208 0.030647525959834176 0 0.017666981761627596 0.0095406024069732351 0 0.018835558277588215 0.0083122381611448245 0 0.018263998864425625 0.0077323571899570592 0 0.017666981761627596 0.0095406024069732351 0 0.016843447907348125 0.0076456569124548077 0 0.018207033229508122 0.0072755577820502945 0 0.016576081927835103 0.010574057232909309 0 0.015866503429422703 0.0090325105906266419 0 0.016564176317355097 0.010829247939283809 0 0.014837232048824063 0.0069726327157444996 0 0.016843447907348125 0.0076456569124548077 0 0.014303905136154435 0.010510568606927383 0 0.016211229340125727 0.0099601378857437604 0 0.014837232048824063 0.0069726327157444996 0 0.014303905136154435 0.010510568606927383 0 0.016211229340125727 0.0099601378857437604 0 0.014919622643748855 0.012413125801362447 0 0.016576081927835103 0.010574057232909309 0 0.017738208298306468 0.013043446922553655 0 0.016564176317355097 0.010829247939283809 0 0.018405676483237765 0.01168554559538656 0 0.01811701253371014 0.013689227562946419 0 0.01756580516492107 0.010109375002981818 0 0.018405676483237765 0.01168554559538656 0 0.019332711696650084 0.010566336800454473 0 0.01756580516492107 0.010109375002981818 0 0.016564176317355097 0.010829247939283809 0 0.018405676483237765 0.01168554559538656 0 0.016211229340125727 0.0099601378857437604 0 0.017761386722611301 0.013049415988528197 0 0.014919622643748855 0.012413125801362447 0 0.0120686740175894 0.013222903679653644 0 0.014919622643748855 0.012413125801362447 0 0.01486491576180944 0.014248063907855806 0 0.017761386722611301 0.013049415988528197 0 0.014919622643748855 0.012413125801362447 0 0.01486491576180944 0.014248063907855806 0 0.014623586379994356 0.01606616585019785 0 0.01486491576180944 0.014248063907855806 0 0.016759941225773144 0.015450235792860112 0 0.014623586379994356 0.01606616585019785 0 0.013014755467310502 0.015303541490372049 0 0.01486491576180944 0.014248063907855806 0 0.017761386722611301 0.013049415988528197 0 0.01486491576180944 0.014248063907855806 0 0.016759941225773144 0.015450235792860112 0 0.019413915734773524 0.01623456565416 0 0.017761386722611301 0.013049415988528197 0 0.016759941225773144 0.015450235792860112 0 0.019413915734773524 0.01623456565416 0 0.01811701253371014 0.013689227562946419 0 0.019874744730688905 0.014681602233181839 0 0.01840986881569405 0.014467708844854089 0 0.017738208298306468 0.013043446922553655 0 0.019413915734773524 0.01623456565416 0 0.019874744730688905 0.014681602233181839 0 0.02101672302426057 0.015789128655367822 0 0.02101672302426057 0.015789128655367822 0 0.021091015143963381 0.014333085643042281 0 0.022381992379594449 0.015185158989055137 0 0.021091015143963381 0.014333085643042281 0 0.022381992379594449 0.015185158989055137 0 0.02230427717074307 0.013815906960231709 0 0.019874744730688905 0.014681602233181839 0 0.02101672302426057 0.015789128655367822 0 0.021091015143963381 0.014333085643042281 0 0.021091015143963381 0.014333085643042281 0 0.021287824160919337 0.012961216679861498 0 0.019825541689704136 0.013198398438540265 0 0.021091015143963381 0.014333085643042281 0 0.021287824160919337 0.012961216679861498 0 0.02230427717074307 0.013815906960231709 0 0.021287824160919337 0.012961216679861498 0 0.02230427717074307 0.013815906960231709 0 0.022925165791444605 0.01227738636971794 0 0.021287824160919337 0.012961216679861498 0 0.019825541689704136 0.013198398438540265 0 0.020116827225720908 0.011724450262149532 0 0.018405676483237765 0.01168554559538656 0 0.01811701253371014 0.013689227562946419 0 0.019825541689704136 0.013198398438540265 0 0.01811701253371014 0.013689227562946419 0 0.019874744730688905 0.014681602233181839 0 0.019825541689704136 0.013198398438540265 0 0.019874744730688905 0.014681602233181839 0 0.021091015143963381 0.014333085643042281 0 0.019825541689704136 0.013198398438540265 0 0.023686490356191189 0.015930899189917993 0 0.024857023864249896 0.014860562662963258 0 0.023688907996924819 0.014384842313002286 0 0.023686490356191189 0.015930899189917993 0 0.023688907996924819 0.014384842313002286 0 0.022381992379594449 0.015185158989055137 0 0.023688907996924819 0.014384842313002286 0 0.022381992379594449 0.015185158989055137 0 0.02230427717074307 0.013815906960231709 0 0.023688907996924819 0.014384842313002286 0 0.023990612776232611 0.013586415270266492 0 0.023269186657243788 0.013245642781065615 0 0.023688907996924819 0.014384842313002286 0 0.02230427717074307 0.013815906960231709 0 0.022925165791444605 0.01227738636971794 0 0.019743776044856016 0.017787771877380364 0 0.01965797954387637 0.019396245738461059 0 0.027059821593666291 0.023755798699940892 0 0.027011982392529003 0.024789389870459772 0 0.02660796264502981 0.024068194246923951 0 0.024857023864249896 0.014860562662963258 0 0.023990612776232611 0.013586415270266492 0 0.024716376872956542 0.013109341159001246 0 0.025097783027300594 0.022288122964715374 0 0.024417221017157858 0.031358604159080483 0 0.024857023864249896 0.014860562662963258 0 0.023688907996924819 0.014384842313002286 0 0.023990612776232611 0.013586415270266492 0 0.024417221017157858 0.031358604159080483 0 0.022863957098322389 0.044372127946937158 0 0.020717236720191299 0.036210112690988304 0 0.022099210686094117 0.036971098604198831 0 0.020674960812172332 0.038625859723274869 0 0.023990612776232611 0.013586415270266492 0 0.024716376872956542 0.013109341159001246 0 0.023707832603911988 0.012657803033311099 0 0.024417221017157858 0.031358604159080483 0 0.022174614117058872 0.028777416005981462 0 0.023707832603911988 0.012657803033311099 0 0.023269186657243788 0.013245642781065615 0 0.022813750889829527 0.012225566638996351 0 0.01965797954387637 0.019396245738461059 0 0.020574174095042336 0.027486078725621848 0 0.023990612776232611 0.013586415270266492 0 0.023707832603911988 0.012657803033311099 0 0.023269186657243788 0.013245642781065615 0 0.022174614117058872 0.028777416005981462 0 0.020574174095042336 0.027486078725621848 0 0.022313098036767544 0.038504721260058293 0 0.023475245085577898 0.037728664012733094 0 0.024109258716084707 0.039206396194209417 0 0.022099210686094117 0.036971098604198831 0 0.022313098036767544 0.038504721260058293 0 0.023475245085577898 0.037728664012733094 0 0.029810348550245766 0.048111997255340093 0 0.02969878371568534 0.053209730996946383 0 0.027992042285335174 0.051824903248998938 0 0.022099210686094117 0.036971098604198831 0 0.022313098036767544 0.038504721260058293 0 0.020674960812172332 0.038625859723274869 0 0.019332711696650084 0.010566336800454473 0 0.020116827225720908 0.011724450262149532 0 0.020606663122450582 0.010635830670495668 0 0.018405676483237765 0.01168554559538656 0 0.019332711696650084 0.010566336800454473 0 0.020116827225720908 0.011724450262149532 0 0.018405676483237765 0.01168554559538656 0 0.019825541689704136 0.013198398438540265 0 0.020116827225720908 0.011724450262149532 0 0.021287824160919337 0.012961216679861498 0 0.020116827225720908 0.011724450262149532 0 0.021503107532560697 0.011669340264640039 0 0.022925165791444605 0.01227738636971794 0 0.021503107532560697 0.011669340264640039 0 0.022083545879718388 0.010203832329274659 0 0.021287824160919337 0.012961216679861498 0 0.022925165791444605 0.01227738636971794 0 0.021503107532560697 0.011669340264640039 0 0.021503107532560697 0.011669340264640039 0 0.020606663122450582 0.010635830670495668 0 0.022083545879718388 0.010203832329274659 0 0.020116827225720908 0.011724450262149532 0 0.021503107532560697 0.011669340264640039 0 0.020606663122450582 0.010635830670495668 0 0.020606663122450582 0.010635830670495668 0 0.022083545879718388 0.010203832329274659 0 0.01998759322698259 0.009020664930598379 0 0.020574174095042336 0.027486078725621848 0 0.021485946449446645 0.02978022803741082 0 0.024139430566678728 0.030671842738725561 0 0.019708890394610323 0.028277392252546614 0 0.022478033904601593 0.026848269645028518 0 0.020574174095042336 0.027486078725621848 0 0.019984860835755985 0.036574730614067304 0 0.021485946449446645 0.02978022803741082 0 0.019984860835755985 0.036574730614067304 0 0.017666981761627596 0.0095406024069732351 0 0.020236048641774158 0.0087667625151492349 0 0.018835558277588215 0.0083122381611448245 0 0.01756580516492107 0.010109375002981818 0 0.019332711696650084 0.010566336800454473 0 0.01998759322698259 0.009020664930598379 0 0.021485946449446645 0.02978022803741082 0 0.022056197676058653 0.031864090577597821 0 0.022886840366375203 0.02541224350062922 0 0.021485946449446645 0.02978022803741082 0 0.019332711696650084 0.010566336800454473 0 0.020606663122450582 0.010635830670495668 0 0.01998759322698259 0.009020664930598379 0 0.020236048641774158 0.0087667625151492349 0 0.018835558277588215 0.0083122381611448245 0 0.019125241985488813 0.008167235320281763 0 0.022096320970180362 0.031787588275014537 0 0.022056197676058653 0.031864090577597821 0 0.022056197676058653 0.031864090577597821 0 0.019395523088831339 0.042180582822162846 0 0.017703843218744054 0.039750989586280636 0 0.01640515051395456 0.040426590504165194 0 0.018051912758340061 0.040622163766072555 0 0.018835558277588215 0.0083122381611448245 0 0.019108350416020433 0.0081776252520096744 0 0.018263998864425625 0.0077323571899570592 0 0.020752079846446832 0.036947195440345422 0 0.017402851528895764 0.035128881937054941 0 0.024026373575538024 0.031739250803534534 0 0.022056197676058653 0.031864090577597821 0 0.022307895760388208 0.030647525959834176 0 0.017703843218744054 0.039750989586280636 0 0.018229329389121831 0.040027802014860184 0 0.018051912758340061 0.040622163766072555 0 0.019395523088831339 0.042180582822162846 0 0.016751236791290248 0.052581554553332251 0 0.020752079846446832 0.036947195440345422 0 0.025274921430679512 0.034615455072079124 0 0.024026373575538024 0.031739250803534534 0 0.019766919017107993 0.047940059159566957 0 0.019894141830893539 0.04823647484774464 0 0.019017378454203138 0.04835989047483772 0 0.019984860835755985 0.036574730614067304 0 0.019395523088831339 0.042180582822162846 0 0.015303723769207725 0.069039660348291745 0 0.014772407692098961 0.070276577811114155 0 0.013862977180386498 0.069862491298696594 0 0.015303723769207725 0.069039660348291745 0 0.014772407692098961 0.070276577811114155 0 0.016100775887259392 0.070885962622161278 0 0.01640515051395456 0.040426590504165194 0 0.017248084343630735 0.042426510945770386 0 0.018051912758340061 0.040622163766072555 0 0.017533558113806698 0.042376457530227223 0 0.017248084343630735 0.042426510945770386 0 0.018051912758340061 0.040622163766072555 0 0.014423604568191395 0.051726948535346526 0 0.020959066295066869 0.03258110495603686 0 0.019395523088831339 0.042180582822162846 0 0.014377047834578917 0.054196528373697719 0 0.020674960812172332 0.038625859723274869 0 0.022382164614963417 0.04012305034470684 0 0.020634788958455857 0.041052388244055465 0 0.022863957098322389 0.044372127946937158 0 0.020153485913547993 0.053203265507879544 0 0.02969878371568534 0.053209730996946383 0 0.028826500769665649 0.055668430707443609 0 0.029551989300774958 0.058195952664160708 0 0.022313098036767544 0.038504721260058293 0 0.020674960812172332 0.038625859723274869 0 0.022382164614963417 0.04012305034470684 0 0.020391656971943482 0.044675950006391026 0 0.020153485913547993 0.053203265507879544 0 0.021227356761471451 0.055495921209945114 0 0.020586033116834931 0.055072648456499597 0 0.022313098036767544 0.038504721260058293 0 0.024109258716084707 0.039206396194209417 0 0.022382164614963417 0.04012305034470684 0 0.019894141830893539 0.04823647484774464 0 0.019017378454203138 0.04835989047483772 0 0.019079218047809234 0.048691988069200998 0 0.019984860835755985 0.036574730614067304 0 0.020391656971943482 0.044675950006391026 0 0.019017378454203138 0.04835989047483772 0 0.019079218047809234 0.048691988069200998 0 0.018263244714212402 0.048783052378904256 0 0.014772407692098961 0.070276577811114155 0 0.013862977180386498 0.069862491298696594 0 0.013837188578452982 0.071321197467389311 0 0.013862977180386498 0.069862491298696594 0 0.013197053838630712 0.071111959757725496 0 0.013837188578452982 0.071321197467389311 0 0.016751236791290248 0.052581554553332251 0 0.018900369287496926 0.057887441479459123 0 0.019079218047809234 0.048691988069200998 0 0.018260018032264794 0.049151249465804694 0 0.018263244714212402 0.048783052378904256 0 0.013862977180386498 0.069862491298696594 0 0.012602931129230509 0.07063745557283084 0 0.013197053838630712 0.071111959757725496 0 0.02004742232387657 0.05438567256858369 0 0.018533529188549711 0.055159865506010916 0 0.020045831285123175 0.057812769334524741 0 0.018900369287496926 0.057887441479459123 0 0.020153485913547993 0.053203265507879544 0 0.019603931165964445 0.058708411580097659 0 0.020586033116834931 0.055072648456499597 0 0.019603931165964445 0.058708411580097659 0 0.018900369287496926 0.057887441479459123 0 0.028826500769665649 0.055668430707443609 0 0.028781181850516389 0.058590919117993766 0 0.029551989300774958 0.058195952664160708 0 0.018533529188549711 0.055159865506010916 0 0.020045831285123175 0.057812769334524741 0 0.018489292977154338 0.058614538768484443 0 0.020586033116834931 0.055072648456499597 0 0.020153485913547993 0.053203265507879544 0 0.012422744546318564 0.070759908235839816 0 0.012674165048710488 0.07151091764854664 0 0.012531961022034774 0.072435761729128453 0 0.019603931165964445 0.058708411580097659 0 0.019559024784876963 0.066382792034564986 0 0.018900369287496926 0.057887441479459123 0 0.018437787276459658 0.061145257377514847 0 0.012602931129230509 0.07063745557283084 0 0.012674165048710488 0.07151091764854664 0 0.013197053838630712 0.071111959757725496 0 0.012422744546318564 0.070759908235839816 0 0.012663552273132683 0.070631687896083123 0 0.012674165048710488 0.07151091764854664 0 0.012674165048710488 0.07151091764854664 0 0.013197053838630712 0.071111959757725496 0 0.013216380799978285 0.072035106057534382 0 0.013197053838630712 0.071111959757725496 0 0.013837188578452982 0.071321197467389311 0 0.013216380799978285 0.072035106057534382 0 0.013855821561775493 0.072715315898465457 0 0.013216380799978285 0.072035106057534382 0 0.013259473859615487 0.073003935386410937 0 0.013837188578452982 0.071321197467389311 0 0.013855821561775493 0.072715315898465457 0 0.014444362031107294 0.072339910804631105 0 0.013837188578452982 0.071321197467389311 0 0.013855821561775493 0.072715315898465457 0 0.013216380799978285 0.072035106057534382 0 0.013216380799978285 0.072035106057534382 0 0.012531961022034774 0.072435761729128453 0 0.013259473859615487 0.073003935386410937 0 0.012674165048710488 0.07151091764854664 0 0.013216380799978285 0.072035106057534382 0 0.012531961022034774 0.072435761729128453 0 0.015391982503552597 0.071361954210616099 0 0.014810788418407666 0.07170581873983338 0 0.015103798284889681 0.0723693084418945 0 0.014716848833058944 0.072096943808624567 0 0.014804764593603399 0.072472270257256707 0 0.014870848494645875 0.07221665504424471 0 0.014404359218263807 0.057810959797647374 0 0.013159891482563586 0.067112241686627938 0 0.014404359218263807 0.057810959797647374 0 0.016405093384311332 0.066158046492918399 0 0.014716848833058944 0.072096943808624567 0 0.014753959211283189 0.071991781109199168 0 0.014870848494645875 0.07221665504424471 0 0.014404359218263807 0.057810959797647374 0 0.014423604568191395 0.051726948535346526 0 0.011082550987293957 0.045409829529292817 0 0.0075706907554804618 0.05739799415665376 0 0.015688346627064812 0.05602355633689371 0 0.014404359218263807 0.057810959797647374 0 0.014377047834578917 0.054196528373697719 0 0.015391982503552597 0.071361954210616099 0 0.015287037509487428 0.071134428988982229 0 0.014810788418407666 0.07170581873983338 0 0.014423604568191395 0.051726948535346526 0 0.014377047834578917 0.054196528373697719 0 0.013837188578452982 0.071321197467389311 0 0.014810788418407666 0.07170581873983338 0 0.014444362031107294 0.072339910804631105 0 0.013837188578452982 0.071321197467389311 0 0.015287037509487428 0.071134428988982229 0 0.014810788418407666 0.07170581873983338 0 0.014772407692098961 0.070276577811114155 0 0.013837188578452982 0.071321197467389311 0 0.016100775887259392 0.070885962622161278 0 0.013169077782708634 0.059374159032892358 0 0.014377047834578917 0.054196528373697719 0 0.014444362031107294 0.072339910804631105 0 0.015103798284889681 0.0723693084418945 0 0.014602336738689327 0.073417013518450147 0 0.014810788418407666 0.07170581873983338 0 0.014444362031107294 0.072339910804631105 0 0.015103798284889681 0.0723693084418945 0 0.014762047329721388 0.072338782289658995 0 0.014633324448726929 0.072870813779300686 0 0.014943172533787141 0.072812138906808002 0 0.014633324448726929 0.072870813779300686 0 0.014943172533787141 0.072812138906808002 0 0.014822669179291309 0.073150563442149735 0 0.014804764593603399 0.072472270257256707 0 0.015156099596981788 0.072622933209845669 0 0.01503580328173054 0.073101153971683375 0 0.016405093384311332 0.066158046492918399 0 0.016823668273389325 0.06827408786251854 0 0.015156099596981788 0.072622933209845669 0 0.015028197938015403 0.072373607417626037 0 0.015287888065052982 0.072397891768403499 0 0.014804764593603399 0.072472270257256707 0 0.015028197938015403 0.072373607417626037 0 0.014870848494645875 0.07221665504424471 0 0.014804764593603399 0.072472270257256707 0 0.015156099596981788 0.072622933209845669 0 0.015028197938015403 0.072373607417626037 0 0.015028197938015403 0.072373607417626037 0 0.014870848494645875 0.07221665504424471 0 0.01505701342511496 0.072171308907622633 0 0.014753959211283189 0.071991781109199168 0 0.01505701342511496 0.072171308907622633 0 0.015281358155645543 0.071986744485677864 0 0.015028197938015403 0.072373607417626037 0 0.01505701342511496 0.072171308907622633 0 0.015287888065052982 0.072397891768403499 0 0.014753959211283189 0.071991781109199168 0 0.014870848494645875 0.07221665504424471 0 0.01505701342511496 0.072171308907622633 0 0.01505701342511496 0.072171308907622633 0 0.015328067102213828 0.072164180307436834 0 0.015287888065052982 0.072397891768403499 0 0.01505701342511496 0.072171308907622633 0 0.015328067102213828 0.072164180307436834 0 0.015281358155645543 0.071986744485677864 0 0.015328067102213828 0.072164180307436834 0 0.015348988720740624 0.072047493317144204 0 0.015281358155645543 0.071986744485677864 0 0.015328067102213828 0.072164180307436834 0 0.015287888065052982 0.072397891768403499 0 0.015381231433126349 0.072335791563334723 0 0.015287888065052982 0.072397891768403499 0 0.015476140572637019 0.072529813612336749 0 0.015381231433126349 0.072335791563334723 0 0.015156099596981788 0.072622933209845669 0 0.015287888065052982 0.072397891768403499 0 0.015405064148060942 0.072650186922786589 0 0.015287888065052982 0.072397891768403499 0 0.015405064148060942 0.072650186922786589 0 0.015476140572637019 0.072529813612336749 0 0.015405064148060942 0.072650186922786589 0 0.015476140572637019 0.072529813612336749 0 0.015608479978930383 0.072604616975470548 0 0.015476140572637019 0.072529813612336749 0 0.015577245079618576 0.07261509335358679 0 0.015608479978930383 0.072604616975470548 0 0.015476140572637019 0.072529813612336749 0 0.015577245079618576 0.07261509335358679 0 0.015427402435162579 0.07248296302746518 0 0.015577245079618576 0.07261509335358679 0 0.015516516395023093 0.072867773281860518 0 0.015427402435162579 0.07248296302746518 0 0.015516516395023093 0.072867773281860518 0 0.015427402435162579 0.07248296302746518 0 0.015345182921899776 0.072246246237634718 0 0.015427402435162579 0.07248296302746518 0 0.015345182921899776 0.072246246237634718 0 0.015357285625255264 0.072191427540725855 0 0.015427402435162579 0.07248296302746518 0 0.015381231433126349 0.072335791563334723 0 0.015357285625255264 0.072191427540725855 0 0.015476140572637019 0.072529813612336749 0 0.015427402435162579 0.07248296302746518 0 0.015381231433126349 0.072335791563334723 0 0.015516516395023093 0.072867773281860518 0 0.015345182921899776 0.072246246237634718 0 0.015172630485478615 0.071728232504193509 0 0.016101057688111445 0.068423180925746091 0 0.014857518756615326 0.070323237541441819 0 0.015172630485478615 0.071728232504193509 0 0.015458804697214848 0.069745142544180128 0 0.015185403160154523 0.070899959746011446 0 0.014119893610864864 0.068831853115745079 0 0.014917490379743627 0.069174113682973257 0 0.014214432339357199 0.069632254951616693 0 0.014119893610864864 0.068831853115745079 0 0.014968628451543455 0.068420836466786081 0 0.014148267363569009 0.068026913302340411 0 0.014119893610864864 0.068831853115745079 0 0.014968628451543455 0.068420836466786081 0 0.014917490379743627 0.069174113682973257 0 0.016101057688111445 0.068423180925746091 0 0.014917490379743627 0.069174113682973257 0 0.014857518756615326 0.070323237541441819 0 0.016101057688111445 0.068423180925746091 0 0.014968628451543455 0.068420836466786081 0 0.014917490379743627 0.069174113682973257 0 0.014917490379743627 0.069174113682973257 0 0.014857518756615326 0.070323237541441819 0 0.014214432339357199 0.069632254951616693 0 0.014857518756615326 0.070323237541441819 0 0.014214432339357199 0.069632254951616693 0 0.01381276143665062 0.070380303983155368 0 0.014857518756615326 0.070323237541441819 0 0.014849804937989325 0.071343803811461354 0 0.015172630485478615 0.071728232504193509 0 0.014857518756615326 0.070323237541441819 0 0.014174478050104338 0.070904978384576586 0 0.01381276143665062 0.070380303983155368 0 0.014857518756615326 0.070323237541441819 0 0.014174478050104338 0.070904978384576586 0 0.014849804937989325 0.071343803811461354 0 0.015345182921899776 0.072246246237634718 0 0.015172630485478615 0.071728232504193509 0 0.015307860276629694 0.072025302852775835 0 0.015172630485478615 0.071728232504193509 0 0.01529818181167528 0.071947926832640369 0 0.015307860276629694 0.072025302852775835 0 0.015328067102213828 0.072164180307436834 0 0.015381231433126349 0.072335791563334723 0 0.015357285625255264 0.072191427540725855 0 0.015328067102213828 0.072164180307436834 0 0.015357285625255264 0.072191427540725855 0 0.015348988720740624 0.072047493317144204 0 0.015357285625255264 0.072191427540725855 0 0.015307860276629694 0.072025302852775835 0 0.015348988720740624 0.072047493317144204 0 0.015345182921899776 0.072246246237634718 0 0.015357285625255264 0.072191427540725855 0 0.015307860276629694 0.072025302852775835 0 0.01529818181167528 0.071947926832640369 0 0.015307860276629694 0.072025302852775835 0 0.015348988720740624 0.072047493317144204 0 0.011354543255349948 0.0042768408730116461 0 0.014837232048824063 0.0069726327157444996 0 0.015298293859408098 0.0037635444773224851 0 0.012773856357710507 0.040921072777139987 0 0.015259269659387018 0.043929387492168827 0 0.015348988720740624 0.072047493317144204 0 0.015335609569056885 0.072145767222159332 0 0.015281358155645543 0.071986744485677864 0 0.01529818181167528 0.071947926832640369 0 0.015348988720740624 0.072047493317144204 0 0.015335609569056885 0.072145767222159332 0 0.011354543255349948 0.0042768408730116461 0 0.0096466235853250523 0.006249503020408693 0 0.0074190888829690268 0.0047296832414359157 0 0.015172630485478615 0.071728232504193509 0 0.015335609569056885 0.072145767222159332 0 0.014070447013866475 0.072407593628572853 0 0.015172630485478615 0.071728232504193509 0 0.01529818181167528 0.071947926832640369 0 0.015335609569056885 0.072145767222159332 0 0.0098663143399553392 0.0087198794906421778 0 0.011641942893642159 0.0071443196373158499 0 0.0096466235853250523 0.006249503020408693 0 0.011354543255349948 0.0042768408730116461 0 0.011641942893642159 0.0071443196373158499 0 0.0096466235853250523 0.006249503020408693 0 0.011354543255349948 0.0042768408730116461 0 0.011641942893642159 0.0071443196373158499 0 0.014837232048824063 0.0069726327157444996 0 0.014837232048824063 0.0069726327157444996 0 0.016657780833613623 0.0056668979084706257 0 0.015298293859408098 0.0037635444773224851 0 0.014837232048824063 0.0069726327157444996 0 0.016843447907348125 0.0076456569124548077 0 0.016657780833613623 0.0056668979084706257 0 0.016843447907348125 0.0076456569124548077 0 0.018207033229508122 0.0072755577820502945 0 0.018469912708391455 0.0062024539115076568 0 0.022307895760388208 0.030647525959834176 0 0.020959066295066869 0.03258110495603686 0 0.018469912708391455 0.0062024539115076568 0 0.016657780833613623 0.0056668979084706257 0 0.017432542440809214 0.0047086950454025157 0 0.016843447907348125 0.0076456569124548077 0 0.018469912708391455 0.0062024539115076568 0 0.016657780833613623 0.0056668979084706257 0 0.019314878568179341 0.003217272186272456 0 0.018469912708391455 0.0062024539115076568 0 0.017432542440809214 0.0047086950454025157 0 0.019314878568179341 0.003217272186272456 0 0.017432542440809214 0.0047086950454025157 0 0.015298293859408098 0.0037635444773224851 0 0.016657780833613623 0.0056668979084706257 0 0.017432542440809214 0.0047086950454025157 0 0.015298293859408098 0.0037635444773224851 0 0.014423604568191395 0.051726948535346526 0 0.015259269659387018 0.043929387492168827 0 0.015976984923625329 0.033814891317788198 0 0.0184742434100756 0.037851118801230661 0 0.019751814729659607 0.033818085144156955 0 0.0184742434100756 0.037851118801230661 0 0.021867096734228895 0.037940495491373787 0 0.019751814729659607 0.033818085144156955 0 0.021867096734228895 0.037940495491373787 0 0.023884774973256591 0.033683961405854626 0 0.026932236359833637 0.039223809369238909 0 0.021867096734228895 0.037940495491373787 0 0.023884774973256591 0.033683961405854626 0 0.019751814729659607 0.033818085144156955 0 0.023884774973256591 0.033683961405854626 0 0.019751814729659607 0.033818085144156955 0 0.021030260907643261 0.029882126316375976 0 0.023884774973256591 0.033683961405854626 0 0.021030260907643261 0.029882126316375976 0 0.024237907577410029 0.028217232627440841 0 0.015976984923625329 0.033814891317788198 0 0.019751814729659607 0.033818085144156955 0 0.017699004496573443 0.030278455624224539 0 0.019751814729659607 0.033818085144156955 0 0.017699004496573443 0.030278455624224539 0 0.021030260907643261 0.029882126316375976 0 0.017699004496573443 0.030278455624224539 0 0.019548458787436499 0.026527383923357059 0 0.021030260907643261 0.029882126316375976 0 0.016178827803747582 0.027597048478032089 0 0.017699004496573443 0.030278455624224539 0 0.019548458787436499 0.026527383923357059 0 0.019548458787436499 0.026527383923357059 0 0.023131848788518858 0.025462203014213935 0 0.021030260907643261 0.029882126316375976 0 0.021784937093893873 0.022715842572328223 0 0.019548458787436499 0.026527383923357059 0 0.023131848788518858 0.025462203014213935 0 0.023131848788518858 0.025462203014213935 0 0.021030260907643261 0.029882126316375976 0 0.024237907577410029 0.028217232627440841 0 0.024237907577410029 0.028217232627440841 0 0.024868873378911957 0.025085172385717908 0 0.02511810706318051 0.026298130647946547 0 0.026025604429073305 0.030251046481848343 0 0.027552632358563433 0.030975622520684268 0 0.023131848788518858 0.025462203014213935 0 0.024237907577410029 0.028217232627440841 0 0.024868873378911957 0.025085172385717908 0 0.024868873378911957 0.025085172385717908 0 0.02511810706318051 0.026298130647946547 0 0.02556413262364925 0.025087726985306407 0 0.031391597800359994 0.029445013075881557 0 0.028903761482773519 0.033951959728075749 0 0.034099789162710344 0.033946236924469728 0 0.024237907577410029 0.028217232627440841 0 0.031391597800359994 0.029445013075881557 0 0.028903761482773519 0.033951959728075749 0 0.023884774973256591 0.033683961405854626 0 0.024237907577410029 0.028217232627440841 0 0.028903761482773519 0.033951959728075749 0 0.023884774973256591 0.033683961405854626 0 0.028903761482773519 0.033951959728075749 0 0.026932236359833637 0.039223809369238909 0 0.028903761482773519 0.033951959728075749 0 0.032121387385206368 0.037636074344258919 0 0.034099789162710344 0.033946236924469728 0 0.028903761482773519 0.033951959728075749 0 0.032121387385206368 0.037636074344258919 0 0.026932236359833637 0.039223809369238909 0 0.035583680633361814 0.037153489983017082 0 0.038739764608475509 0.034751150887831421 0 0.034099789162710344 0.033946236924469728 0 0.032121387385206368 0.037636074344258919 0 0.035583680633361814 0.037153489983017082 0 0.034099789162710344 0.033946236924469728 0 0.032121387385206368 0.037636074344258919 0 0.035583680633361814 0.037153489983017082 0 0.034504533578024285 0.03971730393553239 0 0.035583680633361814 0.037153489983017082 0 0.038548726403838392 0.038977702864674488 0 0.038739764608475509 0.034751150887831421 0 0.035583680633361814 0.037153489983017082 0 0.038548726403838392 0.038977702864674488 0 0.034504533578024285 0.03971730393553239 0 0.033484800852605912 0.045015737293219012 0 0.035748044086742238 0.042532379195823422 0 0.034725737743341187 0.04542538967717534 0 0.032736245925601898 0.041733410126929764 0 0.029701529732091763 0.041459085887514714 0 0.038548726403838392 0.038977702864674488 0 0.038739764608475509 0.034751150887831421 0 0.042891634088837123 0.034257225773440488 0 0.029618868368402395 0.033224450623632572 0 0.028797691982863128 0.0375336720032994 0 0.038739764608475509 0.034751150887831421 0 0.037668176011512816 0.030654488568276753 0 0.042891634088837123 0.034257225773440488 0 0.037668176011512816 0.030654488568276753 0 0.043823045857882173 0.031705931530263444 0 0.042891634088837123 0.034257225773440488 0 0.031391597800359994 0.029445013075881557 0 0.037668176011512816 0.030654488568276753 0 0.034099789162710344 0.033946236924469728 0 0.038739764608475509 0.034751150887831421 0 0.037668176011512816 0.030654488568276753 0 0.034099789162710344 0.033946236924469728 0 0.027552632358563433 0.030975622520684268 0 0.029618868368402395 0.033224450623632572 0 0.02511810706318051 0.026298130647946547 0 0.025761713154648844 0.025402385564421585 0 0.02556413262364925 0.025087726985306407 0 0.02556413262364925 0.025087726985306407 0 0.025621950899611862 0.024062296286893742 0 0.025933454911928881 0.024218837814716111 0 0.024868873378911957 0.025085172385717908 0 0.02556413262364925 0.025087726985306407 0 0.025621950899611862 0.024062296286893742 0 0.02556413262364925 0.025087726985306407 0 0.025933454911928881 0.024218837814716111 0 0.025993029323298632 0.024736218096039715 0 0.026184833255124815 0.023475564474110294 0 0.025933454911928881 0.024218837814716111 0 0.026139797409826943 0.024165850315361385 0 0.025933454911928881 0.024218837814716111 0 0.026139797409826943 0.024165850315361385 0 0.025993029323298632 0.024736218096039715 0 0.025761713154648844 0.025402385564421585 0 0.02631439559688746 0.024932524906346197 0 0.026483986519553606 0.025313528279207718 0 0.025761713154648844 0.025402385564421585 0 0.02556413262364925 0.025087726985306407 0 0.025993029323298632 0.024736218096039715 0 0.026139797409826943 0.024165850315361385 0 0.025993029323298632 0.024736218096039715 0 0.026329616706463825 0.024356261724004513 0 0.025761713154648844 0.025402385564421585 0 0.025993029323298632 0.024736218096039715 0 0.02631439559688746 0.024932524906346197 0 0.02631439559688746 0.024932524906346197 0 0.02676769804676879 0.024663134928656318 0 0.026483986519553606 0.025313528279207718 0 0.025029107691021249 0.045488108097511644 0 0.025337798515365474 0.048730605646933295 0 0.023921817277906588 0.048493605024699786 0 0.026689567155878769 0.031574362974742476 0 0.028797691982863128 0.0375336720032994 0 0.02643072435562719 0.0243534279408621 0 0.026329616706463825 0.024356261724004513 0 0.026319138584564507 0.023742539478313056 0 0.026689567155878769 0.031574362974742476 0 0.026436238080362377 0.031250636384502178 0 0.02631439559688746 0.024932524906346197 0 0.02676769804676879 0.024663134928656318 0 0.026329616706463825 0.024356261724004513 0 0.025993029323298632 0.024736218096039715 0 0.02631439559688746 0.024932524906346197 0 0.026329616706463825 0.024356261724004513 0 0.025969353021048979 0.022683987900715401 0 0.026218788034655331 0.02373054618296596 0 0.026319138584564507 0.023742539478313056 0 0.026139797409826943 0.024165850315361385 0 0.026329616706463825 0.024356261724004513 0 0.026218788034655331 0.02373054618296596 0 0.026689567155878769 0.031574362974742476 0 0.027055770225987801 0.030016646059541425 0 0.026329616706463825 0.024356261724004513 0 0.026218788034655331 0.02373054618296596 0 0.026319138584564507 0.023742539478313056 0 0.026184833255124815 0.023475564474110294 0 0.026139797409826943 0.024165850315361385 0 0.026218788034655331 0.02373054618296596 0 0.027059821593666291 0.023755798699940892 0 0.026503811276110199 0.02319767498307404 0 0.02660796264502981 0.024068194246923951 0 0.026503811276110199 0.02319767498307404 0 0.026319138584564507 0.023742539478313056 0 0.02660796264502981 0.024068194246923951 0 0.025969353021048979 0.022683987900715401 0 0.026503811276110199 0.02319767498307404 0 0.026319138584564507 0.023742539478313056 0 0.027011982392529003 0.024789389870459772 0 0.026086615692679133 0.024240178230677496 0 0.02660796264502981 0.024068194246923951 0 0.029810348550245766 0.048111997255340093 0 0.025029107691021249 0.045488108097511644 0 0.026904712814858848 0.04842115694043251 0 0.024417221017157858 0.031358604159080483 0 0.026689567155878769 0.031574362974742476 0 0.026086615692679133 0.024240178230677496 0 0.026319138584564507 0.023742539478313056 0 0.02660796264502981 0.024068194246923951 0 0.025029107691021249 0.045488108097511644 0 0.026904712814858848 0.04842115694043251 0 0.025337798515365474 0.048730605646933295 0 0.029810348550245766 0.048111997255340093 0 0.026912514633582012 0.050474625515191586 0 0.026904712814858848 0.04842115694043251 0 0.029810348550245766 0.048111997255340093 0 0.026912514633582012 0.050474625515191586 0 0.027992042285335174 0.051824903248998938 0 0.026912514633582012 0.050474625515191586 0 0.025997949723795776 0.049709685723416934 0 0.026904712814858848 0.04842115694043251 0 0.025789070920603088 0.050823353261573778 0 0.026912514633582012 0.050474625515191586 0 0.025997949723795776 0.049709685723416934 0 0.025997949723795776 0.049709685723416934 0 0.026904712814858848 0.04842115694043251 0 0.025337798515365474 0.048730605646933295 0 0.028613900880694855 0.037724147651084769 0 0.028797691982863128 0.0375336720032994 0 0.025337798515365474 0.048730605646933295 0 0.023941723032016384 0.048514807441806813 0 0.024506071777571779 0.049309524616659627 0 0.023941723032016384 0.048514807441806813 0 0.023741350162391275 0.049908915871786162 0 0.024506071777571779 0.049309524616659627 0 0.023941723032016384 0.048514807441806813 0 0.023741350162391275 0.049908915871786162 0 0.023228811618949265 0.050466287352845363 0 0.028797691982863128 0.0375336720032994 0 0.029701529732091763 0.041459085887514714 0 0.023741350162391275 0.049908915871786162 0 0.023217873513359959 0.050485563855221877 0 0.024142659002624158 0.050741614579739719 0 0.029554241309415689 0.041628746536397587 0 0.029701529732091763 0.041459085887514714 0 0.025997949723795776 0.049709685723416934 0 0.025337798515365474 0.048730605646933295 0 0.025045517471835296 0.050094611360251041 0 0.025337798515365474 0.048730605646933295 0 0.024506071777571779 0.049309524616659627 0 0.025045517471835296 0.050094611360251041 0 0.023741350162391275 0.049908915871786162 0 0.024506071777571779 0.049309524616659627 0 0.025045517471835296 0.050094611360251041 0 0.024142659002624158 0.050741614579739719 0 0.025045517471835296 0.050094611360251041 0 0.024825620733591999 0.051453054275095 0 0.023741350162391275 0.049908915871786162 0 0.024142659002624158 0.050741614579739719 0 0.025045517471835296 0.050094611360251041 0 0.025789070920603088 0.050823353261573778 0 0.025997949723795776 0.049709685723416934 0 0.025045517471835296 0.050094611360251041 0 0.025789070920603088 0.050823353261573778 0 0.025045517471835296 0.050094611360251041 0 0.024825620733591999 0.051453054275095 0 0.024825620733591999 0.051453054275095 0 0.024383079006083809 0.05271129615228095 0 0.026021007653923775 0.052495029099767568 0 0.023217873513359959 0.050485563855221877 0 0.023171382545049243 0.052856768342077913 0 0.021760943727802646 0.0547112472358188 0 0.029701529732091763 0.041459085887514714 0 0.02721408556681228 0.049156156043389659 0 0.025789070920603088 0.050823353261573778 0 0.024825620733591999 0.051453054275095 0 0.026021007653923775 0.052495029099767568 0 0.024142659002624158 0.050741614579739719 0 0.024825620733591999 0.051453054275095 0 0.023930969703038305 0.051659431490135965 0 0.024825620733591999 0.051453054275095 0 0.023930969703038305 0.051659431490135965 0 0.024383079006083809 0.05271129615228095 0 0.023217873513359959 0.050485563855221877 0 0.023930969703038305 0.051659431490135965 0 0.023171382545049243 0.052856768342077913 0 0.023217873513359959 0.050485563855221877 0 0.024142659002624158 0.050741614579739719 0 0.023930969703038305 0.051659431490135965 0 0.023930969703038305 0.051659431490135965 0 0.023171382545049243 0.052856768342077913 0 0.024383079006083809 0.05271129615228095 0 0.023171382545049243 0.052856768342077913 0 0.022977362185282114 0.05410197494679609 0 0.021760943727802646 0.0547112472358188 0 0.023171382545049243 0.052856768342077913 0 0.023719500286164527 0.053799951318842187 0 0.024383079006083809 0.05271129615228095 0 0.023171382545049243 0.052856768342077913 0 0.023719500286164527 0.053799951318842187 0 0.022977362185282114 0.05410197494679609 0 0.024786091924461247 0.054155839818165907 0 0.026049642600996285 0.054138096074800211 0 0.026021007653923775 0.052495029099767568 0 0.024383079006083809 0.05271129615228095 0 0.024786091924461247 0.054155839818165907 0 0.026021007653923775 0.052495029099767568 0 0.023719500286164527 0.053799951318842187 0 0.024383079006083809 0.05271129615228095 0 0.024786091924461247 0.054155839818165907 0 0.027992042285335174 0.051824903248998938 0 0.026021007653923775 0.052495029099767568 0 0.027451107886625151 0.05419579658032362 0 0.026049642600996285 0.054138096074800211 0 0.026021007653923775 0.052495029099767568 0 0.027451107886625151 0.05419579658032362 0 0.02969878371568534 0.053209730996946383 0 0.027992042285335174 0.051824903248998938 0 0.027451107886625151 0.05419579658032362 0 0.025789070920603088 0.050823353261573778 0 0.026912514633582012 0.050474625515191586 0 0.026021007653923775 0.052495029099767568 0 0.026912514633582012 0.050474625515191586 0 0.027992042285335174 0.051824903248998938 0 0.026021007653923775 0.052495029099767568 0 0.026993546328820832 0.056219691783121896 0 0.025918901948444178 0.055391923795012149 0 0.025649430720887118 0.056717638525522314 0 0.026993546328820832 0.056219691783121896 0 0.025649430720887118 0.056717638525522314 0 0.026370300578036507 0.057789670575375658 0 0.026993546328820832 0.056219691783121896 0 0.027801828790950354 0.057296726936475362 0 0.026370300578036507 0.057789670575375658 0 0.028826500769665649 0.055668430707443609 0 0.028785086295864064 0.058581476199102547 0 0.027801828790950354 0.057296726936475362 0 0.028826500769665649 0.055668430707443609 0 0.026993546328820832 0.056219691783121896 0 0.027801828790950354 0.057296726936475362 0 0.028826500769665649 0.055668430707443609 0 0.026993546328820832 0.056219691783121896 0 0.027451107886625151 0.05419579658032362 0 0.02969878371568534 0.053209730996946383 0 0.028826500769665649 0.055668430707443609 0 0.027451107886625151 0.05419579658032362 0 0.026993546328820832 0.056219691783121896 0 0.027451107886625151 0.05419579658032362 0 0.025918901948444178 0.055391923795012149 0 0.026049642600996285 0.054138096074800211 0 0.027451107886625151 0.05419579658032362 0 0.025918901948444178 0.055391923795012149 0 0.024786091924461247 0.054155839818165907 0 0.026049642600996285 0.054138096074800211 0 0.025918901948444178 0.055391923795012149 0 0.024786091924461247 0.054155839818165907 0 0.025918901948444178 0.055391923795012149 0 0.024774123139264987 0.055904969165789103 0 0.024786091924461247 0.054155839818165907 0 0.023275874122995522 0.055182010172378129 0 0.024774123139264987 0.055904969165789103 0 0.022977362185282114 0.05410197494679609 0 0.023275874122995522 0.055182010172378129 0 0.021760943727802646 0.0547112472358188 0 0.023719500286164527 0.053799951318842187 0 0.024786091924461247 0.054155839818165907 0 0.023275874122995522 0.055182010172378129 0 0.023719500286164527 0.053799951318842187 0 0.022977362185282114 0.05410197494679609 0 0.023275874122995522 0.055182010172378129 0 0.024774123139264987 0.055904969165789103 0 0.025649430720887118 0.056717638525522314 0 0.024290293904590754 0.057802294542100827 0 0.023275874122995522 0.055182010172378129 0 0.024774123139264987 0.055904969165789103 0 0.024290293904590754 0.057802294542100827 0 0.025918901948444178 0.055391923795012149 0 0.024774123139264987 0.055904969165789103 0 0.025649430720887118 0.056717638525522314 0 0.024290293904590754 0.057802294542100827 0 0.022662648136654879 0.059353451792613109 0 0.02578636616161523 0.060044067266723809 0 0.025649430720887118 0.056717638525522314 0 0.024290293904590754 0.057802294542100827 0 0.026370300578036507 0.057789670575375658 0 0.023275874122995522 0.055182010172378129 0 0.024290293904590754 0.057802294542100827 0 0.022662648136654879 0.059353451792613109 0 0.024290293904590754 0.057802294542100827 0 0.02578636616161523 0.060044067266723809 0 0.026370300578036507 0.057789670575375658 0 0.022662648136654879 0.059353451792613109 0 0.02578636616161523 0.060044067266723809 0 0.022868838859834238 0.061329805481308307 0 0.02578636616161523 0.060044067266723809 0 0.027183863760081983 0.058431491257937528 0 0.026370300578036507 0.057789670575375658 0 0.027801828790950354 0.057296726936475362 0 0.027183863760081983 0.058431491257937528 0 0.026370300578036507 0.057789670575375658 0 0.028785086295864064 0.058581476199102547 0 0.027801828790950354 0.057296726936475362 0 0.027183863760081983 0.058431491257937528 0 0.020586033116834931 0.055072648456499597 0 0.022001099580479258 0.056198593583346404 0 0.026061860170597664 0.060619988309043776 0 0.026056550240325101 0.05971692977295661 0 0.024479076479494509 0.060552148331568877 0 0.028785086295864064 0.058581476199102547 0 0.02578636616161523 0.060044067266723809 0 0.027183863760081983 0.058431491257937528 0 0.019603931165964445 0.058708411580097659 0 0.021829756039887072 0.059528205172912609 0 0.026289630699592798 0.058919475436835102 0 0.02514326074273978 0.06082825164718083 0 0.023079438562153394 0.060648238428919449 0 0.026061860170597664 0.060619988309043776 0 0.024479076479494509 0.060552148331568877 0 0.023657845719950516 0.061913405368894954 0 0.026289630699592798 0.058919475436835102 0 0.026383611789405757 0.062629091710459869 0 0.02514326074273978 0.06082825164718083 0 0.02514326074273978 0.06082825164718083 0 0.023927934769153194 0.062071860702908342 0 0.023079438562153394 0.060648238428919449 0 0.026383611789405757 0.062629091710459869 0 0.02514326074273978 0.06082825164718083 0 0.023927934769153194 0.062071860702908342 0 0.026383611789405757 0.062629091710459869 0 0.023927934769153194 0.062071860702908342 0 0.022862258761694017 0.063751469269885466 0 0.022191469877635709 0.062545603675624742 0 0.021224380080230591 0.063320941686715607 0 0.022862258761694017 0.063751469269885466 0 0.022191469877635709 0.062545603675624742 0 0.023927934769153194 0.062071860702908342 0 0.022862258761694017 0.063751469269885466 0 0.022191469877635709 0.062545603675624742 0 0.023927934769153194 0.062071860702908342 0 0.023079438562153394 0.060648238428919449 0 0.023657845719950516 0.061913405368894954 0 0.022868838859834238 0.061329805481308307 0 0.021757545626966253 0.061883265988176867 0 0.022001099580479258 0.056198593583346404 0 0.022024122017491293 0.056757173587703214 0 0.024479076479494509 0.060552148331568877 0 0.023657845719950516 0.061913405368894954 0 0.022868838859834238 0.061329805481308307 0 0.022662648136654879 0.059353451792613109 0 0.022868838859834238 0.061329805481308307 0 0.021594198101703165 0.060799905943833929 0 0.021594198101703165 0.060799905943833929 0 0.020395941577735985 0.062720068326718309 0 0.020726411765363242 0.058880916853317332 0 0.022868838859834238 0.061329805481308307 0 0.021594198101703165 0.060799905943833929 0 0.021757545626966253 0.061883265988176867 0 0.023657845719950516 0.061913405368894954 0 0.021757545626966253 0.061883265988176867 0 0.020685309360097326 0.062808210815710738 0 0.022801835497576427 0.059616595845928287 0 0.024588346616822462 0.055795326339184118 0 0.021594198101703165 0.060799905943833929 0 0.021757545626966253 0.061883265988176867 0 0.020395941577735985 0.062720068326718309 0 0.021757545626966253 0.061883265988176867 0 0.020685309360097326 0.062808210815710738 0 0.020395941577735985 0.062720068326718309 0 0.021829756039887072 0.059528205172912609 0 0.021451180002850952 0.06028895591685212 0 0.022191469877635709 0.062545603675624742 0 0.023079438562153394 0.060648238428919449 0 0.020685309360097326 0.062808210815710738 0 0.022191469877635709 0.062545603675624742 0 0.020685309360097326 0.062808210815710738 0 0.021224380080230591 0.063320941686715607 0 0.020697914311684093 0.062974503659862832 0 0.020646829976570726 0.062998600517657155 0 0.022243906089602708 0.062973025595780524 0 0.020685309360097326 0.062808210815710738 0 0.020697914311684093 0.062974503659862832 0 0.019821499455606087 0.063300822965599052 0 0.020697914311684093 0.062974503659862832 0 0.020646829976570726 0.062998600517657155 0 0.020395941577735985 0.062720068326718309 0 0.020685309360097326 0.062808210815710738 0 0.020697914311684093 0.062974503659862832 0 0.020395941577735985 0.062720068326718309 0 0.025230523722278551 0.056782316223909134 0 0.024588346616822462 0.055795326339184118 0 0.020646829976570726 0.062998600517657155 0 0.020395941577735985 0.062720068326718309 0 0.020076724489667082 0.0636118692423909 0 0.031431555539242574 0.051348577500849639 0 0.031115506294318945 0.047542367639920202 0 0.033701000190424775 0.048404547088648872 0 0.023275874122995522 0.055182010172378129 0 0.022662648136654879 0.059353451792613109 0 0.020726411765363242 0.058880916853317332 0 0.022662648136654879 0.059353451792613109 0 0.021594198101703165 0.060799905943833929 0 0.020726411765363242 0.058880916853317332 0 0.023773877469788946 0.056382771874524729 0 0.024588346616822462 0.055795326339184118 0 0.023275874122995522 0.055182010172378129 0 0.020296615339593947 0.058766583022258449 0 0.021760943727802646 0.0547112472358188 0 0.033484800852605912 0.045015737293219012 0 0.033701000190424775 0.048404547088648872 0 0.034725737743341187 0.04542538967717534 0 0.024588346616822462 0.055795326339184118 0 0.02721408556681228 0.049156156043389659 0 0.038548726403838392 0.038977702864674488 0 0.0341868532145733 0.04365529706172503 0 0.034504533578024285 0.03971730393553239 0 0.032736245925601898 0.041733410126929764 0 0.031388796032203299 0.044916490167854595 0 0.033484800852605912 0.045015737293219012 0 0.031115506294318945 0.047542367639920202 0 0.033701000190424775 0.048404547088648872 0 0.0341868532145733 0.04365529706172503 0 0.034504533578024285 0.03971730393553239 0 0.03208620241980209 0.041137269617681889 0 0.032121387385206368 0.037636074344258919 0 0.03208620241980209 0.041137269617681889 0 0.026932236359833637 0.039223809369238909 0 0.0341868532145733 0.04365529706172503 0 0.03208620241980209 0.041137269617681889 0 0.029177421741298663 0.04263772218169172 0 0.03208620241980209 0.041137269617681889 0 0.026932236359833637 0.039223809369238909 0 0.029177421741298663 0.04263772218169172 0 0.032121387385206368 0.037636074344258919 0 0.034504533578024285 0.03971730393553239 0 0.03208620241980209 0.041137269617681889 0 0.026932236359833637 0.039223809369238909 0 0.029177421741298663 0.04263772218169172 0 0.025183656333606367 0.044343112880703785 0 0.025183656333606367 0.044343112880703785 0 0.029931415570680336 0.048268604835954576 0 0.023711236422529935 0.04891924471620715 0 0.029177421741298663 0.04263772218169172 0 0.025183656333606367 0.044343112880703785 0 0.029931415570680336 0.048268604835954576 0 0.031431555539242574 0.051348577500849639 0 0.031115506294318945 0.047542367639920202 0 0.028500404693455592 0.05020568919730195 0 0.0341868532145733 0.04365529706172503 0 0.029177421741298663 0.04263772218169172 0 0.029931415570680336 0.048268604835954576 0 0.031388796032203299 0.044916490167854595 0 0.028991321077114496 0.048256370659367977 0 0.031431555539242574 0.051348577500849639 0 0.028619585016807867 0.052365888659032918 0 0.028500404693455592 0.05020568919730195 0 0.025230523722278551 0.056782316223909134 0 0.024993990212564755 0.058033718355433472 0 0.031431555539242574 0.051348577500849639 0 0.028619585016807867 0.052365888659032918 0 0.028933797714677155 0.054922240755408649 0 0.028933797714677155 0.054922240755408649 0 0.025380453002182318 0.0530369419747488 0 0.023669843765464153 0.056370624567843121 0 0.028619585016807867 0.052365888659032918 0 0.028933797714677155 0.054922240755408649 0 0.025380453002182318 0.0530369419747488 0 0.029931415570680336 0.048268604835954576 0 0.025380453002182318 0.0530369419747488 0 0.023711236422529935 0.04891924471620715 0 0.028991321077114496 0.048256370659367977 0 0.027482839202300602 0.050074816670356799 0 0.028619585016807867 0.052365888659032918 0 0.028500404693455592 0.05020568919730195 0 0.025380453002182318 0.0530369419747488 0 0.023711236422529935 0.04891924471620715 0 0.021709643137578425 0.053779839316471505 0 0.019068009582969968 0.049844102371449095 0 0.025380453002182318 0.0530369419747488 0 0.021709643137578425 0.053779839316471505 0 0.023669843765464153 0.056370624567843121 0 0.025380453002182318 0.0530369419747488 0 0.023711236422529935 0.04891924471620715 0 0.021709643137578425 0.053779839316471505 0 0.01754200696122812 0.055389498642039875 0 0.021709643137578425 0.053779839316471505 0 0.019068009582969968 0.049844102371449095 0 0.023711236422529935 0.04891924471620715 0 0.019068009582969968 0.049844102371449095 0 0.020935534462795825 0.045291883879004749 0 0.016847814121775335 0.045320595395551097 0 0.020935534462795825 0.045291883879004749 0 0.018927642524631028 0.041652643468718699 0 0.016847814121775335 0.045320595395551097 0 0.019068009582969968 0.049844102371449095 0 0.020935534462795825 0.045291883879004749 0 0.025183656333606367 0.044343112880703785 0 0.020935534462795825 0.045291883879004749 0 0.02258870701745587 0.04168728251109801 0 0.025183656333606367 0.044343112880703785 0 0.023711236422529935 0.04891924471620715 0 0.020935534462795825 0.045291883879004749 0 0.021867096734228895 0.037940495491373787 0 0.026932236359833637 0.039223809369238909 0 0.02258870701745587 0.04168728251109801 0 0.026932236359833637 0.039223809369238909 0 0.025183656333606367 0.044343112880703785 0 0.02258870701745587 0.04168728251109801 0 0.0184742434100756 0.037851118801230661 0 0.021867096734228895 0.037940495491373787 0 0.018927642524631028 0.041652643468718699 0 0.021867096734228895 0.037940495491373787 0 0.02258870701745587 0.04168728251109801 0 0.018927642524631028 0.041652643468718699 0 0.015732572397699839 0.040997922497286822 0 0.0184742434100756 0.037851118801230661 0 0.018927642524631028 0.041652643468718699 0 0.020935534462795825 0.045291883879004749 0 0.02258870701745587 0.04168728251109801 0 0.018927642524631028 0.041652643468718699 0 0.022596363367804847 0.069642086983986981 0 0.026222867728921892 0.066958674579828195 0 0.021872831094830583 0.065393897018796276 0 0.022596363367804847 0.069642086983986981 0 0.026222867728921892 0.066958674579828195 0 0.027057832690682897 0.070207242358031788 0 0.026222867728921892 0.066958674579828195 0 0.030445120571827525 0.06532655147711601 0 0.02874101402551188 0.068377878644166834 0 0.026222867728921892 0.066958674579828195 0 0.02874101402551188 0.068377878644166834 0 0.027057832690682897 0.070207242358031788 0 0.02874101402551188 0.068377878644166834 0 0.029127569591179927 0.070315470175866771 0 0.027057832690682897 0.070207242358031788 0 0.022930454915888021 0.063482528159361964 0 0.024662318054219319 0.065534644430030667 0 0.026222867728921892 0.066958674579828195 0 0.02597892017405028 0.062887981885748928 0 0.030445120571827525 0.06532655147711601 0 0.01880013946762682 0.060112253649272578 0 0.021872831094830583 0.065393897018796276 0 0.02597892017405028 0.062887981885748928 0 0.026222867728921892 0.066958674579828195 0 0.021872831094830583 0.065393897018796276 0 0.02597892017405028 0.062887981885748928 0 0.01880013946762682 0.060112253649272578 0 0.021386478979774946 0.057964208091428299 0 0.022570617581323425 0.060671497257070522 0 0.021280081180413083 0.062507810025951335 0 0.022930454915888021 0.063482528159361964 0 0.01754200696122812 0.055389498642039875 0 0.021709643137578425 0.053779839316471505 0 0.021386478979774946 0.057964208091428299 0 0.01754200696122812 0.055389498642039875 0 0.01880013946762682 0.060112253649272578 0 0.021386478979774946 0.057964208091428299 0 0.021709643137578425 0.053779839316471505 0 0.021386478979774946 0.057964208091428299 0 0.023669843765464153 0.056370624567843121 0 0.021386478979774946 0.057964208091428299 0 0.023669843765464153 0.056370624567843121 0 0.024553751655220279 0.059767531865689345 0 0.021386478979774946 0.057964208091428299 0 0.022570617581323425 0.060671497257070522 0 0.024553751655220279 0.059767531865689345 0 0.024553751655220279 0.059767531865689345 0 0.022716795836117805 0.059992604156114668 0 0.023772250896590064 0.059728937580632017 0 0.022570617581323425 0.060671497257070522 0 0.024553751655220279 0.059767531865689345 0 0.023772250896590064 0.059728937580632017 0 0.024993990212564755 0.058033718355433472 0 0.024689323539118815 0.058674151248941979 0 0.028933797714677155 0.054922240755408649 0 0.023669843765464153 0.056370624567843121 0 0.024553751655220279 0.059767531865689345 0 0.020697914311684093 0.062974503659862832 0 0.022243906089602708 0.062973025595780524 0 0.021649144248208799 0.061807713081211663 0 0.022243906089602708 0.062973025595780524 0 0.024553751655220279 0.059767531865689345 0 0.021649144248208799 0.061807713081211663 0 0.021649144248208799 0.061807713081211663 0 0.022716795836117805 0.059992604156114668 0 0.020846011606322785 0.060156563280208283 0 0.024553751655220279 0.059767531865689345 0 0.021649144248208799 0.061807713081211663 0 0.022716795836117805 0.059992604156114668 0 0.024662318054219319 0.065534644430030667 0 0.024408250066670637 0.068733318187195011 0 0.022716795836117805 0.059992604156114668 0 0.023772250896590064 0.059728937580632017 0 0.021898324039137797 0.05849698764473845 0 0.030445120571827525 0.06532655147711601 0 0.02874101402551188 0.068377878644166834 0 0.030825443909390678 0.068816123697136508 0 0.02874101402551188 0.068377878644166834 0 0.030825443909390678 0.068816123697136508 0 0.029127569591179927 0.070315470175866771 0 0.024408250066670637 0.068733318187195011 0 0.026379650523789964 0.070907185695612454 0 0.030445120571827525 0.06532655147711601 0 0.030825443909390678 0.068816123697136508 0 0.034291435333797193 0.067047097145895199 0 0.030825443909390678 0.068816123697136508 0 0.034291435333797193 0.067047097145895199 0 0.032209819421333434 0.07129868814697761 0 0.024912040433435256 0.077527696706640489 0 0.024377423385569374 0.075845242335939866 0 0.026539895517500623 0.075604548489565118 0 0.024408250066670637 0.068733318187195011 0 0.023572293886302182 0.070723103105213819 0 0.024912040433435256 0.077527696706640489 0 0.023402107987424904 0.076394444552318197 0 0.024377423385569374 0.075845242335939866 0 0.023402107987424904 0.076394444552318197 0 0.022817619094883911 0.074763430904552175 0 0.023170051283599797 0.075578240595503221 0 0.023572293886302182 0.070723103105213819 0 0.023683987468511844 0.071418542396773088 0 0.019373962370418683 0.07306273682738601 0 0.019961744854440522 0.069814366021680216 0 0.022506630342680911 0.07164932049660179 0 0.01578877162149615 0.071666022916159366 0 0.019373962370418683 0.07306273682738601 0 0.019961744854440522 0.069814366021680216 0 0.022716795836117805 0.059992604156114668 0 0.021898324039137797 0.05849698764473845 0 0.020846011606322785 0.060156563280208283 0 0.024408250066670637 0.068733318187195011 0 0.02300314732928049 0.066391327077389248 0 0.01578877162149615 0.071666022916159366 0 0.019961744854440522 0.069814366021680216 0 0.017382586264783249 0.067832188117212672 0 0.021649144248208799 0.061807713081211663 0 0.020846011606322785 0.060156563280208283 0 0.019821499455606087 0.063300822965599052 0 0.02300314732928049 0.066391327077389248 0 0.022634242266544941 0.065614423456266419 0 0.020697914311684093 0.062974503659862832 0 0.021649144248208799 0.061807713081211663 0 0.019821499455606087 0.063300822965599052 0 0.020685309360097326 0.062808210815710738 0 0.019821499455606087 0.063300822965599052 0 0.021224380080230591 0.063320941686715607 0 0.019821499455606087 0.063300822965599052 0 0.021224380080230591 0.063320941686715607 0 0.021599703841219384 0.065638299550667883 0 0.017382586264783249 0.067832188117212672 0 0.019821499455606087 0.063300822965599052 0 0.021599703841219384 0.065638299550667883 0 0.019961744854440522 0.069814366021680216 0 0.021599703841219384 0.065638299550667883 0 0.023470520453692519 0.06867244556725885 0 0.019961744854440522 0.069814366021680216 0 0.017382586264783249 0.067832188117212672 0 0.021599703841219384 0.065638299550667883 0 0.021599703841219384 0.065638299550667883 0 0.02411716388698534 0.065989645888939505 0 0.023470520453692519 0.06867244556725885 0 0.021599703841219384 0.065638299550667883 0 0.02411716388698534 0.065989645888939505 0 0.022862258761694017 0.063751469269885466 0 0.021224380080230591 0.063320941686715607 0 0.021599703841219384 0.065638299550667883 0 0.022862258761694017 0.063751469269885466 0 0.026383611789405757 0.062629091710459869 0 0.02411716388698534 0.065989645888939505 0 0.022862258761694017 0.063751469269885466 0 0.026383611789405757 0.062629091710459869 0 0.02411716388698534 0.065989645888939505 0 0.026705662859714839 0.066713131102591264 0 0.02411716388698534 0.065989645888939505 0 0.023470520453692519 0.06867244556725885 0 0.026705662859714839 0.066713131102591264 0 0.023470520453692519 0.06867244556725885 0 0.026705662859714839 0.066713131102591264 0 0.026289630033244232 0.071937368027875176 0 0.023470520453692519 0.06867244556725885 0 0.022506630342680911 0.07164932049660179 0 0.026289630033244232 0.071937368027875176 0 0.019961744854440522 0.069814366021680216 0 0.023470520453692519 0.06867244556725885 0 0.022506630342680911 0.07164932049660179 0 0.022506630342680911 0.07164932049660179 0 0.022817619094883911 0.074763430904552175 0 0.026289630033244232 0.071937368027875176 0 0.019373962370418683 0.07306273682738601 0 0.022506630342680911 0.07164932049660179 0 0.022817619094883911 0.074763430904552175 0 0.022817619094883911 0.074763430904552175 0 0.026289630033244232 0.071937368027875176 0 0.024453743959701221 0.075585790807647907 0 0.022817619094883911 0.074763430904552175 0 0.023028085369469275 0.075965220603059005 0 0.024453743959701221 0.075585790807647907 0 0.022817619094883911 0.074763430904552175 0 0.023028085369469275 0.075965220603059005 0 0.023170051283599797 0.075578240595503221 0 0.023028085369469275 0.075965220603059005 0 0.023256440806452176 0.07587037962938202 0 0.023170051283599797 0.075578240595503221 0 0.023028085369469275 0.075965220603059005 0 0.022555414829333178 0.076079817183531823 0 0.023256440806452176 0.07587037962938202 0 0.023028085369469275 0.075965220603059005 0 0.024453743959701221 0.075585790807647907 0 0.022112043108028567 0.076415989395363176 0 0.021264276873369119 0.075794525637767826 0 0.022555414829333178 0.076079817183531823 0 0.022112043108028567 0.076415989395363176 0 0.023028085369469275 0.075965220603059005 0 0.022555414829333178 0.076079817183531823 0 0.022112043108028567 0.076415989395363176 0 0.021264276873369119 0.075794525637767826 0 0.021488923502559196 0.074999195889222089 0 0.018750593048310726 0.074999911326204316 0 0.021264276873369119 0.075794525637767826 0 0.022112043108028567 0.076415989395363176 0 0.018750593048310726 0.074999911326204316 0 0.021488923502559196 0.074999195889222089 0 0.022555414829333178 0.076079817183531823 0 0.024223123440883395 0.075000119431755094 0 0.021264276873369119 0.075794525637767826 0 0.021488923502559196 0.074999195889222089 0 0.022555414829333178 0.076079817183531823 0 0.022555414829333178 0.076079817183531823 0 0.023698894886615043 0.075684275271498555 0 0.023256440806452176 0.07587037962938202 0 0.023698894886615043 0.075684275271498555 0 0.024223123440883395 0.075000119431755094 0 0.023956730948262828 0.075443108134332332 0 0.02422962431410693 0.074999791786860961 0 0.026154258067218935 0.07537929453580805 0 0.022555414829333178 0.076079817183531823 0 0.023698894886615043 0.075684275271498555 0 0.024223123440883395 0.075000119431755094 0 0.024227285212426095 0.074999998102347809 0 0.027928173362721631 0.074999992743312247 0 0.027061197896571767 0.076734925072662413 0 0.027928173362721631 0.074999992743312247 0 0.027061197896571767 0.076734925072662413 0 0.029078901034539837 0.076557302604736505 0 0.023698894886615043 0.075684275271498555 0 0.023956730948262828 0.075443108134332332 0 0.023925019476830824 0.075612123294755459 0 0.023698894886615043 0.075684275271498555 0 0.023925019476830824 0.075612123294755459 0 0.023747707235242246 0.075670512574090465 0 0.023925019476830824 0.075612123294755459 0 0.023747707235242246 0.075670512574090465 0 0.024015318677214521 0.075693629114836347 0 0.023698894886615043 0.075684275271498555 0 0.023747707235242246 0.075670512574090465 0 0.023256440806452176 0.07587037962938202 0 0.023747707235242246 0.075670512574090465 0 0.023256440806452176 0.07587037962938202 0 0.023170051283599797 0.075578240595503221 0 0.023402107987424904 0.076394444552318197 0 0.023170051283599797 0.075578240595503221 0 0.024377423385569374 0.075845242335939866 0 0.023747707235242246 0.075670512574090465 0 0.023170051283599797 0.075578240595503221 0 0.024377423385569374 0.075845242335939866 0 0.023747707235242246 0.075670512574090465 0 0.024377423385569374 0.075845242335939866 0 0.024015318677214521 0.075693629114836347 0 0.026736571139308857 0.076311473335707924 0 0.027294778954010428 0.076016509522202888 0 0.024377423385569374 0.075845242335939866 0 0.026539895517500623 0.075604548489565118 0 0.026389712051018071 0.073997582385957855 0 0.030825443909390678 0.068816123697136508 0 0.032209819421333434 0.07129868814697761 0 0.030455917480683589 0.07095100927960743 0 0.030825443909390678 0.068816123697136508 0 0.030455917480683589 0.07095100927960743 0 0.029127569591179927 0.070315470175866771 0 0.030455917480683589 0.07095100927960743 0 0.029127569591179927 0.070315470175866771 0 0.029599437393636404 0.071925780751258966 0 0.029599437393636404 0.071925780751258966 0 0.029203971537981998 0.072899484579139293 0 0.028473590994307948 0.072000168172839316 0 0.029127569591179927 0.070315470175866771 0 0.029599437393636404 0.071925780751258966 0 0.028473590994307948 0.072000168172839316 0 0.032209819421333434 0.07129868814697761 0 0.030455917480683589 0.07095100927960743 0 0.030265709490959133 0.072176704983418147 0 0.030455917480683589 0.07095100927960743 0 0.029599437393636404 0.071925780751258966 0 0.030265709490959133 0.072176704983418147 0 0.030265709490959133 0.072176704983418147 0 0.029645356536940892 0.072815158492518753 0 0.029163686194212932 0.073160360903274213 0 0.029599437393636404 0.071925780751258966 0 0.030265709490959133 0.072176704983418147 0 0.029645356536940892 0.072815158492518753 0 0.029599437393636404 0.071925780751258966 0 0.029645356536940892 0.072815158492518753 0 0.029203971537981998 0.072899484579139293 0 0.029645356536940892 0.072815158492518753 0 0.029203971537981998 0.072899484579139293 0 0.02959320691564999 0.073217940796029182 0 0.029645356536940892 0.072815158492518753 0 0.02959320691564999 0.073217940796029182 0 0.029163686194212932 0.073160360903274213 0 0.026539895517500623 0.075604548489565118 0 0.029163686194212932 0.073160360903274213 0 0.026389712051018071 0.073997582385957855 0 0.032209819421333434 0.07129868814697761 0 0.030265709490959133 0.072176704983418147 0 0.029163686194212932 0.073160360903274213 0 0.027294778954010428 0.076016509522202888 0 0.028728544156406393 0.075711656940514405 0 0.026379650523789964 0.070907185695612454 0 0.027016657032262137 0.071282265246463625 0 0.029163686194212932 0.073160360903274213 0 0.026389712051018071 0.073997582385957855 0 0.028564899429481795 0.072083540456191336 0 0.023925019476830824 0.075612123294755459 0 0.024015318677214521 0.075693629114836347 0 0.024065508941948862 0.075579623427598788 0 0.023956730948262828 0.075443108134332332 0 0.023925019476830824 0.075612123294755459 0 0.024065508941948862 0.075579623427598788 0 0.026154258067218935 0.07537929453580805 0 0.028728544156406393 0.075711656940514405 0 0.029886443488133851 0.07846655578999337 0 0.029078901034539837 0.076557302604736505 0 0.031629037063452249 0.074999995507437175 0 0.027061197896571767 0.076734925072662413 0 0.029886443488133851 0.07846655578999337 0 0.029078901034539837 0.076557302604736505 0 0.027928173362721631 0.074999992743312247 0 0.029078901034539837 0.076557302604736505 0 0.031629037063452249 0.074999995507437175 0 0.031629508679277406 0.075000978809743588 0 0.03198857364293467 0.076887683045250857 0 0.032368555706719454 0.077773484604664322 0 0.028728544156406393 0.075711656940514405 0 0.031624630280367903 0.075000070717497772 0 0.031331742745528732 0.077126882241817601 0 0.031629508679277406 0.075000978809743588 0 0.03198857364293467 0.076887683045250857 0 0.032509457520097394 0.076672722056111739 0 0.031331742745528732 0.077126882241817601 0 0.03198857364293467 0.076887683045250857 0 0.029045623455378144 0.075340910929907565 0 0.028728544156406393 0.075711656940514405 0 0.02959320691564999 0.073217940796029182 0 0.029163686194212932 0.073160360903274213 0 0.028564899429481795 0.072083540456191336 0 0.032509457520097394 0.076672722056111739 0 0.03198857364293467 0.076887683045250857 0 0.032368555706719454 0.077773484604664322 0 0.032509457520097394 0.076672722056111739 0 0.032368555706719454 0.077773484604664322 0 0.030262092262823767 0.07555212212768439 0 0.032368555706719454 0.077773484604664322 0 0.03549127424023326 0.078895936681342163 0 0.034794216273265101 0.081719804495740567 0 0.031629508679277406 0.075000978809743588 0 0.032368555706719454 0.077773484604664322 0 0.035118353726039685 0.076829054346225695 0 0.031629508679277406 0.075000978809743588 0 0.03602158345315154 0.074999064178857489 0 0.035118353726039685 0.076829054346225695 0 0.038092868722679231 0.077708139858352329 0 0.03602158345315154 0.074999064178857489 0 0.035118353726039685 0.076829054346225695 0 0.038092868722679231 0.077708139858352329 0 0.03549127424023326 0.078895936681342163 0 0.036856775063890505 0.080633314295645617 0 0.038092868722679231 0.077708139858352329 0 0.035118353726039685 0.076829054346225695 0 0.03549127424023326 0.078895936681342163 0 0.032368555706719454 0.077773484604664322 0 0.035118353726039685 0.076829054346225695 0 0.03549127424023326 0.078895936681342163 0 0.03549127424023326 0.078895936681342163 0 0.036856775063890505 0.080633314295645617 0 0.034794216273265101 0.081719804495740567 0 0.036856775063890505 0.080633314295645617 0 0.034794216273265101 0.081719804495740567 0 0.036651412123427325 0.082523629966684386 0 0.032368555706719454 0.077773484604664322 0 0.026234760843225687 0.073589960649398919 0 0.030262092262823767 0.07555212212768439 0 0.032352212731909601 0.075992145210017736 0 0.032488336704740432 0.07556397969532179 0 0.029045623455378144 0.075340910929907565 0 0.028841778538381047 0.075046571431894568 0 0.029203971537981998 0.072899484579139293 0 0.02959320691564999 0.073217940796029182 0 0.028549267202626575 0.073634756397999671 0 0.032509457520097394 0.076672722056111739 0 0.030262092262823767 0.07555212212768439 0 0.028549267202626575 0.073634756397999671 0 0.029203971537981998 0.072899484579139293 0 0.028549267202626575 0.073634756397999671 0 0.028473590994307948 0.072000168172839316 0 0.026234760843225687 0.073589960649398919 0 0.030262092262823767 0.07555212212768439 0 0.028549267202626575 0.073634756397999671 0 0.026234760843225687 0.073589960649398919 0 0.028549267202626575 0.073634756397999671 0 0.026616220388504173 0.071808939164568195 0 0.028549267202626575 0.073634756397999671 0 0.026616220388504173 0.071808939164568195 0 0.028473590994307948 0.072000168172839316 0 0.026616220388504173 0.071808939164568195 0 0.028473590994307948 0.072000168172839316 0 0.027057832690682897 0.070207242358031788 0 0.029127569591179927 0.070315470175866771 0 0.028473590994307948 0.072000168172839316 0 0.027057832690682897 0.070207242358031788 0 0.022596363367804847 0.069642086983986981 0 0.026616220388504173 0.071808939164568195 0 0.027057832690682897 0.070207242358031788 0 0.036696057096515869 0.084999191087971548 0 0.034794216273265101 0.081719804495740567 0 0.036651412123427325 0.082523629966684386 0 0.022596363367804847 0.069642086983986981 0 0.026234760843225687 0.073589960649398919 0 0.026616220388504173 0.071808939164568195 0 0.03339167271436308 0.073978068776529238 0 0.032488336704740432 0.07556397969532179 0 0.016191890377641682 0.066859305681737369 0 0.015950329499005284 0.064701110216129953 0 0.015431128083521742 0.069569741696625942 0 0.016191890377641682 0.066859305681737369 0 0.01703261705760082 0.065006310808032056 0 0.016015811812785868 0.069280346441975268 0 0.015497593104126883 0.070165975071642087 0 0.01541839826394106 0.071316937397821661 0 0.015580149257996697 0.07421664489203332 0 0.015657186707396659 0.074887531774250699 0 0.015955424785218861 0.073754378310752586 0 0.015406004904006192 0.074569073242594694 0 0.015580149257996697 0.07421664489203332 0 0.015657186707396659 0.074887531774250699 0 0.016191890377641682 0.066859305681737369 0 0.01703261705760082 0.065006310808032056 0 0.016474068637755735 0.065121528750465354 0 0.015580149257996697 0.07421664489203332 0 0.015380664611425416 0.073946248025118427 0 0.015603065361100262 0.073810611958564046 0 0.015406004904006192 0.074569073242594694 0 0.015580149257996697 0.07421664489203332 0 0.015337406025934159 0.074280361086768915 0 0.015580149257996697 0.07421664489203332 0 0.015337406025934159 0.074280361086768915 0 0.015380664611425416 0.073946248025118427 0 0.015337406025934159 0.074280361086768915 0 0.015380664611425416 0.073946248025118427 0 0.015120342742191291 0.074058118872763215 0 0.015337406025934159 0.074280361086768915 0 0.015141782394261444 0.07464286304616391 0 0.015120342742191291 0.074058118872763215 0 0.015141782394261444 0.07464286304616391 0 0.015120342742191291 0.074058118872763215 0 0.014862386084117905 0.074438078519069237 0 0.015141782394261444 0.07464286304616391 0 0.014862386084117905 0.074438078519069237 0 0.01472155634618086 0.075110553343115852 0 0.015406004904006192 0.074569073242594694 0 0.015337406025934159 0.074280361086768915 0 0.015141782394261444 0.07464286304616391 0 0.015406004904006192 0.074569073242594694 0 0.015141782394261444 0.07464286304616391 0 0.01532613482964649 0.07482300171778182 0 0.01532613482964649 0.07482300171778182 0 0.015128205006952559 0.075205112843272526 0 0.015657186707396659 0.074887531774250699 0 0.015141782394261444 0.07464286304616391 0 0.01532613482964649 0.07482300171778182 0 0.015128205006952559 0.075205112843272526 0 0.015128205006952559 0.075205112843272526 0 0.015657186707396659 0.074887531774250699 0 0.01506698300322554 0.075832402188775808 0 0.015141782394261444 0.07464286304616391 0 0.015128205006952559 0.075205112843272526 0 0.01472155634618086 0.075110553343115852 0 0.015128205006952559 0.075205112843272526 0 0.01472155634618086 0.075110553343115852 0 0.014697372408086452 0.075579074189638787 0 0.01659663547514461 0.064472453006587799 0 0.016150191266561802 0.063370982318937216 0 0.018072611897905429 0.062056047770538483 0 0.01703261705760082 0.065006310808032056 0 0.01659663547514461 0.064472453006587799 0 0.018072611897905429 0.062056047770538483 0 0.015497593104126883 0.070165975071642087 0 0.014885142395258307 0.069636940176601853 0 0.015406004904006192 0.074569073242594694 0 0.01532613482964649 0.07482300171778182 0 0.015657186707396659 0.074887531774250699 0 0.016191890377641682 0.066859305681737369 0 0.016474068637755735 0.065121528750465354 0 0.015950329499005284 0.064701110216129953 0 0.01703261705760082 0.065006310808032056 0 0.016474068637755735 0.065121528750465354 0 0.01659663547514461 0.064472453006587799 0 0.015898661088918156 0.06481239773796961 0 0.015881553149321454 0.064819437092275348 0 0.016474068637755735 0.065121528750465354 0 0.01659663547514461 0.064472453006587799 0 0.015950329499005284 0.064701110216129953 0 0.01659663547514461 0.064472453006587799 0 0.016036628385377494 0.064554462218339326 0 0.015831215903856881 0.064147567411132367 0 0.01659663547514461 0.064472453006587799 0 0.015831215903856881 0.064147567411132367 0 0.016150191266561802 0.063370982318937216 0 0.015831215903856881 0.064147567411132367 0 0.016150191266561802 0.063370982318937216 0 0.015365795517626953 0.063752296411330497 0 0.016036628385377494 0.064554462218339326 0 0.014903225834522091 0.064192900904138595 0 0.013193031043277636 0.065028149373080199 0 0.015881553149321454 0.064819437092275348 0 0.014387773092059184 0.064626549075403203 0 0.016150191266561802 0.063370982318937216 0 0.015365795517626953 0.063752296411330497 0 0.015076298920750176 0.063221757368197837 0 0.015831215903856881 0.064147567411132367 0 0.015365795517626953 0.063752296411330497 0 0.014903225834522091 0.064192900904138595 0 0.014911358241622834 0.063787622395891308 0 0.015076298920750176 0.063221757368197837 0 0.01421804500678312 0.063849892491091589 0 0.015365795517626953 0.063752296411330497 0 0.014911358241622834 0.063787622395891308 0 0.014903225834522091 0.064192900904138595 0 0.015365795517626953 0.063752296411330497 0 0.014911358241622834 0.063787622395891308 0 0.015076298920750176 0.063221757368197837 0 0.01421804500678312 0.063849892491091589 0 0.013619984934925472 0.063503577186126745 0 0.014016933702510736 0.062936723814307843 0 0.015076298920750176 0.063221757368197837 0 0.01421804500678312 0.063849892491091589 0 0.014016933702510736 0.062936723814307843 0 0.014911358241622834 0.063787622395891308 0 0.01421804500678312 0.063849892491091589 0 0.014903225834522091 0.064192900904138595 0 0.01421804500678312 0.063849892491091589 0 0.014903225834522091 0.064192900904138595 0 0.013193031043277636 0.065028149373080199 0 0.016036628385377494 0.064554462218339326 0 0.015831215903856881 0.064147567411132367 0 0.014903225834522091 0.064192900904138595 0 0.012932707915257878 0.063295967159533006 0 0.013215504806353581 0.063967582347014787 0 0.012128629571032388 0.064177392923869786 0 0.01421804500678312 0.063849892491091589 0 0.013619984934925472 0.063503577186126745 0 0.013215504806353581 0.063967582347014787 0 0.012932707915257878 0.063295967159533006 0 0.013619984934925472 0.063503577186126745 0 0.014016933702510736 0.062936723814307843 0 0.012932707915257878 0.063295967159533006 0 0.013619984934925472 0.063503577186126745 0 0.013215504806353581 0.063967582347014787 0 0.01421804500678312 0.063849892491091589 0 0.013215504806353581 0.063967582347014787 0 0.013193031043277636 0.065028149373080199 0 0.013215504806353581 0.063967582347014787 0 0.013193031043277636 0.065028149373080199 0 0.012128629571032388 0.064177392923869786 0 0.0153176265679174 0.063045756020038202 0 0.016358232432267614 0.064007864777321094 0 0.015683347942987976 0.065247821558275229 0 0.0153176265679174 0.063045756020038202 0 0.01406897044434847 0.06483985186431182 0 0.015683347942987976 0.065247821558275229 0 0.018230379611534793 0.061971940043911433 0 0.0153176265679174 0.063045756020038202 0 0.016358232432267614 0.064007864777321094 0 0.018230379611534793 0.061971940043911433 0 0.016358232432267614 0.064007864777321094 0 0.017143501498388579 0.065180942426907348 0 0.015881553149321454 0.064819437092275348 0 0.015926797613031299 0.067018742946022739 0 0.016191890377641682 0.066859305681737369 0 0.015431128083521742 0.069569741696625942 0 0.016015811812785868 0.069280346441975268 0 0.015431128083521742 0.069569741696625942 0 0.016015811812785868 0.069280346441975268 0 0.015669772619927493 0.072249317470714294 0 0.01541839826394106 0.071316937397821661 0 0.015301038822998691 0.071871124542071008 0 0.016358232432267614 0.064007864777321094 0 0.017143501498388579 0.065180942426907348 0 0.015683347942987976 0.065247821558275229 0 0.017143501498388579 0.065180942426907348 0 0.015683347942987976 0.065247821558275229 0 0.015827014840648874 0.066830837882967148 0 0.01406897044434847 0.06483985186431182 0 0.015683347942987976 0.065247821558275229 0 0.014196913913637225 0.066010635968034359 0 0.015683347942987976 0.065247821558275229 0 0.014196913913637225 0.066010635968034359 0 0.015032170107766335 0.066507726515257423 0 0.015683347942987976 0.065247821558275229 0 0.015032170107766335 0.066507726515257423 0 0.015827014840648874 0.066830837882967148 0 0.014196913913637225 0.066010635968034359 0 0.014306977952492726 0.067153434310976035 0 0.015032170107766335 0.066507726515257423 0 0.014306977952492726 0.067153434310976035 0 0.015147610705117172 0.067291997836031792 0 0.015032170107766335 0.066507726515257423 0 0.015147610705117172 0.067291997836031792 0 0.015827014840648874 0.066830837882967148 0 0.015415670178300285 0.067866523034803838 0 0.015147610705117172 0.067291997836031792 0 0.015032170107766335 0.066507726515257423 0 0.015827014840648874 0.066830837882967148 0 0.016101057688111445 0.068423180925746091 0 0.014968628451543455 0.068420836466786081 0 0.015415670178300285 0.067866523034803838 0 0.016101057688111445 0.068423180925746091 0 0.015827014840648874 0.066830837882967148 0 0.015415670178300285 0.067866523034803838 0 0.014968628451543455 0.068420836466786081 0 0.015415670178300285 0.067866523034803838 0 0.014795420141019115 0.067800919732277878 0 0.015147610705117172 0.067291997836031792 0 0.015415670178300285 0.067866523034803838 0 0.014795420141019115 0.067800919732277878 0 0.014306977952492726 0.067153434310976035 0 0.015147610705117172 0.067291997836031792 0 0.014795420141019115 0.067800919732277878 0 0.014968628451543455 0.068420836466786081 0 0.014795420141019115 0.067800919732277878 0 0.014148267363569009 0.068026913302340411 0 0.014306977952492726 0.067153434310976035 0 0.014795420141019115 0.067800919732277878 0 0.014148267363569009 0.068026913302340411 0 0.016101057688111445 0.068423180925746091 0 0.017143501498388579 0.065180942426907348 0 0.015827014840648874 0.066830837882967148 0 0.015955424785218861 0.073754378310752586 0 0.015666437161298747 0.072899120429106609 0 0.015669772619927493 0.072249317470714294 0 0.015516516395023093 0.072867773281860518 0 0.015431128083521742 0.069569741696625942 0 0.015669772619927493 0.072249317470714294 0 0.015458804697214848 0.069745142544180128 0 0.015926797613031299 0.067018742946022739 0 0.015577245079618576 0.07261509335358679 0 0.015516516395023093 0.072867773281860518 0 0.015669772619927493 0.072249317470714294 0 0.015577245079618576 0.07261509335358679 0 0.015669772619927493 0.072249317470714294 0 0.015608479978930383 0.072604616975470548 0 0.015666437161298747 0.072899120429106609 0 0.015669772619927493 0.072249317470714294 0 0.015608479978930383 0.072604616975470548 0 0.015405064148060942 0.072650186922786589 0 0.015608479978930383 0.072604616975470548 0 0.01551147456004476 0.07288610255187486 0 0.015405064148060942 0.072650186922786589 0 0.015294971635522145 0.072887803985231731 0 0.01551147456004476 0.07288610255187486 0 0.015156099596981788 0.072622933209845669 0 0.015405064148060942 0.072650186922786589 0 0.015294971635522145 0.072887803985231731 0 0.015294971635522145 0.072887803985231731 0 0.015326463747812257 0.073216982699397457 0 0.01551147456004476 0.07288610255187486 0 0.015326463747812257 0.073216982699397457 0 0.01551147456004476 0.07288610255187486 0 0.015649182484154346 0.073289562100430986 0 0.015666437161298747 0.072899120429106609 0 0.01551147456004476 0.07288610255187486 0 0.015649182484154346 0.073289562100430986 0 0.015666437161298747 0.072899120429106609 0 0.015608479978930383 0.072604616975470548 0 0.01551147456004476 0.07288610255187486 0 0.015955424785218861 0.073754378310752586 0 0.015666437161298747 0.072899120429106609 0 0.015649182484154346 0.073289562100430986 0 0.015649182484154346 0.073289562100430986 0 0.015455665203632063 0.073558959242944963 0 0.015679590292983939 0.073597265190557898 0 0.015326463747812257 0.073216982699397457 0 0.015649182484154346 0.073289562100430986 0 0.015455665203632063 0.073558959242944963 0 0.015455665203632063 0.073558959242944963 0 0.015380664611425416 0.073946248025118427 0 0.015603065361100262 0.073810611958564046 0 0.015455665203632063 0.073558959242944963 0 0.015603065361100262 0.073810611958564046 0 0.015679590292983939 0.073597265190557898 0 0.015955424785218861 0.073754378310752586 0 0.015649182484154346 0.073289562100430986 0 0.015679590292983939 0.073597265190557898 0 0.015580149257996697 0.07421664489203332 0 0.015955424785218861 0.073754378310752586 0 0.015603065361100262 0.073810611958564046 0 0.015955424785218861 0.073754378310752586 0 0.015603065361100262 0.073810611958564046 0 0.015679590292983939 0.073597265190557898 0 0.015120342742191291 0.074058118872763215 0 0.014884820234323713 0.073656782760667339 0 0.014862386084117905 0.074438078519069237 0 0.015120342742191291 0.074058118872763215 0 0.015144680641048076 0.073526849029063285 0 0.014884820234323713 0.073656782760667339 0 0.015380664611425416 0.073946248025118427 0 0.015120342742191291 0.074058118872763215 0 0.015144680641048076 0.073526849029063285 0 0.015455665203632063 0.073558959242944963 0 0.015380664611425416 0.073946248025118427 0 0.015144680641048076 0.073526849029063285 0 0.015326463747812257 0.073216982699397457 0 0.015455665203632063 0.073558959242944963 0 0.015144680641048076 0.073526849029063285 0 0.015144680641048076 0.073526849029063285 0 0.01503580328173054 0.073101153971683375 0 0.014884820234323713 0.073656782760667339 0 0.014943172533787141 0.072812138906808002 0 0.01503580328173054 0.073101153971683375 0 0.014822669179291309 0.073150563442149735 0 0.015326463747812257 0.073216982699397457 0 0.015144680641048076 0.073526849029063285 0 0.01503580328173054 0.073101153971683375 0 0.015294971635522145 0.072887803985231731 0 0.015326463747812257 0.073216982699397457 0 0.01503580328173054 0.073101153971683375 0 0.015156099596981788 0.072622933209845669 0 0.015294971635522145 0.072887803985231731 0 0.01503580328173054 0.073101153971683375 0 0.014633324448726929 0.072870813779300686 0 0.014822669179291309 0.073150563442149735 0 0.014602336738689327 0.073417013518450147 0 0.014822669179291309 0.073150563442149735 0 0.014602336738689327 0.073417013518450147 0 0.014884820234323713 0.073656782760667339 0 0.01503580328173054 0.073101153971683375 0 0.014822669179291309 0.073150563442149735 0 0.014884820234323713 0.073656782760667339 0 0.013855821561775493 0.072715315898465457 0 0.014444362031107294 0.072339910804631105 0 0.014602336738689327 0.073417013518450147 0 0.013159891482563586 0.067112241686627938 0 0.012941113813415655 0.069380150365290341 0 0.01434615859767667 0.074034128255885456 0 0.013866764611786127 0.073820258276714054 0 0.014217425497263961 0.074693679762104448 0 0.014602336738689327 0.073417013518450147 0 0.01434615859767667 0.074034128255885456 0 0.014625674187039759 0.074284543723710669 0 0.014602336738689327 0.073417013518450147 0 0.01434615859767667 0.074034128255885456 0 0.013866764611786127 0.073820258276714054 0 0.014602336738689327 0.073417013518450147 0 0.014884820234323713 0.073656782760667339 0 0.014625674187039759 0.074284543723710669 0 0.014884820234323713 0.073656782760667339 0 0.014862386084117905 0.074438078519069237 0 0.014625674187039759 0.074284543723710669 0 0.012531961022034774 0.072435761729128453 0 0.013259473859615487 0.073003935386410937 0 0.012797342453782539 0.073870647153138916 0 0.019559024784876963 0.066382792034564986 0 0.019556741184481509 0.070010915926701958 0 0.013259473859615487 0.073003935386410937 0 0.013866764611786127 0.073820258276714054 0 0.012797342453782539 0.073870647153138916 0 0.013855821561775493 0.072715315898465457 0 0.014602336738689327 0.073417013518450147 0 0.013866764611786127 0.073820258276714054 0 0.013855821561775493 0.072715315898465457 0 0.013259473859615487 0.073003935386410937 0 0.013866764611786127 0.073820258276714054 0 0.013866764611786127 0.073820258276714054 0 0.012797342453782539 0.073870647153138916 0 0.013660695648450001 0.074665552275499786 0 0.013233522757115103 0.075166934770903471 0 0.013660695648450001 0.074665552275499786 0 0.014053574507780388 0.075646882843218063 0 0.019556741184481509 0.070010915926701958 0 0.019465363910363905 0.072702835361282123 0 0.012797342453782539 0.073870647153138916 0 0.013233522757115103 0.075166934770903471 0 0.013660695648450001 0.074665552275499786 0 0.013866764611786127 0.073820258276714054 0 0.013660695648450001 0.074665552275499786 0 0.014217425497263961 0.074693679762104448 0 0.013660695648450001 0.074665552275499786 0 0.014053574507780388 0.075646882843218063 0 0.014217425497263961 0.074693679762104448 0 0.013233522757115103 0.075166934770903471 0 0.014053574507780388 0.075646882843218063 0 0.014089750905091038 0.076236541897612989 0 0.019465363910363905 0.072702835361282123 0 0.019245272774030032 0.074434401980506229 0 0.014538021804304394 0.074875054923188286 0 0.014862386084117905 0.074438078519069237 0 0.01472155634618086 0.075110553343115852 0 0.014538021804304394 0.074875054923188286 0 0.014862386084117905 0.074438078519069237 0 0.014625674187039759 0.074284543723710669 0 0.014538021804304394 0.074875054923188286 0 0.014625674187039759 0.074284543723710669 0 0.014217425497263961 0.074693679762104448 0 0.01434615859767667 0.074034128255885456 0 0.014625674187039759 0.074284543723710669 0 0.014217425497263961 0.074693679762104448 0 0.014538021804304394 0.074875054923188286 0 0.014217425497263961 0.074693679762104448 0 0.014345549926003577 0.07538900852140526 0 0.014053574507780388 0.075646882843218063 0 0.014217425497263961 0.074693679762104448 0 0.014345549926003577 0.07538900852140526 0 0.014053574507780388 0.075646882843218063 0 0.014345549926003577 0.07538900852140526 0 0.014256471801316685 0.076146125929859768 0 0.014345549926003577 0.07538900852140526 0 0.01472155634618086 0.075110553343115852 0 0.01442002136895071 0.075671409029057751 0 0.014538021804304394 0.074875054923188286 0 0.014345549926003577 0.07538900852140526 0 0.01472155634618086 0.075110553343115852 0 0.01472155634618086 0.075110553343115852 0 0.014697372408086452 0.075579074189638787 0 0.01442002136895071 0.075671409029057751 0 0.014697372408086452 0.075579074189638787 0 0.014284807530070252 0.076008325260000897 0 0.01442002136895071 0.075671409029057751 0 0.014345549926003577 0.07538900852140526 0 0.01442002136895071 0.075671409029057751 0 0.014256471801316685 0.076146125929859768 0 0.014284807530070252 0.076008325260000897 0 0.01442002136895071 0.075671409029057751 0 0.014256471801316685 0.076146125929859768 0 0.014284807530070252 0.076008325260000897 0 0.014256471801316685 0.076146125929859768 0 0.013960451504322796 0.076383295797557926 0 0.014256471801316685 0.076146125929859768 0 0.013960451504322796 0.076383295797557926 0 0.014401323097939813 0.076491902980960286 0 0.013960451504322796 0.076383295797557926 0 0.014081723500951077 0.076289285799443995 0 0.013622639300285412 0.076456686424703157 0 0.014284807530070252 0.076008325260000897 0 0.014081723500951077 0.076289285799443995 0 0.01506698300322554 0.075832402188775808 0 0.014081723500951077 0.076289285799443995 0 0.013622639300285412 0.076456686424703157 0 0.014266152314142905 0.076473972645358698 0 0.014284807530070252 0.076008325260000897 0 0.013960451504322796 0.076383295797557926 0 0.014081723500951077 0.076289285799443995 0 0.014053574507780388 0.075646882843218063 0 0.014089750905091038 0.076236541897612989 0 0.014653699875512287 0.076520466324263667 0 0.014053574507780388 0.075646882843218063 0 0.014256471801316685 0.076146125929859768 0 0.014653699875512287 0.076520466324263667 0 0.014256471801316685 0.076146125929859768 0 0.014653699875512287 0.076520466324263667 0 0.014401323097939813 0.076491902980960286 0 0.019245272774030032 0.074434401980506229 0 0.018991548461301345 0.074849093230880293 0 0.014089750905091038 0.076236541897612989 0 0.014653699875512287 0.076520466324263667 0 0.015803664524670268 0.076608657837530666 0 0.014653699875512287 0.076520466324263667 0 0.015803664524670268 0.076608657837530666 0 0.015566198754223085 0.076287468485500345 0 0.014653699875512287 0.076520466324263667 0 0.015566198754223085 0.076287468485500345 0 0.014401323097939813 0.076491902980960286 0 0.015566198754223085 0.076287468485500345 0 0.014401323097939813 0.076491902980960286 0 0.014084388442524883 0.076001403085887514 0 0.015566198754223085 0.076287468485500345 0 0.015082532735954036 0.074999097427217387 0 0.014084388442524883 0.076001403085887514 0 0.015803664524670268 0.076608657837530666 0 0.015566198754223085 0.076287468485500345 0 0.018743187616875767 0.074999974729024879 0 0.015566198754223085 0.076287468485500345 0 0.015082532735954036 0.074999097427217387 0 0.018743187616875767 0.074999974729024879 0 0.018991548461301345 0.074849093230880293 0 0.018747716746700394 0.074998860350160554 0 0.013622639300285412 0.076456686424703157 0 0.013552259144235199 0.076313419442553293 0 0.012992215461719305 0.076104474570347871 0 0.013552259144235199 0.076313419442553293 0 0.012892655024264605 0.075926790440310754 0 0.012992215461719305 0.076104474570347871 0 0.01150701465670805 0.074438886688323325 0 0.012054700753756429 0.072341943788183094 0 0.010287598661773551 0.077232085062714881 0 0.008571469851728802 0.07754340645937681 0 0.0091967865850082729 0.079418157496743982 0 0.013622639300285412 0.076456686424703157 0 0.012992215461719305 0.076104474570347871 0 0.013532689377744874 0.076553321651345929 0 0.012106210818965254 0.072454909764052167 0 0.012054700753756429 0.072341943788183094 0 0.013960451504322796 0.076383295797557926 0 0.013622639300285412 0.076456686424703157 0 0.013552259144235199 0.076313419442553293 0 0.013960451504322796 0.076383295797557926 0 0.014401323097939813 0.076491902980960286 0 0.013552259144235199 0.076313419442553293 0 0.014401323097939813 0.076491902980960286 0 0.013552259144235199 0.076313419442553293 0 0.014084388442524883 0.076001403085887514 0 0.015082532735954036 0.074999097427217387 0 0.014084388442524883 0.076001403085887514 0 0.011423442147925436 0.07500025815753858 0 0.012892655024264605 0.075926790440310754 0 0.014084388442524883 0.076001403085887514 0 0.011423442147925436 0.07500025815753858 0 0.013552259144235199 0.076313419442553293 0 0.012892655024264605 0.075926790440310754 0 0.014084388442524883 0.076001403085887514 0 0.011418953530072834 0.074999086505881815 0 0.01150701465670805 0.074438886688323325 0 0.01141882854250734 0.074999977644638935 0 0.010287598661773551 0.077232085062714881 0 0.0082620342091736902 0.074999930620476496 0 0.012892655024264605 0.075926790440310754 0 0.011423442147925436 0.07500025815753858 0 0.012992215461719305 0.076104474570347871 0 0.010287598661773551 0.077232085062714881 0 0.0082620342091736902 0.074999930620476496 0 0.008571469851728802 0.07754340645937681 0 0.0082620342091736902 0.074999930620476496 0 0.0067051131325280271 0.077640030222786982 0 0.008571469851728802 0.07754340645937681 0 0.0082620342091736902 0.074999930620476496 0 0.0051057823563710183 0.075000030820444596 0 0.0067051131325280271 0.077640030222786982 0 0.0051057823563710183 0.075000030820444596 0 0.0067051131325280271 0.077640030222786982 0 0.0045567946176589755 0.077630403923003133 0 0.0067051131325280271 0.077640030222786982 0 0.0054603887016068057 0.080966237841501365 0 0.0045567946176589755 0.077630403923003133 0 0.0067051131325280271 0.077640030222786982 0 0.0091967865850082729 0.079418157496743982 0 0.0054603887016068057 0.080966237841501365 0 0.0067051131325280271 0.077640030222786982 0 0.008571469851728802 0.07754340645937681 0 0.0091967865850082729 0.079418157496743982 0 0.019227691928456855 0.059528833549011506 0 0.016208289103535785 0.060801748500302656 0 0.018072611897905429 0.062056047770538483 0 0.012054700753756429 0.072341943788183094 0 0.01053859322605699 0.070806465471467434 0 0.014081723500951077 0.076289285799443995 0 0.014266152314142905 0.076473972645358698 0 0.01506698300322554 0.075832402188775808 0 0.012054700753756429 0.072341943788183094 0 0.014885142395258307 0.069636940176601853 0 0.016150191266561802 0.063370982318937216 0 0.016031220945800107 0.062471955231993143 0 0.018072611897905429 0.062056047770538483 0 0.016208289103535785 0.060801748500302656 0 0.016031220945800107 0.062471955231993143 0 0.018072611897905429 0.062056047770538483 0 0.016208289103535785 0.060801748500302656 0 0.016031220945800107 0.062471955231993143 0 0.014883928215868767 0.06250793789869652 0 0.016150191266561802 0.063370982318937216 0 0.015076298920750176 0.063221757368197837 0 0.016031220945800107 0.062471955231993143 0 0.014697372408086452 0.075579074189638787 0 0.014284807530070252 0.076008325260000897 0 0.01506698300322554 0.075832402188775808 0 0.015128205006952559 0.075205112843272526 0 0.014697372408086452 0.075579074189638787 0 0.01506698300322554 0.075832402188775808 0 0.012932707915257878 0.063295967159533006 0 0.013095465445924626 0.062371431506659705 0 0.0112804269458822 0.063150502592290311 0 0.012932707915257878 0.063295967159533006 0 0.013112367148717548 0.062140145994219256 0 0.014016933702510736 0.062936723814307843 0 0.0083061763151277349 0.068469983045251787 0 0.0079383767659331906 0.069595879693244572 0 0.015076298920750176 0.063221757368197837 0 0.014016933702510736 0.062936723814307843 0 0.014883928215868767 0.06250793789869652 0 0.016208289103535785 0.060801748500302656 0 0.013112367148717548 0.062140145994219256 0 0.014883928215868767 0.06250793789869652 0 0.01053859322605699 0.070806465471467434 0 0.0079383767659331906 0.069595879693244572 0 0.013112367148717548 0.062140145994219256 0 0.014016933702510736 0.062936723814307843 0 0.014883928215868767 0.06250793789869652 0 0.015076298920750176 0.063221757368197837 0 0.016031220945800107 0.062471955231993143 0 0.014883928215868767 0.06250793789869652 0 0.0054603887016068057 0.080966237841501365 0 0.0018652061603315977 0.082493818292606394 0 0.0024663575346717129 0.079024298880771157 0 0.0079383767659331906 0.069595879693244572 0 0.0046485609380105602 0.073810627511205998 0 0.0027474404087661068 0.070213779335478205 0 0.0027525311080840989 0.070158082988184503 0 0.0027040755197865157 0.070179918274962672 0 0.0027525311080840989 0.070158082988184503 0 0.0027188925552510085 0.070137470615873318 0 0.0027040755197865157 0.070179918274962672 0 0.0027525311080840989 0.070158082988184503 0 0.0027188925552510085 0.070137470615873318 0 0.0027596459777184572 0.070107274430186953 0 0.0046485609380105602 0.073810627511205998 0 0.0030614187653059104 0.074657936540427822 0 0.0024663575346717129 0.079024298880771157 0 0.0045567946176589755 0.077630403923003133 0 0.0030547162437511953 0.075486113058626916 0 0.0054603887016068057 0.080966237841501365 0 0.0024663575346717129 0.079024298880771157 0 0.0045567946176589755 0.077630403923003133 0 0.0051057823563710183 0.075000030820444596 0 0.0045567946176589755 0.077630403923003133 0 0.0030547162437511953 0.075486113058626916 0 0.0030614187653059104 0.074657936540427822 0 0.0029463466505125235 0.074997583089513847 0 0.0051017804879611856 0.074998308909923372 0 0.0030614187653059104 0.074657936540427822 0 0.0051054001261663859 0.074999998783947017 0 0.0028553725359888767 0.075495317618904975 0 0.0029451127075977752 0.074999996549098169 0 0.0027188925552510085 0.070137470615873318 0 0.0027596459777184572 0.070107274430186953 0 0.0027023549794314848 0.070104773630100661 0 0.0030614187653059104 0.074657936540427822 0 0.0011563003749697836 0.07377661468006394 0 0.0028553668022754217 0.07549497925523431 0 0.0029450789063747642 0.074999996258491741 0 -0.00059996414396666826 0.076248850425088499 0 0.0029450789063747642 0.074999996258491741 0 -0.00059996414396666826 0.076248850425088499 0 -0.0013954964599520627 0.074999986338952621 0 0.0011563003749697836 0.07377661468006394 0 -0.00074918755298857605 0.073195318353320715 0 -0.00059996414396666826 0.076248850425088499 0 -0.0013954964599520627 0.074999986338952621 0 -0.0040125296335485911 0.07698993707072492 0 -0.0013955536947978778 0.074999996906948155 0 -0.0054167286456001688 0.07499999446765078 0 -0.0047116532904272089 0.076232652315564892 0 -0.0013986658035599348 0.075001154804332351 0 -0.0041891449175259351 0.076038729171913455 0 -0.0013954964599520627 0.074999986338952621 0 -0.0040125296335485911 0.07698993707072492 0 -0.0046689303570923062 0.07620914804878641 0 0.0026237743363451927 0.070093324256052816 0 0.002667063689404614 0.070144155514670806 0 0.0026109492280915578 0.070163785982633772 0 0.0027023549794314848 0.070104773630100661 0 0.0026237743363451927 0.070093324256052816 0 0.002667063689404614 0.070144155514670806 0 0.0027188925552510085 0.070137470615873318 0 0.0027023549794314848 0.070104773630100661 0 0.002667063689404614 0.070144155514670806 0 0.0027188925552510085 0.070137470615873318 0 0.002667063689404614 0.070144155514670806 0 0.0027040755197865157 0.070179918274962672 0 -0.0067846648700608898 0.0760713811598214 0 -0.0054167286456001688 0.07499999446765078 0 -0.0094378800217133595 0.074999990256929813 0 -0.0067846648700608898 0.0760713811598214 0 -0.0080109989757812475 0.077456282626661752 0 -0.0094378800217133595 0.074999990256929813 0 -0.0046689303570923062 0.07620914804878641 0 -0.0074888214050054837 0.077766437086562279 0 -0.0080109989757812475 0.077456282626661752 0 -0.0040125296335485911 0.07698993707072492 0 -0.0046689303570923062 0.07620914804878641 0 -0.0074888214050054837 0.077766437086562279 0 -0.0041891449175259351 0.076038729171913455 0 -0.0057035667018900107 0.076602252364064982 0 -0.0067846648700608898 0.0760713811598214 0 -0.0047116532904272089 0.076232652315564892 0 -0.0080109989757812475 0.077456282626661752 0 -0.0067846648700608898 0.0760713811598214 0 -0.0054167286456001688 0.07499999446765078 0 -0.0047116532904272089 0.076232652315564892 0 0.0024912035310768591 0.070090754039727532 0 0.0025347967711198483 0.070189010419300077 0 0.0026109492280915578 0.070163785982633772 0 -0.00074918755298857605 0.073195318353320715 0 -0.0025947544652784359 0.072427901642589915 0 0.0026237743363451927 0.070093324256052816 0 0.0024912035310768591 0.070090754039727532 0 0.0026109492280915578 0.070163785982633772 0 0.0024912035310768591 0.070090754039727532 0 0.0024590355486335275 0.070229366157343473 0 0.0023311052246892858 0.070116109492708009 0 -0.0074888214050054837 0.077766437086562279 0 -0.0080109989757812475 0.077456282626661752 0 -0.010944700996679328 0.078525098090093809 0 -0.0025947544652784359 0.072427901642589915 0 -0.0040100646745697011 0.070834157888638394 0 0.0024912035310768591 0.070090754039727532 0 0.0024590355486335275 0.070229366157343473 0 0.0025347967711198483 0.070189010419300077 0 0.0024590355486335275 0.070229366157343473 0 0.0025347967711198483 0.070189010419300077 0 0.0025862734377754349 0.070248054908494714 0 0.0025347967711198483 0.070189010419300077 0 0.0026109492280915578 0.070163785982633772 0 0.0025862734377754349 0.070248054908494714 0 0.0036630751564764447 0.06916026346056911 0 0.0038615157926910467 0.068649188402028521 0 0.0024590355486335275 0.070229366157343473 0 0.0025862734377754349 0.070248054908494714 0 0.0025700951953285911 0.070325642845856629 0 0.0038615157926910467 0.068649188402028521 0 0.0045866715651705393 0.066613850561810975 0 0.0026244469279064256 0.070193871705590424 0 0.002625945260152261 0.070220471167423359 0 0.0026470171620359257 0.070214058549080902 0 0.0067049348698868224 0.057791418948010549 0 0.0089547736469759148 0.060279684766806965 0 0.0067655947461133679 0.061035698098631151 0 0.0010983941351820354 0.067461672967116984 0 0.0045866715651705393 0.066613850561810975 0 0.0067049348698868224 0.057791418948010549 0 0.0067655947461133679 0.061035698098631151 0 0.0045927187705014456 0.060293120941451443 0 0.002667063689404614 0.070144155514670806 0 0.0027040755197865157 0.070179918274962672 0 0.0026565512415747741 0.070190505287783506 0 0.002667063689404614 0.070144155514670806 0 0.0026109492280915578 0.070163785982633772 0 0.0026565512415747741 0.070190505287783506 0 0.0026109492280915578 0.070163785982633772 0 0.0026244469279064256 0.070193871705590424 0 0.0026565512415747741 0.070190505287783506 0 0.0026565512415747741 0.070190505287783506 0 0.0026470171620359257 0.070214058549080902 0 0.0026914828327775195 0.070229673876474205 0 0.0026244469279064256 0.070193871705590424 0 0.0026565512415747741 0.070190505287783506 0 0.0026470171620359257 0.070214058549080902 0 0.0027040755197865157 0.070179918274962672 0 0.0026565512415747741 0.070190505287783506 0 0.0026914828327775195 0.070229673876474205 0 0.0027474404087661068 0.070213779335478205 0 0.0027040755197865157 0.070179918274962672 0 0.0026914828327775195 0.070229673876474205 0 0.0079383767659331906 0.069595879693244572 0 0.0070645074176101707 0.067602940134942696 0 0.012932707915257878 0.063295967159533006 0 0.0112804269458822 0.063150502592290311 0 0.012128629571032388 0.064177392923869786 0 0.0112804269458822 0.063150502592290311 0 0.01099962534694753 0.064297312644912522 0 0.012128629571032388 0.064177392923869786 0 0.014387773092059184 0.064626549075403203 0 0.012273628803077481 0.065019703541644755 0 0.0153176265679174 0.063045756020038202 0 0.01406897044434847 0.06483985186431182 0 0.012313572303930846 0.064143184575947823 0 0.01099962534694753 0.064297312644912522 0 0.012128629571032388 0.064177392923869786 0 0.011006394107991245 0.065334533979076251 0 0.013193031043277636 0.065028149373080199 0 0.012128629571032388 0.064177392923869786 0 0.011006394107991245 0.065334533979076251 0 0.011006394107991245 0.065334533979076251 0 0.010235135399228653 0.064799307614522628 0 0.0093283546643418407 0.065500977562871779 0 0.010235135399228653 0.064799307614522628 0 0.0095023685932170161 0.064716095518871641 0 0.0093283546643418407 0.065500977562871779 0 0.01099962534694753 0.064297312644912522 0 0.010235135399228653 0.064799307614522628 0 0.0099647870798985957 0.06408667604601713 0 0.01099962534694753 0.064297312644912522 0 0.011006394107991245 0.065334533979076251 0 0.010235135399228653 0.064799307614522628 0 0.010235135399228653 0.064799307614522628 0 0.0098106244696687401 0.064473575676866998 0 0.0095023685932170161 0.064716095518871641 0 0.010235135399228653 0.064799307614522628 0 0.0098106244696687401 0.064473575676866998 0 0.0099647870798985957 0.06408667604601713 0 0.0098106244696687401 0.064473575676866998 0 0.0099647870798985957 0.06408667604601713 0 0.009559908608615518 0.064286686298790099 0 0.0099647870798985957 0.06408667604601713 0 0.0097449223561045205 0.063850993799434472 0 0.009559908608615518 0.064286686298790099 0 0.0026470171620359257 0.070214058549080902 0 0.0026914828327775195 0.070229673876474205 0 0.0026449702639919966 0.070238694992332554 0 0.0112804269458822 0.063150502592290311 0 0.01099962534694753 0.064297312644912522 0 0.0099647870798985957 0.06408667604601713 0 0.0070645074176101707 0.067602940134942696 0 0.0057423729930637978 0.06619484883695842 0 0.0112804269458822 0.063150502592290311 0 0.0099647870798985957 0.06408667604601713 0 0.0097104344418617542 0.063807430694895764 0 0.0058024177466786033 0.06619769716806502 0 0.0057423729930637978 0.06619484883695842 0 0.002625945260152261 0.070220471167423359 0 0.0026470171620359257 0.070214058549080902 0 0.0026449702639919966 0.070238694992332554 0 0.0048468011465867631 0.065878721188076819 0 0.0051824960260987117 0.066249743058573937 0 0.0047172994855767172 0.066454091234068716 0 0.0089547736469759148 0.060279684766806965 0 0.0085376993084818244 0.062111508502954875 0 0.0067655947461133679 0.061035698098631151 0 0.0045866715651705393 0.066613850561810975 0 0.0057423729930637978 0.06619484883695842 0 0.0045866715651705393 0.066613850561810975 0 0.0063203876965005129 0.065066257186108353 0 0.0097449223561045205 0.063850993799434472 0 0.0090222313322032271 0.064148301700895097 0 0.009559908608615518 0.064286686298790099 0 0.0057423729930637978 0.06619484883695842 0 0.0063203876965005129 0.065066257186108353 0 0.0085376993084818244 0.062111508502954875 0 0.0067655947461133679 0.061035698098631151 0 0.0069174850205779622 0.062826212295340744 0 0.0067655947461133679 0.061035698098631151 0 0.0069174850205779622 0.062826212295340744 0 0.0053105658155964599 0.062856418221767449 0 0.0085402973122201045 0.062112259037253398 0 0.0069174850205779622 0.062826212295340744 0 0.0079800106203729501 0.064704095774645226 0 0.0069174850205779622 0.062826212295340744 0 0.0065813221870791748 0.064112701453783491 0 0.0053105658155964599 0.062856418221767449 0 0.0063203876965005129 0.065066257186108353 0 0.00675538978575781 0.06472480063720118 0 0.0069174850205779622 0.062826212295340744 0 0.0065813221870791748 0.064112701453783491 0 0.0079800106203729501 0.064704095774645226 0 0.0063203876965005129 0.065066257186108353 0 0.0069340167005633212 0.065243845571168468 0 0.0090222313322032271 0.064148301700895097 0 0.0090818366711464781 0.064910901354518422 0 0.0084966118477959214 0.065305636178568216 0 0.0090222313322032271 0.064148301700895097 0 0.0095023685932170161 0.064716095518871641 0 0.009559908608615518 0.064286686298790099 0 0.0090222313322032271 0.064148301700895097 0 0.0095023685932170161 0.064716095518871641 0 0.0090818366711464781 0.064910901354518422 0 0.0098106244696687401 0.064473575676866998 0 0.0095023685932170161 0.064716095518871641 0 0.009559908608615518 0.064286686298790099 0 0.0095023685932170161 0.064716095518871641 0 0.0090818366711464781 0.064910901354518422 0 0.0093283546643418407 0.065500977562871779 0 0.0084966118477959214 0.065305636178568216 0 0.0075158220096062144 0.067320964142179862 0 0.0089418565320645103 0.066754073712910339 0 0.0090818366711464781 0.064910901354518422 0 0.0093283546643418407 0.065500977562871779 0 0.0084966118477959214 0.065305636178568216 0 0.0093283546643418407 0.065500977562871779 0 0.0084966118477959214 0.065305636178568216 0 0.0089418565320645103 0.066754073712910339 0 0.0093283546643418407 0.065500977562871779 0 0.0089418565320645103 0.066754073712910339 0 0.010025417113615921 0.066623255257828973 0 0.0069340167005633212 0.065243845571168468 0 0.0069671774166693611 0.065889129921155531 0 0.0079800106203729501 0.064704095774645226 0 0.0066127812603798833 0.065437856124150193 0 0.0075158220096062144 0.067320964142179862 0 0.0065813221870791748 0.064112701453783491 0 0.0066127812603798833 0.065437856124150193 0 0.005485696659212262 0.064789821780678727 0 0.0065813221870791748 0.064112701453783491 0 0.0079800106203729501 0.064704095774645226 0 0.0066127812603798833 0.065437856124150193 0 0.0075158220096062144 0.067320964142179862 0 0.0055837042856159399 0.06649218234181313 0 0.0062820408971539995 0.068876577930299332 0 0.0066127812603798833 0.065437856124150193 0 0.0075158220096062144 0.067320964142179862 0 0.0055837042856159399 0.06649218234181313 0 0.0089418565320645103 0.066754073712910339 0 0.0099692794144506814 0.067755903150007388 0 0.010025417113615921 0.066623255257828973 0 0.0075158220096062144 0.067320964142179862 0 0.0089418565320645103 0.066754073712910339 0 0.008489953144005323 0.06850688385504633 0 0.0089418565320645103 0.066754073712910339 0 0.0099692794144506814 0.067755903150007388 0 0.008489953144005323 0.06850688385504633 0 0.0099692794144506814 0.067755903150007388 0 0.011029217886138852 0.067248574477032613 0 0.011091695039571466 0.068337853029974818 0 0.0099692794144506814 0.067755903150007388 0 0.010025417113615921 0.066623255257828973 0 0.011029217886138852 0.067248574477032613 0 0.010025417113615921 0.066623255257828973 0 0.011029217886138852 0.067248574477032613 0 0.011178820693777406 0.065999562084033292 0 0.011029217886138852 0.067248574477032613 0 0.012177117725483693 0.066926861407375679 0 0.011178820693777406 0.065999562084033292 0 0.011029217886138852 0.067248574477032613 0 0.012076970921026562 0.067988598825709012 0 0.012177117725483693 0.066926861407375679 0 0.011029217886138852 0.067248574477032613 0 0.012076970921026562 0.067988598825709012 0 0.011091695039571466 0.068337853029974818 0 0.012076970921026562 0.067988598825709012 0 0.013240597745947035 0.067537176411788843 0 0.012177117725483693 0.066926861407375679 0 0.012076970921026562 0.067988598825709012 0 0.013240597745947035 0.067537176411788843 0 0.013135236014156599 0.068396324106955592 0 0.014148267363569009 0.068026913302340411 0 0.013240597745947035 0.067537176411788843 0 0.013135236014156599 0.068396324106955592 0 0.014306977952492726 0.067153434310976035 0 0.014148267363569009 0.068026913302340411 0 0.013240597745947035 0.067537176411788843 0 0.014306977952492726 0.067153434310976035 0 0.013240597745947035 0.067537176411788843 0 0.013214422021575729 0.06670479631691946 0 0.014196913913637225 0.066010635968034359 0 0.014306977952492726 0.067153434310976035 0 0.013214422021575729 0.06670479631691946 0 0.013214422021575729 0.06670479631691946 0 0.012177117725483693 0.066926861407375679 0 0.012813961172881704 0.065751215550850908 0 0.013240597745947035 0.067537176411788843 0 0.013214422021575729 0.06670479631691946 0 0.012177117725483693 0.066926861407375679 0 0.012177117725483693 0.066926861407375679 0 0.012813961172881704 0.065751215550850908 0 0.011178820693777406 0.065999562084033292 0 0.014196913913637225 0.066010635968034359 0 0.013214422021575729 0.06670479631691946 0 0.012813961172881704 0.065751215550850908 0 0.01406897044434847 0.06483985186431182 0 0.014196913913637225 0.066010635968034359 0 0.012813961172881704 0.065751215550850908 0 0.01406897044434847 0.06483985186431182 0 0.012313572303930846 0.064143184575947823 0 0.012813961172881704 0.065751215550850908 0 0.012313572303930846 0.064143184575947823 0 0.012813961172881704 0.065751215550850908 0 0.011178820693777406 0.065999562084033292 0 0.012313572303930846 0.064143184575947823 0 0.0093283546643418407 0.065500977562871779 0 0.011178820693777406 0.065999562084033292 0 0.012273628803077481 0.065019703541644755 0 0.011122896791010285 0.065322761991100028 0 0.0093283546643418407 0.065500977562871779 0 0.010025417113615921 0.066623255257828973 0 0.011178820693777406 0.065999562084033292 0 0.00087616770717432817 0.066159239951495141 0 0.0032107570513204889 0.064371280143282222 0 -0.00038316470515976534 0.063526312935138898 0 -0.0014344754635199626 0.066098413994393063 0 -0.00038316470515976534 0.063526312935138898 0 -0.0035837656595553245 0.06530500338799701 0 -0.0014344754635199626 0.066098413994393063 0 0.00087616770717432817 0.066159239951495141 0 -0.00038316470515976534 0.063526312935138898 0 -0.0014344754635199626 0.066098413994393063 0 0.00087616770717432817 0.066159239951495141 0 -0.001340625120660401 0.068327618968151607 0 0.00087616770717432817 0.066159239951495141 0 0.0011247258077520304 0.068174462360373042 0 -0.001340625120660401 0.068327618968151607 0 0.0038234883732992798 0.066943219089606459 0 0.0033971605927865548 0.064623070623699722 0 0.00087616770717432817 0.066159239951495141 0 0.0037912743647251701 0.067102679412220645 0 0.0032107570513204889 0.064371280143282222 0 0.00087616770717432817 0.066159239951495141 0 0.0037912743647251701 0.067102679412220645 0 0.0011247258077520304 0.068174462360373042 0 0.0041028353409887971 0.067613291885946822 0 0.0055837042856159399 0.06649218234181313 0 0.0062820408971539995 0.068876577930299332 0 0.0041028353409887971 0.067613291885946822 0 0.0055837042856159399 0.06649218234181313 0 0.0035579202620988088 0.064855539071986171 0 0.0055837042856159399 0.06649218234181313 0 0.005485696659212262 0.064789821780678727 0 0.0035579202620988088 0.064855539071986171 0 0.0066127812603798833 0.065437856124150193 0 0.0055837042856159399 0.06649218234181313 0 0.005485696659212262 0.064789821780678727 0 0.0033971605927865548 0.064623070623699722 0 0.0029772469957241952 0.062322027415015309 0 0.0032107570513204889 0.064371280143282222 0 0.0027211560643498451 0.061748828704900942 0 -0.00038316470515976534 0.063526312935138898 0 0.005485696659212262 0.064789821780678727 0 0.0035579202620988088 0.064855539071986171 0 0.0053105658155964599 0.062856418221767449 0 0.0035579202620988088 0.064855539071986171 0 0.0053105658155964599 0.062856418221767449 0 0.0029784514193494224 0.062044172592852845 0 0.0065813221870791748 0.064112701453783491 0 0.005485696659212262 0.064789821780678727 0 0.0053105658155964599 0.062856418221767449 0 0.0053105658155964599 0.062856418221767449 0 0.0029784514193494224 0.062044172592852845 0 0.0045927187705014456 0.060293120941451443 0 0.0067655947461133679 0.061035698098631151 0 0.0053105658155964599 0.062856418221767449 0 0.0045927187705014456 0.060293120941451443 0 0.0029772469957241952 0.062322027415015309 0 0.0027574521210223502 0.061090156145166004 0 0.0029784514193494224 0.062044172592852845 0 0.0045927187705014456 0.060293120941451443 0 0.0023636965085608095 0.059149460393939694 0 0.0027211560643498451 0.061748828704900942 0 0.00030175946579548673 0.061170383370315738 0 0.0023636965085608095 0.059149460393939694 0 0.0027211560643498451 0.061748828704900942 0 0.00030175946579548673 0.061170383370315738 0 -0.00038316470515976534 0.063526312935138898 0 -0.0048199519094394017 0.063608814708301972 0 -0.0073007132048268685 0.062192699772291145 0 0.00030175946579548673 0.061170383370315738 0 -0.00038316470515976534 0.063526312935138898 0 -0.002109025546445258 0.060747667202866305 0 0.00030175946579548673 0.061170383370315738 0 -0.00044133456440303466 0.058837529960970449 0 -0.002109025546445258 0.060747667202866305 0 -0.00044133456440303466 0.058837529960970449 0 -0.0022110450490222108 0.058340808704591289 0 -0.0024183056757946307 0.061065302656948831 0 -0.0048625116555730472 0.060198186732684227 0 -0.0073007132048268685 0.062192699772291145 0 0.00030175946579548673 0.061170383370315738 0 -0.00044133456440303466 0.058837529960970449 0 0.0023636965085608095 0.059149460393939694 0 -0.00044133456440303466 0.058837529960970449 0 0.0023636965085608095 0.059149460393939694 0 0.0014060027451045995 0.055974550543481112 0 -0.0105223581817233 0.068121702509617077 0 -0.006713942955423189 0.069019874850103968 0 -0.00044133456440303466 0.058837529960970449 0 -0.0016210674267619033 0.056611089616435455 0 0.0014060027451045995 0.055974550543481112 0 -0.00044133456440303466 0.058837529960970449 0 -0.0022110450490222108 0.058340808704591289 0 -0.0016210674267619033 0.056611089616435455 0 0.0067049348698868224 0.057791418948010549 0 0.0045927187705014456 0.060293120941451443 0 0.0043893721346744425 0.05798998171297999 0 0.0045927187705014456 0.060293120941451443 0 0.0023636965085608095 0.059149460393939694 0 0.0043893721346744425 0.05798998171297999 0 0.0023636965085608095 0.059149460393939694 0 0.0043893721346744425 0.05798998171297999 0 0.0014060027451045995 0.055974550543481112 0 0.0043893721346744425 0.05798998171297999 0 0.0044271971111682811 0.055312996685601461 0 0.0014060027451045995 0.055974550543481112 0 0.0010983941351820354 0.067461672967116984 0 -0.0040100646745697011 0.070834157888638394 0 0.0067049348698868224 0.057791418948010549 0 0.0043893721346744425 0.05798998171297999 0 0.0044271971111682811 0.055312996685601461 0 -0.0080109989757812475 0.077456282626661752 0 -0.010944700996679328 0.078525098090093809 0 -0.011124233655712405 0.076280319371895611 0 -0.010954454541965378 0.078486936800763643 0 -0.013747802135764065 0.077553366865425952 0 -0.014445462105199215 0.079267051153476389 0 -0.0040100646745697011 0.070834157888638394 0 -0.006713942955423189 0.069019874850103968 0 -0.0040100646745697011 0.070834157888638394 0 -0.006781908844523509 0.071746918604379734 0 -0.013459069641717936 0.074999971936782997 0 -0.013765896728344985 0.075420432195871606 0 -0.011124233655712405 0.076280319371895611 0 -0.010954454541965378 0.078486936800763643 0 -0.013747802135764065 0.077553366865425952 0 -0.013765896728344985 0.075420432195871606 0 -0.010944700996679328 0.078525098090093809 0 -0.013765896728344985 0.075420432195871606 0 -0.011124233655712405 0.076280319371895611 0 -0.013459069641717936 0.074999971936782997 0 -0.0094378800217133595 0.074999990256929813 0 -0.011124233655712405 0.076280319371895611 0 -0.0080109989757812475 0.077456282626661752 0 -0.0094378800217133595 0.074999990256929813 0 -0.011124233655712405 0.076280319371895611 0 -0.017943842478530297 0.080033023006363252 0 -0.015829706290069547 0.077039444165169918 0 -0.018464675569470027 0.077291378627821303 0 -0.017943842478530297 0.080033023006363252 0 -0.014445462105199215 0.079267051153476389 0 -0.015829706290069547 0.077039444165169918 0 -0.013747802135764065 0.077553366865425952 0 -0.014445462105199215 0.079267051153476389 0 -0.015829706290069547 0.077039444165169918 0 -0.013459069641717936 0.074999971936782997 0 -0.013765896728344985 0.075420432195871606 0 -0.017480239935345109 0.074999979318124618 0 -0.013765896728344985 0.075420432195871606 0 -0.015829706290069547 0.077039444165169918 0 -0.017480239935345109 0.074999979318124618 0 -0.013747802135764065 0.077553366865425952 0 -0.013765896728344985 0.075420432195871606 0 -0.015829706290069547 0.077039444165169918 0 -0.015829706290069547 0.077039444165169918 0 -0.017480239935345109 0.074999979318124618 0 -0.018464675569470027 0.077291378627821303 0 -0.017480239935345109 0.074999979318124618 0 -0.018464675569470027 0.077291378627821303 0 -0.021501447413259014 0.074999960200143781 0 -0.018464675569470027 0.077291378627821303 0 -0.020684387860343257 0.077889107065519214 0 -0.021501447413259014 0.074999960200143781 0 -0.017943842478530297 0.080033023006363252 0 -0.018464675569470027 0.077291378627821303 0 -0.020684387860343257 0.077889107065519214 0 -0.017943842478530297 0.080033023006363252 0 -0.020684387860343257 0.077889107065519214 0 -0.021440624287684406 0.080798290072666742 0 -0.023674002981221753 0.077265490014435195 0 -0.025049774468493869 0.079392170195106332 0 -0.021570515362966593 0.080655214276900908 0 -0.016576343098841716 0.072316510227827591 0 -0.016073645508040555 0.067427651248958734 0 -0.020684387860343257 0.077889107065519214 0 -0.023674002981221753 0.077265490014435195 0 -0.021440624287684406 0.080798290072666742 0 -0.020684387860343257 0.077889107065519214 0 -0.021501447413259014 0.074999960200143781 0 -0.023674002981221753 0.077265490014435195 0 -0.023674002981221753 0.077265490014435195 0 -0.025522600149712752 0.074999983067901829 0 -0.026854314325238292 0.076496387322605913 0 -0.021501447413259014 0.074999960200143781 0 -0.023674002981221753 0.077265490014435195 0 -0.025522600149712752 0.074999983067901829 0 -0.023674002981221753 0.077265490014435195 0 -0.026854314325238292 0.076496387322605913 0 -0.026833906796096159 0.078147986841213934 0 -0.025522600149712752 0.074999983067901829 0 -0.026854314325238292 0.076496387322605913 0 -0.029543757240569041 0.074999968506583942 0 -0.026854314325238292 0.076496387322605913 0 -0.026833906796096159 0.078147986841213934 0 -0.0287348964333232 0.077060963293380316 0 -0.029143741004378179 0.076799305003196663 0 -0.029658138044505077 0.076732865947483964 0 -0.026833906796096159 0.078147986841213934 0 -0.028011812495601748 0.079961457451140999 0 -0.02905763279439556 0.078979146400902478 0 -0.026833906796096159 0.078147986841213934 0 -0.026210811508710796 0.079484536341923651 0 -0.025049774468493869 0.079392170195106332 0 -0.026833906796096159 0.078147986841213934 0 -0.026210811508710796 0.079484536341923651 0 -0.027129378349752497 0.080013282932247617 0 -0.026833906796096159 0.078147986841213934 0 -0.028011812495601748 0.079961457451140999 0 -0.027129378349752497 0.080013282932247617 0 -0.023674002981221753 0.077265490014435195 0 -0.026833906796096159 0.078147986841213934 0 -0.025049774468493869 0.079392170195106332 0 -0.021922756843128308 0.06881392138128993 0 -0.026906223576393058 0.070198346039732754 0 -0.025049774468493869 0.079392170195106332 0 -0.02386835775026518 0.081174454392113585 0 -0.021570515362966593 0.080655214276900908 0 -0.02386835775026518 0.081174454392113585 0 -0.025825314132950764 0.080383975042100833 0 -0.026172230745531232 0.081687320084614851 0 -0.026210811508710796 0.079484536341923651 0 -0.025049774468493869 0.079392170195106332 0 -0.025825314132950764 0.080383975042100833 0 -0.025049774468493869 0.079392170195106332 0 -0.02386835775026518 0.081174454392113585 0 -0.025825314132950764 0.080383975042100833 0 -0.028024026056891714 0.079963461848562789 0 -0.027129378349752497 0.080013282932247617 0 -0.026172230745531232 0.081687320084614851 0 -0.02847235190487974 0.075858405510824747 0 -0.02840119843685536 0.075923829599071013 0 -0.026210811508710796 0.079484536341923651 0 -0.027129378349752497 0.080013282932247617 0 -0.025825314132950764 0.080383975042100833 0 -0.027129378349752497 0.080013282932247617 0 -0.025825314132950764 0.080383975042100833 0 -0.026172230745531232 0.081687320084614851 0 -0.02847235190487974 0.075858405510824747 0 -0.026906223576393058 0.070198346039732754 0 -0.024889066859225761 0.055492446912845793 0 -0.026448112306063729 0.057922370961274061 0 -0.029705063615888837 0.05641475781343399 0 -0.024889066859225761 0.055492446912845793 0 -0.026448112306063729 0.057922370961274061 0 -0.022543704302026905 0.057791644156658821 0 -0.022047696654547488 0.055170644553086005 0 -0.022543704302026905 0.057791644156658821 0 -0.020430602579719868 0.057069434534051167 0 -0.022047696654547488 0.055170644553086005 0 -0.024704932199281569 0.055780871456609038 0 -0.022543704302026905 0.057791644156658821 0 -0.026906223576393058 0.070198346039732754 0 -0.027706363608249178 0.067513987168842993 0 -0.022543704302026905 0.057791644156658821 0 -0.020430602579719868 0.057069434534051167 0 -0.021791318575546729 0.059532150305656784 0 -0.020430602579719868 0.057069434534051167 0 -0.01921872566041527 0.058659917756839708 0 -0.021791318575546729 0.059532150305656784 0 -0.020430602579719868 0.057069434534051167 0 -0.017804269857969169 0.05697043814472566 0 -0.019325080917236573 0.054564320120600814 0 -0.020430602579719868 0.057069434534051167 0 -0.017804269857969169 0.05697043814472566 0 -0.01921872566041527 0.058659917756839708 0 -0.0022110450490222108 0.058340808704591289 0 -0.003590967461071441 0.059167464700977217 0 -0.0024183056757946307 0.061065302656948831 0 -0.017804269857969169 0.05697043814472566 0 -0.01626609661642836 0.059417912250586839 0 -0.01921872566041527 0.058659917756839708 0 -0.012236858733753851 0.063065364339473573 0 -0.0073007132048268685 0.062192699772291145 0 -0.0022110450490222108 0.058340808704591289 0 -0.003590967461071441 0.059167464700977217 0 -0.0047696693594310195 0.057290379888294038 0 -0.0105223581817233 0.068121702509617077 0 -0.016073645508040555 0.067427651248958734 0 -0.0022110450490222108 0.058340808704591289 0 -0.0016210674267619033 0.056611089616435455 0 -0.0047696693594310195 0.057290379888294038 0 -0.012236858733753851 0.063065364339473573 0 -0.016073645508040555 0.067427651248958734 0 -0.021922756843128308 0.06881392138128993 0 -0.016073645508040555 0.067427651248958734 0 -0.022047696654547488 0.055170644553086005 0 -0.020430602579719868 0.057069434534051167 0 -0.019325080917236573 0.054564320120600814 0 -0.035601079085706679 0.077906367815123737 0 -0.037224740449554122 0.07796026849267694 0 -0.037283615342535624 0.077007387310455172 0 -0.035977308695854637 0.07863572208389856 0 -0.039384909522002826 0.078324202255266373 0 -0.037283615342535624 0.077007387310455172 0 -0.035058080531334204 0.07679898308365353 0 -0.035977308695854637 0.07863572208389856 0 -0.037283615342535624 0.077007387310455172 0 -0.036925143797355085 0.074999199728367605 0 -0.035058080531334204 0.07679898308365353 0 -0.036917480843216111 0.075001208239700093 0 -0.034348381999707057 0.076522531590351342 0 -0.033565072022313479 0.074999986578327085 0 -0.034124508609973424 0.077381856715574376 0 -0.031482752727497607 0.076990721817284835 0 -0.036920295523746247 0.074999993196101636 0 -0.033565072022313479 0.074999986578327085 0 -0.034124508609973424 0.077381856715574376 0 -0.034201963467881402 0.078241152838849914 0 -0.032946487569584737 0.07878769336220158 0 -0.035977308695854637 0.07863572208389856 0 -0.035058080531334204 0.07679898308365353 0 -0.034201963467881402 0.078241152838849914 0 -0.032760502526835121 0.07879820061710191 0 -0.035058080531334204 0.07679898308365353 0 -0.034201963467881402 0.078241152838849914 0 -0.035977308695854637 0.07863572208389856 0 -0.034348381999707057 0.076522531590351342 0 -0.03193560224524216 0.077455343691812367 0 -0.031482752727497607 0.076990721817284835 0 -0.029413480358061971 0.078936065168463895 0 -0.031363438559451 0.079763119007676103 0 -0.034124508609973424 0.077381856715574376 0 -0.031482752727497607 0.076990721817284835 0 -0.031363438559451 0.079763119007676103 0 -0.033564961090855994 0.075000002310955147 0 -0.031384638982502516 0.077024980913460883 0 -0.029543757240569041 0.074999968506583942 0 -0.033561680128656173 0.075001115592642192 0 -0.031388661439797204 0.076213752435458748 0 -0.031384638982502516 0.077024980913460883 0 -0.029543757240569041 0.074999968506583942 0 -0.0287348964333232 0.077060963293380316 0 -0.026854314325238292 0.076496387322605913 0 -0.029543757240569041 0.074999968506583942 0 -0.0287348964333232 0.077060963293380316 0 -0.031384638982502516 0.077024980913460883 0 -0.0287348964333232 0.077060963293380316 0 -0.029206326599382958 0.079051579378999884 0 -0.026833906796096159 0.078147986841213934 0 -0.0287348964333232 0.077060963293380316 0 -0.029206326599382958 0.079051579378999884 0 -0.031388661439797204 0.076213752435458748 0 -0.029658138044505077 0.076732865947483964 0 -0.029658138044505077 0.076732865947483964 0 -0.03193560224524216 0.077455343691812367 0 -0.02847235190487974 0.075858405510824747 0 -0.029658138044505077 0.076732865947483964 0 -0.028611719438138394 0.078179092680403198 0 -0.030554536095093229 0.079002893733145965 0 -0.031679535509908457 0.078023207863612151 0 -0.028611719438138394 0.078179092680403198 0 -0.026755136098793125 0.079904757684962593 0 -0.030545409082587498 0.080773031177035381 0 -0.028611719438138394 0.078179092680403198 0 -0.030554536095093229 0.079002893733145965 0 -0.030545409082587498 0.080773031177035381 0 -0.029506461289276531 0.076459556137199319 0 -0.029827684178552444 0.076161292756527027 0 -0.030423600942728068 0.076413135937829946 0 -0.02847235190487974 0.075858405510824747 0 -0.03193560224524216 0.077455343691812367 0 -0.026906223576393058 0.070198346039732754 0 -0.030265907350362796 0.069651319418607055 0 -0.030545409082587498 0.080773031177035381 0 -0.032303053654655259 0.079905947926228571 0 -0.034365636980096682 0.081668973174900114 0 -0.030265907350362796 0.069651319418607055 0 -0.034565896483657856 0.069951752759509767 0 -0.029705063615888837 0.05641475781343399 0 -0.034740226524267559 0.057395856418900437 0 -0.032686482847871651 0.06106897228297177 0 -0.033183727546280753 0.079251193053768085 0 -0.032303053654655259 0.079905947926228571 0 -0.031916702962920263 0.078785384557810159 0 -0.033183727546280753 0.079251193053768085 0 -0.032303053654655259 0.079905947926228571 0 -0.033919107801616583 0.080022251819850176 0 -0.030554536095093229 0.079002893733145965 0 -0.032303053654655259 0.079905947926228571 0 -0.031916702962920263 0.078785384557810159 0 -0.030554536095093229 0.079002893733145965 0 -0.030545409082587498 0.080773031177035381 0 -0.032303053654655259 0.079905947926228571 0 -0.030554536095093229 0.079002893733145965 0 -0.031916702962920263 0.078785384557810159 0 -0.031682376790501621 0.078023968292192866 0 -0.031765787329534119 0.07761766471395358 0 -0.03193560224524216 0.077455343691812367 0 -0.031916702962920263 0.078785384557810159 0 -0.031682376790501621 0.078023968292192866 0 -0.031910133161000317 0.078010501669327825 0 -0.03193560224524216 0.077455343691812367 0 -0.032356081597892036 0.077557573448079661 0 -0.034201963467881402 0.078241152838849914 0 -0.032760502526835121 0.07879820061710191 0 -0.032946487569584737 0.07878769336220158 0 -0.033183727546280753 0.079251193053768085 0 -0.031916702962920263 0.078785384557810159 0 -0.031910133161000317 0.078010501669327825 0 -0.032356081597892036 0.077557573448079661 0 -0.0358995878917205 0.079254598448874961 0 -0.033147681299280016 0.078657106646016078 0 -0.036446502728424875 0.079890292880172908 0 -0.036271864129100578 0.078491594141035917 0 -0.033183727546280753 0.079251193053768085 0 -0.031910133161000317 0.078010501669327825 0 -0.035871658994381592 0.079530925456763907 0 -0.033183727546280753 0.079251193053768085 0 -0.033919107801616583 0.080022251819850176 0 -0.035871658994381592 0.079530925456763907 0 -0.032356081597892036 0.077557573448079661 0 -0.035601079085706679 0.077906367815123737 0 -0.032303053654655259 0.079905947926228571 0 -0.033919107801616583 0.080022251819850176 0 -0.034365636980096682 0.081668973174900114 0 -0.033919107801616583 0.080022251819850176 0 -0.034365636980096682 0.081668973174900114 0 -0.035871658994381592 0.079530925456763907 0 -0.034565896483657856 0.069951752759509767 0 -0.039008760075558854 0.070540843386683288 0 -0.034365636980096682 0.081668973174900114 0 -0.035871658994381592 0.079530925456763907 0 -0.038199943498342541 0.082582099372710494 0 -0.036446502728424875 0.079890292880172908 0 -0.036271864129100578 0.078491594141035917 0 -0.039384909522002826 0.078324202255266373 0 -0.036856383783628023 0.061833849850380575 0 -0.037627920549807993 0.0648618895218286 0 -0.040304624568777307 0.063270388317182902 0 -0.036856383783628023 0.061833849850380575 0 -0.035019852900473256 0.064050280974450507 0 -0.037627920549807993 0.0648618895218286 0 -0.036856383783628023 0.061833849850380575 0 -0.039859039934849919 0.058443114120556618 0 -0.040304624568777307 0.063270388317182902 0 -0.034740226524267559 0.057395856418900437 0 -0.036856383783628023 0.061833849850380575 0 -0.039859039934849919 0.058443114120556618 0 -0.034740226524267559 0.057395856418900437 0 -0.036856383783628023 0.061833849850380575 0 -0.032686482847871651 0.06106897228297177 0 -0.036856383783628023 0.061833849850380575 0 -0.035019852900473256 0.064050280974450507 0 -0.032686482847871651 0.06106897228297177 0 -0.035019852900473256 0.064050280974450507 0 -0.032686482847871651 0.06106897228297177 0 -0.031979086422021109 0.064542122688087913 0 -0.032686482847871651 0.06106897228297177 0 -0.02803140269230435 0.061557451033326785 0 -0.031979086422021109 0.064542122688087913 0 -0.029705063615888837 0.05641475781343399 0 -0.032686482847871651 0.06106897228297177 0 -0.02803140269230435 0.061557451033326785 0 -0.026448112306063729 0.057922370961274061 0 -0.029705063615888837 0.05641475781343399 0 -0.02803140269230435 0.061557451033326785 0 -0.03098372521533943 0.062018337514589517 0 -0.032621730955759418 0.062747921912474108 0 -0.02803140269230435 0.061557451033326785 0 -0.028840997360061089 0.064741437368075055 0 -0.026745889732864497 0.064624571297032973 0 -0.02803140269230435 0.061557451033326785 0 -0.028840997360061089 0.064741437368075055 0 -0.031454009206430003 0.064217251175334181 0 -0.028840997360061089 0.064741437368075055 0 -0.027957579195438963 0.06637279541803047 0 -0.026745889732864497 0.064624571297032973 0 -0.028840997360061089 0.064741437368075055 0 -0.027957579195438963 0.06637279541803047 0 -0.030438169726212331 0.066193287910373697 0 -0.025497038916351387 0.064662398940479954 0 -0.020555517914226766 0.066073080436121465 0 -0.023615957666877314 0.06544480602998036 0 -0.023563199789601114 0.065456646708274085 0 -0.023603866415776401 0.065482500272382185 0 -0.023615957666877314 0.06544480602998036 0 -0.023635096555675257 0.0654677232879117 0 -0.023603866415776401 0.065482500272382185 0 -0.027957579195438963 0.06637279541803047 0 -0.029468943039822067 0.06784813327951196 0 -0.026284603428996391 0.068468289538315782 0 -0.027957579195438963 0.06637279541803047 0 -0.029468943039822067 0.06784813327951196 0 -0.030438169726212331 0.066193287910373697 0 -0.025497038916351387 0.064662398940479954 0 -0.029451638977182303 0.062799976710499986 0 -0.023665545775196386 0.06543386250751547 0 -0.023660831723732442 0.065477805424904834 0 -0.023635096555675257 0.0654677232879117 0 -0.029468943039822067 0.06784813327951196 0 -0.030438169726212331 0.066193287910373697 0 -0.032593641955202396 0.067236484651920711 0 -0.023615957666877314 0.06544480602998036 0 -0.023665545775196386 0.06543386250751547 0 -0.023635096555675257 0.0654677232879117 0 -0.032514451187153626 0.066582146868386774 0 -0.030438169726212331 0.066193287910373697 0 -0.032593641955202396 0.067236484651920711 0 -0.032514451187153626 0.066582146868386774 0 -0.030438169726212331 0.066193287910373697 0 -0.031454009206430003 0.064217251175334181 0 -0.028840997360061089 0.064741437368075055 0 -0.030438169726212331 0.066193287910373697 0 -0.031454009206430003 0.064217251175334181 0 -0.035019852900473256 0.064050280974450507 0 -0.035945149406757332 0.067514110460093188 0 -0.037627920549807993 0.0648618895218286 0 -0.032514451187153626 0.066582146868386774 0 -0.031454009206430003 0.064217251175334181 0 -0.03488148261507034 0.066804878425334641 0 -0.035019852900473256 0.064050280974450507 0 -0.031979086422021109 0.064542122688087913 0 -0.035945149406757332 0.067514110460093188 0 -0.032621730955759418 0.062747921912474108 0 -0.034261753574003302 0.062169830690179666 0 -0.029451638977182303 0.062799976710499986 0 -0.034261753574003302 0.062169830690179666 0 -0.029451638977182303 0.062799976710499986 0 -0.026599961559557694 0.063478486366490186 0 -0.032514451187153626 0.066582146868386774 0 -0.032590906768839363 0.067224575139322146 0 -0.03488148261507034 0.066804878425334641 0 -0.034295378377344893 0.058198293841690667 0 -0.034509180472105966 0.058533929683021138 0 -0.034390115383392629 0.059016981026249291 0 -0.034295378377344893 0.058198293841690667 0 -0.034509180472105966 0.058533929683021138 0 -0.034853716979960307 0.058105831907727543 0 -0.02947909233448984 0.06289963768149244 0 -0.029451638977182303 0.062799976710499986 0 -0.035049965093337632 0.05947992562446703 0 -0.035616544407210265 0.059902132654486885 0 -0.036855846501347461 0.058693899268449881 0 -0.037277761744275564 0.058608349760137284 0 -0.037267459719522666 0.058986439381676914 0 -0.034509180472105966 0.058533929683021138 0 -0.034853716979960307 0.058105831907727543 0 -0.035678492752175966 0.058731958659153011 0 -0.034261753574003302 0.062169830690179666 0 -0.035616544407210265 0.059902132654486885 0 -0.037627920549807993 0.0648618895218286 0 -0.040304624568777307 0.063270388317182902 0 -0.040006605264296273 0.066763822253291846 0 -0.034261753574003302 0.062169830690179666 0 -0.038100524018504625 0.062146425011085582 0 -0.035945149406757332 0.067514110460093188 0 -0.037627920549807993 0.0648618895218286 0 -0.040006605264296273 0.066763822253291846 0 -0.019058411228879107 0.062534280645899928 0 -0.02107091276779768 0.062403652071866218 0 -0.019852536149055411 0.060622547606400581 0 -0.02107091276779768 0.062403652071866218 0 -0.019852536149055411 0.060622547606400581 0 -0.021866679690054926 0.061396552190042267 0 -0.019058411228879107 0.062534280645899928 0 -0.02107091276779768 0.062403652071866218 0 -0.021530688193482288 0.064316815422618648 0 -0.00038316470515976534 0.063526312935138898 0 -0.0042580481300136426 0.062726200957409148 0 -0.0022635336915932344 0.060502721351663007 0 -0.019058411228879107 0.062534280645899928 0 -0.01626609661642836 0.059417912250586839 0 -0.019852536149055411 0.060622547606400581 0 -0.01626609661642836 0.059417912250586839 0 -0.01921872566041527 0.058659917756839708 0 -0.019852536149055411 0.060622547606400581 0 -0.010620218173986066 0.06354200373255954 0 -0.0073007132048268685 0.062192699772291145 0 -0.019852536149055411 0.060622547606400581 0 -0.021791318575546729 0.059532150305656784 0 -0.021866679690054926 0.061396552190042267 0 -0.01921872566041527 0.058659917756839708 0 -0.019852536149055411 0.060622547606400581 0 -0.021791318575546729 0.059532150305656784 0 -0.021791318575546729 0.059532150305656784 0 -0.024934484267161695 0.059945399285169745 0 -0.023442684420036448 0.061330870327698045 0 -0.022543704302026905 0.057791644156658821 0 -0.021791318575546729 0.059532150305656784 0 -0.024934484267161695 0.059945399285169745 0 -0.021791318575546729 0.059532150305656784 0 -0.021866679690054926 0.061396552190042267 0 -0.023442684420036448 0.061330870327698045 0 -0.026448112306063729 0.057922370961274061 0 -0.022543704302026905 0.057791644156658821 0 -0.024934484267161695 0.059945399285169745 0 -0.026448112306063729 0.057922370961274061 0 -0.02803140269230435 0.061557451033326785 0 -0.024934484267161695 0.059945399285169745 0 -0.02803140269230435 0.061557451033326785 0 -0.024934484267161695 0.059945399285169745 0 -0.025031315914759683 0.062981019498182467 0 -0.02803140269230435 0.061557451033326785 0 -0.025031315914759683 0.062981019498182467 0 -0.026745889732864497 0.064624571297032973 0 -0.024934484267161695 0.059945399285169745 0 -0.025031315914759683 0.062981019498182467 0 -0.023442684420036448 0.061330870327698045 0 -0.02107091276779768 0.062403652071866218 0 -0.021866679690054926 0.061396552190042267 0 -0.022813707342332939 0.062841397308300517 0 -0.021866679690054926 0.061396552190042267 0 -0.023442684420036448 0.061330870327698045 0 -0.022813707342332939 0.062841397308300517 0 -0.025031315914759683 0.062981019498182467 0 -0.023442684420036448 0.061330870327698045 0 -0.022813707342332939 0.062841397308300517 0 -0.025031315914759683 0.062981019498182467 0 -0.022813707342332939 0.062841397308300517 0 -0.023689266763971043 0.064340840176165384 0 -0.022813707342332939 0.062841397308300517 0 -0.023689266763971043 0.064340840176165384 0 -0.021530688193482288 0.064316815422618648 0 -0.02107091276779768 0.062403652071866218 0 -0.022813707342332939 0.062841397308300517 0 -0.021530688193482288 0.064316815422618648 0 -0.021845521695162774 0.066502638462692193 0 -0.021751552460800738 0.066198741930313054 0 -0.023689266763971043 0.064340840176165384 0 -0.02393686125558999 0.066438463184195509 0 -0.025083461620653256 0.065004484502828114 0 -0.023689266763971043 0.064340840176165384 0 -0.02393686125558999 0.066438463184195509 0 -0.021530688193482288 0.064316815422618648 0 -0.023547219626066544 0.066197762291288223 0 -0.021774890387582072 0.065535594467367828 0 -0.021530688193482288 0.064316815422618648 0 -0.026745889732864497 0.064624571297032973 0 -0.025083461620653256 0.065004484502828114 0 -0.025920446413417498 0.066361345547546038 0 -0.025031315914759683 0.062981019498182467 0 -0.026745889732864497 0.064624571297032973 0 -0.025083461620653256 0.065004484502828114 0 -0.025031315914759683 0.062981019498182467 0 -0.023689266763971043 0.064340840176165384 0 -0.025083461620653256 0.065004484502828114 0 -0.02393686125558999 0.066438463184195509 0 -0.025083461620653256 0.065004484502828114 0 -0.025920446413417498 0.066361345547546038 0 -0.027957579195438963 0.06637279541803047 0 -0.026745889732864497 0.064624571297032973 0 -0.025920446413417498 0.066361345547546038 0 -0.027957579195438963 0.06637279541803047 0 -0.025920446413417498 0.066361345547546038 0 -0.026284603428996391 0.068468289538315782 0 -0.021845521695162774 0.066502638462692193 0 -0.020555517914226766 0.066073080436121465 0 -0.02393686125558999 0.066438463184195509 0 -0.025920446413417498 0.066361345547546038 0 -0.026284603428996391 0.068468289538315782 0 -0.023547219626066544 0.066197762291288223 0 -0.024163879047404031 0.068193421189081935 0 -0.025500680046331888 0.067942959690673474 0 -0.015586208118642208 0.06680994166821691 0 -0.020555517914226766 0.066073080436121465 0 -0.018630489122499531 0.066666230862991338 0 -0.018596569524923817 0.066669058562602759 0 -0.018608650715310777 0.066635629188418033 0 -0.013201969734028948 0.066856875347490324 0 -0.014642647028015996 0.066740798295027035 0 -0.015374610362548287 0.068060856727730809 0 -0.016494308456621885 0.067857316004257609 0 -0.013946135828280552 0.066457600782425977 0 -0.015586208118642208 0.06680994166821691 0 -0.014642647028015996 0.066740798295027035 0 -0.0062499239893913381 0.064920904907091334 0 -0.0082733369078311688 0.067138003269184274 0 -0.0068895344197883093 0.066802298464311557 0 -0.007705133139253589 0.067247985170549127 0 -0.0068895344197883093 0.066802298464311557 0 -0.0044763347722140976 0.06780789883758892 0 -0.013429896938221417 0.065349914664334319 0 -0.015586208118642208 0.06680994166821691 0 -0.023547219626066544 0.066197762291288223 0 -0.021774890387582072 0.065535594467367828 0 -0.024163879047404031 0.068193421189081935 0 -0.0062499239893913381 0.064920904907091334 0 -0.0068895344197883093 0.066802298464311557 0 -0.0052412513827046888 0.066294414305755375 0 -0.0082733369078311688 0.067138003269184274 0 -0.0077079771936073788 0.067242979340356127 0 -0.0068895344197883093 0.066802298464311557 0 -0.013201969734028948 0.066856875347490324 0 -0.012793199204212184 0.066706025754621937 0 -0.015586208118642208 0.06680994166821691 0 -0.013201969734028948 0.066856875347490324 0 -0.0052412513827046888 0.066294414305755375 0 -0.0035837656595553245 0.06530500338799701 0 -0.0044763347722140976 0.06780789883758892 0 -0.0068895344197883093 0.066802298464311557 0 -0.0052412513827046888 0.066294414305755375 0 -0.0044763347722140976 0.06780789883758892 0 -0.013201969734028948 0.066856875347490324 0 -0.0061461808242842158 0.067807110406359478 0 -0.0062499239893913381 0.064920904907091334 0 -0.0052412513827046888 0.066294414305755375 0 -0.0035837656595553245 0.06530500338799701 0 -0.0042580481300136426 0.062726200957409148 0 -0.0062499239893913381 0.064920904907091334 0 -0.0035837656595553245 0.06530500338799701 0 -0.019058411228879107 0.062534280645899928 0 -0.021774890387582072 0.065535594467367828 0 -0.021530688193482288 0.064316815422618648 0 -0.010620218173986066 0.06354200373255954 0 -0.013429896938221417 0.065349914664334319 0 -0.00038316470515976534 0.063526312935138898 0 -0.0042580481300136426 0.062726200957409148 0 -0.0035837656595553245 0.06530500338799701 0 -0.0014344754635199626 0.066098413994393063 0 -0.0044763347722140976 0.06780789883758892 0 -0.001340625120660401 0.068327618968151607 0 -0.0014344754635199626 0.066098413994393063 0 -0.0035837656595553245 0.06530500338799701 0 -0.0044763347722140976 0.06780789883758892 0 -0.0037489142001945787 0.069601491134850063 0 -0.0047761421297190746 0.067498198890829614 0 -0.001340625120660401 0.068327618968151607 0 -0.0061461808242842158 0.067807110406359478 0 -0.0038762785926128151 0.068134180253789547 0 -0.0037489142001945787 0.069601491134850063 0 -0.0034005357277318905 0.071377158400899976 0 -0.0012763380803497556 0.070553090234770036 0 -0.0037489142001945787 0.069601491134850063 0 -0.0034005357277318905 0.071377158400899976 0 -0.0057030167532229068 0.070769462642089387 0 -0.0037489142001945787 0.069601491134850063 0 -0.0057030167532229068 0.070769462642089387 0 -0.0060540533958230967 0.06905186396470292 0 -0.0057030167532229068 0.070769462642089387 0 -0.0072241985736790221 0.07092575841739604 0 -0.0053950487145410942 0.072357601509565897 0 -0.0057030167532229068 0.070769462642089387 0 -0.0060540533958230967 0.06905186396470292 0 -0.0070193950759565044 0.069847870684032143 0 -0.0037489142001945787 0.069601491134850063 0 -0.0060540533958230967 0.06905186396470292 0 -0.0047761421297190746 0.067498198890829614 0 -0.0082050464414367558 0.066808975489864739 0 -0.0060540533958230967 0.06905186396470292 0 -0.0047761421297190746 0.067498198890829614 0 -0.0082050464414367558 0.066808975489864739 0 -0.0060540533958230967 0.06905186396470292 0 -0.0079446827507238943 0.068873977718687876 0 -0.0082050464414367558 0.066808975489864739 0 -0.0079446827507238943 0.068873977718687876 0 -0.008842339808580171 0.067964074841441277 0 -0.0060540533958230967 0.06905186396470292 0 -0.0079446827507238943 0.068873977718687876 0 -0.0070193950759565044 0.069847870684032143 0 -0.018596569524923817 0.066669058562602759 0 -0.018608650715310777 0.066635629188418033 0 -0.018548273804979129 0.066607508615381242 0 -0.014642647028015996 0.066740798295027035 0 -0.016600236326077333 0.066491537310038276 0 -0.014642647028015996 0.066740798295027035 0 -0.014147766233242275 0.066648531564194438 0 -0.0082050464414367558 0.066808975489864739 0 -0.008842339808580171 0.067964074841441277 0 -0.0095527263468693033 0.067533671066120002 0 -0.008842339808580171 0.067964074841441277 0 -0.0095527263468693033 0.067533671066120002 0 -0.0095800282155666591 0.068671664408247762 0 -0.0079446827507238943 0.068873977718687876 0 -0.008842339808580171 0.067964074841441277 0 -0.0095800282155666591 0.068671664408247762 0 -0.0079446827507238943 0.068873977718687876 0 -0.0095800282155666591 0.068671664408247762 0 -0.0093488375677039989 0.069714859852318609 0 -0.0095800282155666591 0.068671664408247762 0 -0.010216197696166792 0.069459628733820264 0 -0.0093488375677039989 0.069714859852318609 0 -0.0095800282155666591 0.068671664408247762 0 -0.010216197696166792 0.069459628733820264 0 -0.010773588702684049 0.068843018969405825 0 -0.0095527263468693033 0.067533671066120002 0 -0.0095800282155666591 0.068671664408247762 0 -0.010773588702684049 0.068843018969405825 0 -0.010216197696166792 0.069459628733820264 0 -0.0093488375677039989 0.069714859852318609 0 -0.010455470013504473 0.070406844883935379 0 -0.010216197696166792 0.069459628733820264 0 -0.010455470013504473 0.070406844883935379 0 -0.011276355223598591 0.069638406032025216 0 -0.0093488375677039989 0.069714859852318609 0 -0.0089116931838779338 0.070767970176782186 0 -0.0081084361039533807 0.069972500817004624 0 -0.0093488375677039989 0.069714859852318609 0 -0.0089116931838779338 0.070767970176782186 0 -0.010455470013504473 0.070406844883935379 0 -0.010455470013504473 0.070406844883935379 0 -0.0098154737784606049 0.071504666038042855 0 -0.011069282167612804 0.071782533053320025 0 -0.0089116931838779338 0.070767970176782186 0 -0.010455470013504473 0.070406844883935379 0 -0.0098154737784606049 0.071504666038042855 0 -0.0070193950759565044 0.069847870684032143 0 -0.0081084361039533807 0.069972500817004624 0 -0.0072241985736790221 0.07092575841739604 0 -0.0079446827507238943 0.068873977718687876 0 -0.0093488375677039989 0.069714859852318609 0 -0.0081084361039533807 0.069972500817004624 0 -0.0079446827507238943 0.068873977718687876 0 -0.0070193950759565044 0.069847870684032143 0 -0.0081084361039533807 0.069972500817004624 0 -0.0089116931838779338 0.070767970176782186 0 -0.0072241985736790221 0.07092575841739604 0 -0.0085146028698831425 0.072082678654363741 0 -0.0089116931838779338 0.070767970176782186 0 -0.0081084361039533807 0.069972500817004624 0 -0.0072241985736790221 0.07092575841739604 0 -0.0057030167532229068 0.070769462642089387 0 -0.0070193950759565044 0.069847870684032143 0 -0.0072241985736790221 0.07092575841739604 0 -0.0072241985736790221 0.07092575841739604 0 -0.0085146028698831425 0.072082678654363741 0 -0.0071232283495106389 0.073028489909287786 0 -0.0072241985736790221 0.07092575841739604 0 -0.0071232283495106389 0.073028489909287786 0 -0.0053950487145410942 0.072357601509565897 0 -0.0085146028698831425 0.072082678654363741 0 -0.0071232283495106389 0.073028489909287786 0 -0.0085973797288911198 0.073557186617720288 0 -0.0098154737784606049 0.071504666038042855 0 -0.010085220806860756 0.072848105617615649 0 -0.011069282167612804 0.071782533053320025 0 -0.0089116931838779338 0.070767970176782186 0 -0.0085146028698831425 0.072082678654363741 0 -0.0098154737784606049 0.071504666038042855 0 -0.0085146028698831425 0.072082678654363741 0 -0.0098154737784606049 0.071504666038042855 0 -0.010085220806860756 0.072848105617615649 0 -0.0085146028698831425 0.072082678654363741 0 -0.010085220806860756 0.072848105617615649 0 -0.0085973797288911198 0.073557186617720288 0 -0.0085973797288911198 0.073557186617720288 0 -0.010423787331507816 0.074848722468383574 0 -0.0074786007109964182 0.074836693175729621 0 -0.010085220806860756 0.072848105617615649 0 -0.0085973797288911198 0.073557186617720288 0 -0.010423787331507816 0.074848722468383574 0 -0.0071232283495106389 0.073028489909287786 0 -0.0074786007109964182 0.074836693175729621 0 -0.0055385854615974985 0.074393279308777677 0 -0.0071232283495106389 0.073028489909287786 0 -0.0085973797288911198 0.073557186617720288 0 -0.0074786007109964182 0.074836693175729621 0 -0.0055385854615974985 0.074393279308777677 0 -0.0059098752194155727 0.076080453803750822 0 -0.0022156391967240968 0.07555080081034618 0 -0.0074786007109964182 0.074836693175729621 0 -0.0055385854615974985 0.074393279308777677 0 -0.0059356085470925746 0.076041474002311621 0 -0.0094196097033483993 0.052914689967583035 0 -0.0086264225329316987 0.046332530381729617 0 -0.0035698521324621156 0.073336399626940149 0 -0.0022156391967240968 0.07555080081034618 0 -0.0013075916779417844 0.073001449416295022 0 -0.0055385854615974985 0.074393279308777677 0 -0.0035698521324621156 0.073336399626940149 0 -0.0022156391967240968 0.07555080081034618 0 -0.0034005357277318905 0.071377158400899976 0 -0.0035698521324621156 0.073336399626940149 0 -0.0013075916779417844 0.073001449416295022 0 -0.0034005357277318905 0.071377158400899976 0 -0.0035698521324621156 0.073336399626940149 0 -0.0053950487145410942 0.072357601509565897 0 -0.0055385854615974985 0.074393279308777677 0 -0.0035698521324621156 0.073336399626940149 0 -0.0053950487145410942 0.072357601509565897 0 -0.0071232283495106389 0.073028489909287786 0 -0.0055385854615974985 0.074393279308777677 0 -0.0053950487145410942 0.072357601509565897 0 -0.0034005357277318905 0.071377158400899976 0 -0.0057030167532229068 0.070769462642089387 0 -0.0053950487145410942 0.072357601509565897 0 -0.03517546214151996 0.059631796933351307 0 -0.034482870704927233 0.059896189040029989 0 -0.035317973937838622 0.060339663845785728 0 -0.03517546214151996 0.059631796933351307 0 -0.035317973937838622 0.060339663845785728 0 -0.035916743236441881 0.059601603142041534 0 -0.034509180472105966 0.058533929683021138 0 -0.035111469821127145 0.05891678915659905 0 -0.03581977962188998 0.058691051534054968 0 -0.035111469821127145 0.05891678915659905 0 -0.035916743236441881 0.059601603142041534 0 -0.03581977962188998 0.058691051534054968 0 -0.03517546214151996 0.059631796933351307 0 -0.035111469821127145 0.05891678915659905 0 -0.035916743236441881 0.059601603142041534 0 -0.03517546214151996 0.059631796933351307 0 -0.035111469821127145 0.05891678915659905 0 -0.034793247650292326 0.05930649444471902 0 -0.034793247650292326 0.05930649444471902 0 -0.034700035758705422 0.058941439016197895 0 -0.034390115383392629 0.059016981026249291 0 -0.035111469821127145 0.05891678915659905 0 -0.034793247650292326 0.05930649444471902 0 -0.034700035758705422 0.058941439016197895 0 -0.034509180472105966 0.058533929683021138 0 -0.035111469821127145 0.05891678915659905 0 -0.034700035758705422 0.058941439016197895 0 -0.034509180472105966 0.058533929683021138 0 -0.034700035758705422 0.058941439016197895 0 -0.034390115383392629 0.059016981026249291 0 -0.023660831723732442 0.065477805424904834 0 -0.023660090196788382 0.065513490599428584 0 -0.023637078184412123 0.065503216532906264 0 -0.034793247650292326 0.05930649444471902 0 -0.034390115383392629 0.059016981026249291 0 -0.034482870704927233 0.059896189040029989 0 -0.026599961559557694 0.063478486366490186 0 -0.023090070105641135 0.065705112952921821 0 -0.03517546214151996 0.059631796933351307 0 -0.034793247650292326 0.05930649444471902 0 -0.034482870704927233 0.059896189040029989 0 -0.015443003842903908 0.07064021265452218 0 -0.014899194809400922 0.070693478674504456 0 -0.014527501627429017 0.071747370537974586 0 -0.014899194809400922 0.070693478674504456 0 -0.013463227174935338 0.070989182645843474 0 -0.014527501627429017 0.071747370537974586 0 -0.014899194809400922 0.070693478674504456 0 -0.013463227174935338 0.070989182645843474 0 -0.013837952125342215 0.069774250872404214 0 -0.015443003842903908 0.07064021265452218 0 -0.014899194809400922 0.070693478674504456 0 -0.01388908790881116 0.069789479965659679 0 -0.013463227174935338 0.070989182645843474 0 -0.013837952125342215 0.069774250872404214 0 -0.012442368696042897 0.069955265799176672 0 -0.01933063357526232 0.066389596458744426 0 -0.019655815227989325 0.066291490070843062 0 -0.023090070105641135 0.065705112952921821 0 -0.019655815227989325 0.066291490070843062 0 -0.023660831723732442 0.065477805424904834 0 -0.023637078184412123 0.065503216532906264 0 -0.023635096555675257 0.0654677232879117 0 -0.023637078184412123 0.065503216532906264 0 -0.023635096555675257 0.0654677232879117 0 -0.023603866415776401 0.065482500272382185 0 -0.019655815227989325 0.066291490070843062 0 -0.016600236326077333 0.066491537310038276 0 -0.019655815227989325 0.066291490070843062 0 -0.020378145618612994 0.06628780280047504 0 -0.009586531777996822 0.067515628403261585 0 -0.011697767217130431 0.068653782464293933 0 -0.010773588702684049 0.068843018969405825 0 -0.018608650715310777 0.066635629188418033 0 -0.018554070552101117 0.066593248416191561 0 -0.018548273804979129 0.066607508615381242 0 -0.018518017928949141 0.066554220118395319 0 -0.018554070552101117 0.066593248416191561 0 -0.018548273804979129 0.066607508615381242 0 -0.020555517914226766 0.066073080436121465 0 -0.020378145618612994 0.06628780280047504 0 -0.011697767217130431 0.068653782464293933 0 -0.010773588702684049 0.068843018969405825 0 -0.011276355223598591 0.069638406032025216 0 -0.010216197696166792 0.069459628733820264 0 -0.010773588702684049 0.068843018969405825 0 -0.011276355223598591 0.069638406032025216 0 -0.010455470013504473 0.070406844883935379 0 -0.011276355223598591 0.069638406032025216 0 -0.011937065232547067 0.070720628772308766 0 -0.013837952125342215 0.069774250872404214 0 -0.011697767217130431 0.068653782464293933 0 -0.012442368696042897 0.069955265799176672 0 -0.011276355223598591 0.069638406032025216 0 -0.012442368696042897 0.069955265799176672 0 -0.011937065232547067 0.070720628772308766 0 -0.011697767217130431 0.068653782464293933 0 -0.011276355223598591 0.069638406032025216 0 -0.012442368696042897 0.069955265799176672 0 -0.013463227174935338 0.070989182645843474 0 -0.012442368696042897 0.069955265799176672 0 -0.011937065232547067 0.070720628772308766 0 -0.013463227174935338 0.070989182645843474 0 -0.011937065232547067 0.070720628772308766 0 -0.012288169183806787 0.071839205390080804 0 -0.010455470013504473 0.070406844883935379 0 -0.011937065232547067 0.070720628772308766 0 -0.011069282167612804 0.071782533053320025 0 -0.011069282167612804 0.071782533053320025 0 -0.012288169183806787 0.071839205390080804 0 -0.011831676533090639 0.072959009215847595 0 -0.011937065232547067 0.070720628772308766 0 -0.011069282167612804 0.071782533053320025 0 -0.012288169183806787 0.071839205390080804 0 -0.012288169183806787 0.071839205390080804 0 -0.011831676533090639 0.072959009215847595 0 -0.013404457144703423 0.072480523782355061 0 -0.010085220806860756 0.072848105617615649 0 -0.011069282167612804 0.071782533053320025 0 -0.011831676533090639 0.072959009215847595 0 -0.010423787331507816 0.074848722468383574 0 -0.011831676533090639 0.072959009215847595 0 -0.013616688003867212 0.074250798950565938 0 -0.010085220806860756 0.072848105617615649 0 -0.010423787331507816 0.074848722468383574 0 -0.011831676533090639 0.072959009215847595 0 -0.013616688003867212 0.074250798950565938 0 -0.015858626895426251 0.073682433955357243 0 -0.014967332491131545 0.075844042807214976 0 -0.013616688003867212 0.074250798950565938 0 -0.014369390692719294 0.073091985441437607 0 -0.015858626895426251 0.073682433955357243 0 -0.013616688003867212 0.074250798950565938 0 -0.014369390692719294 0.073091985441437607 0 -0.013404457144703423 0.072480523782355061 0 -0.014369390692719294 0.073091985441437607 0 -0.013404457144703423 0.072480523782355061 0 -0.014527501627429017 0.071747370537974586 0 -0.011831676533090639 0.072959009215847595 0 -0.013616688003867212 0.074250798950565938 0 -0.013404457144703423 0.072480523782355061 0 -0.013463227174935338 0.070989182645843474 0 -0.012288169183806787 0.071839205390080804 0 -0.013404457144703423 0.072480523782355061 0 -0.013463227174935338 0.070989182645843474 0 -0.013404457144703423 0.072480523782355061 0 -0.014527501627429017 0.071747370537974586 0 -0.015443003842903908 0.07064021265452218 0 -0.014527501627429017 0.071747370537974586 0 -0.015858626895426251 0.073682433955357243 0 -0.023090070105641135 0.065705112952921821 0 -0.020385272834575044 0.070677997516168836 0 -0.01502650323840664 0.064176711383399726 0 -0.01573858394415821 0.070410896375938017 0 -0.01978514425386501 0.066775016110830365 0 -0.023090070105641135 0.065705112952921821 0 -0.027483016265093758 0.062005146311168519 0 -0.014369390692719294 0.073091985441437607 0 -0.014527501627429017 0.071747370537974586 0 -0.015858626895426251 0.073682433955357243 0 -0.020385272834575044 0.070677997516168836 0 -0.019737930230888715 0.073073254202552701 0 -0.01573858394415821 0.070410896375938017 0 -0.020168577571586466 0.070417807375819458 0 -0.018473158545362255 0.073935074225868161 0 -0.020168577571586466 0.070417807375819458 0 -0.021517282961309572 0.073822383369763586 0 -0.018473158545362255 0.073935074225868161 0 -0.01573858394415821 0.070410896375938017 0 -0.020168577571586466 0.070417807375819458 0 -0.01978514425386501 0.066775016110830365 0 -0.020168577571586466 0.070417807375819458 0 -0.01978514425386501 0.066775016110830365 0 -0.024588442126141485 0.069369086938138161 0 -0.026158997588800179 0.037200544928675305 0 -0.026517912708219002 0.036677758956448023 0 -0.032590119501922692 0.038299248696673859 0 -0.033883883347725588 0.012528919334707471 0 -0.034222132229641149 0.011576222796294271 0 -0.03363902317811017 0.011999943580990269 0 -0.026648479726504276 0.037333275731776285 0 -0.03412054555200647 0.03127797119266823 0 -0.033883883347725588 0.012528919334707471 0 -0.03363902317811017 0.011999943580990269 0 -0.033046236819523699 0.012450181815824949 0 -0.037260256841995645 0.024330800184538006 0 -0.03412054555200647 0.03127797119266823 0 -0.026648479726504276 0.037333275731776285 0 -0.025714529152858056 0.039433962419341259 0 -0.018368056615100787 0.078094303093411005 0 -0.018473158545362255 0.073935074225868161 0 -0.016481445884515389 0.076712841825673367 0 -0.018368056615100787 0.078094303093411005 0 -0.021517282961309572 0.073822383369763586 0 -0.018473158545362255 0.073935074225868161 0 -0.025714529152858056 0.039433962419341259 0 -0.02605134788826953 0.05266050960599522 0 -0.029637409030920193 0.04541943006933253 0 -0.030071000224397529 0.044825141977737348 0 -0.030607884058166408 0.045413839708117985 0 -0.015858626895426251 0.073682433955357243 0 -0.016481445884515389 0.076712841825673367 0 -0.014967332491131545 0.075844042807214976 0 -0.01573858394415821 0.070410896375938017 0 -0.018473158545362255 0.073935074225868161 0 -0.016481445884515389 0.076712841825673367 0 -0.016481445884515389 0.076712841825673367 0 -0.014967332491131545 0.075844042807214976 0 -0.016238568669131589 0.07779791788281365 0 -0.019393449351281893 0.03348764891287493 0 -0.01916887631117261 0.033447664206000684 0 -0.019016563337403012 0.033977838872414609 0 -0.01916887631117261 0.033447664206000684 0 -0.018801436417970694 0.033720470820925323 0 -0.019016563337403012 0.033977838872414609 0 -0.023294947398608729 0.039467939143015815 0 -0.020770314959292234 0.038082779141106922 0 -0.026648479726504276 0.037333275731776285 0 -0.026733555288820165 0.026305240689574634 0 -0.018368056615100787 0.078094303093411005 0 -0.016481445884515389 0.076712841825673367 0 -0.016238568669131589 0.07779791788281365 0 -0.02922503877230475 0.040755758523232856 0 -0.030090828622629236 0.039492741224117119 0 -0.022698270697311666 0.0396436765153503 0 -0.025714529152858056 0.039433962419341259 0 -0.023294947398608729 0.039467939143015815 0 -0.026648479726504276 0.037333275731776285 0 -0.023294947398608729 0.039467939143015815 0 -0.018826872541918487 0.033553787036987109 0 -0.018502045167847862 0.033364378139271046 0 -0.018299753836070264 0.033493443701430439 0 -0.01939539786707957 0.033587401642375697 0 -0.018826872541918487 0.033553787036987109 0 -0.018502045167847862 0.033364378139271046 0 -0.023294947398608729 0.039467939143015815 0 -0.017517446518732799 0.046429732384237421 0 -0.020770314959292234 0.038082779141106922 0 -0.02005545243494572 0.03764935235168252 0 -0.018524590241067677 0.033690313908814343 0 -0.018725699779882636 0.03345639799965594 0 -0.018299753836070264 0.033493443701430439 0 -0.01916887631117261 0.033447664206000684 0 -0.018801436417970694 0.033720470820925323 0 -0.018725699779882636 0.03345639799965594 0 -0.018801436417970694 0.033720470820925323 0 -0.018524590241067677 0.033690313908814343 0 -0.018725699779882636 0.03345639799965594 0 -0.013616688003867212 0.074250798950565938 0 -0.014967332491131545 0.075844042807214976 0 -0.012666788147440282 0.077100011734034579 0 -0.014967332491131545 0.075844042807214976 0 -0.016238568669131589 0.07779791788281365 0 -0.012666788147440282 0.077100011734034579 0 -0.018502045167847862 0.033364378139271046 0 -0.018299753836070264 0.033493443701430439 0 -0.017787639972090825 0.033261518584048015 0 -0.010423787331507816 0.074848722468383574 0 -0.012666788147440282 0.077100011734034579 0 -0.0092955351654607152 0.076577817184314875 0 -0.010423787331507816 0.074848722468383574 0 -0.013616688003867212 0.074250798950565938 0 -0.012666788147440282 0.077100011734034579 0 -0.017517446518732799 0.046429732384237421 0 -0.013916781821302937 0.048431909036210037 0 -0.018524590241067677 0.033690313908814343 0 -0.018299753836070264 0.033493443701430439 0 -0.018234340371258487 0.033791429860774672 0 -0.018299753836070264 0.033493443701430439 0 -0.018234340371258487 0.033791429860774672 0 -0.017959477219889462 0.033643090477311018 0 -0.018234340371258487 0.033791429860774672 0 -0.018202022994773918 0.034159357732908055 0 -0.017858278324083161 0.033943498660196345 0 -0.018524590241067677 0.033690313908814343 0 -0.018234340371258487 0.033791429860774672 0 -0.018568944873428788 0.033958819776613816 0 -0.018234340371258487 0.033791429860774672 0 -0.018202022994773918 0.034159357732908055 0 -0.018568944873428788 0.033958819776613816 0 -0.023957108493136346 0.021221492135165741 0 -0.018536733963481686 0.022356910681945143 0 -0.018202022994773918 0.034159357732908055 0 -0.018655061332061344 0.034445950623855137 0 -0.018071635619229042 0.034555840026234581 0 -0.018202022994773918 0.034159357732908055 0 -0.018655061332061344 0.034445950623855137 0 -0.018568944873428788 0.033958819776613816 0 -0.023957108493136346 0.021221492135165741 0 -0.026733555288820165 0.026305240689574634 0 -0.033237976568096635 0.01229624580821718 0 -0.033804766705358334 0.012098540472077276 0 -0.034262066329905853 0.011602171232946799 0 -0.033237976568096635 0.01229624580821718 0 -0.033591932080772137 0.012275023068707798 0 -0.033804766705358334 0.012098540472077276 0 -0.033081649026289177 0.01232670238243291 0 -0.033591932080772137 0.012275023068707798 0 -0.033230628395215414 0.013074385431791818 0 -0.023957108493136346 0.021221492135165741 0 -0.024603695252448456 0.020972299836013866 0 -0.018655061332061344 0.034445950623855137 0 -0.018568944873428788 0.033958819776613816 0 -0.019016563337403012 0.033977838872414609 0 -0.018801436417970694 0.033720470820925323 0 -0.018568944873428788 0.033958819776613816 0 -0.019016563337403012 0.033977838872414609 0 -0.018801436417970694 0.033720470820925323 0 -0.018524590241067677 0.033690313908814343 0 -0.018568944873428788 0.033958819776613816 0 -0.033883883347725588 0.012528919334707471 0 -0.034262066329905853 0.011602171232946799 0 -0.034222132229641149 0.011576222796294271 0 -0.034222132229641149 0.011576222796294271 0 -0.034368078995887633 0.011904799821817767 0 -0.034727250528160399 0.011719658048416877 0 -0.034222132229641149 0.011576222796294271 0 -0.034199681719129058 0.011787954571446943 0 -0.034368078995887633 0.011904799821817767 0 -0.034262066329905853 0.011602171232946799 0 -0.034199681719129058 0.011787954571446943 0 -0.034069321287288311 0.011930275734720941 0 -0.033804766705358334 0.012098540472077276 0 -0.034262066329905853 0.011602171232946799 0 -0.034069321287288311 0.011930275734720941 0 -0.034262066329905853 0.011602171232946799 0 -0.034222132229641149 0.011576222796294271 0 -0.034199681719129058 0.011787954571446943 0 -0.034199681719129058 0.011787954571446943 0 -0.034069321287288311 0.011930275734720941 0 -0.034193754646780858 0.012075791365380876 0 -0.034193754646780858 0.012075791365380876 0 -0.034023321488584328 0.012258017173457432 0 -0.034444975035774955 0.012256218497107603 0 -0.034069321287288311 0.011930275734720941 0 -0.034193754646780858 0.012075791365380876 0 -0.034023321488584328 0.012258017173457432 0 -0.033804766705358334 0.012098540472077276 0 -0.034069321287288311 0.011930275734720941 0 -0.034023321488584328 0.012258017173457432 0 -0.033591932080772137 0.012275023068707798 0 -0.033804766705358334 0.012098540472077276 0 -0.034023321488584328 0.012258017173457432 0 -0.034023321488584328 0.012258017173457432 0 -0.034314816141649891 0.012672493477939925 0 -0.033862687071965325 0.012704331631270835 0 -0.033591932080772137 0.012275023068707798 0 -0.034023321488584328 0.012258017173457432 0 -0.033862687071965325 0.012704331631270835 0 -0.034758928833963816 0.012617970241180975 0 -0.034444975035774955 0.012256218497107603 0 -0.034314816141649891 0.012672493477939925 0 -0.034023321488584328 0.012258017173457432 0 -0.034444975035774955 0.012256218497107603 0 -0.034314816141649891 0.012672493477939925 0 -0.034444975035774955 0.012256218497107603 0 -0.034368078995887633 0.011904799821817767 0 -0.034717684792108336 0.012036843581670776 0 -0.034193754646780858 0.012075791365380876 0 -0.034444975035774955 0.012256218497107603 0 -0.034368078995887633 0.011904799821817767 0 -0.034199681719129058 0.011787954571446943 0 -0.034193754646780858 0.012075791365380876 0 -0.034368078995887633 0.011904799821817767 0 -0.034368078995887633 0.011904799821817767 0 -0.034717684792108336 0.012036843581670776 0 -0.034727250528160399 0.011719658048416877 0 -0.034717684792108336 0.012036843581670776 0 -0.035258661746089243 0.011814853277216181 0 -0.034727250528160399 0.011719658048416877 0 -0.034444975035774955 0.012256218497107603 0 -0.034717684792108336 0.012036843581670776 0 -0.035037679441425246 0.012305590432535037 0 -0.034717684792108336 0.012036843581670776 0 -0.035037679441425246 0.012305590432535037 0 -0.035258661746089243 0.011814853277216181 0 -0.034758928833963816 0.012617970241180975 0 -0.035037679441425246 0.012305590432535037 0 -0.0352836031254041 0.012856367678145209 0 -0.034758928833963816 0.012617970241180975 0 -0.034444975035774955 0.012256218497107603 0 -0.035037679441425246 0.012305590432535037 0 -0.035037679441425246 0.012305590432535037 0 -0.035906787652487948 0.012326756326839411 0 -0.0352836031254041 0.012856367678145209 0 -0.035037679441425246 0.012305590432535037 0 -0.035258661746089243 0.011814853277216181 0 -0.035906787652487948 0.012326756326839411 0 -0.035258661746089243 0.011814853277216181 0 -0.035834180904339416 0.011450658149846004 0 -0.035906787652487948 0.012326756326839411 0 -0.035258661746089243 0.011814853277216181 0 -0.035198946349250311 0.01095580434499145 0 -0.035834180904339416 0.011450658149846004 0 -0.035198946349250311 0.01095580434499145 0 -0.036017369348979991 0.010468322450847906 0 -0.035834180904339416 0.011450658149846004 0 -0.035258661746089243 0.011814853277216181 0 -0.034727250528160399 0.011719658048416877 0 -0.035198946349250311 0.01095580434499145 0 -0.034222132229641149 0.011576222796294271 0 -0.034727250528160399 0.011719658048416877 0 -0.035198946349250311 0.01095580434499145 0 -0.037880997991589893 0.022415331845936286 0 -0.037260256841995645 0.024330800184538006 0 -0.0043798562356956268 0.020514244829400969 0 -0.0018510595525189698 0.019619992886797267 0 -0.0032274896593065291 0.017779509263930578 0 -0.0043798562356956268 0.020514244829400969 0 -0.0023525981600397562 0.022277146387084917 0 -0.0018510595525189698 0.019619992886797267 0 -0.0086264225329316987 0.046332530381729617 0 -0.0046071830071049485 0.046695789376720462 0 -0.0043798562356956268 0.020514244829400969 0 -0.0023525981600397562 0.022277146387084917 0 -0.0057436621056115396 0.022912358907050269 0 -0.0086264225329316987 0.046332530381729617 0 -0.0091964614534310353 0.031620078970371966 0 -0.0086264225329316987 0.046332530381729617 0 -0.013916781821302937 0.048431909036210037 0 -0.0074786007109964182 0.074836693175729621 0 -0.0059356085470925746 0.076041474002311621 0 -0.0092955351654607152 0.076577817184314875 0 -0.017128124458703417 0.033177965942668648 0 -0.017787639972090825 0.033261518584048015 0 -0.017260130926492857 0.033671316681816117 0 -0.010423787331507816 0.074848722468383574 0 -0.0074786007109964182 0.074836693175729621 0 -0.0092955351654607152 0.076577817184314875 0 -0.017787639972090825 0.033261518584048015 0 -0.017959477219889462 0.033643090477311018 0 -0.017641188323387579 0.033732667613645219 0 -0.018299753836070264 0.033493443701430439 0 -0.017787639972090825 0.033261518584048015 0 -0.017959477219889462 0.033643090477311018 0 -0.017959477219889462 0.033643090477311018 0 -0.017641188323387579 0.033732667613645219 0 -0.017858278324083161 0.033943498660196345 0 -0.017787639972090825 0.033261518584048015 0 -0.017260130926492857 0.033671316681816117 0 -0.017641188323387579 0.033732667613645219 0 -0.017260130926492857 0.033671316681816117 0 -0.017641188323387579 0.033732667613645219 0 -0.017392292752618391 0.034159743315266007 0 -0.017641188323387579 0.033732667613645219 0 -0.017858278324083161 0.033943498660196345 0 -0.017392292752618391 0.034159743315266007 0 -0.0091964614534310353 0.031620078970371966 0 -0.011156136721077591 0.025967171793790128 0 -0.017858278324083161 0.033943498660196345 0 -0.017780789495644815 0.034277553695255931 0 -0.017392292752618391 0.034159743315266007 0 -0.018202022994773918 0.034159357732908055 0 -0.017858278324083161 0.033943498660196345 0 -0.017780789495644815 0.034277553695255931 0 -0.018234340371258487 0.033791429860774672 0 -0.017959477219889462 0.033643090477311018 0 -0.017858278324083161 0.033943498660196345 0 -0.018202022994773918 0.034159357732908055 0 -0.017780789495644815 0.034277553695255931 0 -0.018071635619229042 0.034555840026234581 0 -0.017780789495644815 0.034277553695255931 0 -0.017507540549618159 0.034652847006704492 0 -0.018071635619229042 0.034555840026234581 0 -0.011156136721077591 0.025967171793790128 0 -0.013920314467960375 0.021182911197519624 0 -0.0016051527139640102 0.017123888474246559 0 -0.0027277464230315951 0.015987088638069181 0 -0.0015578161798172415 0.015240694810213871 0 -0.017780789495644815 0.034277553695255931 0 -0.017392292752618391 0.034159743315266007 0 -0.017507540549618159 0.034652847006704492 0 -0.0016051527139640102 0.017123888474246559 0 -0.0027277464230315951 0.015987088638069181 0 -0.0032274896593065291 0.017779509263930578 0 -0.0027277464230315951 0.015987088638069181 0 -0.0032274896593065291 0.017779509263930578 0 -0.0037584720466708535 0.015835372935144632 0 -0.0018510595525189698 0.019619992886797267 0 -0.0016051527139640102 0.017123888474246559 0 -0.0032274896593065291 0.017779509263930578 0 -0.0043798562356956268 0.020514244829400969 0 -0.0032274896593065291 0.017779509263930578 0 -0.0057069684643256255 0.018301376534426657 0 -0.0032274896593065291 0.017779509263930578 0 -0.0037584720466708535 0.015835372935144632 0 -0.0057069684643256255 0.018301376534426657 0 -0.0010974141402164085 0.019084947909494374 0 -0.00082993959901285605 0.020680571213047373 0 -0.0037584720466708535 0.015835372935144632 0 -0.0036305790906326621 0.015203283678735999 0 -0.003785717889893844 0.015573456669756654 0 -0.0034070003776028096 0.015331880142117588 0 -0.0036305790906326621 0.015203283678735999 0 -0.003785717889893844 0.015573456669756654 0 -0.0034070003776028096 0.015331880142117588 0 -0.002955353226896051 0.01524107380985088 0 -0.003041637486120673 0.015553196121447108 0 -0.0034070003776028096 0.015331880142117588 0 -0.0030182521824732075 0.01510919446216144 0 -0.002955353226896051 0.01524107380985088 0 -0.0034070003776028096 0.015331880142117588 0 -0.003296570093556488 0.015106336727649683 0 -0.0030182521824732075 0.01510919446216144 0 -0.003296570093556488 0.015106336727649683 0 -0.0030267143148256306 0.015045717994947827 0 -0.0030182521824732075 0.01510919446216144 0 -0.003296570093556488 0.015106336727649683 0 -0.003107877427547328 0.01499825725106825 0 -0.0030267143148256306 0.015045717994947827 0 -0.0034070003776028096 0.015331880142117588 0 -0.003296570093556488 0.015106336727649683 0 -0.0036305790906326621 0.015203283678735999 0 -0.00082993959901285605 0.020680571213047373 0 3.4497740559349241e-05 0.0265615786143878 0 -0.0043798562356956268 0.020514244829400969 0 -0.0057069684643256255 0.018301376534426657 0 -0.0074660856757361787 0.020921582243071394 0 -0.003296570093556488 0.015106336727649683 0 -0.0036305790906326621 0.015203283678735999 0 -0.0032572768399167997 0.014928519939560745 0 -0.003296570093556488 0.015106336727649683 0 -0.0032572768399167997 0.014928519939560745 0 -0.003107877427547328 0.01499825725106825 0 -0.0032572768399167997 0.014928519939560745 0 -0.003107877427547328 0.01499825725106825 0 -0.0030251831448941885 0.014971824036684261 0 -0.0032572768399167997 0.014928519939560745 0 -0.0030251831448941885 0.014971824036684261 0 -0.0030562371670735736 0.01491977200821845 0 3.4497740559349241e-05 0.0265615786143878 0 -0.0017206468348866211 0.045364291279146311 0 -0.0074660856757361787 0.020921582243071394 0 -0.0057436621056115396 0.022912358907050269 0 -0.0091897131860599768 0.023580552768381009 0 -0.0043798562356956268 0.020514244829400969 0 -0.0074660856757361787 0.020921582243071394 0 -0.0057436621056115396 0.022912358907050269 0 -0.0029366232021744254 0.014993605553651116 0 -0.0028538752012987516 0.015045975009687554 0 -0.0028837175801375917 0.015002587298668945 0 -0.0029366232021744254 0.014993605553651116 0 -0.0028931469945729415 0.015030520322987443 0 -0.0028538752012987516 0.015045975009687554 0 -0.0029366232021744254 0.014993605553651116 0 -0.0030251831448941885 0.014971824036684261 0 -0.0028931469945729415 0.015030520322987443 0 -0.0029366232021744254 0.014993605553651116 0 -0.0030251831448941885 0.014971824036684261 0 -0.0030562371670735736 0.01491977200821845 0 -0.0030251831448941885 0.014971824036684261 0 -0.0029471192831987667 0.015021728932177231 0 -0.0028931469945729415 0.015030520322987443 0 -0.003107877427547328 0.01499825725106825 0 -0.0030251831448941885 0.014971824036684261 0 -0.0029471192831987667 0.015021728932177231 0 -0.003107877427547328 0.01499825725106825 0 -0.0029471192831987667 0.015021728932177231 0 -0.0030267143148256306 0.015045717994947827 0 -0.0029471192831987667 0.015021728932177231 0 -0.0028931469945729415 0.015030520322987443 0 -0.0028713559083524145 0.015045892534730994 0 -0.0028931469945729415 0.015030520322987443 0 -0.0028633721857319913 0.015045980667623983 0 -0.0028538752012987516 0.015045975009687554 0 -0.0028931469945729415 0.015030520322987443 0 -0.0028633721857319913 0.015045980667623983 0 -0.0028646744191745525 0.015051917004673824 0 -0.0028931469945729415 0.015030520322987443 0 -0.0028646744191745525 0.015051917004673824 0 -0.0028713559083524145 0.015045892534730994 0 -0.0028646744191745525 0.015051917004673824 0 -0.0028613003299463495 0.015052286905895161 0 -0.0028769861092869903 0.015043336637278346 0 -0.001930253441835646 0.014548809854505905 0 -0.0020467273766363579 0.014407772611587837 0 -0.0026049241941550165 0.015010508407906041 0 -0.0028646744191745525 0.015051917004673824 0 -0.0028613003299463495 0.015052286905895161 0 -0.0028713559083524145 0.015045892534730994 0 -0.0028613003299463495 0.015052286905895161 0 -0.0028201240390821895 0.01504881176676005 0 -0.0028769861092869903 0.015043336637278346 0 -0.0028613003299463495 0.015052286905895161 0 -0.0028713559083524145 0.015045892534730994 0 -0.0028201240390821895 0.01504881176676005 0 -0.0028713559083524145 0.015045892534730994 0 -0.0028201240390821895 0.01504881176676005 0 -0.0028665198075474053 0.015045323936832453 0 -0.0028201240390821895 0.01504881176676005 0 -0.0028769861092869903 0.015043336637278346 0 -0.0026049241941550165 0.015010508407906041 0 -0.0029471192831987667 0.015021728932177231 0 -0.0030267143148256306 0.015045717994947827 0 -0.0028665198075474053 0.015045323936832453 0 -0.0029471192831987667 0.015021728932177231 0 -0.0028713559083524145 0.015045892534730994 0 -0.0028665198075474053 0.015045323936832453 0 -0.0028201240390821895 0.01504881176676005 0 -0.0028665198075474053 0.015045323936832453 0 -0.0026049241941550165 0.015010508407906041 0 -0.0030267143148256306 0.015045717994947827 0 -0.0028665198075474053 0.015045323936832453 0 -0.0030182521824732075 0.01510919446216144 0 -0.0030182521824732075 0.01510919446216144 0 -0.0026049241941550165 0.015010508407906041 0 -0.002955353226896051 0.01524107380985088 0 -0.0028665198075474053 0.015045323936832453 0 -0.0030182521824732075 0.01510919446216144 0 -0.0026049241941550165 0.015010508407906041 0 -0.0026049241941550165 0.015010508407906041 0 -0.0022125017682897881 0.015149892675186748 0 -0.0026196630214999953 0.015315129821606297 0 -0.0026049241941550165 0.015010508407906041 0 -0.002955353226896051 0.01524107380985088 0 -0.0026196630214999953 0.015315129821606297 0 -0.001930253441835646 0.014548809854505905 0 -0.0026049241941550165 0.015010508407906041 0 -0.0022125017682897881 0.015149892675186748 0 -0.0011388197468823189 0.013243532470571383 0 -0.0022125017682897881 0.015149892675186748 0 -0.0010168694515595416 0.014502101074238601 0 -0.00031807946333678292 0.014952296385983598 0 -0.00067140943615868554 0.015096383999927855 0 -0.0008991684580272717 0.015666214332499859 0 -0.0012495050406600822 0.015702235318430909 0 -0.0022125017682897881 0.015149892675186748 0 -0.0010168694515595416 0.014502101074238601 0 -0.0013922288542286606 0.015206992314643375 0 -3.5759300521756935e-05 0.013912306014985134 0 -0.0003210135357647643 0.014899827839768993 0 0.0015503723739853524 0.014078668100800445 0 -0.0010168694515595416 0.014502101074238601 0 -3.5759300521756935e-05 0.013912306014985134 0 -0.0003210135357647643 0.014899827839768993 0 -0.0010168694515595416 0.014502101074238601 0 -0.0003210135357647643 0.014899827839768993 0 -0.0013922288542286606 0.015206992314643375 0 -0.0011388197468823189 0.013243532470571383 0 -0.0010168694515595416 0.014502101074238601 0 -3.5759300521756935e-05 0.013912306014985134 0 -0.0003210135357647643 0.014899827839768993 0 0.0015503723739853524 0.014078668100800445 0 -1.3691558800559149e-05 0.015740948859313573 0 -3.5759300521756935e-05 0.013912306014985134 0 0.0015503723739853524 0.014078668100800445 0 0.00070163949956159901 0.012724895222382538 0 0.0032620601176127648 0.013696146323929213 0 0.0029714005389063778 0.012188954692548628 0 0.0047203950704070739 0.014573533147865072 0 0.004930206058125523 0.011615563942874659 0 0.0027322260054557452 0.010900743883643642 0 0.0015503723739853524 0.014078668100800445 0 0.00070163949956159901 0.012724895222382538 0 0.0027322260054557452 0.010900743883643642 0 -0.001930253441835646 0.014548809854505905 0 -0.0020467273766363579 0.014407772611587837 0 -0.0014969159813602495 0.013819193101430439 0 -0.00031807946333678292 0.014952296385983598 0 0.00022176672225058362 0.015610933719879891 0 -0.0011388197468823189 0.013243532470571383 0 0.00070163949956159901 0.012724895222382538 0 0.00042669854035548728 0.01093753269906708 0 -0.0008991684580272717 0.015666214332499859 0 0.00022176672225058362 0.015610933719879891 0 -0.0028646744191745525 0.015051917004673824 0 -0.0028769861092869903 0.015043336637278346 0 -0.0028513145147727307 0.015055630255569533 0 -0.0011388197468823189 0.013243532470571383 0 -3.5759300521756935e-05 0.013912306014985134 0 0.00070163949956159901 0.012724895222382538 0 0.0082219805549645295 0.014363751937350636 0 0.0070726181688819762 0.015977915762979404 0 0.0090108147137290071 0.016186958874904414 0 0.0099728717909973071 0.014521836839410395 0 0.0082219805549645295 0.014363751937350636 0 0.0090108147137290071 0.016186958874904414 0 0.0099728717909973071 0.014521836839410395 0 0.0096015032570838429 0.012657922070074575 0 0.0082219805549645295 0.014363751937350636 0 0.0047203950704070739 0.014573533147865072 0 0.0082219805549645295 0.014363751937350636 0 0.0070726181688819762 0.015977915762979404 0 0.0047203950704070739 0.014573533147865072 0 0.0082219805549645295 0.014363751937350636 0 0.0070138740613894445 0.012401441990986443 0 0.0047203950704070739 0.014573533147865072 0 0.0070138740613894445 0.012401441990986443 0 0.004930206058125523 0.011615563942874659 0 0.0096015032570838429 0.012657922070074575 0 0.0082219805549645295 0.014363751937350636 0 0.0070138740613894445 0.012401441990986443 0 0.0096015032570838429 0.012657922070074575 0 0.0070138740613894445 0.012401441990986443 0 0.0083907348170659257 0.010710253899775262 0 0.0083907348170659257 0.010710253899775262 0 0.0061939438560824449 0.010283594908474537 0 0.007787423750131417 0.0090411790429859983 0 0.0070138740613894445 0.012401441990986443 0 0.0061939438560824449 0.010283594908474537 0 0.004930206058125523 0.011615563942874659 0 0.0070138740613894445 0.012401441990986443 0 0.0083907348170659257 0.010710253899775262 0 0.0061939438560824449 0.010283594908474537 0 0.0061939438560824449 0.010283594908474537 0 0.004930206058125523 0.011615563942874659 0 0.0040126644341016461 0.0095952458593113413 0 0.0061939438560824449 0.010283594908474537 0 0.0062708666340412396 0.0080932522386830651 0 0.0040126644341016461 0.0095952458593113413 0 0.0062708666340412396 0.0080932522386830651 0 0.0040126644341016461 0.0095952458593113413 0 0.0043246467742809437 0.0075850117418145855 0 0.0061939438560824449 0.010283594908474537 0 0.0062708666340412396 0.0080932522386830651 0 0.007787423750131417 0.0090411790429859983 0 0.0098663143399553392 0.0087198794906421778 0 0.0096466235853250523 0.006249503020408693 0 0.0081168980890232133 0.0074343977046700789 0 0.0062708666340412396 0.0080932522386830651 0 0.007787423750131417 0.0090411790429859983 0 0.0081168980890232133 0.0074343977046700789 0 0.0098663143399553392 0.0087198794906421778 0 0.007787423750131417 0.0090411790429859983 0 0.0081168980890232133 0.0074343977046700789 0 0.0098663143399553392 0.0087198794906421778 0 0.0083907348170659257 0.010710253899775262 0 0.007787423750131417 0.0090411790429859983 0 0.00022176672225058362 0.015610933719879891 0 -0.00092944805716658715 0.015769237998862679 0 -0.0028633721857319913 0.015045980667623983 0 -0.0028513145147727307 0.015055630255569533 0 -0.0028538752012987516 0.015045975009687554 0 -0.0028633721857319913 0.015045980667623983 0 -0.0028646744191745525 0.015051917004673824 0 -0.0028513145147727307 0.015055630255569533 0 0.00070163949956159901 0.012724895222382538 0 0.00042669854035548728 0.01093753269906708 0 0.0027322260054557452 0.010900743883643642 0 0.00042669854035548728 0.01093753269906708 0 0.0040126644341016461 0.0095952458593113413 0 0.0043246467742809437 0.0075850117418145855 0 0.00042669854035548728 0.01093753269906708 0 0.0027322260054557452 0.010900743883643642 0 0.0040126644341016461 0.0095952458593113413 0 0.004930206058125523 0.011615563942874659 0 0.0027322260054557452 0.010900743883643642 0 0.0040126644341016461 0.0095952458593113413 0 0.00022176672225058362 0.015610933719879891 0 0.0058032473812732431 0.019892294966462404 0 -0.0027493176687166452 0.015328501880675621 0 -0.0027319777741649518 0.015255927527009125 0 -0.002702405018010271 0.015233131725765235 0 -0.0027319777741649518 0.015255927527009125 0 -0.002702405018010271 0.015233131725765235 0 -0.0027172691911654563 0.015150868905425179 0 -0.0028199187558223117 0.015071440372454559 0 -0.0028187294842924454 0.015070218119231526 0 -0.0027860471092230228 0.015101110526293609 0 -0.0028513145147727307 0.015055630255569533 0 -0.0028199187558223117 0.015071440372454559 0 -0.0028538752012987516 0.015045975009687554 0 -0.0028538752012987516 0.015045975009687554 0 -0.0028187294842924454 0.015070218119231526 0 -0.0028837175801375917 0.015002587298668945 0 -0.0028199187558223117 0.015071440372454559 0 -0.0028538752012987516 0.015045975009687554 0 -0.0028187294842924454 0.015070218119231526 0 -0.0028187294842924454 0.015070218119231526 0 -0.0027723004900136331 0.015105209616891139 0 -0.0028837175801375917 0.015002587298668945 0 0.0031347685942949895 0.043025045343188267 0 0.00093537415889235489 0.044345346966960728 0 -0.0028187294842924454 0.015070218119231526 0 -0.0027860471092230228 0.015101110526293609 0 -0.0027723004900136331 0.015105209616891139 0 -0.0028199187558223117 0.015071440372454559 0 -0.0027860471092230228 0.015101110526293609 0 -0.0027172691911654563 0.015150868905425179 0 -0.00092944805716658715 0.015769237998862679 0 -0.0012351159796923443 0.015752724201430906 0 -0.0027860471092230228 0.015101110526293609 0 -0.0027172691911654563 0.015150868905425179 0 -0.0027723004900136331 0.015105209616891139 0 0.0086567974724549648 0.07426770376691065 0 0.0099939375448328503 0.072115259981127958 0 0.0080604783932230542 0.071063196163043005 0 0.0086567974724549648 0.07426770376691065 0 0.0061989403030075661 0.072658241598015275 0 0.0051173325236021135 0.0747280835721328 0 0.0086567974724549648 0.07426770376691065 0 0.0061989403030075661 0.072658241598015275 0 0.0080604783932230542 0.071063196163043005 0 0.0096466235853250523 0.006249503020408693 0 0.0081168980890232133 0.0074343977046700789 0 0.0074190888829690268 0.0047296832414359157 0 0.0062708666340412396 0.0080932522386830651 0 0.0081168980890232133 0.0074343977046700789 0 0.0074190888829690268 0.0047296832414359157 0 0.0058032473812732431 0.019892294966462404 0 0.0070152835069585504 0.040305205630643728 0 0.0062708666340412396 0.0080932522386830651 0 0.0043246467742809437 0.0075850117418145855 0 0.0074190888829690268 0.0047296832414359157 0 -0.0027172691911654563 0.015150868905425179 0 -0.0027723004900136331 0.015105209616891139 0 -0.0025569452438180956 0.015162702174423708 0 -0.002702405018010271 0.015233131725765235 0 -0.0027172691911654563 0.015150868905425179 0 -0.0025569452438180956 0.015162702174423708 0 0.0031347685942949895 0.043025045343188267 0 0.0070152835069585504 0.040305205630643728 0 0.012150536915679494 0.073826473245490618 0 0.0099939375448328503 0.072115259981127958 0 0.011623119101431621 0.070949668569519897 0 0.0086567974724549648 0.07426770376691065 0 0.012150536915679494 0.073826473245490618 0 0.0099939375448328503 0.072115259981127958 0 0.012773856357710507 0.040921072777139987 0 0.0070152835069585504 0.040305205630643728 0 0.0036297133113559316 0.054888025115188387 0 0.0070152835069585504 0.040305205630643728 0 0.014849804937989325 0.071343803811461354 0 0.015172630485478615 0.071728232504193509 0 0.014070447013866475 0.072407593628572853 0 0.014849804937989325 0.071343803811461354 0 0.012150536915679494 0.073826473245490618 0 0.01315056145676931 0.071573443973068071 0 0.012150536915679494 0.073826473245490618 0 0.01315056145676931 0.071573443973068071 0 0.011623119101431621 0.070949668569519897 0 0.01381276143665062 0.070380303983155368 0 0.01315056145676931 0.071573443973068071 0 0.012783706800774638 0.07042511457290225 0 0.014174478050104338 0.070904978384576586 0 0.01381276143665062 0.070380303983155368 0 0.01315056145676931 0.071573443973068071 0 0.014174478050104338 0.070904978384576586 0 0.014849804937989325 0.071343803811461354 0 0.01315056145676931 0.071573443973068071 0 0.01315056145676931 0.071573443973068071 0 0.012783706800774638 0.07042511457290225 0 0.011623119101431621 0.070949668569519897 0 0.0099939375448328503 0.072115259981127958 0 0.011623119101431621 0.070949668569519897 0 0.010357173111453495 0.069443321490636048 0 0.0099692794144506814 0.067755903150007388 0 0.010357173111453495 0.069443321490636048 0 0.011091695039571466 0.068337853029974818 0 0.010357173111453495 0.069443321490636048 0 0.011091695039571466 0.068337853029974818 0 0.012041598170754089 0.069277928939592601 0 0.012076970921026562 0.067988598825709012 0 0.011091695039571466 0.068337853029974818 0 0.012041598170754089 0.069277928939592601 0 0.011623119101431621 0.070949668569519897 0 0.010357173111453495 0.069443321490636048 0 0.012041598170754089 0.069277928939592601 0 0.012783706800774638 0.07042511457290225 0 0.012041598170754089 0.069277928939592601 0 0.013367155373004315 0.069471745490231496 0 0.012783706800774638 0.07042511457290225 0 0.011623119101431621 0.070949668569519897 0 0.012041598170754089 0.069277928939592601 0 0.012041598170754089 0.069277928939592601 0 0.013135236014156599 0.068396324106955592 0 0.013367155373004315 0.069471745490231496 0 0.012076970921026562 0.067988598825709012 0 0.012041598170754089 0.069277928939592601 0 0.013135236014156599 0.068396324106955592 0 0.014119893610864864 0.068831853115745079 0 0.014148267363569009 0.068026913302340411 0 0.013135236014156599 0.068396324106955592 0 0.014119893610864864 0.068831853115745079 0 0.013135236014156599 0.068396324106955592 0 0.013367155373004315 0.069471745490231496 0 0.014119893610864864 0.068831853115745079 0 0.014214432339357199 0.069632254951616693 0 0.013367155373004315 0.069471745490231496 0 0.014214432339357199 0.069632254951616693 0 0.01381276143665062 0.070380303983155368 0 0.013367155373004315 0.069471745490231496 0 0.01381276143665062 0.070380303983155368 0 0.012783706800774638 0.07042511457290225 0 0.013367155373004315 0.069471745490231496 0 0.0080604783932230542 0.071063196163043005 0 0.0062820408971539995 0.068876577930299332 0 0.0058864630789367649 0.070777609875776928 0 0.0061989403030075661 0.072658241598015275 0 0.0080604783932230542 0.071063196163043005 0 0.0058864630789367649 0.070777609875776928 0 0.0099939375448328503 0.072115259981127958 0 0.010357173111453495 0.069443321490636048 0 0.0080604783932230542 0.071063196163043005 0 0.010357173111453495 0.069443321490636048 0 0.0080604783932230542 0.071063196163043005 0 0.008489953144005323 0.06850688385504633 0 0.0099692794144506814 0.067755903150007388 0 0.010357173111453495 0.069443321490636048 0 0.008489953144005323 0.06850688385504633 0 0.0080604783932230542 0.071063196163043005 0 0.008489953144005323 0.06850688385504633 0 0.0062820408971539995 0.068876577930299332 0 0.0075158220096062144 0.067320964142179862 0 0.008489953144005323 0.06850688385504633 0 0.0062820408971539995 0.068876577930299332 0 0.0038234883732992798 0.066943219089606459 0 0.004050993052940325 0.068200228720635706 0 0.0041028353409887971 0.067613291885946822 0 0.0062820408971539995 0.068876577930299332 0 0.0044781460861894034 0.070181766917315536 0 0.0062820408971539995 0.068876577930299332 0 0.0058864630789367649 0.070777609875776928 0 0.0044781460861894034 0.070181766917315536 0 0.0058864630789367649 0.070777609875776928 0 0.0044781460861894034 0.070181766917315536 0 0.0043739317357996896 0.071171860270471524 0 0.0044781460861894034 0.070181766917315536 0 0.0043739317357996896 0.071171860270471524 0 0.0028117047835988988 0.070467646746100385 0 0.0061989403030075661 0.072658241598015275 0 0.0058864630789367649 0.070777609875776928 0 0.0043739317357996896 0.071171860270471524 0 0.0043739317357996896 0.071171860270471524 0 0.0028117047835988988 0.070467646746100385 0 0.0028329806470297966 0.073032904396402754 0 0.0044781460861894034 0.070181766917315536 0 0.0028117047835988988 0.070467646746100385 0 0.0027949214688488574 0.069076867494982097 0 0.0028117047835988988 0.070467646746100385 0 0.0027949214688488574 0.069076867494982097 0 0.0011195128957533608 0.070116765237067599 0 0.0037912743647251701 0.067102679412220645 0 0.0044781460861894034 0.070181766917315536 0 0.0027949214688488574 0.069076867494982097 0 0.0037912743647251701 0.067102679412220645 0 0.0027949214688488574 0.069076867494982097 0 0.0011247258077520304 0.068174462360373042 0 0.0011247258077520304 0.068174462360373042 0 -0.001340625120660401 0.068327618968151607 0 0.0011195128957533608 0.070116765237067599 0 0.0027949214688488574 0.069076867494982097 0 0.0011247258077520304 0.068174462360373042 0 0.0011195128957533608 0.070116765237067599 0 -0.0037489142001945787 0.069601491134850063 0 -0.001340625120660401 0.068327618968151607 0 -0.0012763380803497556 0.070553090234770036 0 -0.001340625120660401 0.068327618968151607 0 -0.0012763380803497556 0.070553090234770036 0 0.0011195128957533608 0.070116765237067599 0 -0.0012763380803497556 0.070553090234770036 0 0.0011195128957533608 0.070116765237067599 0 0.0010191316625066161 0.072046224532133371 0 0.0028117047835988988 0.070467646746100385 0 0.0011195128957533608 0.070116765237067599 0 0.0010191316625066161 0.072046224532133371 0 0.0010191316625066161 0.072046224532133371 0 -0.0013075916779417844 0.073001449416295022 0 0.0014198437532919352 0.075002622158666932 0 -0.0034005357277318905 0.071377158400899976 0 -0.0012763380803497556 0.070553090234770036 0 -0.0013075916779417844 0.073001449416295022 0 -0.0012763380803497556 0.070553090234770036 0 0.0010191316625066161 0.072046224532133371 0 -0.0013075916779417844 0.073001449416295022 0 -0.0046071830071049485 0.046695789376720462 0 -0.0017206468348866211 0.045364291279146311 0 -0.0022156391967240968 0.07555080081034618 0 -0.0013075916779417844 0.073001449416295022 0 0.0014198437532919352 0.075002622158666932 0 -0.0029366232021744254 0.014993605553651116 0 -0.0030562371670735736 0.01491977200821845 0 -0.0028837175801375917 0.015002587298668945 0 0.0016541454173725197 0.075193293013672127 0 0.0051173325236021135 0.0747280835721328 0 0.0030225251675444231 0.073244204646530087 0 -0.0017206468348866211 0.045364291279146311 0 0.00093537415889235489 0.044345346966960728 0 -0.0017206468348866211 0.045364291279146311 0 -0.0040676760376544396 0.059749896987369697 0 0.0061989403030075661 0.072658241598015275 0 0.0051173325236021135 0.0747280835721328 0 0.0046481492251652535 0.072923581642050733 0 0.0051173325236021135 0.0747280835721328 0 0.0046481492251652535 0.072923581642050733 0 0.0030225251675444231 0.073244204646530087 0 0.0043739317357996896 0.071171860270471524 0 0.0046481492251652535 0.072923581642050733 0 0.0030225251675444231 0.073244204646530087 0 0.0061989403030075661 0.072658241598015275 0 0.0043739317357996896 0.071171860270471524 0 0.0046481492251652535 0.072923581642050733 0 0.0028117047835988988 0.070467646746100385 0 0.0010191316625066161 0.072046224532133371 0 0.0028329806470297966 0.073032904396402754 0 -0.0038658553560838391 0.062743467909535 0 -0.0040676760376544396 0.059749896987369697 0 0.0010191316625066161 0.072046224532133371 0 0.0014198437532919352 0.075002622158666932 0 0.0028329806470297966 0.073032904396402754 0 -0.077142214812537066 0.059817705771099974 0 -0.075731047130795551 0.064911528418677936 0 -0.075705087567217347 0.062673251171379327 0 -0.07570476050141442 0.060115097515010908 0 -0.076389668842635081 0.061781790796721352 0 -0.075731047130795551 0.064911528418677936 0 -0.076450487607294712 0.059211463626310114 0 -0.076802124067161429 0.060980498804718002 0 -0.07570476050141442 0.060115097515010908 0 -0.076389668842635081 0.061781790796721352 0 -0.077877951867379808 0.059166647248907626 0 -0.077142214812537066 0.059817705771099974 0 -0.075712333934460183 0.059756906036720403 0 -0.075705087567217347 0.062673251171379327 0 -0.074998681491397656 0.060783906901018009 0 -0.075712333934460183 0.059756906036720403 0 -0.074999573214964435 0.056684552702370286 0 -0.074998681491397656 0.060783906901018009 0 -0.075712333934460183 0.059756906036720403 0 -0.075705087567217347 0.062673251171379327 0 -0.077142214812537066 0.059817705771099974 0 -0.075712333934460183 0.059756906036720403 0 -0.076041724518844778 0.058092652135409456 0 -0.076450487607294712 0.059211463626310114 0 -0.075778696339878368 0.056035634855525332 0 -0.075712333934460183 0.059756906036720403 0 -0.076041724518844778 0.058092652135409456 0 -0.074999573214964435 0.056684552702370286 0 -0.077142214812537066 0.059817705771099974 0 -0.076041724518844778 0.058092652135409456 0 -0.076404177395647296 0.055879284571273863 0 -0.076041724518844778 0.058092652135409456 0 -0.074999573214964435 0.056684552702370286 0 -0.076404177395647296 0.055879284571273863 0 -0.07570476050141442 0.060115097515010908 0 -0.076417785100605401 0.057005226087900374 0 -0.076917529684014635 0.058207460767125879 0 -0.07570476050141442 0.060115097515010908 0 -0.076417785100605401 0.057005226087900374 0 -0.075034554567351239 0.055785795566751686 0 -0.076917529684014635 0.058207460767125879 0 -0.077922700484541502 0.056890796017533461 0 -0.077877951867379808 0.059166647248907626 0 -0.07570476050141442 0.060115097515010908 0 -0.076917529684014635 0.058207460767125879 0 -0.077877951867379808 0.059166647248907626 0 -0.076417785100605401 0.057005226087900374 0 -0.076917529684014635 0.058207460767125879 0 -0.077922700484541502 0.056890796017533461 0 -0.077922700484541502 0.056890796017533461 0 -0.079638775966978242 0.05870571191013501 0 -0.080478814065127205 0.056427623369938749 0 -0.077922700484541502 0.056890796017533461 0 -0.079638775966978242 0.05870571191013501 0 -0.077877951867379808 0.059166647248907626 0 -0.081900696119795044 0.058388364465883746 0 -0.083705367243437315 0.055523086421506114 0 -0.080478814065127205 0.056427623369938749 0 -0.079638775966978242 0.05870571191013501 0 -0.081900696119795044 0.058388364465883746 0 -0.080478814065127205 0.056427623369938749 0 -0.079638775966978242 0.05870571191013501 0 -0.081900696119795044 0.058388364465883746 0 -0.080447914826014794 0.060836425794232561 0 -0.080447914826014794 0.060836425794232561 0 -0.081637921994151458 0.062282162425205484 0 -0.083009844526254706 0.060800757064535249 0 -0.081900696119795044 0.058388364465883746 0 -0.080447914826014794 0.060836425794232561 0 -0.083009844526254706 0.060800757064535249 0 -0.080447914826014794 0.060836425794232561 0 -0.07879459735140841 0.060933393746146161 0 -0.08012520365855226 0.063968711136867876 0 -0.076389668842635081 0.061781790796721352 0 -0.07879459735140841 0.060933393746146161 0 -0.08012520365855226 0.063968711136867876 0 -0.079638775966978242 0.05870571191013501 0 -0.077877951867379808 0.059166647248907626 0 -0.07879459735140841 0.060933393746146161 0 -0.076389668842635081 0.061781790796721352 0 -0.077877951867379808 0.059166647248907626 0 -0.07879459735140841 0.060933393746146161 0 -0.079638775966978242 0.05870571191013501 0 -0.080447914826014794 0.060836425794232561 0 -0.07879459735140841 0.060933393746146161 0 -0.076389668842635081 0.061781790796721352 0 -0.075333319647944319 0.06679802929644621 0 -0.075731047130795551 0.064911528418677936 0 -0.074677019449094287 0.064788058346663749 0 -0.075145141367905219 0.066152111167150945 0 -0.075333319647944319 0.06679802929644621 0 -0.074889883185935563 0.067029249832353976 0 -0.075731047130795551 0.064911528418677936 0 -0.08012520365855226 0.063968711136867876 0 -0.083100353283398348 0.066221132428916196 0 -0.082957198236517926 0.063507969248546833 0 -0.080447914826014794 0.060836425794232561 0 -0.08012520365855226 0.063968711136867876 0 -0.081637921994151458 0.062282162425205484 0 -0.081637921994151458 0.062282162425205484 0 -0.082957198236517926 0.063507969248546833 0 -0.083009844526254706 0.060800757064535249 0 -0.08012520365855226 0.063968711136867876 0 -0.081637921994151458 0.062282162425205484 0 -0.082957198236517926 0.063507969248546833 0 -0.075333319647944319 0.06679802929644621 0 -0.073852767081683784 0.06857169028370351 0 -0.072206330980910144 0.070320652912840995 0 -0.075145141367905219 0.066152111167150945 0 -0.075034253860209676 0.068551814045233167 0 -0.073852767081683784 0.06857169028370351 0 -0.07242967493990074 0.069806152267227861 0 -0.072206330980910144 0.070320652912840995 0 -0.073852767081683784 0.06857169028370351 0 -0.074889883185935563 0.067029249832353976 0 -0.073874320752597103 0.068617877631395513 0 -0.074889883185935563 0.067029249832353976 0 -0.07510446952809896 0.066159734974485629 0 -0.073874320752597103 0.068617877631395513 0 -0.075333319647944319 0.06679802929644621 0 -0.073852767081683784 0.06857169028370351 0 -0.074889883185935563 0.067029249832353976 0 -0.074889883185935563 0.067029249832353976 0 -0.07510446952809896 0.066159734974485629 0 -0.075731047130795551 0.064911528418677936 0 -0.07510446952809896 0.066159734974485629 0 -0.075731047130795551 0.064911528418677936 0 -0.075705087567217347 0.062673251171379327 0 -0.074998681491397656 0.060783906901018009 0 -0.075705087567217347 0.062673251171379327 0 -0.074998249239625919 0.064883988661578906 0 -0.07510446952809896 0.066159734974485629 0 -0.075705087567217347 0.062673251171379327 0 -0.074998249239625919 0.064883988661578906 0 -0.07510446952809896 0.066159734974485629 0 -0.074998249239625919 0.064883988661578906 0 -0.074500968704834622 0.068300699430963244 0 -0.074998249239625919 0.064883988661578906 0 -0.074500968704834622 0.068300699430963244 0 -0.074997609103430674 0.068973581357765587 0 -0.07510446952809896 0.066159734974485629 0 -0.074500968704834622 0.068300699430963244 0 -0.073874320752597103 0.068617877631395513 0 -0.074500968704834622 0.068300699430963244 0 -0.073035223581865552 0.068976174180481853 0 -0.072924395109790291 0.069263738183981433 0 -0.074996854259243032 0.068980218064577048 0 -0.073285547527635372 0.070170330794985664 0 -0.074500968704834622 0.068300699430963244 0 -0.074997609103430674 0.068973581357765587 0 -0.073035223581865552 0.068976174180481853 0 -0.074994169960246035 0.074996063058152984 0 -0.072821789392154487 0.073543770999374258 0 -0.067013874408695592 0.074991727022762619 0 -0.074998212740920514 0.068988541042922388 0 -0.074994169960246035 0.074996063058152984 0 -0.072821789392154487 0.073543770999374258 0 -0.069190552265804742 0.073032251690392805 0 -0.067013874408695592 0.074991727022762619 0 -0.071309923295496458 0.070828343602899718 0 -0.066997170442738646 0.074997508459203333 0 -0.067488357572888721 0.073638398002229211 0 -0.072821789392154487 0.073543770999374258 0 -0.069190552265804742 0.073032251690392805 0 -0.067013874408695592 0.074991727022762619 0 -0.073285547527635372 0.070170330794985664 0 -0.072473239600852099 0.070793004841252477 0 -0.073035223581865552 0.068976174180481853 0 -0.069190552265804742 0.073032251690392805 0 -0.071106758237186748 0.0702835307133476 0 -0.071106758237186748 0.0702835307133476 0 -0.070771801170594423 0.070613738805177087 0 -0.071309923295496458 0.070828343602899718 0 -0.069190552265804742 0.073032251690392805 0 -0.071106758237186748 0.0702835307133476 0 -0.071309923295496458 0.070828343602899718 0 -0.071106758237186748 0.0702835307133476 0 -0.071751031692669526 0.069996544703340366 0 -0.070771801170594423 0.070613738805177087 0 -0.071106758237186748 0.0702835307133476 0 -0.071751031692669526 0.069996544703340366 0 -0.072924395109790291 0.069263738183981433 0 -0.071751031692669526 0.069996544703340366 0 -0.070487266897454992 0.070792680671261585 0 -0.070771801170594423 0.070613738805177087 0 -0.073035223581865552 0.068976174180481853 0 -0.071106758237186748 0.0702835307133476 0 -0.072924395109790291 0.069263738183981433 0 -0.071751031692669526 0.069996544703340366 0 -0.072924395109790291 0.069263738183981433 0 -0.073874320752597103 0.068617877631395513 0 -0.074500968704834622 0.068300699430963244 0 -0.072924395109790291 0.069263738183981433 0 -0.073874320752597103 0.068617877631395513 0 -0.073852767081683784 0.06857169028370351 0 -0.073874320752597103 0.068617877631395513 0 -0.07242967493990074 0.069806152267227861 0 -0.071751031692669526 0.069996544703340366 0 -0.073874320752597103 0.068617877631395513 0 -0.07242967493990074 0.069806152267227861 0 -0.07242967493990074 0.069806152267227861 0 -0.070487266897454992 0.070792680671261585 0 -0.072206330980910144 0.070320652912840995 0 -0.071751031692669526 0.069996544703340366 0 -0.07242967493990074 0.069806152267227861 0 -0.070487266897454992 0.070792680671261585 0 -0.073370657360453534 0.070972975799342183 0 -0.075034253860209676 0.068551814045233167 0 -0.070487266897454992 0.070792680671261585 0 -0.067459790166755851 0.071931721689232953 0 -0.072206330980910144 0.070320652912840995 0 -0.070487266897454992 0.070792680671261585 0 -0.067459790166755851 0.071931721689232953 0 -0.067300228501263687 0.071643401472884768 0 -0.085796476124419485 0.06842808032848699 0 -0.086629906447055982 0.066646101669309413 0 -0.083100353283398348 0.066221132428916196 0 -0.085796476124419485 0.06842808032848699 0 -0.087246453004194313 0.068435087223866403 0 -0.086629906447055982 0.066646101669309413 0 -0.067459790166755851 0.071931721689232953 0 -0.066186139917862499 0.072782795960496596 0 -0.065336895928834585 0.073576838299130587 0 -0.073370657360453534 0.070972975799342183 0 -0.068025136692563021 0.072236999246681949 0 -0.085796476124419485 0.06842808032848699 0 -0.087246453004194313 0.068435087223866403 0 -0.088338359269912528 0.07060523414381914 0 -0.067459790166755851 0.071931721689232953 0 -0.067300228501263687 0.071643401472884768 0 -0.066186139917862499 0.072782795960496596 0 -0.067300228501263687 0.071643401472884768 0 -0.066186139917862499 0.072782795960496596 0 -0.065670719237065217 0.073509065048945971 0 -0.066186139917862499 0.072782795960496596 0 -0.064735869846012623 0.074354078119778177 0 -0.065336895928834585 0.073576838299130587 0 -0.067300228501263687 0.071643401472884768 0 -0.064090695846976617 0.075361350359106224 0 -0.065670719237065217 0.073509065048945971 0 -0.067300228501263687 0.071643401472884768 0 -0.070771801170594423 0.070613738805177087 0 -0.071309923295496458 0.070828343602899718 0 -0.067435699802537691 0.07338214529308025 0 -0.067488357572888721 0.073638398002229211 0 -0.070487266897454992 0.070792680671261585 0 -0.067300228501263687 0.071643401472884768 0 -0.070771801170594423 0.070613738805177087 0 -0.064090695846976617 0.075361350359106224 0 -0.064735869846012623 0.074354078119778177 0 -0.06376319946017367 0.075416187073433227 0 -0.064090695846976617 0.075361350359106224 0 -0.065670719237065217 0.073509065048945971 0 -0.064735869846012623 0.074354078119778177 0 -0.066186139917862499 0.072782795960496596 0 -0.065670719237065217 0.073509065048945971 0 -0.064735869846012623 0.074354078119778177 0 -0.064735869846012623 0.074354078119778177 0 -0.062964450746154393 0.075275239156728957 0 -0.063357775180570799 0.074908208228414888 0 -0.064735869846012623 0.074354078119778177 0 -0.062964450746154393 0.075275239156728957 0 -0.06376319946017367 0.075416187073433227 0 -0.062964450746154393 0.075275239156728957 0 -0.063211695868065465 0.074998384567510526 0 -0.059432372078890613 0.074999158108966443 0 -0.062964450746154393 0.075275239156728957 0 -0.063211695868065465 0.074998384567510526 0 -0.06376319946017367 0.075416187073433227 0 -0.066993066434193435 0.075000124142701394 0 -0.064090695846976617 0.075361350359106224 0 -0.06376319946017367 0.075416187073433227 0 -0.066993066434193435 0.075000124142701394 0 -0.063211695868065465 0.074998384567510526 0 -0.06376319946017367 0.075416187073433227 0 -0.057208019530520252 0.076298520861054556 0 -0.059424092343941644 0.074999484753269466 0 -0.055283841553003484 0.075000320273817714 0 -0.057208019530520252 0.076298520861054556 0 -0.057791652418969691 0.078265860253016045 0 -0.055943530624559944 0.076530362858371143 0 -0.059436252068716999 0.074997790618715102 0 -0.063463297386096407 0.074073741401099402 0 -0.062964450746154393 0.075275239156728957 0 -0.059432372078890613 0.074999158108966443 0 -0.063357775180570799 0.074908208228414888 0 -0.057208019530520252 0.076298520861054556 0 -0.059424092343941644 0.074999484753269466 0 -0.059489350357661744 0.077370725604973517 0 -0.063463297386096407 0.074073741401099402 0 -0.068025136692563021 0.072236999246681949 0 -0.064735869846012623 0.074354078119778177 0 -0.063357775180570799 0.074908208228414888 0 -0.065336895928834585 0.073576838299130587 0 -0.059489350357661744 0.077370725604973517 0 -0.057791652418969691 0.078265860253016045 0 -0.059647026495932752 0.079817321257397419 0 -0.063853375245811209 0.072473492609871376 0 -0.068025136692563021 0.072236999246681949 0 -0.057208019530520252 0.076298520861054556 0 -0.059489350357661744 0.077370725604973517 0 -0.057791652418969691 0.078265860253016045 0 -0.056365821637355019 0.077055364261898629 0 -0.056055317450739703 0.07712323217417949 0 -0.055943530624559944 0.076530362858371143 0 -0.063853375245811209 0.072473492609871376 0 -0.062510576856212252 0.072493139811797572 0 -0.056178227467383539 0.077226537232979134 0 -0.056019921949389227 0.077344256867466446 0 -0.056055317450739703 0.07712323217417949 0 -0.056365821637355019 0.077055364261898629 0 -0.056178227467383539 0.077226537232979134 0 -0.056055317450739703 0.07712323217417949 0 -0.056178227467383539 0.077226537232979134 0 -0.056285326173084016 0.077363377640118386 0 -0.056019921949389227 0.077344256867466446 0 -0.056365821637355019 0.077055364261898629 0 -0.056178227467383539 0.077226537232979134 0 -0.056285326173084016 0.077363377640118386 0 -0.056365821637355019 0.077055364261898629 0 -0.056285326173084016 0.077363377640118386 0 -0.056569678689061501 0.077278793191968592 0 -0.056285326173084016 0.077363377640118386 0 -0.056423405168452553 0.077464411018337495 0 -0.056303693601695647 0.077507867103589978 0 -0.056285326173084016 0.077363377640118386 0 -0.056303693601695647 0.077507867103589978 0 -0.056107013122655557 0.077557031420703207 0 -0.056285326173084016 0.077363377640118386 0 -0.056107013122655557 0.077557031420703207 0 -0.056019921949389227 0.077344256867466446 0 -0.087246453004194313 0.068435087223866403 0 -0.088338359269912528 0.07060523414381914 0 -0.08822178822715622 0.068033247711372646 0 -0.056569678689061501 0.077278793191968592 0 -0.056423405168452553 0.077464411018337495 0 -0.056554592594023644 0.077573147468596768 0 -0.068025136692563021 0.072236999246681949 0 -0.070681440853747446 0.072531234248634432 0 -0.056285326173084016 0.077363377640118386 0 -0.056569678689061501 0.077278793191968592 0 -0.056423405168452553 0.077464411018337495 0 -0.056423405168452553 0.077464411018337495 0 -0.056554592594023644 0.077573147468596768 0 -0.056392157549663327 0.077591289566518382 0 -0.056554592594023644 0.077573147468596768 0 -0.056392157549663327 0.077591289566518382 0 -0.05648474608759841 0.077666449763349021 0 -0.087246453004194313 0.068435087223866403 0 -0.08822178822715622 0.068033247711372646 0 -0.086629906447055982 0.066646101669309413 0 -0.056303693601695647 0.077507867103589978 0 -0.056274213286437037 0.077595030584584029 0 -0.056107013122655557 0.077557031420703207 0 -0.056423405168452553 0.077464411018337495 0 -0.056303693601695647 0.077507867103589978 0 -0.056392157549663327 0.077591289566518382 0 -0.056303693601695647 0.077507867103589978 0 -0.056392157549663327 0.077591289566518382 0 -0.056274213286437037 0.077595030584584029 0 -0.056392157549663327 0.077591289566518382 0 -0.056339541044940995 0.077655285259937284 0 -0.05635605496473324 0.07772275831312879 0 -0.065433274755058238 0.07290823233969991 0 -0.06654057015238253 0.070561706409030908 0 -0.056392157549663327 0.077591289566518382 0 -0.056339541044940995 0.077655285259937284 0 -0.056274213286437037 0.077595030584584029 0 -0.056274213286437037 0.077595030584584029 0 -0.05620459526618498 0.077669652517761145 0 -0.056107013122655557 0.077557031420703207 0 -0.056339541044940995 0.077655285259937284 0 -0.056274213286437037 0.077595030584584029 0 -0.05620459526618498 0.077669652517761145 0 -0.059161685818457578 0.072282730634626299 0 -0.059989738814877736 0.071399115776129146 0 -0.056339541044940995 0.077655285259937284 0 -0.056299140800411943 0.077694036140534758 0 -0.05635605496473324 0.07772275831312879 0 -0.056339541044940995 0.077655285259937284 0 -0.05620459526618498 0.077669652517761145 0 -0.056193487739036506 0.07778007147457637 0 -0.05620459526618498 0.077669652517761145 0 -0.056193487739036506 0.07778007147457637 0 -0.056128779842122271 0.0777635682023744 0 -0.059989738814877736 0.071399115776129146 0 -0.06654057015238253 0.070561706409030908 0 -0.056392157549663327 0.077591289566518382 0 -0.056427427578437474 0.077728539486626641 0 -0.05648474608759841 0.077666449763349021 0 -0.09047978489677784 0.065588242966091462 0 -0.090785487178067392 0.063325852260531404 0 -0.089614127765643106 0.06428435702517997 0 -0.06654057015238253 0.070561706409030908 0 -0.067353503425565939 0.066585622707754297 0 -0.062554444044699495 0.071615963903119029 0 -0.063797809169973407 0.070272264580611143 0 -0.062936339655706205 0.068565246908718486 0 -0.064517108360084424 0.071956098509748351 0 -0.062554444044699495 0.071615963903119029 0 -0.063797809169973407 0.070272264580611143 0 -0.064517108360084424 0.071956098509748351 0 -0.063797809169973407 0.070272264580611143 0 -0.06559167914656841 0.070991081404853454 0 -0.062026342708775939 0.066397590532442888 0 -0.059098206766818893 0.070208386243853393 0 -0.063797809169973407 0.070272264580611143 0 -0.064002536059826531 0.06738735557055045 0 -0.06559167914656841 0.070991081404853454 0 -0.063797809169973407 0.070272264580611143 0 -0.062936339655706205 0.068565246908718486 0 -0.064002536059826531 0.06738735557055045 0 -0.090785487178067392 0.063325852260531404 0 -0.089385914786319395 0.062211981959616997 0 -0.089614127765643106 0.06428435702517997 0 -0.062936339655706205 0.068565246908718486 0 -0.063505960049793475 0.06727645496584729 0 -0.063321140486642918 0.065513826468680994 0 -0.090785487178067392 0.063325852260531404 0 -0.089385914786319395 0.062211981959616997 0 -0.091061557970805965 0.061067028937920292 0 -0.067353503425565939 0.066585622707754297 0 -0.066147233148972959 0.063952325207462773 0 -0.056075665071482268 0.062058948737879253 0 -0.056346703224461871 0.062788741571213863 0 -0.055302319300968725 0.061890002648411886 0 -0.062044400816290389 0.066403025107907437 0 -0.062026342708775939 0.066397590532442888 0 -0.062936339655706205 0.068565246908718486 0 -0.063505960049793475 0.06727645496584729 0 -0.064002536059826531 0.06738735557055045 0 -0.089385914786319395 0.062211981959616997 0 -0.088373669179560618 0.063503238829303477 0 -0.087575192284161746 0.061333398756618279 0 -0.089614127765643106 0.06428435702517997 0 -0.088373669179560618 0.063503238829303477 0 -0.088439021219691549 0.065226690924982858 0 -0.089385914786319395 0.062211981959616997 0 -0.089614127765643106 0.06428435702517997 0 -0.088373669179560618 0.063503238829303477 0 -0.073590617839352071 0.070900483234192874 0 -0.072809191240100407 0.072375397593164484 0 -0.070681440853747446 0.072531234248634432 0 -0.072809191240100407 0.072375397593164484 0 -0.056554592594023644 0.077573147468596768 0 -0.056569307745646238 0.07775504660551702 0 -0.05648474608759841 0.077666449763349021 0 -0.08822178822715622 0.068033247711372646 0 -0.088096479730964489 0.065430101738469873 0 -0.086629906447055982 0.066646101669309413 0 -0.09047978489677784 0.065588242966091462 0 -0.089614127765643106 0.06428435702517997 0 -0.088439021219691549 0.065226690924982858 0 -0.06654057015238253 0.070561706409030908 0 -0.072809191240100407 0.072375397593164484 0 -0.056427427578437474 0.077728539486626641 0 -0.056569307745646238 0.07775504660551702 0 -0.05648474608759841 0.077666449763349021 0 -0.086629906447055982 0.066646101669309413 0 -0.085674501437583567 0.06492891520843691 0 -0.083100353283398348 0.066221132428916196 0 -0.088096479730964489 0.065430101738469873 0 -0.086629906447055982 0.066646101669309413 0 -0.085674501437583567 0.06492891520843691 0 -0.088373669179560618 0.063503238829303477 0 -0.088477394225014716 0.065395540290801968 0 -0.085674501437583567 0.06492891520843691 0 -0.072809191240100407 0.072375397593164484 0 -0.077720788955865247 0.072053483374773394 0 -0.085674501437583567 0.06492891520843691 0 -0.083100353283398348 0.066221132428916196 0 -0.082957198236517926 0.063507969248546833 0 -0.085674501437583567 0.06492891520843691 0 -0.082957198236517926 0.063507969248546833 0 -0.085204606740670749 0.062248121232323692 0 -0.082957198236517926 0.063507969248546833 0 -0.085204606740670749 0.062248121232323692 0 -0.083009844526254706 0.060800757064535249 0 -0.085674501437583567 0.06492891520843691 0 -0.085204606740670749 0.062248121232323692 0 -0.086710628021229516 0.062997912052841096 0 -0.088373669179560618 0.063503238829303477 0 -0.085674501437583567 0.06492891520843691 0 -0.086710628021229516 0.062997912052841096 0 -0.088373669179560618 0.063503238829303477 0 -0.086710628021229516 0.062997912052841096 0 -0.087575192284161746 0.061333398756618279 0 -0.085204606740670749 0.062248121232323692 0 -0.086710628021229516 0.062997912052841096 0 -0.087575192284161746 0.061333398756618279 0 -0.085204606740670749 0.062248121232323692 0 -0.087575192284161746 0.061333398756618279 0 -0.085433051900586587 0.059864607345610825 0 -0.085204606740670749 0.062248121232323692 0 -0.085433051900586587 0.059864607345610825 0 -0.083009844526254706 0.060800757064535249 0 -0.085433051900586587 0.059864607345610825 0 -0.083009844526254706 0.060800757064535249 0 -0.08398169492802833 0.058264963004756684 0 -0.08398169492802833 0.058264963004756684 0 -0.087024695804757746 0.057093944103482015 0 -0.083705367243437315 0.055523086421506114 0 -0.081900696119795044 0.058388364465883746 0 -0.08398169492802833 0.058264963004756684 0 -0.083705367243437315 0.055523086421506114 0 -0.081900696119795044 0.058388364465883746 0 -0.083009844526254706 0.060800757064535249 0 -0.08398169492802833 0.058264963004756684 0 -0.087575192284161746 0.061333398756618279 0 -0.085433051900586587 0.059864607345610825 0 -0.087024695804757746 0.057093944103482015 0 -0.085433051900586587 0.059864607345610825 0 -0.08398169492802833 0.058264963004756684 0 -0.087024695804757746 0.057093944103482015 0 -0.085681143418191635 0.059021542833588854 0 -0.084902218879869207 0.057212141381659407 0 -0.086775762336624679 0.057742890445928848 0 -0.089933298405404941 0.057997502461281734 0 -0.088889211235177679 0.059790809403403679 0 -0.087575192284161746 0.061333398756618279 0 -0.086775762336624679 0.057742890445928848 0 -0.088889211235177679 0.059790809403403679 0 -0.065341914525228223 0.060505951003251637 0 -0.066147233148972959 0.063952325207462773 0 -0.073030963662437554 0.059832308394292003 0 -0.066147233148972959 0.063952325207462773 0 -0.070784822924910423 0.058582946952938489 0 -0.069313070643937713 0.058139293754296772 0 -0.070435935392278284 0.061274267664355841 0 -0.089933298405404941 0.057997502461281734 0 -0.091061557970805965 0.061067028937920292 0 -0.088889211235177679 0.059790809403403679 0 -0.056169655465864832 0.064213453051107178 0 -0.056346703224461871 0.062788741571213863 0 -0.055107321140707342 0.063426275813480981 0 -0.063505960049793475 0.06727645496584729 0 -0.064004052360684613 0.067386478406652142 0 -0.063321140486642918 0.065513826468680994 0 -0.062026342708775939 0.066397590532442888 0 -0.066147233148972959 0.063952325207462773 0 -0.089385914786319395 0.062211981959616997 0 -0.087575192284161746 0.061333398756618279 0 -0.088889211235177679 0.059790809403403679 0 -0.089385914786319395 0.062211981959616997 0 -0.091061557970805965 0.061067028937920292 0 -0.088889211235177679 0.059790809403403679 0 -0.053519888729509538 0.06339991126199819 0 -0.054068623838035845 0.06284448769839221 0 -0.054107080286008934 0.063618828754357412 0 -0.053519888729509538 0.06339991126199819 0 -0.054068623838035845 0.06284448769839221 0 -0.052973486241324218 0.062801252067573962 0 -0.054068623838035845 0.06284448769839221 0 -0.052973486241324218 0.062801252067573962 0 -0.054144647535906518 0.06178458398674485 0 -0.054068623838035845 0.06284448769839221 0 -0.054581994058924367 0.062555826532132347 0 -0.054155853726255289 0.061842718197009879 0 -0.057421579257200081 0.065001351751820702 0 -0.05839379865302053 0.067148560486562217 0 -0.054581994058924367 0.062555826532132347 0 -0.05495651700876715 0.063493069156023693 0 -0.05509783607547946 0.06204536729654745 0 -0.056346703224461871 0.062788741571213863 0 -0.055107321140707342 0.063426275813480981 0 -0.055302319300968725 0.061890002648411886 0 -0.054068623838035845 0.06284448769839221 0 -0.05495651700876715 0.063493069156023693 0 -0.054107080286008934 0.063618828754357412 0 -0.054068623838035845 0.06284448769839221 0 -0.054581994058924367 0.062555826532132347 0 -0.05495651700876715 0.063493069156023693 0 -0.05495651700876715 0.063493069156023693 0 -0.054394587588804326 0.064308427580194547 0 -0.054107080286008934 0.063618828754357412 0 -0.05495651700876715 0.063493069156023693 0 -0.054394587588804326 0.064308427580194547 0 -0.054869965985973504 0.065024358873555746 0 -0.057421579257200081 0.065001351751820702 0 -0.05707142900786475 0.06488494061559659 0 -0.056169655465864832 0.064213453051107178 0 -0.055107321140707342 0.063426275813480981 0 -0.054869965985973504 0.065024358873555746 0 -0.054394587588804326 0.064308427580194547 0 -0.053600379360468818 0.064157988487440726 0 -0.054221772797487876 0.065192441636379828 0 -0.053600379360468818 0.064157988487440726 0 -0.052516875460305833 0.064660329297902913 0 -0.054221772797487876 0.065192441636379828 0 -0.054394587588804326 0.064308427580194547 0 -0.054107080286008934 0.063618828754357412 0 -0.053600379360468818 0.064157988487440726 0 -0.053519888729509538 0.06339991126199819 0 -0.054107080286008934 0.063618828754357412 0 -0.053600379360468818 0.064157988487440726 0 -0.053519888729509538 0.06339991126199819 0 -0.053600379360468818 0.064157988487440726 0 -0.052878140254907884 0.063758126427298376 0 -0.053600379360468818 0.064157988487440726 0 -0.052516875460305833 0.064660329297902913 0 -0.052878140254907884 0.063758126427298376 0 -0.052516875460305833 0.064660329297902913 0 -0.052878140254907884 0.063758126427298376 0 -0.051831459138494539 0.06384973416282877 0 -0.05295103472581237 0.060055201847427936 0 -0.052492472509931047 0.060655719467301722 0 -0.051210985701261279 0.063862730770065823 0 -0.05142937130498159 0.063974063229023423 0 -0.050673655297522803 0.062219169955686181 0 -0.052516875460305833 0.064660329297902913 0 -0.051210985701261279 0.063862730770065823 0 -0.051831459138494539 0.06384973416282877 0 -0.051210985701261279 0.063862730770065823 0 -0.051387846668861613 0.063673919529380035 0 -0.05142937130498159 0.063974063229023423 0 -0.051210985701261279 0.063862730770065823 0 -0.051831459138494539 0.06384973416282877 0 -0.051387846668861613 0.063673919529380035 0 -0.051831459138494539 0.06384973416282877 0 -0.051387846668861613 0.063673919529380035 0 -0.05193474887484751 0.063443447133277486 0 -0.051387846668861613 0.063673919529380035 0 -0.05193474887484751 0.063443447133277486 0 -0.051384119236885767 0.063234867354373572 0 -0.05193474887484751 0.063443447133277486 0 -0.051384119236885767 0.063234867354373572 0 -0.052518128917082997 0.062841717282841505 0 -0.052878140254907884 0.063758126427298376 0 -0.051831459138494539 0.06384973416282877 0 -0.052973486241324218 0.062801252067573962 0 -0.053519888729509538 0.06339991126199819 0 -0.052878140254907884 0.063758126427298376 0 -0.052973486241324218 0.062801252067573962 0 -0.051831459138494539 0.06384973416282877 0 -0.05193474887484751 0.063443447133277486 0 -0.052923454559997959 0.063394374683810678 0 -0.054703532009008009 0.066158141072788751 0 -0.05512445707808785 0.066593770266481972 0 -0.05193474887484751 0.063443447133277486 0 -0.052923454559997959 0.063394374683810678 0 -0.052518128917082997 0.062841717282841505 0 -0.052518128917082997 0.062841717282841505 0 -0.052279667156280268 0.06186667250449903 0 -0.054078697698480373 0.062451712590140977 0 -0.051399579727196235 0.070964945486495665 0 -0.055480015728722569 0.068942418132549033 0 -0.051384119236885767 0.063234867354373572 0 -0.052518128917082997 0.062841717282841505 0 -0.052279667156280268 0.06186667250449903 0 -0.051384119236885767 0.063234867354373572 0 -0.052279667156280268 0.06186667250449903 0 -0.049289097043713925 0.060809064363190155 0 -0.051399579727196235 0.070964945486495665 0 -0.047513263023995535 0.071424037263637996 0 -0.049887966590796085 0.085093533706727717 0 -0.047647141100451686 0.082007803965475662 0 -0.045854909138510119 0.084284877927801705 0 -0.049887966590796085 0.085093533706727717 0 -0.052630953085600091 0.084353967570451632 0 -0.051005411407720275 0.082209352073123854 0 -0.049887966590796085 0.085093533706727717 0 -0.051005411407720275 0.082209352073123854 0 -0.047647141100451686 0.082007803965475662 0 -0.052630953085600091 0.084353967570451632 0 -0.054394206635035372 0.082764469102925634 0 -0.051005411407720275 0.082209352073123854 0 -0.052630953085600091 0.084353967570451632 0 -0.053859485568296984 0.085914551430592664 0 -0.054394206635035372 0.082764469102925634 0 -0.055480015728722569 0.068942418132549033 0 -0.056266110284915141 0.074379381667255037 0 -0.056266110284915141 0.074379381667255037 0 -0.054600333389804259 0.075653419358739218 0 -0.052923454559997959 0.063394374683810678 0 -0.052518128917082997 0.062841717282841505 0 -0.054078697698480373 0.062451712590140977 0 -0.049887966590796085 0.085093533706727717 0 -0.052630953085600091 0.084353967570451632 0 -0.053859485568296984 0.085914551430592664 0 -0.055458856681922929 0.067325925135464509 0 -0.055480015728722569 0.068942418132549033 0 -0.05512445707808785 0.066593770266481972 0 -0.055480015728722569 0.068942418132549033 0 -0.059126821120000984 0.068752360981440233 0 -0.058928586119305168 0.068707551141691747 0 -0.058903306112834258 0.068961449470270775 0 -0.05839379865302053 0.067148560486562217 0 -0.059098206766818893 0.070208386243853393 0 -0.059156375084814236 0.065589093992246925 0 -0.060700005084891553 0.065931878243733408 0 -0.060416708601743939 0.068447917885341214 0 -0.062026342708775939 0.066397590532442888 0 -0.05839379865302053 0.067148560486562217 0 -0.054581994058924367 0.062555826532132347 0 -0.054155853726255289 0.061842718197009879 0 -0.05509783607547946 0.06204536729654745 0 -0.055480015728722569 0.068942418132549033 0 -0.05839379865302053 0.067148560486562217 0 -0.055480015728722569 0.068942418132549033 0 -0.059098206766818893 0.070208386243853393 0 -0.05587676078734264 0.070991485748296501 0 -0.055854601972147949 0.071049423911432485 0 -0.055869923032182675 0.071069935431618089 0 -0.055835588313311653 0.0710419795318116 0 -0.055854601972147949 0.071049423911432485 0 -0.055835349180485799 0.071052327427864256 0 -0.059989738814877736 0.071399115776129146 0 -0.059098206766818893 0.070208386243853393 0 -0.057673514887718338 0.071750256288335673 0 -0.057072197491474769 0.072284318241918374 0 -0.057108390412581388 0.071963167901628558 0 -0.059098206766818893 0.070208386243853393 0 -0.058813100826248896 0.071305737132052557 0 -0.05587676078734264 0.070991485748296501 0 -0.055835588313311653 0.0710419795318116 0 -0.055854601972147949 0.071049423911432485 0 -0.056266110284915141 0.074379381667255037 0 -0.058558358438571011 0.072336878674313432 0 -0.055854601972147949 0.071049423911432485 0 -0.055869923032182675 0.071069935431618089 0 -0.055834603625092918 0.071061950653544093 0 -0.059989738814877736 0.071399115776129146 0 -0.058558358438571011 0.072336878674313432 0 -0.057673514887718338 0.071750256288335673 0 -0.057142718268115796 0.071658224463820461 0 -0.057108390412581388 0.071963167901628558 0 -0.058558358438571011 0.072336878674313432 0 -0.058813100826248896 0.071305737132052557 0 -0.055854601972147949 0.071049423911432485 0 -0.055834603625092918 0.071061950653544093 0 -0.055835349180485799 0.071052327427864256 0 -0.05620459526618498 0.077669652517761145 0 -0.056128779842122271 0.0777635682023744 0 -0.056107013122655557 0.077557031420703207 0 -0.058558358438571011 0.072336878674313432 0 -0.058198621561683206 0.074024721294209658 0 -0.056091369277858613 0.077785068719920442 0 -0.056107013122655557 0.077557031420703207 0 -0.055910624269523819 0.077478809838734827 0 -0.056266110284915141 0.074379381667255037 0 -0.056771112450749082 0.075919463131788517 0 -0.058170113065753211 0.072964952267789235 0 -0.057110192160078004 0.07277976711631011 0 -0.057941002187744471 0.074729854269941845 0 -0.058558358438571011 0.072336878674313432 0 -0.056771112450749082 0.075919463131788517 0 -0.0543969140757736 0.082772708978475606 0 -0.053316720710241364 0.081121163944264524 0 -0.054777540191958796 0.079815422474090653 0 -0.053316720710241364 0.081121163944264524 0 -0.052493652300030814 0.079560324175063049 0 -0.051005411407720275 0.082209352073123854 0 -0.0543969140757736 0.082772708978475606 0 -0.053316720710241364 0.081121163944264524 0 -0.051005411407720275 0.082209352073123854 0 -0.053316720710241364 0.081121163944264524 0 -0.052493652300030814 0.079560324175063049 0 -0.054777540191958796 0.079815422474090653 0 -0.052493652300030814 0.079560324175063049 0 -0.054062482133218001 0.077879732100097104 0 -0.054777540191958796 0.079815422474090653 0 -0.052493652300030814 0.079560324175063049 0 -0.054062482133218001 0.077879732100097104 0 -0.05219219507589188 0.077492736300404721 0 -0.056771112450749082 0.075919463131788517 0 -0.055815836188983371 0.076154920504641538 0 -0.054062482133218001 0.077879732100097104 0 -0.054766343604486289 0.079784785388907833 0 -0.055162728495354731 0.076722058382293734 0 -0.055910624269523819 0.077478809838734827 0 -0.056019921949389227 0.077344256867466446 0 -0.055751032978813071 0.077202689792107829 0 -0.056107013122655557 0.077557031420703207 0 -0.055910624269523819 0.077478809838734827 0 -0.056019921949389227 0.077344256867466446 0 -0.056694523547719471 0.076362219053243877 0 -0.056771112450749082 0.075919463131788517 0 -0.056019921949389227 0.077344256867466446 0 -0.056055317450739703 0.07712323217417949 0 -0.055751032978813071 0.077202689792107829 0 -0.055162728495354731 0.076722058382293734 0 -0.053108592888785486 0.075785088426935487 0 -0.055561588595786721 0.073637035687676253 0 -0.056055317450739703 0.07712323217417949 0 -0.055751032978813071 0.077202689792107829 0 -0.055943530624559944 0.076530362858371143 0 -0.054062482133218001 0.077879732100097104 0 -0.055162728495354731 0.076722058382293734 0 -0.053108592888785486 0.075785088426935487 0 -0.054062482133218001 0.077879732100097104 0 -0.05219219507589188 0.077492736300404721 0 -0.053108592888785486 0.075785088426935487 0 -0.05219219507589188 0.077492736300404721 0 -0.053108592888785486 0.075785088426935487 0 -0.050864971753119589 0.07568848669809744 0 -0.053108592888785486 0.075785088426935487 0 -0.052487872633047265 0.073290752491855238 0 -0.050864971753119589 0.07568848669809744 0 -0.052140226031516815 0.07544104726893866 0 -0.052218954121754237 0.074999954582734729 0 -0.05518088970099802 0.075782176508545657 0 -0.053108592888785486 0.075785088426935487 0 -0.052487872633047265 0.073290752491855238 0 -0.055561588595786721 0.073637035687676253 0 -0.053411202265228101 0.075590825519147892 0 -0.055103668973312613 0.07531469375658302 0 -0.052218954121754237 0.074999954582734729 0 -0.055282762794518263 0.075000018916576983 0 -0.05518088970099802 0.075782176508545657 0 -0.055751032978813071 0.077202689792107829 0 -0.055309080035338146 0.075790577123465749 0 -0.055943530624559944 0.076530362858371143 0 -0.055815836188983371 0.076154920504641538 0 -0.055103668973312613 0.07531469375658302 0 -0.057208019530520252 0.076298520861054556 0 -0.055283841553003484 0.075000320273817714 0 -0.055309080035338146 0.075790577123465749 0 -0.055281294210160752 0.075001404240068237 0 -0.055103668973312613 0.07531469375658302 0 -0.057208019530520252 0.076298520861054556 0 -0.055309080035338146 0.075790577123465749 0 -0.055943530624559944 0.076530362858371143 0 -0.053712935666180392 0.076483748693329676 0 -0.049565931240300058 0.078222450222090803 0 -0.049407825861731668 0.072944953781181071 0 -0.050864971753119589 0.07568848669809744 0 -0.047723519919044201 0.076036522377362123 0 -0.048065118683794497 0.075001419545029244 0 -0.047962092983357629 0.074239439800641696 0 -0.046530183285134336 0.075051160310393994 0 -0.048065118683794497 0.075001419545029244 0 -0.036077109836653312 0.073053991725591003 0 -0.047962092983357629 0.074239439800641696 0 -0.048142949076383647 0.075008955462662036 0 -0.053712935666180392 0.076483748693329676 0 -0.053411202265228101 0.075590825519147892 0 -0.053712935666180392 0.076483748693329676 0 -0.052487872633047265 0.073290752491855238 0 -0.049407825861731668 0.072944953781181071 0 -0.050864971753119589 0.07568848669809744 0 -0.052140226031516815 0.07544104726893866 0 -0.052218954121754237 0.074999954582734729 0 -0.049097876354348674 0.074893569780933242 0 -0.05219219507589188 0.077492736300404721 0 -0.050864971753119589 0.07568848669809744 0 -0.050426253313540399 0.078556753363331969 0 -0.050864971753119589 0.07568848669809744 0 -0.047723519919044201 0.076036522377362123 0 -0.050426253313540399 0.078556753363331969 0 -0.047723519919044201 0.076036522377362123 0 -0.048309575099150792 0.07948268704834513 0 -0.046012824775962136 0.079153940864043468 0 -0.047723519919044201 0.076036522377362123 0 -0.048309575099150792 0.07948268704834513 0 -0.050426253313540399 0.078556753363331969 0 -0.052493652300030814 0.079560324175063049 0 -0.05219219507589188 0.077492736300404721 0 -0.050426253313540399 0.078556753363331969 0 -0.052493652300030814 0.079560324175063049 0 -0.050426253313540399 0.078556753363331969 0 -0.051005411407720275 0.082209352073123854 0 -0.048309575099150792 0.07948268704834513 0 -0.050426253313540399 0.078556753363331969 0 -0.051005411407720275 0.082209352073123854 0 -0.048309575099150792 0.07948268704834513 0 -0.051005411407720275 0.082209352073123854 0 -0.047647141100451686 0.082007803965475662 0 -0.048309575099150792 0.07948268704834513 0 -0.047647141100451686 0.082007803965475662 0 -0.046012824775962136 0.079153940864043468 0 -0.04661300180152704 0.080843478148553555 0 -0.04758116699420617 0.079678596954671055 0 -0.047647141100451686 0.082007803965475662 0 -0.044288940941184622 0.082377868645115981 0 -0.046012824775962136 0.079153940864043468 0 -0.044288940941184622 0.082377868645115981 0 -0.041748048386807721 0.081453829140489556 0 -0.041933433341113081 0.083429924112376985 0 -0.044288940941184622 0.082377868645115981 0 -0.042568681280504152 0.079710151037043958 0 -0.041748048386807721 0.081453829140489556 0 -0.044288940941184622 0.082377868645115981 0 -0.042568681280504152 0.079710151037043958 0 -0.046011260481643473 0.079375567715417247 0 -0.042568681280504152 0.079710151037043958 0 -0.046011260481643473 0.079375567715417247 0 -0.044855012830847668 0.076292629739609569 0 -0.049565931240300058 0.078222450222090803 0 -0.04758116699420617 0.079678596954671055 0 -0.047962092983357629 0.074239439800641696 0 -0.044855012830847668 0.076292629739609569 0 -0.046530183285134336 0.075051160310393994 0 -0.047962092983357629 0.074239439800641696 0 -0.046011260481643473 0.079375567715417247 0 -0.044855012830847668 0.076292629739609569 0 -0.042568681280504152 0.079710151037043958 0 -0.044855012830847668 0.076292629739609569 0 -0.042044555655292713 0.076670264451308145 0 -0.044422056801939648 0.074997383190196026 0 -0.040654467189168216 0.074999899306295498 0 -0.042044555655292713 0.076670264451308145 0 -0.044855012830847668 0.076292629739609569 0 -0.044422056801939648 0.074997383190196026 0 -0.042044555655292713 0.076670264451308145 0 -0.044855012830847668 0.076292629739609569 0 -0.044422056801939648 0.074997383190196026 0 -0.046530183285134336 0.075051160310393994 0 -0.048065118683794497 0.075001419545029244 0 -0.044422056801939648 0.074997383190196026 0 -0.046530183285134336 0.075051160310393994 0 -0.037283615342535624 0.077007387310455172 0 -0.036925143797355085 0.074999199728367605 0 -0.039276343121151962 0.076398998199107712 0 -0.036925143797355085 0.074999199728367605 0 -0.039276343121151962 0.076398998199107712 0 -0.040654467189168216 0.074999899306295498 0 -0.039276343121151962 0.076398998199107712 0 -0.040654467189168216 0.074999899306295498 0 -0.042044555655292713 0.076670264451308145 0 -0.039276343121151962 0.076398998199107712 0 -0.042044555655292713 0.076670264451308145 0 -0.039384909522002826 0.078324202255266373 0 -0.042568681280504152 0.079710151037043958 0 -0.042044555655292713 0.076670264451308145 0 -0.039384909522002826 0.078324202255266373 0 -0.037283615342535624 0.077007387310455172 0 -0.039276343121151962 0.076398998199107712 0 -0.039384909522002826 0.078324202255266373 0 -0.036446502728424875 0.079890292880172908 0 -0.039384909522002826 0.078324202255266373 0 -0.039807708689935412 0.081121854641426558 0 -0.042568681280504152 0.079710151037043958 0 -0.039384909522002826 0.078324202255266373 0 -0.039807708689935412 0.081121854641426558 0 -0.042568681280504152 0.079710151037043958 0 -0.041748048386807721 0.081453829140489556 0 -0.039807708689935412 0.081121854641426558 0 -0.041748048386807721 0.081453829140489556 0 -0.039807708689935412 0.081121854641426558 0 -0.041933433341113081 0.083429924112376985 0 -0.0358995878917205 0.079254598448874961 0 -0.037823021854655095 0.080078179838786234 0 -0.039807708689935412 0.081121854641426558 0 -0.038199943498342541 0.082582099372710494 0 -0.041933433341113081 0.083429924112376985 0 -0.035871658994381592 0.079530925456763907 0 -0.039807708689935412 0.081121854641426558 0 -0.038199943498342541 0.082582099372710494 0 -0.039859039934849919 0.058443114120556618 0 -0.040304624568777307 0.063270388317182902 0 -0.042982148739545804 0.061860588046099209 0 -0.040304624568777307 0.063270388317182902 0 -0.042982148739545804 0.061860588046099209 0 -0.044068507401122281 0.065985691073224786 0 -0.042982148739545804 0.061860588046099209 0 -0.045628656427434543 0.062092729439099638 0 -0.044068507401122281 0.065985691073224786 0 -0.042982148739545804 0.061860588046099209 0 -0.044963531219041258 0.059612084793202999 0 -0.045628656427434543 0.062092729439099638 0 -0.039008760075558854 0.070540843386683288 0 -0.04337434626812485 0.071129131253902023 0 -0.039859039934849919 0.058443114120556618 0 -0.042982148739545804 0.061860588046099209 0 -0.044963531219041258 0.059612084793202999 0 -0.044288940941184622 0.082377868645115981 0 -0.041933433341113081 0.083429924112376985 0 -0.045854909138510119 0.084284877927801705 0 -0.044963531219041258 0.059612084793202999 0 -0.049289097043713925 0.060809064363190155 0 -0.045628656427434543 0.062092729439099638 0 -0.04337434626812485 0.071129131253902023 0 -0.047513263023995535 0.071424037263637996 0 -0.047647141100451686 0.082007803965475662 0 -0.044288940941184622 0.082377868645115981 0 -0.045854909138510119 0.084284877927801705 0 -0.051384119236885767 0.063234867354373572 0 -0.049289097043713925 0.060809064363190155 0 -0.047759460173473052 0.064265093507267793 0 -0.045226245399138922 0.062421538715018945 0 -0.044566853467903657 0.061771578883302189 0 -0.049289097043713925 0.060809064363190155 0 -0.045628656427434543 0.062092729439099638 0 -0.047759460173473052 0.064265093507267793 0 -0.045628656427434543 0.062092729439099638 0 -0.048183270546570213 0.065212793232969676 0 -0.044068507401122281 0.065985691073224786 0 -0.038117394869414893 0.058438217711669356 0 -0.038048960255624133 0.058780873055103516 0 -0.037699559135556546 0.058522948189369622 0 -0.044566853467903657 0.061771578883302189 0 -0.041103640182271271 0.062035127156252708 0 -0.051387846668861613 0.063673919529380035 0 -0.051384119236885767 0.063234867354373572 0 -0.050840651808989952 0.063466467197613244 0 -0.044566853467903657 0.061771578883302189 0 -0.044893150588574231 0.06087375003609384 0 -0.048113309738115208 0.061745817384542483 0 -0.044566853467903657 0.061771578883302189 0 -0.051387846668861613 0.063673919529380035 0 -0.050840651808989952 0.063466467197613244 0 -0.05142937130498159 0.063974063229023423 0 -0.038422020163126534 0.058761700738018827 0 -0.038048960255624133 0.058780873055103516 0 -0.038358339274002576 0.059168445881729023 0 -0.038117394869414893 0.058438217711669356 0 -0.038422020163126534 0.058761700738018827 0 -0.038048960255624133 0.058780873055103516 0 -0.038048960255624133 0.058780873055103516 0 -0.03778457566165442 0.058790760392624659 0 -0.037699559135556546 0.058522948189369622 0 -0.038048960255624133 0.058780873055103516 0 -0.03778457566165442 0.058790760392624659 0 -0.037815104239724139 0.059062088395803083 0 -0.03778457566165442 0.058790760392624659 0 -0.037574594145340319 0.058800293076634272 0 -0.037815104239724139 0.059062088395803083 0 -0.037574594145340319 0.058800293076634272 0 -0.037267459719522666 0.058986439381676914 0 -0.037815104239724139 0.059062088395803083 0 -0.03778457566165442 0.058790760392624659 0 -0.037574594145340319 0.058800293076634272 0 -0.037699559135556546 0.058522948189369622 0 -0.037574594145340319 0.058800293076634272 0 -0.037277761744275564 0.058608349760137284 0 -0.037267459719522666 0.058986439381676914 0 -0.038100524018504625 0.062146425011085582 0 -0.041103640182271271 0.062035127156252708 0 -0.040304624568777307 0.063270388317182902 0 -0.040006605264296273 0.066763822253291846 0 -0.044068507401122281 0.065985691073224786 0 -0.037574594145340319 0.058800293076634272 0 -0.037277761744275564 0.058608349760137284 0 -0.037699559135556546 0.058522948189369622 0 -0.036842950218244221 0.059433380761581826 0 -0.037037807633153605 0.060026897795691189 0 -0.037387374006791721 0.059786064587422014 0 -0.036842950218244221 0.059433380761581826 0 -0.037037807633153605 0.060026897795691189 0 -0.036445957451366306 0.059927046700099372 0 -0.036445957451366306 0.059927046700099372 0 -0.035916743236441881 0.059601603142041534 0 -0.036070040808126431 0.060191078826740942 0 -0.035317973937838622 0.060339663845785728 0 -0.035916743236441881 0.059601603142041534 0 -0.036070040808126431 0.060191078826740942 0 -0.036842950218244221 0.059433380761581826 0 -0.036445957451366306 0.059927046700099372 0 -0.035916743236441881 0.059601603142041534 0 -0.035935014537687521 0.059797272294724847 0 -0.035616544407210265 0.059902132654486885 0 -0.036842950218244221 0.059433380761581826 0 -0.035916743236441881 0.059601603142041534 0 -0.03581977962188998 0.058691051534054968 0 -0.035616544407210265 0.059902132654486885 0 -0.037143779928518549 0.059562500540759164 0 -0.036842950218244221 0.059433380761581826 0 -0.035868487062816513 0.058705986583487163 0 -0.037098797023647018 0.058896206984950593 0 -0.037143779928518549 0.059562500540759164 0 -0.037715682572282361 0.059499625731522551 0 -0.038048960255624133 0.058780873055103516 0 -0.037815104239724139 0.059062088395803083 0 -0.038358339274002576 0.059168445881729023 0 -0.036842950218244221 0.059433380761581826 0 -0.037098797023647018 0.058896206984950593 0 -0.037574714249445508 0.059410408396811679 0 -0.037098797023647018 0.058896206984950593 0 -0.038358339274002576 0.059168445881729023 0 -0.037574714249445508 0.059410408396811679 0 -0.038358339274002576 0.059168445881729023 0 -0.038054124670574965 0.059540778677152982 0 -0.037574714249445508 0.059410408396811679 0 -0.038358339274002576 0.059168445881729023 0 -0.038054124670574965 0.059540778677152982 0 -0.038557746192996123 0.059485344457178201 0 -0.038054124670574965 0.059540778677152982 0 -0.038415487848803193 0.059793514899637482 0 -0.038557746192996123 0.059485344457178201 0 -0.038054124670574965 0.059540778677152982 0 -0.03809411062342271 0.059892728947176135 0 -0.037735940380870782 0.059686084169837832 0 -0.03809411062342271 0.059892728947176135 0 -0.037697805930629241 0.059963117082300857 0 -0.037842699482329253 0.060249411152268034 0 -0.03809411062342271 0.059892728947176135 0 -0.037735940380870782 0.059686084169837832 0 -0.037697805930629241 0.059963117082300857 0 -0.03809411062342271 0.059892728947176135 0 -0.038287519745363693 0.059998744660375171 0 -0.038163777527241469 0.060214819777661209 0 -0.038054124670574965 0.059540778677152982 0 -0.03809411062342271 0.059892728947176135 0 -0.038415487848803193 0.059793514899637482 0 -0.03809411062342271 0.059892728947176135 0 -0.038287519745363693 0.059998744660375171 0 -0.038415487848803193 0.059793514899637482 0 -0.038287519745363693 0.059998744660375171 0 -0.038415487848803193 0.059793514899637482 0 -0.038475508120093274 0.060095673060934718 0 -0.036842950218244221 0.059433380761581826 0 -0.037574714249445508 0.059410408396811679 0 -0.037387374006791721 0.059786064587422014 0 -0.038054124670574965 0.059540778677152982 0 -0.037574714249445508 0.059410408396811679 0 -0.037735940380870782 0.059686084169837832 0 -0.037574714249445508 0.059410408396811679 0 -0.037735940380870782 0.059686084169837832 0 -0.037387374006791721 0.059786064587422014 0 -0.037735940380870782 0.059686084169837832 0 -0.037697805930629241 0.059963117082300857 0 -0.037387374006791721 0.059786064587422014 0 -0.037697805930629241 0.059963117082300857 0 -0.037387374006791721 0.059786064587422014 0 -0.037431229100303443 0.060191861435912618 0 -0.037037807633153605 0.060026897795691189 0 -0.037387374006791721 0.059786064587422014 0 -0.037431229100303443 0.060191861435912618 0 -0.037037807633153605 0.060026897795691189 0 -0.037431229100303443 0.060191861435912618 0 -0.03699732957635294 0.060549921966028486 0 -0.037431229100303443 0.060191861435912618 0 -0.03763239165249771 0.060550664201161744 0 -0.037842699482329253 0.060249411152268034 0 -0.037697805930629241 0.059963117082300857 0 -0.037431229100303443 0.060191861435912618 0 -0.037842699482329253 0.060249411152268034 0 -0.03763239165249771 0.060550664201161744 0 -0.037303939106223628 0.060907521275459453 0 -0.03699732957635294 0.060549921966028486 0 -0.037431229100303443 0.060191861435912618 0 -0.03763239165249771 0.060550664201161744 0 -0.03699732957635294 0.060549921966028486 0 -0.038334469771104045 0.060325960387892147 0 -0.038475508120093274 0.060095673060934718 0 -0.038605369748380622 0.0604167219872105 0 -0.038334469771104045 0.060325960387892147 0 -0.038475508120093274 0.060095673060934718 0 -0.038163777527241469 0.060214819777661209 0 -0.038287519745363693 0.059998744660375171 0 -0.038475508120093274 0.060095673060934718 0 -0.038163777527241469 0.060214819777661209 0 -0.038334469771104045 0.060325960387892147 0 -0.038163777527241469 0.060214819777661209 0 -0.038194470689146817 0.060465262526472434 0 -0.038163777527241469 0.060214819777661209 0 -0.037842699482329253 0.060249411152268034 0 -0.038194470689146817 0.060465262526472434 0 -0.03809411062342271 0.059892728947176135 0 -0.038163777527241469 0.060214819777661209 0 -0.037842699482329253 0.060249411152268034 0 -0.03763239165249771 0.060550664201161744 0 -0.038194470689146817 0.060465262526472434 0 -0.038089312160680754 0.060954879638011154 0 -0.03763239165249771 0.060550664201161744 0 -0.037842699482329253 0.060249411152268034 0 -0.038194470689146817 0.060465262526472434 0 -0.038334469771104045 0.060325960387892147 0 -0.038194470689146817 0.060465262526472434 0 -0.038605369748380622 0.0604167219872105 0 -0.038194470689146817 0.060465262526472434 0 -0.038089312160680754 0.060954879638011154 0 -0.03869426064664102 0.060525250864335453 0 -0.040331623856519852 0.033667263673589881 0 -0.041342139784331253 0.034245577477778059 0 -0.041409648367892543 0.032951506753809409 0 -0.040331623856519852 0.033667263673589881 0 -0.039276421724569063 0.034391535543332269 0 -0.040455979545381063 0.035015999318434743 0 -0.040331623856519852 0.033667263673589881 0 -0.040455979545381063 0.035015999318434743 0 -0.041342139784331253 0.034245577477778059 0 -0.039100284513135138 0.048158832945176783 0 -0.042036219567421415 0.051536895357599095 0 -0.03763239165249771 0.060550664201161744 0 -0.038089312160680754 0.060954879638011154 0 -0.037303939106223628 0.060907521275459453 0 -0.038089312160680754 0.060954879638011154 0 -0.037303939106223628 0.060907521275459453 0 -0.037465930861856955 0.061375513728451674 0 -0.039100284513135138 0.048158832945176783 0 -0.03573121535443393 0.045266091290630556 0 -0.03573121535443393 0.045266091290630556 0 -0.033613924472715315 0.05152287518753746 0 -0.037303939106223628 0.060907521275459453 0 -0.037465930861856955 0.061375513728451674 0 -0.036838689394729701 0.06105460279563879 0 -0.03103291334622402 0.044500549628629531 0 -0.030503531378587325 0.044228161503885123 0 -0.030659465871069849 0.044813052090881662 0 -0.036838689394729701 0.06105460279563879 0 -0.03699732957635294 0.060549921966028486 0 -0.036208616064709979 0.060729654237025484 0 -0.031571544039586938 0.04478485574134012 0 -0.03103291334622402 0.044500549628629531 0 -0.031087794618079576 0.045103778687028494 0 -0.033613924472715315 0.05152287518753746 0 -0.030828209096071424 0.057176233810688391 0 -0.037303939106223628 0.060907521275459453 0 -0.036838689394729701 0.06105460279563879 0 -0.03699732957635294 0.060549921966028486 0 -0.03699732957635294 0.060549921966028486 0 -0.036507209546735378 0.060305894458283819 0 -0.036208616064709979 0.060729654237025484 0 -0.037037807633153605 0.060026897795691189 0 -0.036445957451366306 0.059927046700099372 0 -0.036507209546735378 0.060305894458283819 0 -0.037037807633153605 0.060026897795691189 0 -0.03699732957635294 0.060549921966028486 0 -0.036507209546735378 0.060305894458283819 0 -0.035317973937838622 0.060339663845785728 0 -0.036070040808126431 0.060191078826740942 0 -0.036166932397431323 0.060792828776633147 0 -0.027483016265093758 0.062005146311168519 0 -0.030828209096071424 0.057176233810688391 0 -0.036445957451366306 0.059927046700099372 0 -0.036507209546735378 0.060305894458283819 0 -0.036070040808126431 0.060191078826740942 0 -0.036507209546735378 0.060305894458283819 0 -0.036070040808126431 0.060191078826740942 0 -0.036166932397431323 0.060792828776633147 0 -0.031194432247610728 0.057314578436121533 0 -0.030828209096071424 0.057176233810688391 0 -0.02605134788826953 0.05266050960599522 0 -0.030828209096071424 0.057176233810688391 0 -0.030071000224397529 0.044825141977737348 0 -0.030503531378587325 0.044228161503885123 0 -0.030659465871069849 0.044813052090881662 0 -0.020168577571586466 0.070417807375819458 0 -0.021517282961309572 0.073822383369763586 0 -0.024588442126141485 0.069369086938138161 0 -0.030071000224397529 0.044825141977737348 0 -0.030659465871069849 0.044813052090881662 0 -0.030607884058166408 0.045413839708117985 0 -0.037958619739883008 0.03497749110688305 0 -0.036823531656820466 0.035748675078291367 0 -0.038886034305973913 0.035684888898648653 0 -0.030659465871069849 0.044813052090881662 0 -0.031087794618079576 0.045103778687028494 0 -0.030607884058166408 0.045413839708117985 0 -0.03103291334622402 0.044500549628629531 0 -0.030659465871069849 0.044813052090881662 0 -0.031087794618079576 0.045103778687028494 0 -0.034582068264032456 0.040616748474716677 0 -0.033288833241090103 0.036189406965423311 0 -0.036017369348979991 0.010468322450847906 0 -0.036752552182841215 0.011685971735200591 0 -0.037541940543076684 0.010776098737750667 0 -0.033288833241090103 0.036189406965423311 0 -0.036010035493658707 0.036056315635265991 0 -0.036845418120832661 0.035683549628910863 0 -0.038886034305973913 0.035684888898648653 0 -0.038479928273223392 0.036553241011933031 0 -0.036155613042758356 0.036144966853669344 0 -0.036845418120832661 0.035683549628910863 0 -0.038479928273223392 0.036553241011933031 0 -0.03412054555200647 0.03127797119266823 0 -0.037438430418826038 0.026752707499586047 0 -0.025714529152858056 0.039433962419341259 0 -0.033288833241090103 0.036189406965423311 0 -0.026517912708219002 0.036677758956448023 0 -0.032590119501922692 0.038299248696673859 0 -0.035223899285430751 0.036507027237842264 0 -0.03412054555200647 0.03127797119266823 0 -0.033288833241090103 0.036189406965423311 0 -0.036017369348979991 0.010468322450847906 0 -0.035834180904339416 0.011450658149846004 0 -0.036752552182841215 0.011685971735200591 0 -0.035834180904339416 0.011450658149846004 0 -0.036752552182841215 0.011685971735200591 0 -0.035906787652487948 0.012326756326839411 0 -0.036752552182841215 0.011685971735200591 0 -0.037999668411332212 0.012028284702283613 0 -0.037541940543076684 0.010776098737750667 0 -0.041150355106682156 0.016151348330676236 0 -0.039437888985482832 0.014673357292480682 0 -0.036752552182841215 0.011685971735200591 0 -0.037999668411332212 0.012028284702283613 0 -0.036992142736849434 0.01300559840104305 0 -0.036752552182841215 0.011685971735200591 0 -0.035906787652487948 0.012326756326839411 0 -0.036992142736849434 0.01300559840104305 0 -0.040099385769140468 0.010338003396393812 0 -0.04275091958328401 0.010879084942494188 0 -0.041068932494271355 0.012820047695813123 0 -0.037999668411332212 0.012028284702283613 0 -0.039016941494437504 0.011065057088132879 0 -0.037541940543076684 0.010776098737750667 0 -0.041150355106682156 0.016151348330676236 0 -0.040330864017894291 0.024213277969557918 0 -0.040099385769140468 0.010338003396393812 0 -0.041861690234868673 0.0087012678088414126 0 -0.04275091958328401 0.010879084942494188 0 -0.040725914332185587 0.03688848157480689 0 -0.038886034305973913 0.035684888898648653 0 -0.040455979545381063 0.035015999318434743 0 -0.040725914332185587 0.03688848157480689 0 -0.038886034305973913 0.035684888898648653 0 -0.038479928273223392 0.036553241011933031 0 -0.040330864017894291 0.024213277969557918 0 -0.037438430418826038 0.026752707499586047 0 -0.039072358184871751 0.034243897054471367 0 -0.038886034305973913 0.035684888898648653 0 -0.040455979545381063 0.035015999318434743 0 -0.039072358184871751 0.034243897054471367 0 -0.037958619739883008 0.03497749110688305 0 -0.038886034305973913 0.035684888898648653 0 -0.03573121535443393 0.045266091290630556 0 -0.034582068264032456 0.040616748474716677 0 -0.03573121535443393 0.045266091290630556 0 -0.035958833389690026 0.043801962631225551 0 -0.040455979545381063 0.035015999318434743 0 -0.042217414552076803 0.035355458685615515 0 -0.041342139784331253 0.034245577477778059 0 -0.042217414552076803 0.035355458685615515 0 -0.042519973216702783 0.034301676744356663 0 -0.041342139784331253 0.034245577477778059 0 -0.048295248322855276 0.051274494132743216 0 -0.048081748212850488 0.054096832065924985 0 -0.050523019621272924 0.054167586047980401 0 -0.048780738477717002 0.040594805162087556 0 -0.045447353971115476 0.045504457932855097 0 -0.042217414552076803 0.035355458685615515 0 -0.043535744843461947 0.035575834799567045 0 -0.042519973216702783 0.034301676744356663 0 -0.042217414552076803 0.035355458685615515 0 -0.042614679340471251 0.036843155440841407 0 -0.043535744843461947 0.035575834799567045 0 -0.042614679340471251 0.036843155440841407 0 -0.043535744843461947 0.035575834799567045 0 -0.043701989517089153 0.036503412756583815 0 -0.040725914332185587 0.03688848157480689 0 -0.040455979545381063 0.035015999318434743 0 -0.042217414552076803 0.035355458685615515 0 -0.040330864017894291 0.024213277969557918 0 -0.038613257499896782 0.028954896422272405 0 -0.040998413813315364 0.036538088822840556 0 -0.042217414552076803 0.035355458685615515 0 -0.042614679340471251 0.036843155440841407 0 -0.041861690234868673 0.0087012678088414126 0 -0.044169274864992114 0.0091275517134408613 0 -0.04275091958328401 0.010879084942494188 0 -0.040330864017894291 0.024213277969557918 0 -0.044307559821467002 0.025823989662612987 0 -0.044169274864992114 0.0091275517134408613 0 -0.04275091958328401 0.010879084942494188 0 -0.045231000171526474 0.011276507238158857 0 -0.04964853676500202 0.0083533739246402922 0 -0.051408801109371884 0.0092606197199027619 0 -0.050687452467709275 0.0076095496750239753 0 -0.04964853676500202 0.0083533739246402922 0 -0.051408801109371884 0.0092606197199027619 0 -0.049679362505529734 0.010118276037311313 0 -0.050877467782810507 0.017963470777265168 0 -0.051978195284045771 0.029486063266979636 0 -0.04964853676500202 0.0083533739246402922 0 -0.047270458377600112 0.0093824745612842847 0 -0.049679362505529734 0.010118276037311313 0 -0.04964853676500202 0.0083533739246402922 0 -0.047270458377600112 0.0093824745612842847 0 -0.049042230636211145 0.0068648607172962133 0 -0.044307559821467002 0.025823989662612987 0 -0.051978195284045771 0.029486063266979636 0 -0.042614679340471251 0.036843155440841407 0 -0.044302942558931462 0.037130202947333879 0 -0.043701989517089153 0.036503412756583815 0 -0.044169274864992114 0.0091275517134408613 0 -0.045231000171526474 0.011276507238158857 0 -0.046454559603726284 0.0095570567447568148 0 -0.044302942558931462 0.037130202947333879 0 -0.044541148725808 0.03678310602432603 0 -0.043701989517089153 0.036503412756583815 0 -0.051978195284045771 0.029486063266979636 0 -0.052953097151815662 0.033745628629785779 0 -0.058820938850876463 0.034951082362486056 0 -0.057864921506657507 0.03374709963170882 0 -0.057325547671697279 0.037124850933414312 0 -0.055917899040923112 0.032591517729659417 0 -0.05716092853953831 0.039233013700582034 0 -0.082303795704212535 0.045696878132446148 0 -0.082218581527529963 0.046156523952569306 0 -0.082090332746416694 0.045949926435541848 0 -0.051624172303346955 0.028446987328423618 0 -0.052336790679344339 0.02741813992264578 0 -0.053402395926867373 0.028749896024069369 0 -0.052953097151815662 0.033745628629785779 0 -0.055917899040923112 0.032591517729659417 0 -0.04964853676500202 0.0083533739246402922 0 -0.049042230636211145 0.0068648607172962133 0 -0.05022575397959559 0.0070536577513141659 0 -0.04964853676500202 0.0083533739246402922 0 -0.05022575397959559 0.0070536577513141659 0 -0.050687452467709275 0.0076095496750239753 0 -0.051978195284045771 0.029486063266979636 0 -0.055917899040923112 0.032591517729659417 0 -0.055917899040923112 0.032591517729659417 0 -0.055375240231603895 0.031698419368333564 0 -0.082303795704212535 0.045696878132446148 0 -0.082090332746416694 0.045949926435541848 0 -0.081996879980348408 0.045837243163152477 0 -0.082218581527529963 0.046156523952569306 0 -0.082077671847651371 0.046105833041088742 0 -0.082090332746416694 0.045949926435541848 0 -0.052953097151815662 0.033745628629785779 0 -0.05716092853953831 0.039233013700582034 0 -0.082093630464071948 0.046291822021287635 0 -0.082218581527529963 0.046156523952569306 0 -0.082077671847651371 0.046105833041088742 0 -0.057989661502783195 0.03896153362660431 0 -0.05716092853953831 0.039233013700582034 0 -0.052953097151815662 0.033745628629785779 0 -0.048780738477717002 0.040594805162087556 0 -0.044541148725808 0.03678310602432603 0 -0.043535744843461947 0.035575834799567045 0 -0.043701989517089153 0.036503412756583815 0 -0.044727827165826566 0.050238530243789832 0 -0.048295248322855276 0.051274494132743216 0 -0.046049050598813028 0.052416303849645775 0 -0.046023600954375202 0.048346124552950773 0 -0.044727827165826566 0.050238530243789832 0 -0.048295248322855276 0.051274494132743216 0 -0.048295248322855276 0.051274494132743216 0 -0.046049050598813028 0.052416303849645775 0 -0.048081748212850488 0.054096832065924985 0 -0.05716092853953831 0.039233013700582034 0 -0.060477286867604806 0.04818485988715631 0 -0.044727827165826566 0.050238530243789832 0 -0.046049050598813028 0.052416303849645775 0 -0.04425453521506887 0.054185182155959355 0 -0.082093630464071948 0.046291822021287635 0 -0.082091218144405828 0.046287547941525863 0 -0.082042749115498484 0.046301831492416817 0 -0.046049050598813028 0.052416303849645775 0 -0.04425453521506887 0.054185182155959355 0 -0.046453565894839441 0.055876972669010198 0 -0.04425453521506887 0.054185182155959355 0 -0.046453565894839441 0.055876972669010198 0 -0.04384040184578103 0.058082791506482996 0 -0.060477286867604806 0.04818485988715631 0 -0.062851345274416756 0.052035582634050524 0 -0.045990255298099046 0.058192078873620386 0 -0.046453565894839441 0.055876972669010198 0 -0.04384040184578103 0.058082791506482996 0 -0.045990255298099046 0.058192078873620386 0 -0.04534383715064131 0.059768288818636953 0 -0.04384040184578103 0.058082791506482996 0 -0.047509730054935931 0.058000010176325299 0 -0.046453565894839441 0.055876972669010198 0 -0.049074805816999051 0.056727924976034023 0 -0.047509730054935931 0.058000010176325299 0 -0.049074805816999051 0.056727924976034023 0 -0.048684974873278143 0.058687430058628982 0 -0.047509730054935931 0.058000010176325299 0 -0.046861273618025064 0.059242274145223574 0 -0.047846275692968461 0.059183727068260743 0 -0.047509730054935931 0.058000010176325299 0 -0.048684974873278143 0.058687430058628982 0 -0.047846275692968461 0.059183727068260743 0 -0.045990255298099046 0.058192078873620386 0 -0.047509730054935931 0.058000010176325299 0 -0.046861273618025064 0.059242274145223574 0 -0.045990255298099046 0.058192078873620386 0 -0.047509730054935931 0.058000010176325299 0 -0.046453565894839441 0.055876972669010198 0 -0.048081748212850488 0.054096832065924985 0 -0.046453565894839441 0.055876972669010198 0 -0.049074805816999051 0.056727924976034023 0 -0.046049050598813028 0.052416303849645775 0 -0.048081748212850488 0.054096832065924985 0 -0.046453565894839441 0.055876972669010198 0 -0.050523019621272924 0.054167586047980401 0 -0.052777092935566726 0.057032922939535123 0 -0.049074805816999051 0.056727924976034023 0 -0.048081748212850488 0.054096832065924985 0 -0.050523019621272924 0.054167586047980401 0 -0.049074805816999051 0.056727924976034023 0 -0.045447353971115476 0.045504457932855097 0 -0.042036219567421415 0.051536895357599095 0 -0.042519973216702783 0.034301676744356663 0 -0.041342139784331253 0.034245577477778059 0 -0.041409648367892543 0.032951506753809409 0 -0.038605369748380622 0.0604167219872105 0 -0.038688800296949453 0.060518430703288974 0 -0.038825941743327111 0.059876064129954117 0 -0.038688800296949453 0.060518430703288974 0 -0.039569350842806633 0.05989969671610005 0 -0.038825941743327111 0.059876064129954117 0 -0.038194470689146817 0.060465262526472434 0 -0.038605369748380622 0.0604167219872105 0 -0.03869426064664102 0.060525250864335453 0 -0.042060362779323165 0.051624404089586885 0 -0.042036219567421415 0.051536895357599095 0 -0.038475508120093274 0.060095673060934718 0 -0.038605369748380622 0.0604167219872105 0 -0.038825941743327111 0.059876064129954117 0 -0.042036219567421415 0.051536895357599095 0 -0.044926569733145717 0.057273514440205918 0 -0.052777092935566726 0.057032922939535123 0 -0.049074805816999051 0.056727924976034023 0 -0.049303858911141897 0.05943215010516182 0 -0.049074805816999051 0.056727924976034023 0 -0.048684974873278143 0.058687430058628982 0 -0.049303858911141897 0.05943215010516182 0 -0.039569350842806633 0.05989969671610005 0 -0.038825941743327111 0.059876064129954117 0 -0.038931452738380494 0.059197986639017076 0 -0.048684974873278143 0.058687430058628982 0 -0.048570525752517205 0.059944189891973372 0 -0.049280074792695173 0.059479311310799261 0 -0.049088405301227364 0.059621712469472302 0 -0.049055163014506568 0.061154099900930861 0 -0.050673655297522803 0.062219169955686181 0 -0.044926569733145717 0.057273514440205918 0 -0.045098634775395975 0.059644557221399441 0 -0.045086846233972952 0.057422144582543834 0 -0.044926569733145717 0.057273514440205918 0 -0.045003537993127361 0.057270515459830904 0 -0.044926569733145717 0.057273514440205918 0 -0.048570525752517205 0.059944189891973372 0 -0.049055163014506568 0.061154099900930861 0 -0.047966749356307042 0.060925423947410705 0 -0.048570525752517205 0.059944189891973372 0 -0.049088405301227364 0.059621712469472302 0 -0.049055163014506568 0.061154099900930861 0 -0.038825941743327111 0.059876064129954117 0 -0.038557746192996123 0.059485344457178201 0 -0.038931452738380494 0.059197986639017076 0 -0.038415487848803193 0.059793514899637482 0 -0.038475508120093274 0.060095673060934718 0 -0.038825941743327111 0.059876064129954117 0 -0.038415487848803193 0.059793514899637482 0 -0.038825941743327111 0.059876064129954117 0 -0.038557746192996123 0.059485344457178201 0 -0.038422020163126534 0.058761700738018827 0 -0.038358339274002576 0.059168445881729023 0 -0.038931452738380494 0.059197986639017076 0 -0.038358339274002576 0.059168445881729023 0 -0.038557746192996123 0.059485344457178201 0 -0.038931452738380494 0.059197986639017076 0 -0.049396275488386911 0.063305572627994244 0 -0.051210985701261279 0.063862730770065823 0 -0.050673655297522803 0.062219169955686181 0 -0.044893150588574231 0.06087375003609384 0 -0.045098634775395975 0.059644557221399441 0 -0.049055163014506568 0.061154099900930861 0 -0.049523041051415743 0.062206866669447983 0 -0.048334538509404786 0.061991741704880074 0 -0.049055163014506568 0.061154099900930861 0 -0.048334538509404786 0.061991741704880074 0 -0.047966749356307042 0.060925423947410705 0 -0.049055163014506568 0.061154099900930861 0 -0.050673655297522803 0.062219169955686181 0 -0.049523041051415743 0.062206866669447983 0 -0.049396275488386911 0.063305572627994244 0 -0.050673655297522803 0.062219169955686181 0 -0.049523041051415743 0.062206866669447983 0 -0.049396275488386911 0.063305572627994244 0 -0.049523041051415743 0.062206866669447983 0 -0.048334538509404786 0.061991741704880074 0 -0.049396275488386911 0.063305572627994244 0 -0.048334538509404786 0.061991741704880074 0 -0.046593356928634387 0.062669764233176953 0 -0.05295103472581237 0.060055201847427936 0 -0.055478042328245582 0.058252219456144859 0 -0.048334538509404786 0.061991741704880074 0 -0.047186337299410998 0.061602309342397146 0 -0.047966749356307042 0.060925423947410705 0 -0.048334538509404786 0.061991741704880074 0 -0.047186337299410998 0.061602309342397146 0 -0.046593356928634387 0.062669764233176953 0 -0.046413009554975918 0.061634321934657663 0 -0.047186337299410998 0.061602309342397146 0 -0.046716562853541706 0.06069524373217329 0 -0.046413009554975918 0.061634321934657663 0 -0.047186337299410998 0.061602309342397146 0 -0.046593356928634387 0.062669764233176953 0 -0.055478042328245582 0.058252219456144859 0 -0.06519103331196896 0.055695572937791926 0 -0.054221772797487876 0.065192441636379828 0 -0.054869965985973504 0.065024358873555746 0 -0.055985402174898155 0.065696511493780599 0 -0.046593356928634387 0.062669764233176953 0 -0.045361355949506049 0.061454421094371589 0 -0.043481408981863479 0.061809303439146986 0 -0.056169655465864832 0.064213453051107178 0 -0.054869965985973504 0.065024358873555746 0 -0.055985402174898155 0.065696511493780599 0 -0.054394587588804326 0.064308427580194547 0 -0.054221772797487876 0.065192441636379828 0 -0.054869965985973504 0.065024358873555746 0 -0.046413009554975918 0.061634321934657663 0 -0.045361355949506049 0.061454421094371589 0 -0.046716562853541706 0.06069524373217329 0 -0.046413009554975918 0.061634321934657663 0 -0.046593356928634387 0.062669764233176953 0 -0.045361355949506049 0.061454421094371589 0 -0.045361355949506049 0.061454421094371589 0 -0.04534383715064131 0.059768288818636953 0 -0.046716562853541706 0.06069524373217329 0 -0.04534383715064131 0.059768288818636953 0 -0.043481408981863479 0.061809303439146986 0 -0.04384040184578103 0.058082791506482996 0 -0.045361355949506049 0.061454421094371589 0 -0.04534383715064131 0.059768288818636953 0 -0.043481408981863479 0.061809303439146986 0 -0.045990255298099046 0.058192078873620386 0 -0.04534383715064131 0.059768288818636953 0 -0.046861273618025064 0.059242274145223574 0 -0.04534383715064131 0.059768288818636953 0 -0.046861273618025064 0.059242274145223574 0 -0.046716562853541706 0.06069524373217329 0 -0.046861273618025064 0.059242274145223574 0 -0.047633078885601594 0.060027311585366672 0 -0.046716562853541706 0.06069524373217329 0 -0.046861273618025064 0.059242274145223574 0 -0.047846275692968461 0.059183727068260743 0 -0.047633078885601594 0.060027311585366672 0 -0.048684974873278143 0.058687430058628982 0 -0.048570525752517205 0.059944189891973372 0 -0.047846275692968461 0.059183727068260743 0 -0.048570525752517205 0.059944189891973372 0 -0.047846275692968461 0.059183727068260743 0 -0.047633078885601594 0.060027311585366672 0 -0.047633078885601594 0.060027311585366672 0 -0.047966749356307042 0.060925423947410705 0 -0.046716562853541706 0.06069524373217329 0 -0.048570525752517205 0.059944189891973372 0 -0.047633078885601594 0.060027311585366672 0 -0.047966749356307042 0.060925423947410705 0 -0.047186337299410998 0.061602309342397146 0 -0.047966749356307042 0.060925423947410705 0 -0.046716562853541706 0.06069524373217329 0 -0.076712540389014081 0.055434728354723566 0 -0.078943825482159349 0.050608349026271322 0 -0.082124306980527834 0.046164084531402229 0 -0.08203470990712057 0.046161767701325906 0 -0.082046921541094261 0.04621287418716237 0 -0.06519103331196896 0.055695572937791926 0 -0.062851345274416756 0.052035582634050524 0 -0.070784822924910423 0.058582946952938489 0 -0.069313070643937713 0.058139293754296772 0 -0.07112117920771012 0.05590376001210242 0 -0.069313070643937713 0.058139293754296772 0 -0.068194690629321389 0.055024011860049057 0 -0.07112117920771012 0.05590376001210242 0 -0.076712540389014081 0.055434728354723566 0 -0.06519103331196896 0.055695572937791926 0 -0.065341914525228223 0.060505951003251637 0 -0.06519103331196896 0.055695572937791926 0 -0.086775762336624679 0.057742890445928848 0 -0.089933298405404941 0.057997502461281734 0 -0.088799916476928781 0.054927927623249495 0 -0.073030963662437554 0.059832308394292003 0 -0.076712540389014081 0.055434728354723566 0 -0.087024695804757746 0.057093944103482015 0 -0.083705367243437315 0.055523086421506114 0 -0.08623101828157459 0.052824360028345202 0 -0.086775762336624679 0.057742890445928848 0 -0.088799916476928781 0.054927927623249495 0 -0.086017857595421035 0.054093510837895625 0 -0.084902218879869207 0.057212141381659407 0 -0.082740390963986166 0.053979958592740622 0 -0.083705367243437315 0.055523086421506114 0 -0.08623101828157459 0.052824360028345202 0 -0.081472283143882468 0.051404187619655796 0 -0.082740390963986166 0.053979958592740622 0 -0.082434485732223672 0.053283542815123618 0 -0.084509090458158728 0.050825572114917714 0 -0.083193480166883729 0.050418567271115079 0 -0.084002151398189617 0.04937687160895754 0 -0.076712540389014081 0.055434728354723566 0 -0.082740390963986166 0.053979958592740622 0 -0.083193480166883729 0.050418567271115079 0 -0.082926171588531591 0.048942677849394059 0 -0.084002151398189617 0.04937687160895754 0 -0.082740390963986166 0.053979958592740622 0 -0.082591913192337732 0.050739461366139119 0 -0.082926171588531591 0.048942677849394059 0 -0.083495139939362736 0.047956241325926248 0 -0.084002151398189617 0.04937687160895754 0 -0.084156244583304063 0.052042358937837777 0 -0.083700361271025522 0.049865917519583462 0 -0.081472283143882468 0.051404187619655796 0 -0.083700361271025522 0.049865917519583462 0 -0.081944019989589112 0.048935563283128931 0 -0.081472283143882468 0.051404187619655796 0 -0.083700361271025522 0.049865917519583462 0 -0.082723280843895755 0.047534876999927318 0 -0.081944019989589112 0.048935563283128931 0 -0.082591913192337732 0.050739461366139119 0 -0.082501784564235819 0.049612505441733887 0 -0.082723280843895755 0.047534876999927318 0 -0.081701022720343713 0.047205575391382537 0 -0.081944019989589112 0.048935563283128931 0 -0.082345994203455813 0.046257408922665076 0 -0.08220683200771009 0.046248882938303204 0 -0.082193528144550901 0.046200520421854088 0 -0.082926171588531591 0.048942677849394059 0 -0.083495139939362736 0.047956241325926248 0 -0.082723280843895755 0.047534876999927318 0 -0.080152899882214856 0.048733298269746754 0 -0.078943825482159349 0.050608349026271322 0 -0.082345994203455813 0.046257408922665076 0 -0.08220683200771009 0.046248882938303204 0 -0.082243115468391179 0.046343247071458323 0 -0.082133931881208821 0.046283505407105879 0 -0.08220683200771009 0.046248882938303204 0 -0.082243115468391179 0.046343247071458323 0 -0.082133931881208821 0.046283505407105879 0 -0.08220683200771009 0.046248882938303204 0 -0.082128020951485678 0.046224723084953047 0 -0.082124306980527834 0.046164084531402229 0 -0.082128020951485678 0.046224723084953047 0 -0.082193528144550901 0.046200520421854088 0 -0.08220683200771009 0.046248882938303204 0 -0.082128020951485678 0.046224723084953047 0 -0.082193528144550901 0.046200520421854088 0 -0.082124306980527834 0.046164084531402229 0 -0.082128020951485678 0.046224723084953047 0 -0.082046921541094261 0.04621287418716237 0 -0.082042749115498484 0.046301831492416817 0 -0.082128020951485678 0.046224723084953047 0 -0.082046921541094261 0.04621287418716237 0 -0.082042749115498484 0.046301831492416817 0 -0.082133931881208821 0.046283505407105879 0 -0.082128020951485678 0.046224723084953047 0 -0.082093630464071948 0.046291822021287635 0 -0.082042749115498484 0.046301831492416817 0 -0.082074749236893091 0.046321112540208785 0 -0.082042749115498484 0.046301831492416817 0 -0.082133931881208821 0.046283505407105879 0 -0.082074749236893091 0.046321112540208785 0 -0.082133931881208821 0.046283505407105879 0 -0.082074749236893091 0.046321112540208785 0 -0.08214263933884268 0.046327113911129203 0 -0.082074749236893091 0.046321112540208785 0 -0.082057753506122877 0.046345169642841209 0 -0.08214263933884268 0.046327113911129203 0 -0.082093630464071948 0.046291822021287635 0 -0.082074749236893091 0.046321112540208785 0 -0.082057753506122877 0.046345169642841209 0 -0.082133931881208821 0.046283505407105879 0 -0.082243115468391179 0.046343247071458323 0 -0.08214263933884268 0.046327113911129203 0 -0.082243115468391179 0.046343247071458323 0 -0.08214263933884268 0.046327113911129203 0 -0.082280285251512306 0.046432278289981629 0 -0.082057753506122877 0.046345169642841209 0 -0.08214263933884268 0.046327113911129203 0 -0.082280285251512306 0.046432278289981629 0 -0.082243115468391179 0.046343247071458323 0 -0.082280285251512306 0.046432278289981629 0 -0.082368036870191522 0.046491691390125184 0 -0.082280285251512306 0.046432278289981629 0 -0.082343964669346972 0.046451993031606451 0 -0.082300142871809756 0.046421664338670468 0 -0.082280285251512306 0.046432278289981629 0 -0.082343964669346972 0.046451993031606451 0 -0.082368036870191522 0.046491691390125184 0 -0.082280285251512306 0.046432278289981629 0 -0.082250085164107326 0.046425235092897539 0 -0.082300142871809756 0.046421664338670468 0 -0.082057753506122877 0.046345169642841209 0 -0.082280285251512306 0.046432278289981629 0 -0.082250085164107326 0.046425235092897539 0 -0.082250085164107326 0.046425235092897539 0 -0.082314440573442976 0.046460112859417271 0 -0.082300142871809756 0.046421664338670468 0 -0.082343964669346972 0.046451993031606451 0 -0.082300142871809756 0.046421664338670468 0 -0.082353747858615572 0.046358684033092491 0 -0.082057753506122877 0.046345169642841209 0 -0.082250085164107326 0.046425235092897539 0 -0.082314440573442976 0.046460112859417271 0 -0.082057753506122877 0.046345169642841209 0 -0.081730007682244282 0.045973069837098354 0 -0.082001212905782009 0.046145200991754905 0 -0.074307401175616086 0.042544140275632858 0 -0.072871721710738482 0.040089103750955243 0 -0.082093630464071948 0.046291822021287635 0 -0.082057753506122877 0.046345169642841209 0 -0.082001212905782009 0.046145200991754905 0 -0.082093630464071948 0.046291822021287635 0 -0.082001212905782009 0.046145200991754905 0 -0.082077671847651371 0.046105833041088742 0 -0.081730007682244282 0.045973069837098354 0 -0.081943378597705452 0.045970419722069868 0 -0.082001212905782009 0.046145200991754905 0 -0.081943378597705452 0.045970419722069868 0 -0.082001212905782009 0.046145200991754905 0 -0.082077671847651371 0.046105833041088742 0 -0.081943378597705452 0.045970419722069868 0 -0.082077671847651371 0.046105833041088742 0 -0.082090332746416694 0.045949926435541848 0 -0.055917899040923112 0.032591517729659417 0 -0.067686301823559156 0.030225593689642862 0 -0.082303795704212535 0.045696878132446148 0 -0.081996879980348408 0.045837243163152477 0 -0.081866617700106642 0.045712069997242012 0 -0.082303795704212535 0.045696878132446148 0 -0.081866617700106642 0.045712069997242012 0 -0.081590808838519699 0.045531099689938133 0 -0.050223388337766059 0.0070458160688553527 0 -0.050687452467709275 0.0076095496750239753 0 -0.054304635895478133 0.0076632059947240134 0 -0.081943378597705452 0.045970419722069868 0 -0.082090332746416694 0.045949926435541848 0 -0.081996879980348408 0.045837243163152477 0 -0.081866617700106642 0.045712069997242012 0 -0.081812959198099569 0.045822815573978715 0 -0.081590808838519699 0.045531099689938133 0 -0.081730007682244282 0.045973069837098354 0 -0.081943378597705452 0.045970419722069868 0 -0.081812959198099569 0.045822815573978715 0 -0.081996879980348408 0.045837243163152477 0 -0.081866617700106642 0.045712069997242012 0 -0.081812959198099569 0.045822815573978715 0 -0.081943378597705452 0.045970419722069868 0 -0.081996879980348408 0.045837243163152477 0 -0.081812959198099569 0.045822815573978715 0 -0.081730007682244282 0.045973069837098354 0 -0.081812959198099569 0.045822815573978715 0 -0.081590808838519699 0.045531099689938133 0 -0.082314440573442976 0.046460112859417271 0 -0.082273059210203184 0.046326447528961555 0 -0.082257837066532946 0.045993613160273755 0 -0.082314440573442976 0.046460112859417271 0 -0.082300142871809756 0.046421664338670468 0 -0.082273059210203184 0.046326447528961555 0 -0.072871721710738482 0.040089103750955243 0 -0.067686301823559156 0.030225593689642862 0 -0.082300142871809756 0.046421664338670468 0 -0.082273059210203184 0.046326447528961555 0 -0.082324715830865022 0.046325878079811984 0 -0.082300142871809756 0.046421664338670468 0 -0.082324715830865022 0.046325878079811984 0 -0.082353747858615572 0.046358684033092491 0 -0.082324715830865022 0.046325878079811984 0 -0.082376434281226069 0.046209037614090981 0 -0.082353747858615572 0.046358684033092491 0 -0.082273059210203184 0.046326447528961555 0 -0.082324715830865022 0.046325878079811984 0 -0.082376434281226069 0.046209037614090981 0 -0.082273059210203184 0.046326447528961555 0 -0.082257837066532946 0.045993613160273755 0 -0.08184277667996448 0.045895945578942804 0 -0.075600071415306919 0.036907641879569138 0 -0.071197894804240602 0.032090301753272293 0 -0.054304635895478133 0.0076632059947240134 0 -0.053008651584326473 0.010161762768949111 0 -0.055263638438503425 0.010685598468175187 0 -0.054750824830166918 0.0069552571262257107 0 -0.056788635109987926 0.0090895843483925765 0 -0.055636743478093491 0.010241447184939583 0 -0.067686301823559156 0.030225593689642862 0 -0.060801135985880932 0.015268290188710192 0 -0.067686301823559156 0.030225593689642862 0 -0.071197894804240602 0.032090301753272293 0 -0.054750824830166918 0.0069552571262257107 0 -0.056788635109987926 0.0090895843483925765 0 -0.056480305317974204 0.0072282148668446162 0 -0.051408801109371884 0.0092606197199027619 0 -0.054304635895478133 0.0076632059947240134 0 -0.053008651584326473 0.010161762768949111 0 -0.051408801109371884 0.0092606197199027619 0 -0.050687452467709275 0.0076095496750239753 0 -0.054304635895478133 0.0076632059947240134 0 -0.075831046915848979 0.034258254389476321 0 -0.077169827630326537 0.034466333334935942 0 -0.082184809623244995 0.045989554375023091 0 -0.081997739096709515 0.046155956862339385 0 -0.081747154204726558 0.045796304707453953 0 -0.073291266546529288 0.032977980142700918 0 -0.074470624711786157 0.033176117667868647 0 -0.073477991446369573 0.034162402172471677 0 -0.077169827630326537 0.034466333334935942 0 -0.071685506745037333 0.028542258827919855 0 -0.075831046915848979 0.034258254389476321 0 -0.071197894804240602 0.032090301753272293 0 -0.073291266546529288 0.032977980142700918 0 -0.072112281001169093 0.032782132210917365 0 -0.073477991446369573 0.034162402172471677 0 -0.071197894804240602 0.032090301753272293 0 -0.071685506745037333 0.028542258827919855 0 -0.056788635109987926 0.0090895843483925765 0 -0.056480305317974204 0.0072282148668446162 0 -0.059812395735600807 0.010386208809159908 0 -0.082184809623244995 0.045989554375023091 0 -0.082376434281226069 0.046209037614090981 0 -0.082296662681970709 0.046263932831325606 0 -0.082376434281226069 0.046209037614090981 0 -0.082353747858615572 0.046358684033092491 0 -0.082296662681970709 0.046263932831325606 0 -0.082353747858615572 0.046358684033092491 0 -0.082296662681970709 0.046263932831325606 0 -0.08241193815486339 0.046480958862466788 0 -0.082296662681970709 0.046263932831325606 0 -0.081997739096709515 0.046155956862339385 0 -0.08223728582795807 0.046411366546205868 0 -0.082184809623244995 0.045989554375023091 0 -0.082296662681970709 0.046263932831325606 0 -0.081997739096709515 0.046155956862339385 0 -0.081997739096709515 0.046155956862339385 0 -0.08223728582795807 0.046411366546205868 0 -0.081863438997608368 0.046449260356170911 0 -0.08223728582795807 0.046411366546205868 0 -0.082066906429994729 0.046725040694572104 0 -0.081863438997608368 0.046449260356170911 0 -0.08223728582795807 0.046411366546205868 0 -0.082066906429994729 0.046725040694572104 0 -0.082589067316443721 0.046637712588472005 0 -0.082343964669346972 0.046451993031606451 0 -0.082353747858615572 0.046358684033092491 0 -0.08241193815486339 0.046480958862466788 0 -0.082296662681970709 0.046263932831325606 0 -0.08223728582795807 0.046411366546205868 0 -0.08241193815486339 0.046480958862466788 0 -0.08223728582795807 0.046411366546205868 0 -0.08241193815486339 0.046480958862466788 0 -0.082589067316443721 0.046637712588472005 0 -0.08241193815486339 0.046480958862466788 0 -0.082589067316443721 0.046637712588472005 0 -0.082368036870191522 0.046491691390125184 0 -0.082343964669346972 0.046451993031606451 0 -0.08241193815486339 0.046480958862466788 0 -0.082368036870191522 0.046491691390125184 0 -0.082345994203455813 0.046257408922665076 0 -0.082589067316443721 0.046637712588472005 0 -0.082368036870191522 0.046491691390125184 0 -0.083495139939362736 0.047956241325926248 0 -0.082589067316443721 0.046637712588472005 0 -0.082723280843895755 0.047534876999927318 0 -0.080152899882214856 0.048733298269746754 0 -0.080497625690779256 0.048176437180886003 0 -0.082345994203455813 0.046257408922665076 0 -0.082243115468391179 0.046343247071458323 0 -0.082368036870191522 0.046491691390125184 0 -0.082066906429994729 0.046725040694572104 0 -0.082723280843895755 0.047534876999927318 0 -0.081701022720343713 0.047205575391382537 0 -0.082066906429994729 0.046725040694572104 0 -0.082589067316443721 0.046637712588472005 0 -0.082723280843895755 0.047534876999927318 0 -0.082066906429994729 0.046725040694572104 0 -0.081701022720343713 0.047205575391382537 0 -0.081412068338174076 0.046777580968816443 0 -0.080334584028807332 0.046544375495668304 0 -0.0792885911605168 0.046357147687369614 0 -0.081701022720343713 0.047205575391382537 0 -0.081039621613206048 0.047089183366024447 0 -0.081412068338174076 0.046777580968816443 0 -0.081701022720343713 0.047205575391382537 0 -0.079003567820699797 0.046776885664436968 0 -0.079980217903979509 0.049003378486202752 0 -0.081039621613206048 0.047089183366024447 0 -0.081412068338174076 0.046777580968816443 0 -0.08078633991931522 0.04660247844987965 0 -0.081412068338174076 0.046777580968816443 0 -0.081278212252318072 0.046157306439737047 0 -0.08078633991931522 0.04660247844987965 0 -0.081412068338174076 0.046777580968816443 0 -0.081863438997608368 0.046449260356170911 0 -0.081278212252318072 0.046157306439737047 0 -0.082066906429994729 0.046725040694572104 0 -0.081412068338174076 0.046777580968816443 0 -0.081863438997608368 0.046449260356170911 0 -0.081997739096709515 0.046155956862339385 0 -0.081863438997608368 0.046449260356170911 0 -0.081278212252318072 0.046157306439737047 0 -0.081997739096709515 0.046155956862339385 0 -0.081278212252318072 0.046157306439737047 0 -0.081747154204726558 0.045796304707453953 0 -0.077864646981846697 0.039728650285632834 0 -0.077169827630326537 0.034466333334935942 0 -0.077864646981846697 0.039728650285632834 0 -0.077658243843735097 0.043037486716389906 0 -0.081152975370365352 0.04094954607841586 0 -0.080233922149187467 0.03810541585384284 0 -0.083416592978877685 0.03864204906659835 0 -0.081152975370365352 0.04094954607841586 0 -0.080233922149187467 0.03810541585384284 0 -0.077793914072215115 0.040264810530686666 0 -0.079384168533531058 0.035358803740729833 0 -0.077169827630326537 0.034466333334935942 0 -0.080233922149187467 0.03810541585384284 0 -0.083320323306626018 0.038575937306648399 0 -0.082617920161946592 0.036479842632788792 0 -0.074999936461217651 0.037620174096730991 0 -0.077793914072215115 0.040264810530686666 0 -0.07774529723107583 0.036992008797123492 0 -0.074999936461217651 0.037620174096730991 0 -0.077793914072215115 0.040264810530686666 0 -0.074999989658833838 0.041558751373499132 0 -0.080233922149187467 0.03810541585384284 0 -0.077793914072215115 0.040264810530686666 0 -0.07774529723107583 0.036992008797123492 0 -0.081152975370365352 0.04094954607841586 0 -0.077793914072215115 0.040264810530686666 0 -0.078899636955306843 0.043261338546331955 0 -0.077793914072215115 0.040264810530686666 0 -0.074999989658833838 0.041558751373499132 0 -0.076644265079069962 0.043233125959978282 0 -0.074999989658833838 0.041558751373499132 0 -0.076644265079069962 0.043233125959978282 0 -0.074999980933102742 0.045497291639348326 0 -0.077793914072215115 0.040264810530686666 0 -0.076644265079069962 0.043233125959978282 0 -0.078899636955306843 0.043261338546331955 0 -0.076644265079069962 0.043233125959978282 0 -0.078899636955306843 0.043261338546331955 0 -0.076638606163602699 0.045568826184155739 0 -0.077658243843735097 0.043037486716389906 0 -0.076381056402059166 0.045797190356840579 0 -0.0792885911605168 0.046357147687369614 0 -0.076381056402059166 0.045797190356840579 0 -0.079003567820699797 0.046776885664436968 0 -0.076256600558343324 0.046394536137474414 0 -0.076569497625840491 0.04783856642228574 0 -0.081039621613206048 0.047089183366024447 0 -0.08078633991931522 0.04660247844987965 0 -0.080325151977020115 0.047050208265015526 0 -0.075003132295673375 0.045498516096887924 0 -0.076381056402059166 0.045797190356840579 0 -0.076644265079069962 0.043233125959978282 0 -0.074999980933102742 0.045497291639348326 0 -0.076638606163602699 0.045568826184155739 0 -0.076256600558343324 0.046394536137474414 0 -0.074999579145943171 0.04724299256052418 0 -0.076569497625840491 0.04783856642228574 0 -0.074999997802331589 0.04549734885961592 0 -0.076647583384345755 0.045582503597963404 0 -0.074999998686347408 0.047241381437106489 0 -0.076381056402059166 0.045797190356840579 0 -0.075002111895152337 0.047239115907049933 0 -0.076569497625840491 0.04783856642228574 0 -0.075000100636474817 0.049913679844223437 0 -0.077549998858535113 0.049165714270594275 0 -0.074999579145943171 0.04724299256052418 0 -0.076569497625840491 0.04783856642228574 0 -0.075000100636474817 0.049913679844223437 0 -0.075000100636474817 0.049913679844223437 0 -0.076707353538578549 0.051363839531344858 0 -0.077549998858535113 0.049165714270594275 0 -0.075000100636474817 0.049913679844223437 0 -0.076707353538578549 0.051363839531344858 0 -0.074998072462001034 0.052585682039626436 0 -0.076707353538578549 0.051363839531344858 0 -0.077549998858535113 0.049165714270594275 0 -0.07862289673853555 0.050522159707106634 0 -0.076707353538578549 0.051363839531344858 0 -0.07862289673853555 0.050522159707106634 0 -0.07844271299640751 0.052801103423856161 0 -0.079003567820699797 0.046776885664436968 0 -0.076569497625840491 0.04783856642228574 0 -0.077549998858535113 0.049165714270594275 0 -0.079003567820699797 0.046776885664436968 0 -0.077549998858535113 0.049165714270594275 0 -0.079980217903979509 0.049003378486202752 0 -0.081701022720343713 0.047205575391382537 0 -0.079980217903979509 0.049003378486202752 0 -0.081944019989589112 0.048935563283128931 0 -0.079980217903979509 0.049003378486202752 0 -0.081944019989589112 0.048935563283128931 0 -0.081472283143882468 0.051404187619655796 0 -0.079980217903979509 0.049003378486202752 0 -0.081472283143882468 0.051404187619655796 0 -0.07862289673853555 0.050522159707106634 0 -0.077549998858535113 0.049165714270594275 0 -0.079980217903979509 0.049003378486202752 0 -0.07862289673853555 0.050522159707106634 0 -0.07844271299640751 0.052801103423856161 0 -0.08092255879413586 0.054153866463634112 0 -0.079018512055962761 0.054987775433626061 0 -0.081472283143882468 0.051404187619655796 0 -0.07844271299640751 0.052801103423856161 0 -0.08092255879413586 0.054153866463634112 0 -0.081472283143882468 0.051404187619655796 0 -0.07862289673853555 0.050522159707106634 0 -0.07844271299640751 0.052801103423856161 0 -0.083705367243437315 0.055523086421506114 0 -0.081472283143882468 0.051404187619655796 0 -0.08092255879413586 0.054153866463634112 0 -0.083705367243437315 0.055523086421506114 0 -0.08092255879413586 0.054153866463634112 0 -0.080478814065127205 0.056427623369938749 0 -0.077922700484541502 0.056890796017533461 0 -0.080478814065127205 0.056427623369938749 0 -0.079018512055962761 0.054987775433626061 0 -0.08092255879413586 0.054153866463634112 0 -0.080478814065127205 0.056427623369938749 0 -0.079018512055962761 0.054987775433626061 0 -0.077008680646717356 0.054865848403539315 0 -0.075034554567351239 0.055785795566751686 0 -0.076268152441227879 0.053368885481762308 0 -0.077922700484541502 0.056890796017533461 0 -0.079018512055962761 0.054987775433626061 0 -0.077008680646717356 0.054865848403539315 0 -0.076417785100605401 0.057005226087900374 0 -0.077922700484541502 0.056890796017533461 0 -0.077008680646717356 0.054865848403539315 0 -0.07844271299640751 0.052801103423856161 0 -0.079018512055962761 0.054987775433626061 0 -0.077008680646717356 0.054865848403539315 0 -0.076417785100605401 0.057005226087900374 0 -0.077008680646717356 0.054865848403539315 0 -0.075034554567351239 0.055785795566751686 0 -0.075034554567351239 0.055785795566751686 0 -0.074998072462001034 0.052585682039626436 0 -0.076268152441227879 0.053368885481762308 0 -0.074999573214964435 0.056684552702370286 0 -0.076404177395647296 0.055879284571273863 0 -0.075000167293768683 0.0525858195348156 0 -0.075778696339878368 0.056035634855525332 0 -0.075000215311561563 0.052590129972516268 0 -0.076707353538578549 0.051363839531344858 0 -0.074998072462001034 0.052585682039626436 0 -0.076268152441227879 0.053368885481762308 0 -0.076707353538578549 0.051363839531344858 0 -0.07844271299640751 0.052801103423856161 0 -0.076268152441227879 0.053368885481762308 0 -0.07844271299640751 0.052801103423856161 0 -0.077008680646717356 0.054865848403539315 0 -0.076268152441227879 0.053368885481762308 0 -0.077575886981780987 0.021247251451710841 0 -0.07856140733760103 0.022008981539387136 0 -0.078951456524081712 0.020623119731931032 0 -0.077575886981780987 0.021247251451710841 0 -0.07856140733760103 0.022008981539387136 0 -0.076974355772613898 0.022907923051752616 0 -0.07856140733760103 0.022008981539387136 0 -0.078951456524081712 0.020623119731931032 0 -0.080080441669422159 0.021541584918395536 0 -0.07856140733760103 0.022008981539387136 0 -0.080080441669422159 0.021541584918395536 0 -0.078857322229895971 0.023596243420609238 0 -0.07856140733760103 0.022008981539387136 0 -0.076974355772613898 0.022907923051752616 0 -0.078857322229895971 0.023596243420609238 0 -0.077575886981780987 0.021247251451710841 0 -0.076974355772613898 0.022907923051752616 0 -0.074999945857268671 0.020705696326175586 0 -0.076974355772613898 0.022907923051752616 0 -0.074999945857268671 0.020705696326175586 0 -0.074999927344856915 0.024946478406804213 0 -0.077575886981780987 0.021247251451710841 0 -0.074999945857268671 0.020705696326175586 0 -0.078232417423890421 0.019322580981820308 0 -0.074999945857268671 0.020705696326175586 0 -0.078232417423890421 0.019322580981820308 0 -0.077167728348229589 0.01740801901463402 0 -0.077575886981780987 0.021247251451710841 0 -0.078232417423890421 0.019322580981820308 0 -0.078951456524081712 0.020623119731931032 0 -0.078232417423890421 0.019322580981820308 0 -0.078951456524081712 0.020623119731931032 0 -0.080049234574218239 0.019574132316147502 0 -0.078232417423890421 0.019322580981820308 0 -0.080049234574218239 0.019574132316147502 0 -0.079472820918519926 0.017651211992654479 0 -0.080049234574218239 0.019574132316147502 0 -0.081625633796738234 0.020146706982181545 0 -0.081344099306072837 0.018059300319534871 0 -0.080049234574218239 0.019574132316147502 0 -0.081625633796738234 0.020146706982181545 0 -0.080080441669422159 0.021541584918395536 0 -0.078951456524081712 0.020623119731931032 0 -0.080049234574218239 0.019574132316147502 0 -0.080080441669422159 0.021541584918395536 0 -0.081625633796738234 0.020146706982181545 0 -0.083913282268381906 0.020600814692130792 0 -0.083405206981317495 0.018603972185448191 0 -0.081625633796738234 0.020146706982181545 0 -0.083405206981317495 0.018603972185448191 0 -0.081344099306072837 0.018059300319534871 0 -0.071777386218993711 0.023510064139356981 0 -0.072303177819660419 0.021510437884740059 0 -0.081625633796738234 0.020146706982181545 0 -0.080982724831184238 0.02224574204698997 0 -0.083913282268381906 0.020600814692130792 0 -0.067059208227385536 0.022637229479447428 0 -0.066823324903231923 0.022747045616728696 0 -0.066883198388706586 0.023013366301554199 0 -0.067287465455102183 0.022817269904465996 0 -0.067059208227385536 0.022637229479447428 0 -0.066883198388706586 0.023013366301554199 0 -0.071777386218993711 0.023510064139356981 0 -0.067449219417512668 0.022989213147412001 0 -0.072391593856089773 0.023749450046567575 0 -0.071777386218993711 0.023510064139356981 0 -0.081625633796738234 0.020146706982181545 0 -0.080080441669422159 0.021541584918395536 0 -0.080982724831184238 0.02224574204698997 0 -0.080080441669422159 0.021541584918395536 0 -0.081081677898691765 0.02236122857947298 0 -0.078857322229895971 0.023596243420609238 0 -0.066324225634365672 0.031738728086254574 0 -0.068425403070619145 0.02937077333617422 0 -0.070628399734974825 0.029515945506604802 0 -0.071777386218993711 0.023510064139356981 0 -0.073253829345578197 0.024630580755814074 0 -0.067071500800456207 0.028852466743505337 0 -0.064417809121142852 0.027469692461168954 0 -0.069680595766969 0.027367735084526404 0 -0.064417809121142852 0.027469692461168954 0 -0.067147592410267978 0.023907773751923909 0 -0.069464806095738671 0.027388812144382185 0 -0.068780131646527021 0.026244236902011851 0 -0.070631723915782568 0.026044468107643815 0 -0.068425403070619145 0.02937077333617422 0 -0.067071500800456207 0.028852466743505337 0 -0.069680595766969 0.027367735084526404 0 -0.066324225634365672 0.031738728086254574 0 -0.068425403070619145 0.02937077333617422 0 -0.067071500800456207 0.028852466743505337 0 -0.066324225634365672 0.031738728086254574 0 -0.067071500800456207 0.028852466743505337 0 -0.062956655370206893 0.029024038598123303 0 -0.062956655370206893 0.029024038598123303 0 -0.064417809121142852 0.027469692461168954 0 -0.059600219606260163 0.026301205565847221 0 -0.067071500800456207 0.028852466743505337 0 -0.062956655370206893 0.029024038598123303 0 -0.064417809121142852 0.027469692461168954 0 -0.067449219417512668 0.022989213147412001 0 -0.063663628881236875 0.021948840865357519 0 -0.064417809121142852 0.027469692461168954 0 -0.064535822250120153 0.019895104002722659 0 -0.059600219606260163 0.026301205565847221 0 -0.063539932223329376 0.021830602930829474 0 -0.063663628881236875 0.021948840865357519 0 -0.064535822250120153 0.019895104002722659 0 -0.06134403148347415 0.020636300793695921 0 -0.061079650318000223 0.023778840752892261 0 -0.064417809121142852 0.027469692461168954 0 -0.067147592410267978 0.023907773751923909 0 -0.064535822250120153 0.019895104002722659 0 -0.067147592410267978 0.023907773751923909 0 -0.069695003445802553 0.024018579069663731 0 -0.069464806095738671 0.027388812144382185 0 -0.067147592410267978 0.023907773751923909 0 -0.067988719763511826 0.020893078247681454 0 -0.064535822250120153 0.019895104002722659 0 -0.067147592410267978 0.023907773751923909 0 -0.069695003445802553 0.024018579069663731 0 -0.067988719763511826 0.020893078247681454 0 -0.069695003445802553 0.024018579069663731 0 -0.071622872074653607 0.020680209650122343 0 -0.067988719763511826 0.020893078247681454 0 -0.072266420674511528 0.024967546074662245 0 -0.069695003445802553 0.024018579069663731 0 -0.071622872074653607 0.020680209650122343 0 -0.072266420674511528 0.024967546074662245 0 -0.069695003445802553 0.024018579069663731 0 -0.069464806095738671 0.027388812144382185 0 -0.070631723915782568 0.026044468107643815 0 -0.074037483885301555 0.025431836071280502 0 -0.069680595766969 0.027367735084526404 0 -0.070628399734974825 0.029515945506604802 0 -0.074936149366077787 0.027285795623987179 0 -0.072266420674511528 0.024967546074662245 0 -0.069464806095738671 0.027388812144382185 0 -0.07426278611815286 0.02719410606986989 0 -0.076974355772613898 0.022907923051752616 0 -0.078857322229895971 0.023596243420609238 0 -0.076647190319909964 0.02485165714849014 0 -0.073253829345578197 0.024630580755814074 0 -0.074037483885301555 0.025431836071280502 0 -0.068425403070619145 0.02937077333617422 0 -0.069680595766969 0.027367735084526404 0 -0.070628399734974825 0.029515945506604802 0 -0.076974355772613898 0.022907923051752616 0 -0.076647190319909964 0.02485165714849014 0 -0.074999927344856915 0.024946478406804213 0 -0.074037483885301555 0.025431836071280502 0 -0.07499743634335794 0.025802593981643727 0 -0.076695403887014624 0.024921537019846143 0 -0.074999992647214964 0.024946730140288684 0 -0.075000002978615643 0.025804518005091093 0 -0.074037483885301555 0.025431836071280502 0 -0.074998288918293535 0.024948758825394636 0 -0.07426278611815286 0.02719410606986989 0 -0.075361288417248651 0.025961836624277788 0 -0.075000869617908264 0.025803959558894262 0 -0.075361288417248651 0.025961836624277788 0 -0.075000869617908264 0.025803959558894262 0 -0.074999405930080143 0.029743025232251089 0 -0.072266420674511528 0.024967546074662245 0 -0.075361288417248651 0.025961836624277788 0 -0.071622872074653607 0.020680209650122343 0 -0.074468984720990797 0.025439022036322027 0 -0.074063003645229483 0.025188452513888897 0 -0.072266420674511528 0.024967546074662245 0 -0.07426278611815286 0.02719410606986989 0 -0.075361288417248651 0.025961836624277788 0 -0.075361288417248651 0.025961836624277788 0 -0.074999405930080143 0.029743025232251089 0 -0.078200459027259681 0.028689344848779132 0 -0.074999405930080143 0.029743025232251089 0 -0.078200459027259681 0.028689344848779132 0 -0.077908391737920371 0.031824167231570097 0 -0.074063003645229483 0.025188452513888897 0 -0.073149059702119171 0.025014554013884596 0 -0.078200459027259681 0.028689344848779132 0 -0.077908391737920371 0.031824167231570097 0 -0.080685311324515438 0.03127453113443323 0 -0.074999405930080143 0.029743025232251089 0 -0.077908391737920371 0.031824167231570097 0 -0.075000127937481217 0.033681665394344744 0 -0.075000127937481217 0.033681665394344744 0 -0.078437639794154218 0.034323587389283552 0 -0.07774529723107583 0.036992008797123492 0 -0.077908391737920371 0.031824167231570097 0 -0.075000127937481217 0.033681665394344744 0 -0.078437639794154218 0.034323587389283552 0 -0.077908391737920371 0.031824167231570097 0 -0.078437639794154218 0.034323587389283552 0 -0.080604438285623095 0.03348126640616457 0 -0.080233922149187467 0.03810541585384284 0 -0.07774529723107583 0.036992008797123492 0 -0.080863473408468264 0.035564083467891493 0 -0.078437639794154218 0.034323587389283552 0 -0.07774529723107583 0.036992008797123492 0 -0.080863473408468264 0.035564083467891493 0 -0.074999936461217651 0.037620174096730991 0 -0.075000127937481217 0.033681665394344744 0 -0.07774529723107583 0.036992008797123492 0 -0.082617920161946592 0.036479842632788792 0 -0.083119359000912663 0.033829233227950534 0 -0.085527337882296509 0.036328956445862523 0 -0.082617920161946592 0.036479842632788792 0 -0.080863473408468264 0.035564083467891493 0 -0.083119359000912663 0.033829233227950534 0 -0.083320323306626018 0.038575937306648399 0 -0.082617920161946592 0.036479842632788792 0 -0.085527337882296509 0.036328956445862523 0 -0.080233922149187467 0.03810541585384284 0 -0.082617920161946592 0.036479842632788792 0 -0.080863473408468264 0.035564083467891493 0 -0.078437639794154218 0.034323587389283552 0 -0.080863473408468264 0.035564083467891493 0 -0.080604438285623095 0.03348126640616457 0 -0.080863473408468264 0.035564083467891493 0 -0.080604438285623095 0.03348126640616457 0 -0.083119359000912663 0.033829233227950534 0 -0.080604438285623095 0.03348126640616457 0 -0.083119359000912663 0.033829233227950534 0 -0.080685311324515438 0.03127453113443323 0 -0.063149048321916437 0.01307453825130072 0 -0.063326353138497382 0.016539421610996672 0 -0.061469148601827305 0.015231847856380668 0 -0.063149048321916437 0.01307453825130072 0 -0.063326353138497382 0.016539421610996672 0 -0.066989220834102872 0.016294333334458275 0 -0.07213673069816226 0.025682188360832182 0 -0.073149059702119171 0.025014554013884596 0 -0.077908391737920371 0.031824167231570097 0 -0.080604438285623095 0.03348126640616457 0 -0.080685311324515438 0.03127453113443323 0 -0.071622872074653607 0.020680209650122343 0 -0.066989220834102872 0.016294333334458275 0 -0.067988719763511826 0.020893078247681454 0 -0.066989220834102872 0.016294333334458275 0 -0.067988719763511826 0.020893078247681454 0 -0.064535822250120153 0.019895104002722659 0 -0.063326353138497382 0.016539421610996672 0 -0.064535822250120153 0.019895104002722659 0 -0.06134403148347415 0.020636300793695921 0 -0.063326353138497382 0.016539421610996672 0 -0.066989220834102872 0.016294333334458275 0 -0.064535822250120153 0.019895104002722659 0 -0.059412723027182618 0.019484116635304621 0 -0.06006951975591774 0.017073301728019932 0 -0.06134403148347415 0.020636300793695921 0 -0.063326353138497382 0.016539421610996672 0 -0.06006951975591774 0.017073301728019932 0 -0.06134403148347415 0.020636300793695921 0 -0.059412723027182618 0.019484116635304621 0 -0.057970433114469248 0.018328044239294912 0 -0.06006951975591774 0.017073301728019932 0 -0.057970433114469248 0.018328044239294912 0 -0.0552937081940717 0.018269214337234392 0 -0.058162354959539107 0.021346625877492555 0 -0.058606323778825402 0.019234217772752627 0 -0.059969645613956464 0.020034765816994312 0 -0.059412723027182618 0.019484116635304621 0 -0.057970433114469248 0.018328044239294912 0 -0.058162354959539107 0.021346625877492555 0 -0.057970433114469248 0.018328044239294912 0 -0.057783565245736128 0.016364430012835062 0 -0.06006951975591774 0.017073301728019932 0 -0.057970433114469248 0.018328044239294912 0 -0.057783565245736128 0.016364430012835062 0 -0.0552937081940717 0.018269214337234392 0 -0.057783565245736128 0.016364430012835062 0 -0.059393033329047829 0.014224653948578938 0 -0.056371783264345866 0.013925183933640225 0 -0.057783565245736128 0.016364430012835062 0 -0.056371783264345866 0.013925183933640225 0 -0.0552937081940717 0.018269214337234392 0 -0.063326353138497382 0.016539421610996672 0 -0.06006951975591774 0.017073301728019932 0 -0.061469148601827305 0.015231847856380668 0 -0.057783565245736128 0.016364430012835062 0 -0.06006951975591774 0.017073301728019932 0 -0.059393033329047829 0.014224653948578938 0 -0.06006951975591774 0.017073301728019932 0 -0.061469148601827305 0.015231847856380668 0 -0.059393033329047829 0.014224653948578938 0 -0.07213673069816226 0.025682188360832182 0 -0.071685506745037333 0.028542258827919855 0 -0.063149048321916437 0.01307453825130072 0 -0.059945358395730633 0.012187532578952557 0 -0.059922636571761452 0.010254698600520437 0 -0.063149048321916437 0.01307453825130072 0 -0.061469148601827305 0.015231847856380668 0 -0.059393033329047829 0.014224653948578938 0 -0.063149048321916437 0.01307453825130072 0 -0.059945358395730633 0.012187532578952557 0 -0.059393033329047829 0.014224653948578938 0 -0.059945358395730633 0.012187532578952557 0 -0.059393033329047829 0.014224653948578938 0 -0.05812654985782386 0.012443543338065688 0 -0.059945358395730633 0.012187532578952557 0 -0.05812654985782386 0.012443543338065688 0 -0.059236059765348473 0.010958517064601037 0 -0.059393033329047829 0.014224653948578938 0 -0.056371783264345866 0.013925183933640225 0 -0.05812654985782386 0.012443543338065688 0 -0.056371783264345866 0.013925183933640225 0 -0.05812654985782386 0.012443543338065688 0 -0.057393092344120621 0.010672102629767963 0 -0.056788635109987926 0.0090895843483925765 0 -0.057393092344120621 0.010672102629767963 0 -0.059812395735600807 0.010386208809159908 0 -0.057393092344120621 0.010672102629767963 0 -0.059812395735600807 0.010386208809159908 0 -0.059236059765348473 0.010958517064601037 0 -0.056371783264345866 0.013925183933640225 0 -0.057393092344120621 0.010672102629767963 0 -0.055636743478093491 0.010241447184939583 0 -0.05812654985782386 0.012443543338065688 0 -0.057393092344120621 0.010672102629767963 0 -0.059236059765348473 0.010958517064601037 0 -0.056788635109987926 0.0090895843483925765 0 -0.057393092344120621 0.010672102629767963 0 -0.055636743478093491 0.010241447184939583 0 -0.059945358395730633 0.012187532578952557 0 -0.059922636571761452 0.010254698600520437 0 -0.059236059765348473 0.010958517064601037 0 -0.071685506745037333 0.028542258827919855 0 -0.071639364507880512 0.028243142957370689 0 -0.051408801109371884 0.0092606197199027619 0 -0.053008651584326473 0.010161762768949111 0 -0.051200575591073542 0.011601808674664985 0 -0.053323653069228337 0.011721660687294249 0 -0.053008651584326473 0.010161762768949111 0 -0.051200575591073542 0.011601808674664985 0 -0.053323653069228337 0.011721660687294249 0 -0.053008651584326473 0.010161762768949111 0 -0.055263638438503425 0.010685598468175187 0 -0.059566066716586423 0.013592089829649224 0 -0.060801135985880932 0.015268290188710192 0 -0.056371783264345866 0.013925183933640225 0 -0.053323653069228337 0.011721660687294249 0 -0.052130855016102047 0.013724157874551996 0 -0.056371783264345866 0.013925183933640225 0 -0.053323653069228337 0.011721660687294249 0 -0.055263638438503425 0.010685598468175187 0 -0.053323653069228337 0.011721660687294249 0 -0.052130855016102047 0.013724157874551996 0 -0.051200575591073542 0.011601808674664985 0 -0.052130855016102047 0.013724157874551996 0 -0.053218539277540021 0.016433422570719117 0 -0.050436098372437344 0.01722192211899946 0 -0.056371783264345866 0.013925183933640225 0 -0.052130855016102047 0.013724157874551996 0 -0.053218539277540021 0.016433422570719117 0 -0.056371783264345866 0.013925183933640225 0 -0.053218539277540021 0.016433422570719117 0 -0.0552937081940717 0.018269214337234392 0 -0.053218539277540021 0.016433422570719117 0 -0.0552937081940717 0.018269214337234392 0 -0.052674440305029289 0.018801388757122353 0 -0.053218539277540021 0.016433422570719117 0 -0.052674440305029289 0.018801388757122353 0 -0.050436098372437344 0.01722192211899946 0 -0.052674440305029289 0.018801388757122353 0 -0.052888642931458625 0.021662925720345588 0 -0.054465101505384715 0.020123100156147742 0 -0.052674440305029289 0.018801388757122353 0 -0.052888642931458625 0.021662925720345588 0 -0.051081309990907757 0.020249111555883201 0 -0.052888642931458625 0.021662925720345588 0 -0.055161437445131571 0.021614005206935114 0 -0.054085423253242976 0.02383305698976634 0 -0.052888642931458625 0.021662925720345588 0 -0.055161437445131571 0.021614005206935114 0 -0.054465101505384715 0.020123100156147742 0 -0.0552937081940717 0.018269214337234392 0 -0.054465101505384715 0.020123100156147742 0 -0.055704047096185365 0.019990219109203823 0 -0.0552937081940717 0.018269214337234392 0 -0.052674440305029289 0.018801388757122353 0 -0.054465101505384715 0.020123100156147742 0 -0.055161437445131571 0.021614005206935114 0 -0.054465101505384715 0.020123100156147742 0 -0.055704047096185365 0.019990219109203823 0 -0.0552937081940717 0.018269214337234392 0 -0.056800609069907672 0.019530479827125091 0 -0.055704047096185365 0.019990219109203823 0 -0.056800609069907672 0.019530479827125091 0 -0.056819299409700763 0.02058471230765805 0 -0.055704047096185365 0.019990219109203823 0 -0.059412723027182618 0.019484116635304621 0 -0.058162354959539107 0.021346625877492555 0 -0.06134403148347415 0.020636300793695921 0 -0.058162354959539107 0.021346625877492555 0 -0.06134403148347415 0.020636300793695921 0 -0.061079650318000223 0.023778840752892261 0 -0.059969645613956464 0.020034765816994312 0 -0.063663628881236875 0.021948840865357519 0 -0.056800609069907672 0.019530479827125091 0 -0.056819299409700763 0.02058471230765805 0 -0.058490147874739142 0.020872762903322507 0 -0.067059208227385536 0.022637229479447428 0 -0.066835745658941501 0.022461104711905017 0 -0.066823324903231923 0.022747045616728696 0 -0.066835745658941501 0.022461104711905017 0 -0.066515747778595702 0.022876072950660017 0 -0.066823324903231923 0.022747045616728696 0 -0.063663628881236875 0.021948840865357519 0 -0.061571864784587378 0.023076424513377693 0 -0.056819299409700763 0.02058471230765805 0 -0.058490147874739142 0.020872762903322507 0 -0.056582825625051882 0.023380236959974203 0 -0.060505616217580591 0.022302716517644768 0 -0.061571864784587378 0.023076424513377693 0 -0.055161437445131571 0.021614005206935114 0 -0.056819299409700763 0.02058471230765805 0 -0.056598577868354545 0.02357781155917375 0 -0.055161437445131571 0.021614005206935114 0 -0.056819299409700763 0.02058471230765805 0 -0.055704047096185365 0.019990219109203823 0 -0.066515747778595702 0.022876072950660017 0 -0.066823324903231923 0.022747045616728696 0 -0.066883198388706586 0.023013366301554199 0 -0.072303177819660419 0.021510437884740059 0 -0.065907539530378284 0.022096821874090646 0 -0.066515747778595702 0.022876072950660017 0 -0.066883198388706586 0.023013366301554199 0 -0.066484130458672422 0.023208383952436931 0 -0.083913282268381906 0.020600814692130792 0 -0.086775430848165414 0.019025980785934978 0 -0.083405206981317495 0.018603972185448191 0 -0.056760856076965314 0.023496538126040564 0 -0.056525735795058228 0.025850828682886264 0 -0.05484056800357362 0.026011236894062439 0 -0.061571864784587378 0.023076424513377693 0 -0.058956415265846836 0.025213029709314393 0 -0.061571864784587378 0.023076424513377693 0 -0.065907539530378284 0.022096821874090646 0 -0.056598577868354545 0.02357781155917375 0 -0.05484056800357362 0.026011236894062439 0 -0.054085423253242976 0.02383305698976634 0 -0.05484056800357362 0.026011236894062439 0 -0.053070485208160212 0.025800005210854737 0 -0.054085423253242976 0.02383305698976634 0 -0.051797081271243425 0.024339800213074816 0 -0.053070485208160212 0.025800005210854737 0 -0.051043318714417758 0.026884462234093343 0 -0.051797081271243425 0.024339800213074816 0 -0.053070485208160212 0.025800005210854737 0 -0.054085423253242976 0.02383305698976634 0 -0.052888642931458625 0.021662925720345588 0 -0.051797081271243425 0.024339800213074816 0 -0.050164467852466373 0.022168711098236784 0 -0.052888642931458625 0.021662925720345588 0 -0.051797081271243425 0.024339800213074816 0 -0.054085423253242976 0.02383305698976634 0 -0.055161437445131571 0.021614005206935114 0 -0.056598577868354545 0.02357781155917375 0 -0.054085423253242976 0.02383305698976634 0 -0.049424829364206044 0.024697260406632188 0 -0.046803920021670692 0.025044640980869254 0 -0.046823634631201393 0.02240671427523333 0 -0.049424829364206044 0.024697260406632188 0 -0.046823634631201393 0.02240671427523333 0 -0.050164467852466373 0.022168711098236784 0 -0.051797081271243425 0.024339800213074816 0 -0.049424829364206044 0.024697260406632188 0 -0.050164467852466373 0.022168711098236784 0 -0.051797081271243425 0.024339800213074816 0 -0.049424829364206044 0.024697260406632188 0 -0.051043318714417758 0.026884462234093343 0 -0.049424829364206044 0.024697260406632188 0 -0.046803920021670692 0.025044640980869254 0 -0.048410590216753951 0.027235047856397149 0 -0.046803920021670692 0.025044640980869254 0 -0.044269039289099282 0.026008262617263911 0 -0.046204408055343836 0.027195697004469666 0 -0.046803920021670692 0.025044640980869254 0 -0.044269039289099282 0.026008262617263911 0 -0.043462727800406852 0.022689634759358271 0 -0.044269039289099282 0.026008262617263911 0 -0.043462727800406852 0.022689634759358271 0 -0.042033902231175493 0.025223609985721446 0 -0.046803920021670692 0.025044640980869254 0 -0.043462727800406852 0.022689634759358271 0 -0.046823634631201393 0.02240671427523333 0 -0.046823634631201393 0.02240671427523333 0 -0.044647876510405964 0.019861036271221148 0 -0.048452370256582195 0.019241452667518446 0 -0.043462727800406852 0.022689634759358271 0 -0.044647876510405964 0.019861036271221148 0 -0.04097301610114118 0.019978925542069217 0 -0.043462727800406852 0.022689634759358271 0 -0.046823634631201393 0.02240671427523333 0 -0.044647876510405964 0.019861036271221148 0 -0.044647876510405964 0.019861036271221148 0 -0.04554218118450501 0.017157861706200685 0 -0.041771376701266016 0.016556593894110051 0 -0.044647876510405964 0.019861036271221148 0 -0.048452370256582195 0.019241452667518446 0 -0.04554218118450501 0.017157861706200685 0 -0.046823634631201393 0.02240671427523333 0 -0.048833502551470752 0.019881262215998861 0 -0.050164467852466373 0.022168711098236784 0 -0.047859911661203687 0.020832709918422048 0 -0.048740745142387208 0.019378212869347652 0 -0.048833502551470752 0.019881262215998861 0 -0.050164467852466373 0.022168711098236784 0 -0.051081309990907757 0.020249111555883201 0 -0.052888642931458625 0.021662925720345588 0 -0.050164467852466373 0.022168711098236784 0 -0.051081309990907757 0.020249111555883201 0 -0.052674440305029289 0.018801388757122353 0 -0.051081309990907757 0.020249111555883201 0 -0.050436098372437344 0.01722192211899946 0 -0.048833502551470752 0.019881262215998861 0 -0.051081309990907757 0.020249111555883201 0 -0.050436098372437344 0.01722192211899946 0 -0.048740745142387208 0.019378212869347652 0 -0.050209136630452414 0.016936462256339518 0 -0.048452370256582195 0.019241452667518446 0 -0.0478347865019478 0.016120694837867679 0 -0.04554218118450501 0.017157861706200685 0 -0.048452370256582195 0.019241452667518446 0 -0.05019054428311398 0.016417073072298727 0 -0.0478347865019478 0.016120694837867679 0 -0.05019054428311398 0.016417073072298727 0 -0.0478347865019478 0.016120694837867679 0 -0.048688579768377468 0.013203509323704201 0 -0.0478347865019478 0.016120694837867679 0 -0.048688579768377468 0.013203509323704201 0 -0.046276716967098799 0.014583447063862207 0 -0.051107329904024848 0.015430522054804479 0 -0.050209136630452414 0.016936462256339518 0 -0.052130855016102047 0.013724157874551996 0 -0.05019054428311398 0.016417073072298727 0 -0.048688579768377468 0.013203509323704201 0 -0.052130855016102047 0.013724157874551996 0 -0.048688579768377468 0.013203509323704201 0 -0.051200575591073542 0.011601808674664985 0 -0.047270458377600112 0.0093824745612842847 0 -0.048688579768377468 0.013203509323704201 0 -0.049679362505529734 0.010118276037311313 0 -0.048688579768377468 0.013203509323704201 0 -0.049679362505529734 0.010118276037311313 0 -0.051200575591073542 0.011601808674664985 0 -0.051408801109371884 0.0092606197199027619 0 -0.049679362505529734 0.010118276037311313 0 -0.051200575591073542 0.011601808674664985 0 -0.04275091958328401 0.010879084942494188 0 -0.044018110717725836 0.013017946432499131 0 -0.041068932494271355 0.012820047695813123 0 -0.047270458377600112 0.0093824745612842847 0 -0.048688579768377468 0.013203509323704201 0 -0.045527533632869835 0.011828466427749137 0 -0.050877467782810507 0.017963470777265168 0 -0.047943150871179833 0.01560123839587468 0 -0.04275091958328401 0.010879084942494188 0 -0.045231000171526474 0.011276507238158857 0 -0.044018110717725836 0.013017946432499131 0 -0.045527533632869835 0.011828466427749137 0 -0.04374107828924359 0.014149021855160839 0 -0.046276716967098799 0.014583447063862207 0 -0.048688579768377468 0.013203509323704201 0 -0.045527533632869835 0.011828466427749137 0 -0.046276716967098799 0.014583447063862207 0 -0.044018110717725836 0.013017946432499131 0 -0.04282238610423221 0.014787419549189608 0 -0.041068932494271355 0.012820047695813123 0 -0.047943150871179833 0.01560123839587468 0 -0.04560525767529798 0.015906747493484797 0 -0.04374107828924359 0.014149021855160839 0 -0.046276716967098799 0.014583447063862207 0 -0.04554218118450501 0.017157861706200685 0 -0.0478347865019478 0.016120694837867679 0 -0.046276716967098799 0.014583447063862207 0 -0.04554218118450501 0.017157861706200685 0 -0.04374107828924359 0.014149021855160839 0 -0.04554218118450501 0.017157861706200685 0 -0.041771376701266016 0.016556593894110051 0 -0.041771376701266016 0.016556593894110051 0 -0.038464099978559395 0.015875700653953988 0 -0.039402079959853668 0.017810865979729813 0 -0.041771376701266016 0.016556593894110051 0 -0.0405384481293216 0.014740136344943209 0 -0.038464099978559395 0.015875700653953988 0 -0.04282238610423221 0.014787419549189608 0 -0.041771376701266016 0.016556593894110051 0 -0.0405384481293216 0.014740136344943209 0 -0.04560525767529798 0.015906747493484797 0 -0.044582058253823602 0.016487652039955468 0 -0.04282238610423221 0.014787419549189608 0 -0.0405384481293216 0.014740136344943209 0 -0.041068932494271355 0.012820047695813123 0 -0.0405384481293216 0.014740136344943209 0 -0.041068932494271355 0.012820047695813123 0 -0.038398948044702612 0.014131172034517012 0 -0.040099385769140468 0.010338003396393812 0 -0.041068932494271355 0.012820047695813123 0 -0.038221216719036326 0.012021758497527738 0 -0.041068932494271355 0.012820047695813123 0 -0.038221216719036326 0.012021758497527738 0 -0.038398948044702612 0.014131172034517012 0 -0.035906787652487948 0.012326756326839411 0 -0.035944919066354691 0.01315950726406559 0 -0.036992142736849434 0.01300559840104305 0 -0.035944919066354691 0.01315950726406559 0 -0.036992142736849434 0.01300559840104305 0 -0.036210113791701658 0.013979307091811053 0 -0.039437888985482832 0.014673357292480682 0 -0.038477402728301621 0.014740378235428406 0 -0.038221216719036326 0.012021758497527738 0 -0.038398948044702612 0.014131172034517012 0 -0.036210113791701658 0.013979307091811053 0 -0.038398948044702612 0.014131172034517012 0 -0.036210113791701658 0.013979307091811053 0 -0.035886311098838233 0.015230449177447977 0 -0.038464099978559395 0.015875700653953988 0 -0.036738883961587476 0.016864981439256084 0 -0.035925503540807369 0.015001444601587048 0 -0.036928866194885751 0.015458467205157566 0 -0.035824808822384743 0.015133436874967864 0 -0.038398948044702612 0.014131172034517012 0 -0.038464099978559395 0.015875700653953988 0 -0.035886311098838233 0.015230449177447977 0 -0.0405384481293216 0.014740136344943209 0 -0.038398948044702612 0.014131172034517012 0 -0.038464099978559395 0.015875700653953988 0 -0.038464099978559395 0.015875700653953988 0 -0.036738883961587476 0.016864981439256084 0 -0.039402079959853668 0.017810865979729813 0 -0.036738883961587476 0.016864981439256084 0 -0.037421743590229373 0.019575737384290443 0 -0.034607478447459629 0.017218449727108915 0 -0.036738883961587476 0.016864981439256084 0 -0.037421743590229373 0.019575737384290443 0 -0.039402079959853668 0.017810865979729813 0 -0.037421743590229373 0.019575737384290443 0 -0.04097301610114118 0.019978925542069217 0 -0.039255234685670749 0.021757866484751601 0 -0.037421743590229373 0.019575737384290443 0 -0.039402079959853668 0.017810865979729813 0 -0.04097301610114118 0.019978925542069217 0 -0.041771376701266016 0.016556593894110051 0 -0.039402079959853668 0.017810865979729813 0 -0.04097301610114118 0.019978925542069217 0 -0.044647876510405964 0.019861036271221148 0 -0.041771376701266016 0.016556593894110051 0 -0.04097301610114118 0.019978925542069217 0 -0.040958163325198436 0.021388409519537438 0 -0.040818624744988118 0.022247632029220248 0 -0.043462727800406852 0.022689634759358271 0 -0.04097301610114118 0.019978925542069217 0 -0.039128877352024936 0.023852277154486238 0 -0.043462727800406852 0.022689634759358271 0 -0.039128877352024936 0.023852277154486238 0 -0.042033902231175493 0.025223609985721446 0 -0.044269039289099282 0.026008262617263911 0 -0.042033902231175493 0.025223609985721446 0 -0.042593859895566216 0.027212118713198914 0 -0.039128877352024936 0.023852277154486238 0 -0.042033902231175493 0.025223609985721446 0 -0.040532869370075907 0.026796870115762483 0 -0.039128877352024936 0.023852277154486238 0 -0.038951530313225277 0.026870255448108945 0 -0.040532869370075907 0.026796870115762483 0 -0.039128877352024936 0.023852277154486238 0 -0.037301378299869334 0.027433643177356155 0 -0.038951530313225277 0.026870255448108945 0 -0.040818624744988118 0.022247632029220248 0 -0.044114953235509326 0.018579483086074173 0 -0.036709899356297468 0.022556144819126531 0 -0.037578708318264799 0.021602088378937283 0 -0.037809776331024857 0.023807193365405526 0 -0.039255234685670749 0.021757866484751601 0 -0.037578708318264799 0.021602088378937283 0 -0.037809776331024857 0.023807193365405526 0 -0.036709899356297468 0.022556144819126531 0 -0.036116219235083923 0.021255238438029504 0 -0.037578708318264799 0.021602088378937283 0 -0.036709899356297468 0.022556144819126531 0 -0.036116219235083923 0.021255238438029504 0 -0.035588155814957563 0.022643360996491724 0 -0.037421743590229373 0.019575737384290443 0 -0.036116219235083923 0.021255238438029504 0 -0.037578708318264799 0.021602088378937283 0 -0.037421743590229373 0.019575737384290443 0 -0.039255234685670749 0.021757866484751601 0 -0.037578708318264799 0.021602088378937283 0 -0.038186701694948887 0.021723084427627125 0 -0.037878225384368448 0.022026155751378208 0 -0.03816300895270909 0.023074155256070955 0 -0.03761702639308874 0.022439288524498568 0 -0.037799373758353107 0.02159945521316858 0 -0.036626639484699963 0.023055345012301706 0 -0.03768031794376589 0.021116135946699189 0 -0.037799373758353107 0.02159945521316858 0 -0.036626639484699963 0.023055345012301706 0 -0.03761702639308874 0.022439288524498568 0 -0.03816300895270909 0.023074155256070955 0 -0.036626639484699963 0.023055345012301706 0 -0.037878225384368448 0.022026155751378208 0 -0.03761702639308874 0.022439288524498568 0 -0.037799373758353107 0.02159945521316858 0 -0.048620534438566315 0.014134783100298804 0 -0.048296584744209517 0.014141180430943345 0 -0.038186701694948887 0.021723084427627125 0 -0.037878225384368448 0.022026155751378208 0 -0.037799373758353107 0.02159945521316858 0 -0.037878225384368448 0.022026155751378208 0 -0.03761702639308874 0.022439288524498568 0 -0.03816300895270909 0.023074155256070955 0 -0.044114953235509326 0.018579483086074173 0 -0.038886119627908534 0.023677532923590098 0 -0.03600957640761248 0.02342484694646484 0 -0.037151411065396038 0.023169699019807873 0 -0.036346878022935299 0.024515477376127259 0 -0.03600957640761248 0.02342484694646484 0 -0.036408769636533778 0.022966094352560442 0 -0.037151411065396038 0.023169699019807873 0 -0.036709899356297468 0.022556144819126531 0 -0.036408769636533778 0.022966094352560442 0 -0.035588155814957563 0.022643360996491724 0 -0.03600957640761248 0.02342484694646484 0 -0.036408769636533778 0.022966094352560442 0 -0.035588155814957563 0.022643360996491724 0 -0.036709899356297468 0.022556144819126531 0 -0.036408769636533778 0.022966094352560442 0 -0.037151411065396038 0.023169699019807873 0 -0.04307342339530109 0.018777912322941362 0 -0.044114953235509326 0.018579483086074173 0 -0.038155301553401001 0.028430419056926212 0 -0.037301378299869334 0.027433643177356155 0 -0.038951530313225277 0.026870255448108945 0 -0.038206080549042482 0.021716274825181063 0 -0.03768031794376589 0.021116135946699189 0 -0.037799373758353107 0.02159945521316858 0 -0.048620534438566315 0.014134783100298804 0 -0.044114953235509326 0.018579483086074173 0 -0.038155301553401001 0.028430419056926212 0 -0.040532869370075907 0.026796870115762483 0 -0.041883318688183672 0.029559094725514094 0 -0.038155301553401001 0.028430419056926212 0 -0.038951530313225277 0.026870255448108945 0 -0.040532869370075907 0.026796870115762483 0 -0.040532869370075907 0.026796870115762483 0 -0.042593859895566216 0.027212118713198914 0 -0.041883318688183672 0.029559094725514094 0 -0.042033902231175493 0.025223609985721446 0 -0.040532869370075907 0.026796870115762483 0 -0.042593859895566216 0.027212118713198914 0 -0.042593859895566216 0.027212118713198914 0 -0.041883318688183672 0.029559094725514094 0 -0.044233655875824979 0.028470769079790625 0 -0.038186701694948887 0.021723084427627125 0 -0.039567933961938008 0.023376963691154523 0 -0.03816300895270909 0.023074155256070955 0 -0.070930529150324634 -0.0046232210782529972 0 -0.071869213646096428 -0.0044221884763975443 0 -0.071588868159091462 -0.0040581013925050846 0 -0.048620534438566315 0.014134783100298804 0 -0.055706967387612633 0.013476107261346581 0 -0.048620534438566315 0.014134783100298804 0 -0.055202509852839129 0.010246818047635243 0 -0.039567933961938008 0.023376963691154523 0 -0.038774536826741035 0.024116231046715321 0 -0.03816300895270909 0.023074155256070955 0 -0.039567933961938008 0.023376963691154523 0 -0.039913886774161578 0.02465348711585711 0 -0.039466742751331017 0.024244836502684681 0 -0.039567933961938008 0.023376963691154523 0 -0.038774536826741035 0.024116231046715321 0 -0.039466742751331017 0.024244836502684681 0 -0.071588868159091462 -0.0040581013925050846 0 -0.072127414313027868 -0.0040947274199395513 0 -0.072080949088186616 -0.0039421393737219196 0 -0.055202509852839129 0.010246818047635243 0 -0.062079213471129928 0.0073387650971157743 0 -0.071869213646096428 -0.0044221884763975443 0 -0.071588868159091462 -0.0040581013925050846 0 -0.072127414313027868 -0.0040947274199395513 0 -0.071588868159091462 -0.0040581013925050846 0 -0.072080949088186616 -0.0039421393737219196 0 -0.07218639798946834 -0.0036999003068851214 0 -0.071588868159091462 -0.0040581013925050846 0 -0.072188459904109589 -0.0036637423400395922 0 -0.07218639798946834 -0.0036999003068851214 0 -0.039567933961938008 0.023376963691154523 0 -0.039913886774161578 0.02465348711585711 0 -0.040928202658507537 0.024972350621932767 0 -0.039913886774161578 0.02465348711585711 0 -0.039759865908003629 0.02532018347178035 0 -0.040263827017041259 0.025328272184782577 0 -0.039913886774161578 0.02465348711585711 0 -0.040263827017041259 0.025328272184782577 0 -0.040928202658507537 0.024972350621932767 0 -0.062079213471129928 0.0073387650971157743 0 -0.062090838696128282 0.0072956359493257517 0 -0.038774536826741035 0.024116231046715321 0 -0.039342096695807807 0.024821906219006876 0 -0.038431891186982786 0.025089627505861432 0 -0.038774536826741035 0.024116231046715321 0 -0.039466742751331017 0.024244836502684681 0 -0.039342096695807807 0.024821906219006876 0 -0.039913886774161578 0.02465348711585711 0 -0.039466742751331017 0.024244836502684681 0 -0.039342096695807807 0.024821906219006876 0 -0.039759865908003629 0.02532018347178035 0 -0.039342096695807807 0.024821906219006876 0 -0.039198671430952063 0.025682552012763267 0 -0.039913886774161578 0.02465348711585711 0 -0.039759865908003629 0.02532018347178035 0 -0.039342096695807807 0.024821906219006876 0 -0.039342096695807807 0.024821906219006876 0 -0.038431891186982786 0.025089627505861432 0 -0.039198671430952063 0.025682552012763267 0 -0.038774536826741035 0.024116231046715321 0 -0.037492481157451601 0.024323372687336659 0 -0.038431891186982786 0.025089627505861432 0 -0.037492481157451601 0.024323372687336659 0 -0.038431891186982786 0.025089627505861432 0 -0.037290714969639496 0.025720834890141382 0 -0.038774536826741035 0.024116231046715321 0 -0.037492481157451601 0.024323372687336659 0 -0.03816300895270909 0.023074155256070955 0 -0.037492481157451601 0.024323372687336659 0 -0.03816300895270909 0.023074155256070955 0 -0.036626639484699963 0.023055345012301706 0 -0.038886119627908534 0.023677532923590098 0 -0.036786334194061465 0.025593490232298965 0 -0.037492481157451601 0.024323372687336659 0 -0.036626639484699963 0.023055345012301706 0 -0.035599554059846363 0.025026810656108029 0 -0.037492481157451601 0.024323372687336659 0 -0.037290714969639496 0.025720834890141382 0 -0.035599554059846363 0.025026810656108029 0 -0.036275974744870348 0.026792637688681363 0 -0.037290714969639496 0.025720834890141382 0 -0.035599554059846363 0.025026810656108029 0 -0.036275974744870348 0.026792637688681363 0 -0.037290714969639496 0.025720834890141382 0 -0.037629109481488253 0.02714814502963292 0 -0.038309996161944422 0.026059595850874501 0 -0.037290714969639496 0.025720834890141382 0 -0.037629109481488253 0.02714814502963292 0 -0.038309996161944422 0.026059595850874501 0 -0.037629109481488253 0.02714814502963292 0 -0.039148553268217069 0.026900629190982198 0 -0.038431891186982786 0.025089627505861432 0 -0.038309996161944422 0.026059595850874501 0 -0.037290714969639496 0.025720834890141382 0 -0.037629109481488253 0.02714814502963292 0 -0.036459961027021051 0.028154938379033441 0 -0.037616093818715744 0.028385641095757287 0 -0.037629109481488253 0.02714814502963292 0 -0.037616093818715744 0.028385641095757287 0 -0.038508279527462115 0.027951134179847015 0 -0.036275974744870348 0.026792637688681363 0 -0.037629109481488253 0.02714814502963292 0 -0.036459961027021051 0.028154938379033441 0 -0.036275974744870348 0.026792637688681363 0 -0.036459961027021051 0.028154938379033441 0 -0.035471441185265934 0.027885788667018886 0 -0.036459961027021051 0.028154938379033441 0 -0.036699959614598994 0.02878460772950207 0 -0.035483171648193694 0.028503889190895939 0 -0.039055753381094502 0.015773131436106737 0 -0.037976754319118483 0.017775553211021245 0 -0.036459961027021051 0.028154938379033441 0 -0.037616093818715744 0.028385641095757287 0 -0.036905566611531188 0.029235388206470266 0 -0.039585349138021808 0.018578703490227628 0 -0.039055753381094502 0.015773131436106737 0 -0.037616093818715744 0.028385641095757287 0 -0.038768328713907126 0.029435856881654583 0 -0.038508279527462115 0.027951134179847015 0 -0.037616093818715744 0.028385641095757287 0 -0.036905566611531188 0.029235388206470266 0 -0.038768328713907126 0.029435856881654583 0 -0.031140259295695982 -0.0051347700416081322 0 -0.026570372234292778 -0.0095628167746912157 0 -0.033857399039065546 -0.0087026688626617252 0 -0.039055753381094502 0.015773131436106737 0 -0.04044764652413118 0.01080953326806602 0 -0.035168370531788999 0.026474304346430774 0 -0.034892343944963079 0.028009499398187823 0 -0.034279508206728301 0.024886601924814691 0 -0.031140259295695982 -0.0051347700416081322 0 -0.026570372234292778 -0.0095628167746912157 0 -0.029549963831430135 -0.001188814608179313 0 -0.039055753381094502 0.015773131436106737 0 -0.035169687690224084 0.012972395690182823 0 -0.035442273027962871 0.027683245506467769 0 -0.034892343944963079 0.028009499398187823 0 -0.035483171648193694 0.028503889190895939 0 -0.035168370531788999 0.026474304346430774 0 -0.035442273027962871 0.027683245506467769 0 -0.035629739596321576 0.026151959820841623 0 -0.035168370531788999 0.026474304346430774 0 -0.035442273027962871 0.027683245506467769 0 -0.034892343944963079 0.028009499398187823 0 -0.041406638300553925 -0.0077392742304124972 0 -0.033857399039065546 -0.0087026688626617252 0 -0.037633745564246368 -0.0033939469854388205 0 -0.051054847732705667 0.0069955150656734171 0 -0.04044764652413118 0.01080953326806602 0 -0.033857399039065546 -0.0087026688626617252 0 -0.033969858503267489 -0.0038971628541970174 0 -0.037633745564246368 -0.0033939469854388205 0 -0.031140259295695982 -0.0051347700416081322 0 -0.033857399039065546 -0.0087026688626617252 0 -0.033969858503267489 -0.0038971628541970174 0 -0.040579498297601067 0.029619418814320193 0 -0.038768328713907126 0.029435856881654583 0 -0.039550173407126125 0.028242525166540269 0 -0.038768328713907126 0.029435856881654583 0 -0.038508279527462115 0.027951134179847015 0 -0.039550173407126125 0.028242525166540269 0 -0.040579498297601067 0.029619418814320193 0 -0.039550173407126125 0.028242525166540269 0 -0.040736642406854921 0.027308827338384488 0 -0.051054847732705667 0.0069955150656734171 0 -0.056174473955196695 0.010655697637054422 0 -0.039550173407126125 0.028242525166540269 0 -0.040736642406854921 0.027308827338384488 0 -0.039148553268217069 0.026900629190982198 0 -0.040736642406854921 0.027308827338384488 0 -0.039148553268217069 0.026900629190982198 0 -0.040078980407994451 0.026107474020990205 0 -0.038508279527462115 0.027951134179847015 0 -0.039550173407126125 0.028242525166540269 0 -0.039148553268217069 0.026900629190982198 0 -0.037629109481488253 0.02714814502963292 0 -0.038508279527462115 0.027951134179847015 0 -0.039148553268217069 0.026900629190982198 0 -0.038309996161944422 0.026059595850874501 0 -0.039148553268217069 0.026900629190982198 0 -0.039198671430952063 0.025682552012763267 0 -0.039148553268217069 0.026900629190982198 0 -0.039198671430952063 0.025682552012763267 0 -0.040078980407994451 0.026107474020990205 0 -0.039759865908003629 0.02532018347178035 0 -0.039198671430952063 0.025682552012763267 0 -0.040078980407994451 0.026107474020990205 0 -0.038431891186982786 0.025089627505861432 0 -0.038309996161944422 0.026059595850874501 0 -0.039198671430952063 0.025682552012763267 0 -0.062079213471129928 0.0073387650971157743 0 -0.056174473955196695 0.010655697637054422 0 -0.040928202658507537 0.024972350621932767 0 -0.040736642406854921 0.027308827338384488 0 -0.040078980407994451 0.026107474020990205 0 -0.039759865908003629 0.02532018347178035 0 -0.040263827017041259 0.025328272184782577 0 -0.040078980407994451 0.026107474020990205 0 -0.040263827017041259 0.025328272184782577 0 -0.040928202658507537 0.024972350621932767 0 -0.040078980407994451 0.026107474020990205 0 -0.070759373900875791 -0.0055088514244809412 0 -0.070613448100895815 -0.0033943803285174149 0 -0.07167303090785368 -0.0044986765129478388 0 -0.062079213471129928 0.0073387650971157743 0 -0.064721120062629298 0.003393275037268456 0 -0.072816987809097886 -0.003646370760271083 0 -0.072977894842113866 -0.003666947457797901 0 -0.072936611976000751 -0.0037301859410761081 0 -0.072544110213116408 -0.0035395476580017296 0 -0.072816987809097886 -0.003646370760271083 0 -0.072535323806634258 -0.0037275540330411238 0 -0.072544110213116408 -0.0035395476580017296 0 -0.072816987809097886 -0.003646370760271083 0 -0.072841763719854236 -0.0035793050944232718 0 -0.072544110213116408 -0.0035395476580017296 0 -0.072841763719854236 -0.0035793050944232718 0 -0.072703696065202633 -0.003426250851548642 0 -0.072816987809097886 -0.003646370760271083 0 -0.072841763719854236 -0.0035793050944232718 0 -0.073050957141700429 -0.0036268519423653636 0 -0.072841763719854236 -0.0035793050944232718 0 -0.072703696065202633 -0.003426250851548642 0 -0.073188399802693968 -0.0036030684394933038 0 -0.07167303090785368 -0.0044986765129478388 0 -0.072703696065202633 -0.003426250851548642 0 -0.071675465544437392 -0.0034404887200839983 0 -0.064721120062629298 0.003393275037268456 0 -0.065712618434362227 0.0024158501627809799 0 -0.072703696065202633 -0.003426250851548642 0 -0.071675465544437392 -0.0034404887200839983 0 -0.072706311513816152 -0.0025772492195970009 0 -0.072703696065202633 -0.003426250851548642 0 -0.072706311513816152 -0.0025772492195970009 0 -0.073279699749450186 -0.0031640375650098334 0 -0.070613448100895815 -0.0033943803285174149 0 -0.07167303090785368 -0.0044986765129478388 0 -0.071675465544437392 -0.0034404887200839983 0 -0.070613448100895815 -0.0033943803285174149 0 -0.071675465544437392 -0.0034404887200839983 0 -0.07149081529822679 -0.0023703693650689375 0 -0.070398279405961217 -0.0012882482966794521 0 -0.070613448100895815 -0.0033943803285174149 0 -0.07149081529822679 -0.0023703693650689375 0 -0.07149081529822679 -0.0023703693650689375 0 -0.072706311513816152 -0.0025772492195970009 0 -0.072234753100267474 -0.00096534610689074372 0 -0.071675465544437392 -0.0034404887200839983 0 -0.07149081529822679 -0.0023703693650689375 0 -0.072706311513816152 -0.0025772492195970009 0 -0.072234753100267474 -0.00096534610689074372 0 -0.073862454503333536 -0.0011931732658462028 0 -0.073470868214201221 0.0013303839707168954 0 -0.072706311513816152 -0.0025772492195970009 0 -0.072234753100267474 -0.00096534610689074372 0 -0.073862454503333536 -0.0011931732658462028 0 -0.067006603465414816 -0.0016780141298781098 0 -0.072234753100267474 -0.00096534610689074372 0 -0.069909683330299219 0.001750759480280819 0 -0.051054847732705667 0.0069955150656734171 0 -0.063738091495057811 0.0059840047437611267 0 -0.070398279405961217 -0.0012882482966794521 0 -0.07149081529822679 -0.0023703693650689375 0 -0.072234753100267474 -0.00096534610689074372 0 -0.078172049592070872 -0.0018763157136180385 0 -0.080703733100312189 -0.0027851095273987931 0 -0.077850797656175114 0.00075638729650279266 0 -0.078172049592070872 -0.0018763157136180385 0 -0.075950990320366216 -0.0052422542289672401 0 -0.080703733100312189 -0.0027851095273987931 0 -0.081252789488838156 -0.0010251566321434829 0 -0.080330312087731406 -0.00024980376122380073 0 -0.073862454503333536 -0.0011931732658462028 0 -0.074292811742057846 -0.0022979582850537134 0 -0.075822270072629316 0.00015162138933210004 0 -0.07568751507371739 -0.0030450451620410005 0 -0.07569456262866385 -0.0017423156556450471 0 -0.078172049592070872 -0.0018763157136180385 0 -0.075950990320366216 -0.0052422542289672401 0 -0.075822270072629316 0.00015162138933210004 0 -0.072706311513816152 -0.0025772492195970009 0 -0.074292811742057846 -0.0022979582850537134 0 -0.073279699749450186 -0.0031640375650098334 0 -0.072706311513816152 -0.0025772492195970009 0 -0.073862454503333536 -0.0011931732658462028 0 -0.074292811742057846 -0.0022979582850537134 0 -0.075950990320366216 -0.0052422542289672401 0 -0.079775944267174631 -0.0083608314791002707 0 -0.080703733100312189 -0.0027851095273987931 0 -0.075950990320366216 -0.0052422542289672401 0 -0.079775944267174631 -0.0083608314791002707 0 -0.075830399463889378 -0.01028916381232251 0 -0.074527849456397205 -0.00051183350803556582 0 -0.074119800484707607 -0.0015817489420004666 0 -0.075283179168183736 -0.0021762030549526009 0 -0.077783731897548017 -0.0027402914868081725 0 -0.075938428704569183 -0.0036462085919745442 0 -0.074527849456397205 -0.00051183350803556582 0 -0.073029866220240269 -0.0012609819724958787 0 -0.074119800484707607 -0.0015817489420004666 0 -0.07568751507371739 -0.0030450451620410005 0 -0.075938428704569183 -0.0036462085919745442 0 -0.074292811742057846 -0.0022979582850537134 0 -0.073279699749450186 -0.0031640375650098334 0 -0.073566883932635843 -0.0035585677839509314 0 -0.075938428704569183 -0.0036462085919745442 0 -0.075815354491491127 -0.003686497937495958 0 -0.072703696065202633 -0.003426250851548642 0 -0.073279699749450186 -0.0031640375650098334 0 -0.073188399802693968 -0.0036030684394933038 0 -0.073279699749450186 -0.0031640375650098334 0 -0.073566883932635843 -0.0035585677839509314 0 -0.073188399802693968 -0.0036030684394933038 0 -0.073206483595803382 -0.0035765003221677168 0 -0.073050957141700429 -0.0036268519423653636 0 -0.073062132186145837 -0.0036640913859034849 0 -0.073029866220240269 -0.0012609819724958787 0 -0.073025678975075919 -0.0026308271177219026 0 -0.073485982578672518 -0.0019766110211034324 0 -0.075938428704569183 -0.0036462085919745442 0 -0.075211568589986885 -0.0034097162087428712 0 -0.073206483595803382 -0.0035765003221677168 0 -0.073188399802693968 -0.0036030684394933038 0 -0.073050957141700429 -0.0036268519423653636 0 -0.072841763719854236 -0.0035793050944232718 0 -0.073188399802693968 -0.0036030684394933038 0 -0.073050957141700429 -0.0036268519423653636 0 -0.073025678975075919 -0.0026308271177219026 0 -0.073485982578672518 -0.0019766110211034324 0 -0.073459579053644475 -0.0025354342026094709 0 -0.072816987809097886 -0.003646370760271083 0 -0.073050957141700429 -0.0036268519423653636 0 -0.072977894842113866 -0.003666947457797901 0 -0.073050957141700429 -0.0036268519423653636 0 -0.073062132186145837 -0.0036640913859034849 0 -0.072977894842113866 -0.003666947457797901 0 -0.074119800484707607 -0.0015817489420004666 0 -0.073897968949837731 -0.0021556799111697202 0 -0.07442557664135277 -0.002475515971448676 0 -0.074119800484707607 -0.0015817489420004666 0 -0.07442557664135277 -0.002475515971448676 0 -0.075283179168183736 -0.0021762030549526009 0 -0.073029866220240269 -0.0012609819724958787 0 -0.074119800484707607 -0.0015817489420004666 0 -0.073485982578672518 -0.0019766110211034324 0 -0.074119800484707607 -0.0015817489420004666 0 -0.073485982578672518 -0.0019766110211034324 0 -0.073897968949837731 -0.0021556799111697202 0 -0.073897968949837731 -0.0021556799111697202 0 -0.073459579053644475 -0.0025354342026094709 0 -0.07442557664135277 -0.002475515971448676 0 -0.073485982578672518 -0.0019766110211034324 0 -0.073897968949837731 -0.0021556799111697202 0 -0.073459579053644475 -0.0025354342026094709 0 -0.073459579053644475 -0.0025354342026094709 0 -0.07442557664135277 -0.002475515971448676 0 -0.075363510350196034 -0.0039193972301386198 0 -0.073459579053644475 -0.0025354342026094709 0 -0.073518643522315533 -0.0033705637237126458 0 -0.074792870874254139 -0.003657337671788084 0 -0.073518643522315533 -0.0033705637237126458 0 -0.073197319855380541 -0.0040733944477795532 0 -0.074792870874254139 -0.003657337671788084 0 -0.075113830667883491 0.0032922040681405019 0 -0.070802194025596524 0.009289825485776183 0 -0.049211907374661586 0.031630259275253758 0 -0.051987876103171564 0.030933921579553731 0 -0.052802950815429156 0.032692608753297395 0 -0.062972317067901823 0.01133783679067368 0 -0.070802194025596524 0.009289825485776183 0 -0.050331470116251942 0.030395270955142793 0 -0.049211907374661586 0.031630259275253758 0 -0.051987876103171564 0.030933921579553731 0 -0.073197319855380541 -0.0040733944477795532 0 -0.073079929111361422 -0.0037735483035326251 0 -0.072794252270113935 -0.0039454274096467432 0 -0.049211907374661586 0.031630259275253758 0 -0.04559870523722552 0.030617418017661241 0 -0.048404744729273197 0.030195250211495592 0 -0.050331470116251942 0.030395270955142793 0 -0.049211907374661586 0.031630259275253758 0 -0.048404744729273197 0.030195250211495592 0 -0.073025678975075919 -0.0026308271177219026 0 -0.073518643522315533 -0.0033705637237126458 0 -0.073079929111361422 -0.0037735483035326251 0 -0.073079929111361422 -0.0037735483035326251 0 -0.072936611976000751 -0.0037301859410761081 0 -0.072794252270113935 -0.0039454274096467432 0 -0.073062132186145837 -0.0036640913859034849 0 -0.073079929111361422 -0.0037735483035326251 0 -0.072936611976000751 -0.0037301859410761081 0 -0.075211568589986885 -0.0034097162087428712 0 -0.074984528197268183 -0.0034696484699963817 0 -0.073518643522315533 -0.0033705637237126458 0 -0.073197319855380541 -0.0040733944477795532 0 -0.073079929111361422 -0.0037735483035326251 0 -0.073025678975075919 -0.0026308271177219026 0 -0.073459579053644475 -0.0025354342026094709 0 -0.073518643522315533 -0.0033705637237126458 0 -0.073062132186145837 -0.0036640913859034849 0 -0.072977894842113866 -0.003666947457797901 0 -0.072936611976000751 -0.0037301859410761081 0 -0.072535323806634258 -0.0037275540330411238 0 -0.07238630150410276 -0.0039143572811657706 0 -0.072794252270113935 -0.0039454274096467432 0 -0.072936611976000751 -0.0037301859410761081 0 -0.072535323806634258 -0.0037275540330411238 0 -0.072794252270113935 -0.0039454274096467432 0 -0.072816987809097886 -0.003646370760271083 0 -0.072936611976000751 -0.0037301859410761081 0 -0.072535323806634258 -0.0037275540330411238 0 -0.072193173111865808 -0.0036761285311960818 0 -0.07218639798946834 -0.0036999003068851214 0 -0.072535323806634258 -0.0037275540330411238 0 -0.072193173111865808 -0.0036761285311960818 0 -0.072544110213116408 -0.0035395476580017296 0 -0.072535323806634258 -0.0037275540330411238 0 -0.072080949088186616 -0.0039421393737219196 0 -0.07218639798946834 -0.0036999003068851214 0 -0.07238630150410276 -0.0039143572811657706 0 -0.07218639798946834 -0.0036999003068851214 0 -0.072535323806634258 -0.0037275540330411238 0 -0.07238630150410276 -0.0039143572811657706 0 -0.072127414313027868 -0.0040947274199395513 0 -0.07238630150410276 -0.0039143572811657706 0 -0.072573138887843613 -0.0041999390258152056 0 -0.071869213646096428 -0.0044221884763975443 0 -0.072127414313027868 -0.0040947274199395513 0 -0.072573138887843613 -0.0041999390258152056 0 -0.072127414313027868 -0.0040947274199395513 0 -0.072080949088186616 -0.0039421393737219196 0 -0.07238630150410276 -0.0039143572811657706 0 -0.062972317067901823 0.01133783679067368 0 -0.059253291005541234 0.012602180856914006 0 -0.07238630150410276 -0.0039143572811657706 0 -0.072573138887843613 -0.0041999390258152056 0 -0.072794252270113935 -0.0039454274096467432 0 -0.073197319855380541 -0.0040733944477795532 0 -0.072573138887843613 -0.0041999390258152056 0 -0.072794252270113935 -0.0039454274096467432 0 -0.04559870523722552 0.030617418017661241 0 -0.0471378818475333 0.028926091481443976 0 -0.048404744729273197 0.030195250211495592 0 -0.04559870523722552 0.030617418017661241 0 -0.0471378818475333 0.028926091481443976 0 -0.044233655875824979 0.028470769079790625 0 -0.055706967387612633 0.013476107261346581 0 -0.059253291005541234 0.012602180856914006 0 -0.041883318688183672 0.029559094725514094 0 -0.04559870523722552 0.030617418017661241 0 -0.044233655875824979 0.028470769079790625 0 -0.044269039289099282 0.026008262617263911 0 -0.042593859895566216 0.027212118713198914 0 -0.044233655875824979 0.028470769079790625 0 -0.044269039289099282 0.026008262617263911 0 -0.044233655875824979 0.028470769079790625 0 -0.046204408055343836 0.027195697004469666 0 -0.046803920021670692 0.025044640980869254 0 -0.046204408055343836 0.027195697004469666 0 -0.048410590216753951 0.027235047856397149 0 -0.0471378818475333 0.028926091481443976 0 -0.044233655875824979 0.028470769079790625 0 -0.046204408055343836 0.027195697004469666 0 -0.0471378818475333 0.028926091481443976 0 -0.046204408055343836 0.027195697004469666 0 -0.048410590216753951 0.027235047856397149 0 -0.048410590216753951 0.027235047856397149 0 -0.051043318714417758 0.026884462234093343 0 -0.049592393981222095 0.029124420048815318 0 -0.049424829364206044 0.024697260406632188 0 -0.048410590216753951 0.027235047856397149 0 -0.051043318714417758 0.026884462234093343 0 -0.051043318714417758 0.026884462234093343 0 -0.049592393981222095 0.029124420048815318 0 -0.051587478429588531 0.029473097394052891 0 -0.050331470116251942 0.030395270955142793 0 -0.051587478429588531 0.029473097394052891 0 -0.051987876103171564 0.030933921579553731 0 -0.050331470116251942 0.030395270955142793 0 -0.049592393981222095 0.029124420048815318 0 -0.051587478429588531 0.029473097394052891 0 -0.0471378818475333 0.028926091481443976 0 -0.049592393981222095 0.029124420048815318 0 -0.048404744729273197 0.030195250211495592 0 -0.050331470116251942 0.030395270955142793 0 -0.049592393981222095 0.029124420048815318 0 -0.048404744729273197 0.030195250211495592 0 -0.0471378818475333 0.028926091481443976 0 -0.048410590216753951 0.027235047856397149 0 -0.049592393981222095 0.029124420048815318 0 -0.054761805173131076 0.029349323097662257 0 -0.053264428542806538 0.027615960747936472 0 -0.055664826048112626 0.027734294798218845 0 -0.054761805173131076 0.029349323097662257 0 -0.053317434642188057 0.030152033471887607 0 -0.053264428542806538 0.027615960747936472 0 -0.054761805173131076 0.029349323097662257 0 -0.055664826048112626 0.027734294798218845 0 -0.056706800653455562 0.029816333284002475 0 -0.054761805173131076 0.029349323097662257 0 -0.056706800653455562 0.029816333284002475 0 -0.054715059968183356 0.03126687361366217 0 -0.054761805173131076 0.029349323097662257 0 -0.053317434642188057 0.030152033471887607 0 -0.054715059968183356 0.03126687361366217 0 -0.051587478429588531 0.029473097394052891 0 -0.053317434642188057 0.030152033471887607 0 -0.053264428542806538 0.027615960747936472 0 -0.051587478429588531 0.029473097394052891 0 -0.053317434642188057 0.030152033471887607 0 -0.051987876103171564 0.030933921579553731 0 -0.051043318714417758 0.026884462234093343 0 -0.051587478429588531 0.029473097394052891 0 -0.053264428542806538 0.027615960747936472 0 -0.053070485208160212 0.025800005210854737 0 -0.051043318714417758 0.026884462234093343 0 -0.053264428542806538 0.027615960747936472 0 -0.05484056800357362 0.026011236894062439 0 -0.053070485208160212 0.025800005210854737 0 -0.053264428542806538 0.027615960747936472 0 -0.065907539530378284 0.022096821874090646 0 -0.057652664281096805 0.026064869568535973 0 -0.056525735795058228 0.025850828682886264 0 -0.05484056800357362 0.026011236894062439 0 -0.053264428542806538 0.027615960747936472 0 -0.057138036422614183 0.025570887519788081 0 -0.053264428542806538 0.027615960747936472 0 -0.055664826048112626 0.027734294798218845 0 -0.057138036422614183 0.025570887519788081 0 -0.055664826048112626 0.027734294798218845 0 -0.056706800653455562 0.029816333284002475 0 -0.086775430848165414 0.019025980785934978 0 -0.084601843969772328 0.017020393133306468 0 -0.087078072631503495 0.015115572527604515 0 -0.065907539530378284 0.022096821874090646 0 -0.073790423353326112 0.01924667617012224 0 -0.086775430848165414 0.019025980785934978 0 -0.084601843969772328 0.017020393133306468 0 -0.083405206981317495 0.018603972185448191 0 -0.084601843969772328 0.017020393133306468 0 -0.085699174009759238 0.014692156139666734 0 -0.083937801359430603 0.014796142312308023 0 -0.084601843969772328 0.017020393133306468 0 -0.083937801359430603 0.014796142312308023 0 -0.083217559613647685 0.015688982396062274 0 -0.079493941581135 0.016122977677569726 0 -0.073790423353326112 0.01924667617012224 0 -0.084601843969772328 0.017020393133306468 0 -0.085699174009759238 0.014692156139666734 0 -0.087378927347641813 0.014855186118680717 0 -0.085699174009759238 0.014692156139666734 0 -0.087378927347641813 0.014855186118680717 0 -0.087473701491457334 0.013774606146745234 0 -0.073790423353326112 0.01924667617012224 0 -0.07410447346929909 0.018774044241295848 0 -0.085699174009759238 0.014692156139666734 0 -0.087473701491457334 0.013774606146745234 0 -0.085154452308553216 0.012994667909433598 0 -0.087473701491457334 0.013774606146745234 0 -0.087681114628298848 0.012821973057157503 0 -0.085154452308553216 0.012994667909433598 0 -0.085057236342376621 0.012948578413952619 0 -0.086676983044866776 0.012260702230706249 0 -0.087681114628298848 0.012821973057157503 0 -0.085154452308553216 0.012994667909433598 0 -0.08866412351811398 0.01134964130460752 0 -0.087369093224461222 0.014858833233551104 0 -0.087473701491457334 0.013774606146745234 0 -0.089444131048736969 0.01318090406106116 0 -0.085699174009759238 0.014692156139666734 0 -0.083937801359430603 0.014796142312308023 0 -0.085154452308553216 0.012994667909433598 0 -0.085576255259897926 0.012549939540646596 0 -0.084071349122802397 0.011579903747269761 0 -0.085100240601463789 0.011034479980673764 0 -0.085576255259897926 0.012549939540646596 0 -0.084071349122802397 0.011579903747269761 0 -0.083513918998529321 0.012735913881165382 0 -0.084071349122802397 0.011579903747269761 0 -0.085100240601463789 0.011034479980673764 0 -0.084147822166409494 0.010367898800592256 0 -0.085576255259897926 0.012549939540646596 0 -0.085100240601463789 0.011034479980673764 0 -0.085967664163927468 0.011229574886798788 0 -0.085576255259897926 0.012549939540646596 0 -0.085967664163927468 0.011229574886798788 0 -0.086984101672890571 0.01116991589468015 0 -0.085100240601463789 0.011034479980673764 0 -0.085780285016903449 0.010718936832580185 0 -0.085582567129389178 0.010090598074755201 0 -0.085100240601463789 0.011034479980673764 0 -0.085967664163927468 0.011229574886798788 0 -0.085780285016903449 0.010718936832580185 0 -0.085967664163927468 0.011229574886798788 0 -0.085780285016903449 0.010718936832580185 0 -0.086405303586851154 0.010555426403556117 0 -0.085920692011432931 0.010268722086448136 0 -0.085908516284167971 0.0097333528117355111 0 -0.086405303586851154 0.010555426403556117 0 -0.085780285016903449 0.010718936832580185 0 -0.085920692011432931 0.010268722086448136 0 -0.085582567129389178 0.010090598074755201 0 -0.085780285016903449 0.010718936832580185 0 -0.085920692011432931 0.010268722086448136 0 -0.086405303586851154 0.010555426403556117 0 -0.085920692011432931 0.010268722086448136 0 -0.085908516284167971 0.0097333528117355111 0 -0.085582567129389178 0.010090598074755201 0 -0.081407824679860047 0.0037526806953634916 0 -0.081411921709184099 0.0038244480450206619 0 -0.085582567129389178 0.010090598074755201 0 -0.084857915586073848 0.009977455995696544 0 -0.085280108282286798 0.0093227656209603441 0 -0.086025690212678252 0.0095800460630931557 0 -0.085582567129389178 0.010090598074755201 0 -0.085280108282286798 0.0093227656209603441 0 -0.081407824679860047 0.0037526806953634916 0 -0.081617639081292701 0.0038634206828703148 0 -0.085100240601463789 0.011034479980673764 0 -0.085582567129389178 0.010090598074755201 0 -0.084857915586073848 0.009977455995696544 0 -0.085100240601463789 0.011034479980673764 0 -0.084857915586073848 0.009977455995696544 0 -0.084147822166409494 0.010367898800592256 0 -0.084857915586073848 0.009977455995696544 0 -0.084324283580438544 0.009364716054382936 0 -0.085280108282286798 0.0093227656209603441 0 -0.084857915586073848 0.009977455995696544 0 -0.084324283580438544 0.009364716054382936 0 -0.084147822166409494 0.010367898800592256 0 -0.085908516284167971 0.0097333528117355111 0 -0.086405303586851154 0.010555426403556117 0 -0.088529288947572768 0.010666053006282195 0 -0.086984101672890571 0.01116991589468015 0 -0.086405303586851154 0.010555426403556117 0 -0.088529288947572768 0.010666053006282195 0 -0.078703259116855398 -0.0028936117496677471 0 -0.077037320902753531 -0.0034067711360652396 0 -0.077385736605749392 -0.0025017927479594046 0 -0.081407824679860047 0.0037526806953634916 0 -0.078940403333195894 0.0065776496871655923 0 -0.085576255259897926 0.012549939540646596 0 -0.086984101672890571 0.01116991589468015 0 -0.08866412351811398 0.01134964130460752 0 -0.086984101672890571 0.01116991589468015 0 -0.088529288947572768 0.010666053006282195 0 -0.08866412351811398 0.01134964130460752 0 -0.085967664163927468 0.011229574886798788 0 -0.086984101672890571 0.01116991589468015 0 -0.086405303586851154 0.010555426403556117 0 -0.077037320902753531 -0.0034067711360652396 0 -0.076031490074301461 -0.0029666930132951734 0 -0.075363510350196034 -0.0039193972301386198 0 -0.088529288947572768 0.010666053006282195 0 -0.08866412351811398 0.01134964130460752 0 -0.091437111052442552 0.011563502052719317 0 -0.078940403333195894 0.0065776496871655923 0 -0.070802194025596524 0.009289825485776183 0 -0.077037320902753531 -0.0034067711360652396 0 -0.076031490074301461 -0.0029666930132951734 0 -0.076443040768659473 -0.0023645049471898699 0 -0.08866412351811398 0.01134964130460752 0 -0.089444131048736969 0.01318090406106116 0 -0.091437111052442552 0.011563502052719317 0 -0.087681114628298848 0.012821973057157503 0 -0.08866412351811398 0.01134964130460752 0 -0.089444131048736969 0.01318090406106116 0 -0.073790423353326112 0.01924667617012224 0 -0.071232069877790238 0.01598553886941011 0 -0.087473701491457334 0.013774606146745234 0 -0.087681114628298848 0.012821973057157503 0 -0.089444131048736969 0.01318090406106116 0 -0.054715059968183356 0.03126687361366217 0 -0.051987876103171564 0.030933921579553731 0 -0.052802950815429156 0.032692608753297395 0 -0.053317434642188057 0.030152033471887607 0 -0.054715059968183356 0.03126687361366217 0 -0.051987876103171564 0.030933921579553731 0 -0.071232069877790238 0.01598553886941011 0 -0.070802194025596524 0.009289825485776183 0 -0.076031490074301461 -0.0029666930132951734 0 -0.075363510350196034 -0.0039193972301386198 0 -0.075283179168183736 -0.0021762030549526009 0 -0.07442557664135277 -0.002475515971448676 0 -0.075363510350196034 -0.0039193972301386198 0 -0.075283179168183736 -0.0021762030549526009 0 -0.076031490074301461 -0.0029666930132951734 0 -0.075283179168183736 -0.0021762030549526009 0 -0.076443040768659473 -0.0023645049471898699 0 -0.075283179168183736 -0.0021762030549526009 0 -0.076443040768659473 -0.0023645049471898699 0 -0.075997831315624056 -0.0011781785114792966 0 -0.076443040768659473 -0.0023645049471898699 0 -0.075997831315624056 -0.0011781785114792966 0 -0.077358745450429062 -0.0013418014402084447 0 -0.077037320902753531 -0.0034067711360652396 0 -0.076443040768659473 -0.0023645049471898699 0 -0.077385736605749392 -0.0025017927479594046 0 -0.076443040768659473 -0.0023645049471898699 0 -0.077358745450429062 -0.0013418014402084447 0 -0.077385736605749392 -0.0025017927479594046 0 -0.081418255473467246 -0.00047193259326365526 0 -0.081870969523982942 0.0017327336321533145 0 -0.075997831315624056 -0.0011781785114792966 0 -0.076019790591404054 0.00022134023134382381 0 -0.077358745450429062 -0.0013418014402084447 0 -0.074527849456397205 -0.00051183350803556582 0 -0.075283179168183736 -0.0021762030549526009 0 -0.075997831315624056 -0.0011781785114792966 0 -0.074527849456397205 -0.00051183350803556582 0 -0.075997831315624056 -0.0011781785114792966 0 -0.076019790591404054 0.00022134023134382381 0 -0.077783731897548017 -0.0027402914868081725 0 -0.081418255473467246 -0.00047193259326365526 0 -0.079775944267174631 -0.0083608314791002707 0 -0.0837703452501702 -0.0063831112019607956 0 -0.080703733100312189 -0.0027851095273987931 0 -0.081418255473467246 -0.00047193259326365526 0 -0.081252789488838156 -0.0010251566321434829 0 -0.081418255473467246 -0.00047193259326365526 0 -0.084621597038986626 0.00034695670599572644 0 -0.091440944687113571 0.0032961687077595406 0 -0.088048764755572148 0.0016079009725466977 0 -0.088745837338493144 0.0064734876597276675 0 -0.085360012261607304 -0.0017233499512602313 0 -0.085708588646965983 -0.0013622957494765617 0 -0.085680434075369918 -0.0011882522597638178 0 -0.084972085341364217 -0.0031582913677301863 0 -0.085360012261607304 -0.0017233499512602313 0 -0.085708588646965983 -0.0013622957494765617 0 -0.084972085341364217 -0.0031582913677301863 0 -0.085360012261607304 -0.0017233499512602313 0 -0.082615752411930338 -0.0024023424598720133 0 -0.085360012261607304 -0.0017233499512602313 0 -0.082615752411930338 -0.0024023424598720133 0 -0.08211635682052032 -3.2534496687739647e-05 0 -0.084626989731261634 0.0002079060298897308 0 -0.084621597038986626 0.00034695670599572644 0 -0.084382537780885142 -0.00021545554890223964 0 -0.088048764755572148 0.0016079009725466977 0 -0.085988009708564545 0.0035031715732014722 0 -0.084382537780885142 -0.00021545554890223964 0 -0.085708588646965983 -0.0013622957494765617 0 -0.085680434075369918 -0.0011882522597638178 0 -0.088048764755572148 0.0016079009725466977 0 -0.085988009708564545 0.0035031715732014722 0 -0.088745837338493144 0.0064734876597276675 0 -0.084382537780885142 -0.00021545554890223964 0 -0.085988009708564545 0.0035031715732014722 0 -0.083368396913740914 0.0035557375951141175 0 -0.085988009708564545 0.0035031715732014722 0 -0.085305212318646351 0.0058456433613854825 0 -0.083368396913740914 0.0035557375951141175 0 -0.085305212318646351 0.0058456433613854825 0 -0.083843694322528167 0.0070847096277870079 0 -0.083080234286728921 0.0056265643287721941 0 -0.085988009708564545 0.0035031715732014722 0 -0.085305212318646351 0.0058456433613854825 0 -0.088745837338493144 0.0064734876597276675 0 -0.085305212318646351 0.0058456433613854825 0 -0.088745837338493144 0.0064734876597276675 0 -0.086207639550816104 0.0076527330762390837 0 -0.078703259116855398 -0.0028936117496677471 0 -0.077358745450429062 -0.0013418014402084447 0 -0.077385736605749392 -0.0025017927479594046 0 -0.086079189292168831 0.0095637548095838971 0 -0.088745837338493144 0.0064734876597276675 0 -0.086207639550816104 0.0076527330762390837 0 -0.081407824679860047 0.0037526806953634916 0 -0.081870969523982942 0.0017327336321533145 0 -0.084929872364310016 0.0079796705516141896 0 -0.083525169454951628 0.0085520757686815257 0 -0.083843694322528167 0.0070847096277870079 0 -0.085305212318646351 0.0058456433613854825 0 -0.084929872364310016 0.0079796705516141896 0 -0.083843694322528167 0.0070847096277870079 0 -0.085305212318646351 0.0058456433613854825 0 -0.084929872364310016 0.0079796705516141896 0 -0.086207639550816104 0.0076527330762390837 0 -0.084929872364310016 0.0079796705516141896 0 -0.086207639550816104 0.0076527330762390837 0 -0.085280108282286798 0.0093227656209603441 0 -0.086079189292168831 0.0095637548095838971 0 -0.086207639550816104 0.0076527330762390837 0 -0.085280108282286798 0.0093227656209603441 0 -0.084324283580438544 0.009364716054382936 0 -0.084929872364310016 0.0079796705516141896 0 -0.085280108282286798 0.0093227656209603441 0 -0.084324283580438544 0.009364716054382936 0 -0.084929872364310016 0.0079796705516141896 0 -0.083525169454951628 0.0085520757686815257 0 -0.084324283580438544 0.009364716054382936 0 -0.083525169454951628 0.0085520757686815257 0 -0.083370453429744917 0.0097597231470286927 0 -0.083525169454951628 0.0085520757686815257 0 -0.082190112748889807 0.0092698518508371221 0 -0.083370453429744917 0.0097597231470286927 0 -0.083525169454951628 0.0085520757686815257 0 -0.082190112748889807 0.0092698518508371221 0 -0.082411215798005699 0.0073918608461203588 0 -0.083525169454951628 0.0085520757686815257 0 -0.082411215798005699 0.0073918608461203588 0 -0.083843694322528167 0.0070847096277870079 0 -0.082190112748889807 0.0092698518508371221 0 -0.080315702483926152 0.0074050017176830645 0 -0.079933264063713191 0.0095830951643299331 0 -0.082190112748889807 0.0092698518508371221 0 -0.082411215798005699 0.0073918608461203588 0 -0.080315702483926152 0.0074050017176830645 0 -0.080315702483926152 0.0074050017176830645 0 -0.080856116995765476 0.0051420396821877214 0 -0.078046646702323572 0.0068086203521990516 0 -0.082411215798005699 0.0073918608461203588 0 -0.080315702483926152 0.0074050017176830645 0 -0.080856116995765476 0.0051420396821877214 0 -0.080856116995765476 0.0051420396821877214 0 -0.083080234286728921 0.0056265643287721941 0 -0.083368396913740914 0.0035557375951141175 0 -0.082411215798005699 0.0073918608461203588 0 -0.083843694322528167 0.0070847096277870079 0 -0.083080234286728921 0.0056265643287721941 0 -0.082411215798005699 0.0073918608461203588 0 -0.080856116995765476 0.0051420396821877214 0 -0.083080234286728921 0.0056265643287721941 0 -0.085305212318646351 0.0058456433613854825 0 -0.083080234286728921 0.0056265643287721941 0 -0.083368396913740914 0.0035557375951141175 0 -0.080856116995765476 0.0051420396821877214 0 -0.083368396913740914 0.0035557375951141175 0 -0.081234812955459132 0.0022227941551623467 0 -0.084382537780885142 -0.00021545554890223964 0 -0.083368396913740914 0.0035557375951141175 0 -0.081234812955459132 0.0022227941551623467 0 -0.080856116995765476 0.0051420396821877214 0 -0.081234812955459132 0.0022227941551623467 0 -0.078155020108241408 0.0032611572892571614 0 -0.081234812955459132 0.0022227941551623467 0 -0.079879593040550589 0.00068775988032946809 0 -0.081790083275597864 -0.0012731286240781135 0 -0.081234812955459132 0.0022227941551623467 0 -0.079879593040550589 0.00068775988032946809 0 -0.078155020108241408 0.0032611572892571614 0 -0.084382537780885142 -0.00021545554890223964 0 -0.081234812955459132 0.0022227941551623467 0 -0.081790083275597864 -0.0012731286240781135 0 -0.079879593040550589 0.00068775988032946809 0 -0.078155020108241408 0.0032611572892571614 0 -0.078114568252850222 -0.001525075336711841 0 -0.078155020108241408 0.0032611572892571614 0 -0.074999861611677071 0.0032139614710737707 0 -0.078114568252850222 -0.001525075336711841 0 -0.074999861611677071 0.0032139614710737707 0 -0.078114568252850222 -0.001525075336711841 0 -0.074999871620237121 -0.0012908277260607166 0 -0.078155020108241408 0.0032611572892571614 0 -0.074999861611677071 0.0032139614710737707 0 -0.078046646702323572 0.0068086203521990516 0 -0.074999861611677071 0.0032139614710737707 0 -0.078046646702323572 0.0068086203521990516 0 -0.074999861128155515 0.0077189863527106209 0 -0.080856116995765476 0.0051420396821877214 0 -0.078155020108241408 0.0032611572892571614 0 -0.078046646702323572 0.0068086203521990516 0 -0.078046646702323572 0.0068086203521990516 0 -0.077427179199843085 0.010136216044556241 0 -0.079933264063713191 0.0095830951643299331 0 -0.080315702483926152 0.0074050017176830645 0 -0.078046646702323572 0.0068086203521990516 0 -0.079933264063713191 0.0095830951643299331 0 -0.078046646702323572 0.0068086203521990516 0 -0.074999861128155515 0.0077189863527106209 0 -0.077427179199843085 0.010136216044556241 0 -0.074999861128155515 0.0077189863527106209 0 -0.074999895905672576 0.012223556981222534 0 -0.077427179199843085 0.010136216044556241 0 -0.074999895905672576 0.012223556981222534 0 -0.078298559963755066 0.012755547925555024 0 -0.077427179199843085 0.010136216044556241 0 -0.074999944586597131 0.012224035347548508 0 -0.078366947528560243 0.012932352977404596 0 -0.076817782895144029 0.014929195348147142 0 -0.075003114599112478 0.012224452970320614 0 -0.07784177114722815 0.012754962725409271 0 -0.078298559963755066 0.012755547925555024 0 -0.079377046713189681 0.01122276520335932 0 -0.077427179199843085 0.010136216044556241 0 -0.079377046713189681 0.01122276520335932 0 -0.077427179199843085 0.010136216044556241 0 -0.079933264063713191 0.0095830951643299331 0 -0.079933264063713191 0.0095830951643299331 0 -0.080871759235798715 0.011191770626827311 0 -0.081710308599628856 0.010462666401189509 0 -0.082190112748889807 0.0092698518508371221 0 -0.079933264063713191 0.0095830951643299331 0 -0.081710308599628856 0.010462666401189509 0 -0.080871759235798715 0.011191770626827311 0 -0.081710308599628856 0.010462666401189509 0 -0.082256375843657817 0.012127297586081455 0 -0.079377046713189681 0.01122276520335932 0 -0.079933264063713191 0.0095830951643299331 0 -0.080871759235798715 0.011191770626827311 0 -0.079377046713189681 0.01122276520335932 0 -0.080871759235798715 0.011191770626827311 0 -0.080743381316515428 0.012283427110782759 0 -0.084147822166409494 0.010367898800592256 0 -0.083370453429744917 0.0097597231470286927 0 -0.082928367758521818 0.010885543156711197 0 -0.084324283580438544 0.009364716054382936 0 -0.084147822166409494 0.010367898800592256 0 -0.083370453429744917 0.0097597231470286927 0 -0.082190112748889807 0.0092698518508371221 0 -0.083370453429744917 0.0097597231470286927 0 -0.082928367758521818 0.010885543156711197 0 -0.082190112748889807 0.0092698518508371221 0 -0.081710308599628856 0.010462666401189509 0 -0.082928367758521818 0.010885543156711197 0 -0.081710308599628856 0.010462666401189509 0 -0.082928367758521818 0.010885543156711197 0 -0.082256375843657817 0.012127297586081455 0 -0.082928367758521818 0.010885543156711197 0 -0.083178219325629396 0.011829170739857106 0 -0.082256375843657817 0.012127297586081455 0 -0.084071349122802397 0.011579903747269761 0 -0.084147822166409494 0.010367898800592256 0 -0.082928367758521818 0.010885543156711197 0 -0.084071349122802397 0.011579903747269761 0 -0.082928367758521818 0.010885543156711197 0 -0.083178219325629396 0.011829170739857106 0 -0.083937801359430603 0.014796142312308023 0 -0.085154452308553216 0.012994667909433598 0 -0.081886474900852019 0.014492704130838203 0 -0.085057236342376621 0.012948578413952619 0 -0.082301887539704327 0.014124960067544648 0 -0.085576255259897926 0.012549939540646596 0 -0.083513918998529321 0.012735913881165382 0 -0.08213359018483106 0.014109842984492029 0 -0.083513918998529321 0.012735913881165382 0 -0.083178219325629396 0.011829170739857106 0 -0.082256375843657817 0.012127297586081455 0 -0.084071349122802397 0.011579903747269761 0 -0.083513918998529321 0.012735913881165382 0 -0.083178219325629396 0.011829170739857106 0 -0.083513918998529321 0.012735913881165382 0 -0.082256375843657817 0.012127297586081455 0 -0.082447653279842673 0.013120935564519001 0 -0.082256375843657817 0.012127297586081455 0 -0.08203595822583086 0.012821198921722407 0 -0.082447653279842673 0.013120935564519001 0 -0.083513918998529321 0.012735913881165382 0 -0.082447653279842673 0.013120935564519001 0 -0.08213359018483106 0.014109842984492029 0 -0.08203595822583086 0.012821198921722407 0 -0.082447653279842673 0.013120935564519001 0 -0.081721546500504658 0.013467051200412755 0 -0.082447653279842673 0.013120935564519001 0 -0.081721546500504658 0.013467051200412755 0 -0.08213359018483106 0.014109842984492029 0 -0.078298559963755066 0.012755547925555024 0 -0.079377046713189681 0.01122276520335932 0 -0.080743381316515428 0.012283427110782759 0 -0.07784177114722815 0.012754962725409271 0 -0.079405823978197981 0.013047300461551935 0 -0.078366947528560243 0.012932352977404596 0 -0.081721546500504658 0.013467051200412755 0 -0.080118766418486462 0.014076983956428694 0 -0.078298559963755066 0.012755547925555024 0 -0.080743381316515428 0.012283427110782759 0 -0.081721546500504658 0.013467051200412755 0 -0.082256375843657817 0.012127297586081455 0 -0.08203595822583086 0.012821198921722407 0 -0.080743381316515428 0.012283427110782759 0 -0.080871759235798715 0.011191770626827311 0 -0.082256375843657817 0.012127297586081455 0 -0.080743381316515428 0.012283427110782759 0 -0.081721546500504658 0.013467051200412755 0 -0.080118766418486462 0.014076983956428694 0 -0.08213359018483106 0.014109842984492029 0 -0.08203595822583086 0.012821198921722407 0 -0.080743381316515428 0.012283427110782759 0 -0.081721546500504658 0.013467051200412755 0 -0.080118766418486462 0.014076983956428694 0 -0.08213359018483106 0.014109842984492029 0 -0.078644649165251532 0.015729344638845805 0 -0.082301887539704327 0.014124960067544648 0 -0.080664314528470921 0.014818361315162969 0 -0.080818408575295708 0.016405777181134066 0 -0.081886474900852019 0.014492704130838203 0 -0.078644649165251532 0.015729344638845805 0 -0.084601843969772328 0.017020393133306468 0 -0.082460915862407627 0.016478592402090361 0 -0.083217559613647685 0.015688982396062274 0 -0.083937801359430603 0.014796142312308023 0 -0.081886474900852019 0.014492704130838203 0 -0.083217559613647685 0.015688982396062274 0 -0.080818408575295708 0.016405777181134066 0 -0.081886474900852019 0.014492704130838203 0 -0.082460915862407627 0.016478592402090361 0 -0.081886474900852019 0.014492704130838203 0 -0.082460915862407627 0.016478592402090361 0 -0.083217559613647685 0.015688982396062274 0 -0.084601843969772328 0.017020393133306468 0 -0.082460915862407627 0.016478592402090361 0 -0.083405206981317495 0.018603972185448191 0 -0.082460915862407627 0.016478592402090361 0 -0.083405206981317495 0.018603972185448191 0 -0.081344099306072837 0.018059300319534871 0 -0.080818408575295708 0.016405777181134066 0 -0.079472820918519926 0.017651211992654479 0 -0.078644649165251532 0.015729344638845805 0 -0.080818408575295708 0.016405777181134066 0 -0.081344099306072837 0.018059300319534871 0 -0.079472820918519926 0.017651211992654479 0 -0.080818408575295708 0.016405777181134066 0 -0.082460915862407627 0.016478592402090361 0 -0.081344099306072837 0.018059300319534871 0 -0.080049234574218239 0.019574132316147502 0 -0.081344099306072837 0.018059300319534871 0 -0.079472820918519926 0.017651211992654479 0 -0.078232417423890421 0.019322580981820308 0 -0.079472820918519926 0.017651211992654479 0 -0.077167728348229589 0.01740801901463402 0 -0.079472820918519926 0.017651211992654479 0 -0.077167728348229589 0.01740801901463402 0 -0.078644649165251532 0.015729344638845805 0 -0.074999945857268671 0.020705696326175586 0 -0.074999927048796253 0.016464840351040649 0 -0.077167728348229589 0.01740801901463402 0 -0.074999927048796253 0.016464840351040649 0 -0.077167728348229589 0.01740801901463402 0 -0.076817782895144029 0.014929195348147142 0 -0.074999944586597131 0.012224035347548508 0 -0.074999927048796253 0.016464840351040649 0 -0.076817782895144029 0.014929195348147142 0 -0.078366947528560243 0.012932352977404596 0 -0.080118766418486462 0.014076983956428694 0 -0.078644649165251532 0.015729344638845805 0 -0.078366947528560243 0.012932352977404596 0 -0.076817782895144029 0.014929195348147142 0 -0.078644649165251532 0.015729344638845805 0 -0.077167728348229589 0.01740801901463402 0 -0.076817782895144029 0.014929195348147142 0 -0.078644649165251532 0.015729344638845805 0 -0.0025555573103685403 0.020042281421478979 0 -0.0024451512941638417 0.018303839610714398 0 -0.0041882006674917246 0.020344890448366189 0 -0.0043865163449642759 0.020385610633735923 0 -0.0029426525015894705 0.019651182054255093 0 -0.0043596304421808273 0.021883840662428967 0 -0.0032660656851705079 0.019459089056719132 0 -0.004308304364476755 0.021252810957894157 0 -0.0025555573103685403 0.020042281421478979 0 -0.0018883395761491101 0.018935783464786225 0 -0.0024451512941638417 0.018303839610714398 0 -0.0025555573103685403 0.020042281421478979 0 -0.00085973892075628272 0.020161307526182469 0 -0.0018883395761491101 0.018935783464786225 0 -0.0018883395761491101 0.018935783464786225 0 -0.0017925585566089736 0.018372044058574937 0 -0.0024451512941638417 0.018303839610714398 0 -0.0018883395761491101 0.018935783464786225 0 -0.0017925585566089736 0.018372044058574937 0 -0.0010205873117057772 0.018484517332435495 0 -0.0017925585566089736 0.018372044058574937 0 -0.0024451512941638417 0.018303839610714398 0 -0.0017990860080142192 0.017811500103590051 0 -0.0017925585566089736 0.018372044058574937 0 -0.0010205873117057772 0.018484517332435495 0 -0.001416733374758336 0.018210283576704039 0 -0.0043865163449642759 0.020385610633735923 0 -0.0029205886930217559 0.019096071578338574 0 -0.0059486926548909524 0.019939489181170705 0 -0.0043865163449642759 0.020385610633735923 0 -0.0029205886930217559 0.019096071578338574 0 -0.0029426525015894705 0.019651182054255093 0 -0.0029205886930217559 0.019096071578338574 0 -0.0059486926548909524 0.019939489181170705 0 -0.0059902930221747992 0.017752445253844198 0 -0.0059486926548909524 0.019939489181170705 0 -0.0076789002449691515 0.021066521442513 0 -0.0080275693979176155 0.019658490686493623 0 -0.0059486926548909524 0.019939489181170705 0 -0.0059902930221747992 0.017752445253844198 0 -0.0080275693979176155 0.019658490686493623 0 -0.0076789002449691515 0.021066521442513 0 -0.0057107838514185603 0.021341105442741461 0 -0.0069581140231630614 0.022059429984804053 0 -0.0059486926548909524 0.019939489181170705 0 -0.0076789002449691515 0.021066521442513 0 -0.0057107838514185603 0.021341105442741461 0 -0.0043865163449642759 0.020385610633735923 0 -0.0059486926548909524 0.019939489181170705 0 -0.0057107838514185603 0.021341105442741461 0 -0.0043865163449642759 0.020385610633735923 0 -0.0057107838514185603 0.021341105442741461 0 -0.0043596304421808273 0.021883840662428967 0 -0.0057107838514185603 0.021341105442741461 0 -0.0056795651488530862 0.023866990165470205 0 -0.0043596304421808273 0.021883840662428967 0 -0.0057107838514185603 0.021341105442741461 0 -0.0069581140231630614 0.022059429984804053 0 -0.0056795651488530862 0.023866990165470205 0 -0.0054132064640686614 0.023184934184936615 0 -0.004308304364476755 0.021252810957894157 0 -0.0069581140231630614 0.022059429984804053 0 -0.0070692835428035209 0.023284278342900134 0 -0.0090701176314112019 0.021927824335317855 0 -0.0069581140231630614 0.022059429984804053 0 -0.0070692835428035209 0.023284278342900134 0 -0.0056795651488530862 0.023866990165470205 0 -0.0070692835428035209 0.023284278342900134 0 -0.0072131868156134595 0.02447654532416409 0 -0.0079716030266423904 0.024101019082972755 0 -0.0070692835428035209 0.023284278342900134 0 -0.0072131868156134595 0.02447654532416409 0 -0.0056795651488530862 0.023866990165470205 0 -0.0058629061554177691 0.023196645803450829 0 -0.0044353151374788968 0.024031618903926081 0 -0.0035416009570864142 0.022324761248166586 0 -0.0044353151374788968 0.024031618903926081 0 -0.0035416009570864142 0.022324761248166586 0 -0.002967994791206666 0.024288884983403373 0 -0.0025555573103685403 0.020042281421478979 0 -0.0035416009570864142 0.022324761248166586 0 -0.0041882006674917246 0.020344890448366189 0 -0.0058629061554177691 0.023196645803450829 0 -0.0035416009570864142 0.022324761248166586 0 -0.0041882006674917246 0.020344890448366189 0 -0.0025555573103685403 0.020042281421478979 0 -0.0035416009570864142 0.022324761248166586 0 -0.0018889762608063755 0.021467975284883468 0 -0.00085973892075628272 0.020161307526182469 0 -0.0018889762608063755 0.021467975284883468 0 -3.7538577211204329e-06 0.021564855561583822 0 -0.0025555573103685403 0.020042281421478979 0 -0.00085973892075628272 0.020161307526182469 0 -0.0018889762608063755 0.021467975284883468 0 -0.0035416009570864142 0.022324761248166586 0 -0.0018889762608063755 0.021467975284883468 0 -0.0016631125841866494 0.023024398016164266 0 -0.0018889762608063755 0.021467975284883468 0 -0.0016631125841866494 0.023024398016164266 0 -3.7538577211204329e-06 0.021564855561583822 0 -0.0035416009570864142 0.022324761248166586 0 -0.0016631125841866494 0.023024398016164266 0 -0.002967994791206666 0.024288884983403373 0 -0.0016631125841866494 0.023024398016164266 0 -0.002967994791206666 0.024288884983403373 0 -0.00099036764987927217 0.024968175258115028 0 -0.0016631125841866494 0.023024398016164266 0 -0.00099036764987927217 0.024968175258115028 0 0.00039637461846512786 0.023893903989318097 0 0.00039637461846512786 0.023893903989318097 0 0.00042147444762334217 0.026076444163368195 0 0.0016991968392096935 0.025334343040541499 0 -0.00099036764987927217 0.024968175258115028 0 0.00039637461846512786 0.023893903989318097 0 0.00042147444762334217 0.026076444163368195 0 -0.0016631125841866494 0.023024398016164266 0 0.00039637461846512786 0.023893903989318097 0 -3.7538577211204329e-06 0.021564855561583822 0 0.00039637461846512786 0.023893903989318097 0 0.0029252724545792631 0.024251257724603192 0 0.0020774148397626441 0.022174469234931507 0 0.00039637461846512786 0.023893903989318097 0 0.0029252724545792631 0.024251257724603192 0 0.0016991968392096935 0.025334343040541499 0 0.0029252724545792631 0.024251257724603192 0 0.0043396083328477155 0.022480294122813039 0 0.0058547789487379803 0.025624622767688093 0 0.0029252724545792631 0.024251257724603192 0 0.0058547789487379803 0.025624622767688093 0 0.0033373912495602703 0.026073364681461406 0 0.0029252724545792631 0.024251257724603192 0 0.0033373912495602703 0.026073364681461406 0 0.0016991968392096935 0.025334343040541499 0 0.0029252724545792631 0.024251257724603192 0 0.0043396083328477155 0.022480294122813039 0 0.0020774148397626441 0.022174469234931507 0 0.0043396083328477155 0.022480294122813039 0 0.0062576155064785616 0.020845789352168444 0 0.0023724610060196611 0.018804220437044886 0 0.0043396083328477155 0.022480294122813039 0 0.0020774148397626441 0.022174469234931507 0 0.0023724610060196611 0.018804220437044886 0 -0.00085973892075628272 0.020161307526182469 0 -3.7538577211204329e-06 0.021564855561583822 0 0.0023724610060196611 0.018804220437044886 0 -3.7538577211204329e-06 0.021564855561583822 0 0.0020774148397626441 0.022174469234931507 0 0.0023724610060196611 0.018804220437044886 0 0.00039637461846512786 0.023893903989318097 0 -3.7538577211204329e-06 0.021564855561583822 0 0.0020774148397626441 0.022174469234931507 0 0.011222529032823234 0.025902115427277304 0 0.0078650762932102377 0.024507635814466588 0 0.0058547789487379803 0.025624622767688093 0 0.011222529032823234 0.025902115427277304 0 0.0097241471329735027 0.024227573428257237 0 0.0078650762932102377 0.024507635814466588 0 0.011200691422692954 0.023326228371816034 0 0.0097241471329735027 0.024227573428257237 0 0.0086380072638424787 0.023182882419861512 0 0.011222529032823234 0.025902115427277304 0 0.011200691422692954 0.023326228371816034 0 0.0097241471329735027 0.024227573428257237 0 0.0097241471329735027 0.024227573428257237 0 0.0086380072638424787 0.023182882419861512 0 0.0078650762932102377 0.024507635814466588 0 0.0043396083328477155 0.022480294122813039 0 0.0065758018594732678 0.022960693595047366 0 0.0058547789487379803 0.025624622767688093 0 0.0086380072638424787 0.023182882419861512 0 0.0065758018594732678 0.022960693595047366 0 0.0078650762932102377 0.024507635814466588 0 0.0065758018594732678 0.022960693595047366 0 0.0078650762932102377 0.024507635814466588 0 0.0058547789487379803 0.025624622767688093 0 0.0043396083328477155 0.022480294122813039 0 0.0065758018594732678 0.022960693595047366 0 0.0062576155064785616 0.020845789352168444 0 0.0062576155064785616 0.020845789352168444 0 0.0076410491951476095 0.020732987743907066 0 0.0078631635704601716 0.021725221444955669 0 0.0062576155064785616 0.020845789352168444 0 0.0075674543129713549 0.019467847164373053 0 0.0076349720824404341 0.019771586374946522 0 0.0062576155064785616 0.020845789352168444 0 0.0076410491951476095 0.020732987743907066 0 0.0076349720824404341 0.019771586374946522 0 0.0080781849271709047 0.020269905704724308 0 0.0076410491951476095 0.020732987743907066 0 0.0076349720824404341 0.019771586374946522 0 0.0086380072638424787 0.023182882419861512 0 0.0065758018594732678 0.022960693595047366 0 0.0078631635704601716 0.021725221444955669 0 0.0065758018594732678 0.022960693595047366 0 0.0062576155064785616 0.020845789352168444 0 0.0078631635704601716 0.021725221444955669 0 0.012156347003207901 0.02068114989286881 0 0.011200691422692954 0.023326228371816034 0 0.0097114514101487269 0.021891962715233807 0 0.010774178970406233 0.021738821332161696 0 0.0061897178785241744 0.021043726361029233 0 0.012156347003207901 0.02068114989286881 0 0.008848463259093952 0.020788558000297861 0 0.0075928971062800624 0.01943452739661532 0 0.012156347003207901 0.02068114989286881 0 0.008848463259093952 0.020788558000297861 0 0.0097114514101487269 0.021891962715233807 0 0.0086380072638424787 0.023182882419861512 0 0.0078631635704601716 0.021725221444955669 0 0.0097114514101487269 0.021891962715233807 0 0.0078631635704601716 0.021725221444955669 0 0.008848463259093952 0.020788558000297861 0 0.0097114514101487269 0.021891962715233807 0 0.0076410491951476095 0.020732987743907066 0 0.0078631635704601716 0.021725221444955669 0 0.008848463259093952 0.020788558000297861 0 0.0080781849271709047 0.020269905704724308 0 0.008848463259093952 0.020788558000297861 0 0.0075928971062800624 0.01943452739661532 0 0.0080781849271709047 0.020269905704724308 0 0.0076410491951476095 0.020732987743907066 0 0.008848463259093952 0.020788558000297861 0 0.011200691422692954 0.023326228371816034 0 0.0086380072638424787 0.023182882419861512 0 0.0097114514101487269 0.021891962715233807 0 0.012655222693371312 0.022869173255457228 0 0.010743269277773715 0.020990477074100598 0 0.0090575491154021911 0.022409014405059748 0 0.010743269277773715 0.020990477074100598 0 0.0090575491154021911 0.022409014405059748 0 0.0091549893905185382 0.020488363010514848 0 0.001012001774113087 0.019738427434689482 0 0.00037932335268562402 0.019100091702721499 0 0.00076084438911881106 0.01844523389349937 0 0.001012001774113087 0.019738427434689482 0 0.00037932335268562402 0.019100091702721499 0 -0.00039358612106092601 0.019453697214016345 0 0.0062576155064785616 0.020845789352168444 0 0.0075674543129713549 0.019467847164373053 0 0.0023724610060196611 0.018804220437044886 0 0.0061897178785241744 0.021043726361029233 0 0.0050829186743398657 0.01901156073085877 0 0.0080781849271709047 0.020269905704724308 0 0.0075928971062800624 0.01943452739661532 0 0.0076349720824404341 0.019771586374946522 0 0.0061897178785241744 0.021043726361029233 0 0.0061906899742370574 0.021039368203097538 0 0.0090575491154021911 0.022409014405059748 0 0.0084487928649600221 0.019109709528270073 0 0.0091549893905185382 0.020488363010514848 0 0.00037932335268562402 0.019100091702721499 0 0.00076084438911881106 0.01844523389349937 0 1.5162725374444563e-05 0.018564064300593545 0 0.0084487928649600221 0.019109709528270073 0 0.008955789448137394 0.019729262132461785 0 0.0089386034792529861 0.01905341701209547 0 0.0084487928649600221 0.019109709528270073 0 0.0091549893905185382 0.020488363010514848 0 0.008955789448137394 0.019729262132461785 0 0.012885291448917461 0.019746444751432876 0 0.010743269277773715 0.020990477074100598 0 0.01205555815791429 0.017986934350520709 0 0.011409509843968362 0.019880320880785361 0 0.011677110108007451 0.0192229754207776 0 0.010743269277773715 0.020990477074100598 0 0.0089386034792529861 0.01905341701209547 0 0.010970637206121965 0.017976529343623412 0 0.010743269277773715 0.020990477074100598 0 0.008955789448137394 0.019729262132461785 0 0.0089386034792529861 0.01905341701209547 0 0.010743269277773715 0.020990477074100598 0 0.0091549893905185382 0.020488363010514848 0 0.008955789448137394 0.019729262132461785 0 -0.0018883395761491101 0.018935783464786225 0 -0.00039358612106092601 0.019453697214016345 0 -0.0010205873117057772 0.018484517332435495 0 -0.00085973892075628272 0.020161307526182469 0 -0.0018883395761491101 0.018935783464786225 0 0.0023724610060196611 0.018804220437044886 0 0.00013885609891337109 0.019400168084078233 0 0.0018226673606241003 0.019797714570838672 0 0.0061897178785241744 0.021043726361029233 0 0.0018226673606241003 0.019797714570838672 0 0.00037932335268562402 0.019100091702721499 0 -0.00039358612106092601 0.019453697214016345 0 1.5162725374444563e-05 0.018564064300593545 0 1.5162725374444563e-05 0.018564064300593545 0 -0.0010205873117057772 0.018484517332435495 0 -0.00038414879105828551 0.017958769138001783 0 -0.00039358612106092601 0.019453697214016345 0 1.5162725374444563e-05 0.018564064300593545 0 -0.0010205873117057772 0.018484517332435495 0 0.00076084438911881106 0.01844523389349937 0 1.5162725374444563e-05 0.018564064300593545 0 0.00021208623802028564 0.01793912594450681 0 -0.001121090969214808 0.017918250268662311 0 -0.00082445906855809154 0.017362319672506843 0 -0.0017990860080142192 0.017811500103590051 0 -0.0010205873117057772 0.018484517332435495 0 -0.001121090969214808 0.017918250268662311 0 -0.001416733374758336 0.018210283576704039 0 -0.001121090969214808 0.017918250268662311 0 -0.00038414879105828551 0.017958769138001783 0 -0.00082445906855809154 0.017362319672506843 0 -0.0010205873117057772 0.018484517332435495 0 -0.001121090969214808 0.017918250268662311 0 -0.00038414879105828551 0.017958769138001783 0 1.5162725374444563e-05 0.018564064300593545 0 -0.00038414879105828551 0.017958769138001783 0 0.00021208623802028564 0.01793912594450681 0 -0.00038414879105828551 0.017958769138001783 0 0.00021208623802028564 0.01793912594450681 0 -3.7770022319908589e-05 0.017442064475272603 0 -3.7770022319908589e-05 0.017442064475272603 0 0.00068459132425755605 0.01728348995795367 0 -3.1841018876906693e-05 0.01676093142284335 0 0.00021208623802028564 0.01793912594450681 0 -3.7770022319908589e-05 0.017442064475272603 0 0.00068459132425755605 0.01728348995795367 0 -3.7770022319908589e-05 0.017442064475272603 0 -0.00082445906855809154 0.017362319672506843 0 -3.1841018876906693e-05 0.01676093142284335 0 -0.00082445906855809154 0.017362319672506843 0 -0.00096579297326437549 0.01646364937140336 0 -0.0018600470958451128 0.016918176816454585 0 -0.00038414879105828551 0.017958769138001783 0 -3.7770022319908589e-05 0.017442064475272603 0 -0.00082445906855809154 0.017362319672506843 0 0.0088816246338955605 0.018545700033069802 0 0.0084314595262406228 0.018810355397248204 0 0.0087940713380438868 0.018963096832029926 0 0.0089386034792529861 0.01905341701209547 0 0.0084314595262406228 0.018810355397248204 0 0.0087940713380438868 0.018963096832029926 0 0.010987752172918258 0.01941669097756803 0 0.011677110108007451 0.0192229754207776 0 0.0050829186743398657 0.01901156073085877 0 0.0043622499611302625 0.017513145647984587 0 0.0084487928649600221 0.019109709528270073 0 0.0089386034792529861 0.01905341701209547 0 0.0084314595262406228 0.018810355397248204 0 0.0084487928649600221 0.019109709528270073 0 0.0084314595262406228 0.018810355397248204 0 0.0076383011737814008 0.018655285769177847 0 0.00076084438911881106 0.01844523389349937 0 0.00021208623802028564 0.01793912594450681 0 0.00068459132425755605 0.01728348995795367 0 0.0084314595262406228 0.018810355397248204 0 0.0076383011737814008 0.018655285769177847 0 0.0084586661573750731 0.018350896908282861 0 0.0088816246338955605 0.018545700033069802 0 0.0084314595262406228 0.018810355397248204 0 0.0084586661573750731 0.018350896908282861 0 0.0090744657071268522 0.017887514380437976 0 0.0084586661573750731 0.018350896908282861 0 0.0082051968387553929 0.017690188363289564 0 0.011649745083224205 0.017585425258138117 0 0.010458201566609279 0.017451703826393404 0 0.0076383011737814008 0.018655285769177847 0 0.0084586661573750731 0.018350896908282861 0 0.0082051968387553929 0.017690188363289564 0 0.0043622499611302625 0.017513145647984587 0 0.003781290171353579 0.015852447225670703 0 0.0076383011737814008 0.018655285769177847 0 0.0082051968387553929 0.017690188363289564 0 0.0063391554093796066 0.017246189339226645 0 0.0082051968387553929 0.017690188363289564 0 0.0070726181688819762 0.015977915762979404 0 0.0063391554093796066 0.017246189339226645 0 0.0047203950704070739 0.014573533147865072 0 0.0070726181688819762 0.015977915762979404 0 0.0063391554093796066 0.017246189339226645 0 0.0082051968387553929 0.017690188363289564 0 0.0070726181688819762 0.015977915762979404 0 0.0090108147137290071 0.016186958874904414 0 0.010304573962927813 0.018261980716170346 0 0.0082051968387553929 0.017690188363289564 0 0.0090108147137290071 0.016186958874904414 0 -0.00082445906855809154 0.017362319672506843 0 -0.00096579297326437549 0.01646364937140336 0 -3.1841018876906693e-05 0.01676093142284335 0 -0.00096579297326437549 0.01646364937140336 0 -3.1841018876906693e-05 0.01676093142284335 0 -1.3691558800559149e-05 0.015740948859313573 0 -3.1841018876906693e-05 0.01676093142284335 0 0.0009315496042784574 0.015957413847457063 0 -1.3691558800559149e-05 0.015740948859313573 0 0.00068459132425755605 0.01728348995795367 0 -3.1841018876906693e-05 0.01676093142284335 0 0.0009315496042784574 0.015957413847457063 0 0.0032620601176127648 0.013696146323929213 0 0.003781290171353579 0.015852447225670703 0 0.0015503723739853524 0.014078668100800445 0 0.0009315496042784574 0.015957413847457063 0 -1.3691558800559149e-05 0.015740948859313573 0 -0.0003210135357647643 0.014899827839768993 0 -1.3691558800559149e-05 0.015740948859313573 0 -0.001031021533754404 0.015688279575074827 0 -0.00096579297326437549 0.01646364937140336 0 -1.3691558800559149e-05 0.015740948859313573 0 -0.001031021533754404 0.015688279575074827 0 -0.0003210135357647643 0.014899827839768993 0 -0.001031021533754404 0.015688279575074827 0 -0.0013922288542286606 0.015206992314643375 0 -0.00096579297326437549 0.01646364937140336 0 -0.001031021533754404 0.015688279575074827 0 -0.0021422355441032877 0.015830589053543315 0 -0.001031021533754404 0.015688279575074827 0 -0.0013922288542286606 0.015206992314643375 0 -0.0021422355441032877 0.015830589053543315 0 -0.0022125017682897881 0.015149892675186748 0 -0.0021422355441032877 0.015830589053543315 0 -0.0026196630214999953 0.015315129821606297 0 -0.0022125017682897881 0.015149892675186748 0 -0.0013922288542286606 0.015206992314643375 0 -0.0021422355441032877 0.015830589053543315 0 -0.0021422355441032877 0.015830589053543315 0 -0.003041637486120673 0.015553196121447108 0 -0.0027047435161066599 0.016384668562624511 0 -0.002955353226896051 0.01524107380985088 0 -0.003041637486120673 0.015553196121447108 0 -0.0026196630214999953 0.015315129821606297 0 -0.0021422355441032877 0.015830589053543315 0 -0.003041637486120673 0.015553196121447108 0 -0.0026196630214999953 0.015315129821606297 0 -0.00096579297326437549 0.01646364937140336 0 -0.0021422355441032877 0.015830589053543315 0 -0.0018600470958451128 0.016918176816454585 0 -0.0021422355441032877 0.015830589053543315 0 -0.0027047435161066599 0.016384668562624511 0 -0.0018600470958451128 0.016918176816454585 0 -0.00082445906855809154 0.017362319672506843 0 -0.0018600470958451128 0.016918176816454585 0 -0.0017990860080142192 0.017811500103590051 0 -0.0018600470958451128 0.016918176816454585 0 -0.0028681496489769997 0.017674824644820782 0 -0.0017990860080142192 0.017811500103590051 0 -0.0027047435161066599 0.016384668562624511 0 -0.0018600470958451128 0.016918176816454585 0 -0.0028681496489769997 0.017674824644820782 0 -0.0027047435161066599 0.016384668562624511 0 -0.0028681496489769997 0.017674824644820782 0 -0.0035740964562837704 0.01700702044615568 0 -0.0029205886930217559 0.019096071578338574 0 -0.0028681496489769997 0.017674824644820782 0 -0.0017990860080142192 0.017811500103590051 0 -0.0029205886930217559 0.019096071578338574 0 -0.0028681496489769997 0.017674824644820782 0 -0.0041376719529467153 0.018228306811948806 0 -0.0032660656851705079 0.019459089056719132 0 -0.0028005880914033646 0.018654507184577097 0 -0.0029205886930217559 0.019096071578338574 0 -0.0029426525015894705 0.019651182054255093 0 -0.0017990860080142192 0.017811500103590051 0 -0.0017925585566089736 0.018372044058574937 0 -0.001416733374758336 0.018210283576704039 0 -0.0017990860080142192 0.017811500103590051 0 -0.001121090969214808 0.017918250268662311 0 -0.001416733374758336 0.018210283576704039 0 -0.0017990860080142192 0.017811500103590051 0 -0.0041376719529467153 0.018228306811948806 0 -0.0035740964562837704 0.01700702044615568 0 -0.0064993932089244368 0.017392127101232464 0 -0.0059902930221747992 0.017752445253844198 0 -0.0077981493140832697 0.018099120025979746 0 -0.0080275693979176155 0.019658490686493623 0 -0.0040371962716009768 0.018657590159055455 0 -0.0052489444528286211 0.018029712464106378 0 -0.0028681496489769997 0.017674824644820782 0 -0.0041376719529467153 0.018228306811948806 0 -0.0035740964562837704 0.01700702044615568 0 -0.0052489444528286211 0.018029712464106378 0 -0.0073183081540802285 0.016987704800378988 0 -0.0059902930221747992 0.017752445253844198 0 -0.0077981493140832697 0.018099120025979746 0 -0.0082664016438824522 0.016796204877807024 0 -0.0035740964562837704 0.01700702044615568 0 -0.0039330455397517984 0.015747296264805168 0 -0.0064993932089244368 0.017392127101232464 0 -0.003041637486120673 0.015553196121447108 0 -0.0027047435161066599 0.016384668562624511 0 -0.0039330455397517984 0.015747296264805168 0 -0.0027047435161066599 0.016384668562624511 0 -0.0035740964562837704 0.01700702044615568 0 -0.0039330455397517984 0.015747296264805168 0 -0.0034070003776028096 0.015331880142117588 0 -0.003041637486120673 0.015553196121447108 0 -0.0039330455397517984 0.015747296264805168 0 -0.0034070003776028096 0.015331880142117588 0 -0.0039330455397517984 0.015747296264805168 0 -0.003785717889893844 0.015573456669756654 0 -0.0039330455397517984 0.015747296264805168 0 -0.003785717889893844 0.015573456669756654 0 -0.0037071715295508368 0.015241878165376224 0 -0.0054811507610533486 0.017932548763704252 0 -0.0070044627716194909 0.01862491944841799 0 -0.0037584720466708535 0.015835372935144632 0 -0.003785717889893844 0.015573456669756654 0 -0.0037071715295508368 0.015241878165376224 0 -0.0039330455397517984 0.015747296264805168 0 -0.0070979707733514362 0.0146496139004805 0 -0.0064993932089244368 0.017392127101232464 0 -0.0070979707733514362 0.0146496139004805 0 -0.010022218935163382 0.015710565459390986 0 -0.0064993932089244368 0.017392127101232464 0 -0.0086648659706948638 0.016283296394535886 0 -0.0073183081540802285 0.016987704800378988 0 -0.0027277464230315951 0.015987088638069181 0 -0.0037071715295508368 0.015241878165376224 0 -0.0015578161798172415 0.015240694810213871 0 -0.0070979707733514362 0.0146496139004805 0 -0.010747377484072567 0.013918738985098961 0 -0.010022218935163382 0.015710565459390986 0 -0.0027277464230315951 0.015987088638069181 0 -0.0037584720466708535 0.015835372935144632 0 -0.0037071715295508368 0.015241878165376224 0 -0.0070044627716194909 0.01862491944841799 0 -0.013920314467960375 0.021182911197519624 0 -0.019822056429458144 0.019719399053406892 0 -0.019874871497118706 0.019743642581235048 0 -0.019844672934497543 0.019767982069843149 0 -0.019822056429458144 0.019719399053406892 0 -0.019897254319829496 0.019703190829266477 0 -0.019874871497118706 0.019743642581235048 0 -0.013920314467960375 0.021182911197519624 0 -0.018536733963481686 0.022356910681945143 0 -0.019874871497118706 0.019743642581235048 0 -0.019885620821259165 0.019775244325195746 0 -0.019844672934497543 0.019767982069843149 0 -0.010747377484072567 0.013918738985098961 0 -0.011046650524095546 0.016195651198876559 0 -0.010022218935163382 0.015710565459390986 0 -0.011046650524095546 0.016195651198876559 0 -0.010022218935163382 0.015710565459390986 0 -0.0099719872473745877 0.017201562867378707 0 -0.013920314467960375 0.021182911197519624 0 -0.016162979727687408 0.018592315715577359 0 -0.011046650524095546 0.016195651198876559 0 -0.011433796801307773 0.01775837763678869 0 -0.0099719872473745877 0.017201562867378707 0 -0.011433796801307773 0.01775837763678869 0 -0.0099719872473745877 0.017201562867378707 0 -0.010271366825519884 0.019717227010862023 0 -0.016162979727687408 0.018592315715577359 0 -0.018952912532022345 0.017518427932930548 0 -0.019885620821259165 0.019775244325195746 0 -0.019844672934497543 0.019767982069843149 0 -0.019854369685384725 0.01980048235178038 0 -0.022734657424260802 0.016901163778756705 0 -0.018952912532022345 0.017518427932930548 0 -0.031245948285478473 0.014653480875835824 0 -0.03055379611328404 0.015682235157509529 0 -0.03164608420547789 0.015534204164595371 0 -0.018952912532022345 0.017518427932930548 0 -0.024600726324551968 0.017587050318261823 0 -0.03055379611328404 0.015682235157509529 0 -0.031797703462684221 0.016450193796146113 0 -0.030913008205375177 0.017315092586526519 0 -0.03055379611328404 0.015682235157509529 0 -0.03164608420547789 0.015534204164595371 0 -0.031797703462684221 0.016450193796146113 0 -0.018952912532022345 0.017518427932930548 0 -0.013282845573625884 0.020182552157483762 0 -0.0088587672177466385 0.018264326330739055 0 -0.0099719872473745877 0.017201562867378707 0 -0.010271366825519884 0.019717227010862023 0 -0.0077981493140832697 0.018099120025979746 0 -0.0088587672177466385 0.018264326330739055 0 -0.0080275693979176155 0.019658490686493623 0 -0.0077981493140832697 0.018099120025979746 0 -0.0088587672177466385 0.018264326330739055 0 -0.0082664016438824522 0.016796204877807024 0 -0.010022218935163382 0.015710565459390986 0 -0.0082664016438824522 0.016796204877807024 0 -0.0099719872473745877 0.017201562867378707 0 -0.0088587672177466385 0.018264326330739055 0 -0.0082664016438824522 0.016796204877807024 0 -0.0099719872473745877 0.017201562867378707 0 -0.035108098336035801 0.013695692883518363 0 -0.034068785525248911 0.01468407145025083 0 -0.035886311098838233 0.015230449177447977 0 -0.036210113791701658 0.013979307091811053 0 -0.035108098336035801 0.013695692883518363 0 -0.035886311098838233 0.015230449177447977 0 -0.035944919066354691 0.01315950726406559 0 -0.036210113791701658 0.013979307091811053 0 -0.035108098336035801 0.013695692883518363 0 -0.035944919066354691 0.01315950726406559 0 -0.035108098336035801 0.013695692883518363 0 -0.0352836031254041 0.012856367678145209 0 -0.035906787652487948 0.012326756326839411 0 -0.035944919066354691 0.01315950726406559 0 -0.0352836031254041 0.012856367678145209 0 -0.034758928833963816 0.012617970241180975 0 -0.0352836031254041 0.012856367678145209 0 -0.034713298850610128 0.013015409129851437 0 -0.035108098336035801 0.013695692883518363 0 -0.0352836031254041 0.012856367678145209 0 -0.034713298850610128 0.013015409129851437 0 -0.035108098336035801 0.013695692883518363 0 -0.034713298850610128 0.013015409129851437 0 -0.034110139964699658 0.013298890247708214 0 -0.034713298850610128 0.013015409129851437 0 -0.034314816141649891 0.012672493477939925 0 -0.034110139964699658 0.013298890247708214 0 -0.034758928833963816 0.012617970241180975 0 -0.034713298850610128 0.013015409129851437 0 -0.034314816141649891 0.012672493477939925 0 -0.034314816141649891 0.012672493477939925 0 -0.033862687071965325 0.012704331631270835 0 -0.034110139964699658 0.013298890247708214 0 -0.033862687071965325 0.012704331631270835 0 -0.034110139964699658 0.013298890247708214 0 -0.033230628395215414 0.013074385431791818 0 -0.034110139964699658 0.013298890247708214 0 -0.034068785525248911 0.01468407145025083 0 -0.033267349636438973 0.013768193087375738 0 -0.035108098336035801 0.013695692883518363 0 -0.034110139964699658 0.013298890247708214 0 -0.034068785525248911 0.01468407145025083 0 -0.033696177955133827 0.014496099796644025 0 -0.032131140431611298 0.014151051706049975 0 -0.03243584378294008 0.015217382438724286 0 -0.034068785525248911 0.01468407145025083 0 -0.033267349636438973 0.013768193087375738 0 -0.032131140431611298 0.014151051706049975 0 -0.034168084737172692 0.014657638161320792 0 -0.033257365216198306 0.014398200108198908 0 -0.033267349636438973 0.013768193087375738 0 -0.032646849620426167 0.013663361094512615 0 -0.032131140431611298 0.014151051706049975 0 -0.023957108493136346 0.021221492135165741 0 -0.02438589907341461 0.017768448128588368 0 -0.034110139964699658 0.013298890247708214 0 -0.033267349636438973 0.013768193087375738 0 -0.033230628395215414 0.013074385431791818 0 -0.033081649026289177 0.01232670238243291 0 -0.033230628395215414 0.013074385431791818 0 -0.032083241903836095 0.013495174918267988 0 -0.033591932080772137 0.012275023068707798 0 -0.033862687071965325 0.012704331631270835 0 -0.033230628395215414 0.013074385431791818 0 -0.033230628395215414 0.013074385431791818 0 -0.032646849620426167 0.013663361094512615 0 -0.032083241903836095 0.013495174918267988 0 -0.033267349636438973 0.013768193087375738 0 -0.033230628395215414 0.013074385431791818 0 -0.032646849620426167 0.013663361094512615 0 -0.01999159116784956 0.019691201816237139 0 -0.019897254319829496 0.019703190829266477 0 -0.019935400470290882 0.019741308294287548 0 -0.019897254319829496 0.019703190829266477 0 -0.019874871497118706 0.019743642581235048 0 -0.019935400470290882 0.019741308294287548 0 -0.022734657424260802 0.016901163778756705 0 -0.02438589907341461 0.017768448128588368 0 -0.031245948285478473 0.014653480875835824 0 -0.032083241903836095 0.013495174918267988 0 -0.032131140431611298 0.014151051706049975 0 -0.019874871497118706 0.019743642581235048 0 -0.019885620821259165 0.019775244325195746 0 -0.019935400470290882 0.019741308294287548 0 -0.032646849620426167 0.013663361094512615 0 -0.032083241903836095 0.013495174918267988 0 -0.032131140431611298 0.014151051706049975 0 -0.031245948285478473 0.014653480875835824 0 -0.032131140431611298 0.014151051706049975 0 -0.03186956454206983 0.014893857959136477 0 -0.032131140431611298 0.014151051706049975 0 -0.03186956454206983 0.014893857959136477 0 -0.03243584378294008 0.015217382438724286 0 -0.031245948285478473 0.014653480875835824 0 -0.03186956454206983 0.014893857959136477 0 -0.03164608420547789 0.015534204164595371 0 -0.03186956454206983 0.014893857959136477 0 -0.03164608420547789 0.015534204164595371 0 -0.03243584378294008 0.015217382438724286 0 -0.03164608420547789 0.015534204164595371 0 -0.032193383849077224 0.016024920178939833 0 -0.03243584378294008 0.015217382438724286 0 -0.03164608420547789 0.015534204164595371 0 -0.031797703462684221 0.016450193796146113 0 -0.032193383849077224 0.016024920178939833 0 -0.031797703462684221 0.016450193796146113 0 -0.032193383849077224 0.016024920178939833 0 -0.032092955890961998 0.016661851101772117 0 -0.032193383849077224 0.016024920178939833 0 -0.033238142777629452 0.01607795405070379 0 -0.03243584378294008 0.015217382438724286 0 -0.032193383849077224 0.016024920178939833 0 -0.033238142777629452 0.01607795405070379 0 -0.032092955890961998 0.016661851101772117 0 -0.033238142777629452 0.01607795405070379 0 -0.033361491023599026 0.017278795065120423 0 -0.032092955890961998 0.016661851101772117 0 -0.033696177955133827 0.014496099796644025 0 -0.033238142777629452 0.01607795405070379 0 -0.03243584378294008 0.015217382438724286 0 -0.033696177955133827 0.014496099796644025 0 -0.033238142777629452 0.01607795405070379 0 -0.03465574895926634 0.015783530338485657 0 -0.033238142777629452 0.01607795405070379 0 -0.034607478447459629 0.017218449727108915 0 -0.033361491023599026 0.017278795065120423 0 -0.033238142777629452 0.01607795405070379 0 -0.03465574895926634 0.015783530338485657 0 -0.034607478447459629 0.017218449727108915 0 -0.036738883961587476 0.016864981439256084 0 -0.03465574895926634 0.015783530338485657 0 -0.034607478447459629 0.017218449727108915 0 -0.036738883961587476 0.016864981439256084 0 -0.03465574895926634 0.015783530338485657 0 -0.035925503540807369 0.015001444601587048 0 -0.034168084737172692 0.014657638161320792 0 -0.035824808822384743 0.015133436874967864 0 -0.033696177955133827 0.014496099796644025 0 -0.03465574895926634 0.015783530338485657 0 -0.035925503540807369 0.015001444601587048 0 -0.037421743590229373 0.019575737384290443 0 -0.034607478447459629 0.017218449727108915 0 -0.034498830255221269 0.019906338699667993 0 -0.037421743590229373 0.019575737384290443 0 -0.036116219235083923 0.021255238438029504 0 -0.034498830255221269 0.019906338699667993 0 -0.034594834363578256 0.018582520471675582 0 -0.034535747936955401 0.019610000763519271 0 -0.034607478447459629 0.017218449727108915 0 -0.033361491023599026 0.017278795065120423 0 -0.034510284107268835 0.019022953673321061 0 -0.034510284107268835 0.019022953673321061 0 -0.03301698454268142 0.018499048586847807 0 -0.03296906272795215 0.02029887195900397 0 -0.033361491023599026 0.017278795065120423 0 -0.034510284107268835 0.019022953673321061 0 -0.03301698454268142 0.018499048586847807 0 -0.03301698454268142 0.018499048586847807 0 -0.031696319485728819 0.019346502917286564 0 -0.03296906272795215 0.02029887195900397 0 -0.03301698454268142 0.018499048586847807 0 -0.032092955890961998 0.016661851101772117 0 -0.031696319485728819 0.019346502917286564 0 -0.033361491023599026 0.017278795065120423 0 -0.03301698454268142 0.018499048586847807 0 -0.032092955890961998 0.016661851101772117 0 -0.032092955890961998 0.016661851101772117 0 -0.031797720866623337 0.016142488406576401 0 -0.031855071735424241 0.015716624139063516 0 -0.031797703462684221 0.016450193796146113 0 -0.032092955890961998 0.016661851101772117 0 -0.031797720866623337 0.016142488406576401 0 -0.031797703462684221 0.016450193796146113 0 -0.031797720866623337 0.016142488406576401 0 -0.031916140855447028 0.016067434305874987 0 -0.031797720866623337 0.016142488406576401 0 -0.031582145977121563 0.015812613144722321 0 -0.031916140855447028 0.016067434305874987 0 -0.031994474277693079 0.017165753595591172 0 -0.031800305947106797 0.018089994590368755 0 -0.031797720866623337 0.016142488406576401 0 -0.031582145977121563 0.015812613144722321 0 -0.031855071735424241 0.015716624139063516 0 -0.031582145977121563 0.015812613144722321 0 -0.031855071735424241 0.015716624139063516 0 -0.031005536825680805 0.015601844932303766 0 -0.031855071735424241 0.015716624139063516 0 -0.031741638665534526 0.018755921224757412 0 -0.031005536825680805 0.015601844932303766 0 -0.031696319485728819 0.019346502917286564 0 -0.03126967029639606 0.021666580258363707 0 -0.03296906272795215 0.02029887195900397 0 -0.031800305947106797 0.018089994590368755 0 -0.031332809863122243 0.020440910974545638 0 -0.03126967029639606 0.021666580258363707 0 -0.03296906272795215 0.02029887195900397 0 -0.033125658603449598 0.022017934590436401 0 -0.034510284107268835 0.019022953673321061 0 -0.03296906272795215 0.02029887195900397 0 -0.034422851682282589 0.021126078064131391 0 -0.034535747936955401 0.019610000763519271 0 -0.034444588503195477 0.021278181692387189 0 -0.03296906272795215 0.02029887195900397 0 -0.034422851682282589 0.021126078064131391 0 -0.033125658603449598 0.022017934590436401 0 -0.036116219235083923 0.021255238438029504 0 -0.034557558505877765 0.02196926515086944 0 -0.035588155814957563 0.022643360996491724 0 -0.036116219235083923 0.021255238438029504 0 -0.034498830255221269 0.019906338699667993 0 -0.034557558505877765 0.02196926515086944 0 -0.011834708956313117 0.018455400357387176 0 -0.012168298132593833 0.021170117356665082 0 -0.0097701101788069521 0.021458962379130895 0 -0.0080275693979176155 0.019658490686493623 0 -0.010271366825519884 0.019717227010862023 0 -0.0090701176314112019 0.021927824335317855 0 -0.013282845573625884 0.020182552157483762 0 -0.010508011713931764 0.022109642852384103 0 -0.0076789002449691515 0.021066521442513 0 -0.0069581140231630614 0.022059429984804053 0 -0.0090701176314112019 0.021927824335317855 0 -0.0076789002449691515 0.021066521442513 0 -0.0080275693979176155 0.019658490686493623 0 -0.0090701176314112019 0.021927824335317855 0 -0.0088587672177466385 0.018264326330739055 0 -0.0080275693979176155 0.019658490686493623 0 -0.010271366825519884 0.019717227010862023 0 -0.013940302135115143 0.01542117524027363 0 -0.011834708956313117 0.018455400357387176 0 -0.014651285070509244 0.018776101458256853 0 -0.026840375844779614 0.016225866251801765 0 -0.024600726324551968 0.017587050318261823 0 -0.031582145977121563 0.015812613144722321 0 -0.031916140855447028 0.016067434305874987 0 -0.031005536825680805 0.015601844932303766 0 -0.024600726324551968 0.017587050318261823 0 -0.025483808662670433 0.017068260971145881 0 -0.030384814912281677 0.012728495991621977 0 -0.031005536825680805 0.015601844932303766 0 -0.027517018711441327 0.015142748554380931 0 -0.011834708956313117 0.018455400357387176 0 -0.014651285070509244 0.018776101458256853 0 -0.012168298132593833 0.021170117356665082 0 -0.024600726324551968 0.017587050318261823 0 -0.020440756130218882 0.018965896650228117 0 -0.027517018711441327 0.015142748554380931 0 -0.029192304598787411 0.017143562129943071 0 -0.027080845418880117 0.017417194322519595 0 -0.031005536825680805 0.015601844932303766 0 -0.027517018711441327 0.015142748554380931 0 -0.029192304598787411 0.017143562129943071 0 -0.031741638665534526 0.018755921224757412 0 -0.031005536825680805 0.015601844932303766 0 -0.029192304598787411 0.017143562129943071 0 -0.031741638665534526 0.018755921224757412 0 -0.029192304598787411 0.017143562129943071 0 -0.028596425388260516 0.019340095335445021 0 -0.029192304598787411 0.017143562129943071 0 -0.027080845418880117 0.017417194322519595 0 -0.028596425388260516 0.019340095335445021 0 -0.027080845418880117 0.017417194322519595 0 -0.02629435115170748 0.019338235403940581 0 -0.028596425388260516 0.019340095335445021 0 -0.027080845418880117 0.017417194322519595 0 -0.024017167914763982 0.016858878158273815 0 -0.02629435115170748 0.019338235403940581 0 -0.020440756130218882 0.018965896650228117 0 -0.016778581480671149 0.020904323417689063 0 -0.012168298132593833 0.021170117356665082 0 -0.00973378101956523 0.023371222932168582 0 -0.0097701101788069521 0.021458962379130895 0 -0.027517018711441327 0.015142748554380931 0 -0.027080845418880117 0.017417194322519595 0 -0.024017167914763982 0.016858878158273815 0 -0.0093561795831474913 0.023272157533768698 0 -0.010508011713931764 0.022109642852384103 0 -0.0070692835428035209 0.023284278342900134 0 -0.0079716030266423904 0.024101019082972755 0 -0.0090701176314112019 0.021927824335317855 0 -0.016778581480671149 0.020904323417689063 0 -0.013079621189003451 0.023453748792912656 0 -0.0079716030266423904 0.024101019082972755 0 -0.00973378101956523 0.023371222932168582 0 -0.0076842468465806576 0.025098430994248491 0 -0.0079716030266423904 0.024101019082972755 0 -0.00973378101956523 0.023371222932168582 0 -0.0097701101788069521 0.021458962379130895 0 -0.024017167914763982 0.016858878158273815 0 -0.021207203763912195 0.020590647463626384 0 -0.024241606866920385 0.02112335146358341 0 -0.024017167914763982 0.016858878158273815 0 -0.021207203763912195 0.020590647463626384 0 -0.018003791938811676 0.019486859017056872 0 -0.021207203763912195 0.020590647463626384 0 -0.020753855949579837 0.023504390626167361 0 -0.024241606866920385 0.02112335146358341 0 -0.021207203763912195 0.020590647463626384 0 -0.020753855949579837 0.023504390626167361 0 -0.017877558912682535 0.023243285959112236 0 -0.020753855949579837 0.023504390626167361 0 -0.024896619148667958 0.025220733549876802 0 -0.015735508032576465 0.028146950502671925 0 -0.020753855949579837 0.023504390626167361 0 -0.024241606866920385 0.02112335146358341 0 -0.024896619148667958 0.025220733549876802 0 -0.02719010529240154 0.022106422622384353 0 -0.02767619347004454 0.024607176565771934 0 -0.024896619148667958 0.025220733549876802 0 -0.024241606866920385 0.02112335146358341 0 -0.02719010529240154 0.022106422622384353 0 -0.024896619148667958 0.025220733549876802 0 -0.024017167914763982 0.016858878158273815 0 -0.024241606866920385 0.02112335146358341 0 -0.02629435115170748 0.019338235403940581 0 -0.024241606866920385 0.02112335146358341 0 -0.02629435115170748 0.019338235403940581 0 -0.02719010529240154 0.022106422622384353 0 -0.028596425388260516 0.019340095335445021 0 -0.030769906720757571 0.023214056069285425 0 -0.02719010529240154 0.022106422622384353 0 -0.02629435115170748 0.019338235403940581 0 -0.028596425388260516 0.019340095335445021 0 -0.02719010529240154 0.022106422622384353 0 -0.031741638665534526 0.018755921224757412 0 -0.028596425388260516 0.019340095335445021 0 -0.030769906720757571 0.023214056069285425 0 -0.030769906720757571 0.023214056069285425 0 -0.02719010529240154 0.022106422622384353 0 -0.02767619347004454 0.024607176565771934 0 -0.02767619347004454 0.024607176565771934 0 -0.029872596284427167 0.026184071408102125 0 -0.027323669873498987 0.025965085494565113 0 -0.030769906720757571 0.023214056069285425 0 -0.02767619347004454 0.024607176565771934 0 -0.029872596284427167 0.026184071408102125 0 -0.030716726424662416 0.023206646676524126 0 -0.030334780973944788 0.024758104926269231 0 -0.029872596284427167 0.026184071408102125 0 -0.027323669873498987 0.025965085494565113 0 -0.02819464462403632 0.027243458564745578 0 -0.027323669873498987 0.025965085494565113 0 -0.026577819613971893 0.026596183232874999 0 -0.02819464462403632 0.027243458564745578 0 -0.027323669873498987 0.025965085494565113 0 -0.026577819613971893 0.026596183232874999 0 -0.026092412504752211 0.025984054377709426 0 -0.027323669873498987 0.025965085494565113 0 -0.026092412504752211 0.025984054377709426 0 -0.026163720127252703 0.025482755679482442 0 -0.026092412504752211 0.025984054377709426 0 -0.02535416233641305 0.026456733155149424 0 -0.025354008377089506 0.025565145963404565 0 -0.026577819613971893 0.026596183232874999 0 -0.026092412504752211 0.025984054377709426 0 -0.02535416233641305 0.026456733155149424 0 -0.026577819613971893 0.026596183232874999 0 -0.02535416233641305 0.026456733155149424 0 -0.027080834997167933 0.027568300134205394 0 -0.03325993128110153 0.017187694390589175 0 -0.032149174793977345 0.01996413767889383 0 -0.02421239375393586 0.024305420064856115 0 -0.024755448465802313 0.02513400599622469 0 -0.024702672987136878 0.024649595735896986 0 -0.02421239375393586 0.024305420064856115 0 -0.024607175338214382 0.024045530547636695 0 -0.024702672987136878 0.024649595735896986 0 -0.024755448465802313 0.02513400599622469 0 -0.024896619148667958 0.025220733549876802 0 -0.024783489345834124 0.025090016568422982 0 -0.02535416233641305 0.026456733155149424 0 -0.025354008377089506 0.025565145963404565 0 -0.024755448465802313 0.02513400599622469 0 -0.020420018646738976 0.021089963692638537 0 -0.017279369744401269 0.019822964995303012 0 -0.025354008377089506 0.025565145963404565 0 -0.024755448465802313 0.02513400599622469 0 -0.024896619148667958 0.025220733549876802 0 -0.02767619347004454 0.024607176565771934 0 -0.024896619148667958 0.025220733549876802 0 -0.026163720127252703 0.025482755679482442 0 -0.02767619347004454 0.024607176565771934 0 -0.027323669873498987 0.025965085494565113 0 -0.026163720127252703 0.025482755679482442 0 -0.026092412504752211 0.025984054377709426 0 -0.025354008377089506 0.025565145963404565 0 -0.026163720127252703 0.025482755679482442 0 -0.025354008377089506 0.025565145963404565 0 -0.024896619148667958 0.025220733549876802 0 -0.026163720127252703 0.025482755679482442 0 -0.03600957640761248 0.02342484694646484 0 -0.034344862764633763 0.023327693121679476 0 -0.034771150858896517 0.024555922154037717 0 -0.03600957640761248 0.02342484694646484 0 -0.036346878022935299 0.024515477376127259 0 -0.034771150858896517 0.024555922154037717 0 -0.034557558505877765 0.02196926515086944 0 -0.035588155814957563 0.022643360996491724 0 -0.034344862764633763 0.023327693121679476 0 -0.03600957640761248 0.02342484694646484 0 -0.035588155814957563 0.022643360996491724 0 -0.034344862764633763 0.023327693121679476 0 -0.034444588503195477 0.021278181692387189 0 -0.034386358518863749 0.02221189305328981 0 -0.034422851682282589 0.021126078064131391 0 -0.034344862764633763 0.023327693121679476 0 -0.033125658603449598 0.022017934590436401 0 -0.034344862764633763 0.023327693121679476 0 -0.032734583395382322 0.023648580028426243 0 -0.034771150858896517 0.024555922154037717 0 -0.034344862764633763 0.023327693121679476 0 -0.032734583395382322 0.023648580028426243 0 -0.033125658603449598 0.022017934590436401 0 -0.03126967029639606 0.021666580258363707 0 -0.032734583395382322 0.023648580028426243 0 -0.033125658603449598 0.022017934590436401 0 -0.031332809863122243 0.020440910974545638 0 -0.030716726424662416 0.023206646676524126 0 -0.03126967029639606 0.021666580258363707 0 -0.030730780642190359 0.023853355886106618 0 -0.032734583395382322 0.023648580028426243 0 -0.030730780642190359 0.023853355886106618 0 -0.029872596284427167 0.026184071408102125 0 -0.032884967888730139 0.025412671370535253 0 -0.029872596284427167 0.026184071408102125 0 -0.032884967888730139 0.025412671370535253 0 -0.031309111955110581 0.027009823676608341 0 -0.030730780642190359 0.023853355886106618 0 -0.032734583395382322 0.023648580028426243 0 -0.032884967888730139 0.025412671370535253 0 -0.032884967888730139 0.025412671370535253 0 -0.033471821831433955 0.026822088160157478 0 -0.031309111955110581 0.027009823676608341 0 -0.032734583395382322 0.023648580028426243 0 -0.032884967888730139 0.025412671370535253 0 -0.034771150858896517 0.024555922154037717 0 -0.032884967888730139 0.025412671370535253 0 -0.035467824669473812 0.025993297498008817 0 -0.034771150858896517 0.024555922154037717 0 -0.032884967888730139 0.025412671370535253 0 -0.035467824669473812 0.025993297498008817 0 -0.033471821831433955 0.026822088160157478 0 -0.036346878022935299 0.024515477376127259 0 -0.035467824669473812 0.025993297498008817 0 -0.034771150858896517 0.024555922154037717 0 -0.035471441185265934 0.027885788667018886 0 -0.034683809231720528 0.027218175542854509 0 -0.034619754897664501 0.028409088127779879 0 -0.036275974744870348 0.026792637688681363 0 -0.035471441185265934 0.027885788667018886 0 -0.034683809231720528 0.027218175542854509 0 -0.036275974744870348 0.026792637688681363 0 -0.035599554059846363 0.025026810656108029 0 -0.034683809231720528 0.027218175542854509 0 -0.036786334194061465 0.025593490232298965 0 -0.03604534307943346 0.026430186403953643 0 -0.035467824669473812 0.025993297498008817 0 -0.034683809231720528 0.027218175542854509 0 -0.033471821831433955 0.026822088160157478 0 -0.034683809231720528 0.027218175542854509 0 -0.033385908554299654 0.028025450681141713 0 -0.034619754897664501 0.028409088127779879 0 -0.034683809231720528 0.027218175542854509 0 -0.033385908554299654 0.028025450681141713 0 -0.033471821831433955 0.026822088160157478 0 -0.033385908554299654 0.028025450681141713 0 -0.033471821831433955 0.026822088160157478 0 -0.032223244251796845 0.027765671883077655 0 -0.033385908554299654 0.028025450681141713 0 -0.032223244251796845 0.027765671883077655 0 -0.032006512837939337 0.02863391261437518 0 -0.033471821831433955 0.026822088160157478 0 -0.031309111955110581 0.027009823676608341 0 -0.032223244251796845 0.027765671883077655 0 -0.031309111955110581 0.027009823676608341 0 -0.030920676384233018 0.028253108408186942 0 -0.032223244251796845 0.027765671883077655 0 -0.030920676384233018 0.028253108408186942 0 -0.032006512837939337 0.02863391261437518 0 -0.030453076774522785 0.029442486651145353 0 -0.030920676384233018 0.028253108408186942 0 -0.032223244251796845 0.027765671883077655 0 -0.032006512837939337 0.02863391261437518 0 -0.03846904504762387 0.023478023452034438 0 -0.039954194460818444 0.018417299324015167 0 -0.032006512837939337 0.02863391261437518 0 -0.032978366334706487 0.029439598682985499 0 -0.030453076774522785 0.029442486651145353 0 -0.043125645818652802 0.026958351683614254 0 -0.041679828595482339 0.027354348538967604 0 -0.044085553204551216 0.027881011164405816 0 -0.043125645818652802 0.026958351683614254 0 -0.043112171409546061 0.025811601253312465 0 -0.044431416684914182 0.027368142527546699 0 -0.043125645818652802 0.026958351683614254 0 -0.043112171409546061 0.025811601253312465 0 -0.041958875415892778 0.026267255569034663 0 -0.043112171409546061 0.025811601253312465 0 -0.041958875415892778 0.026267255569034663 0 -0.041541874267250707 0.024771138613551093 0 -0.043125645818652802 0.026958351683614254 0 -0.041958875415892778 0.026267255569034663 0 -0.041679828595482339 0.027354348538967604 0 -0.040690853729428482 0.026013540636167742 0 -0.041679828595482339 0.027354348538967604 0 -0.038684628421834774 0.026477817543560513 0 -0.041958875415892778 0.026267255569034663 0 -0.040690853729428482 0.026013540636167742 0 -0.041679828595482339 0.027354348538967604 0 -0.041958875415892778 0.026267255569034663 0 -0.040690853729428482 0.026013540636167742 0 -0.041541874267250707 0.024771138613551093 0 -0.033385908554299654 0.028025450681141713 0 -0.032978366334706487 0.029439598682985499 0 -0.034619754897664501 0.028409088127779879 0 -0.033385908554299654 0.028025450681141713 0 -0.032006512837939337 0.02863391261437518 0 -0.032978366334706487 0.029439598682985499 0 -0.032978366334706487 0.029439598682985499 0 -0.034619754897664501 0.028409088127779879 0 -0.035263339498055865 0.028878419755660294 0 -0.03846904504762387 0.023478023452034438 0 -0.037101174516960524 0.025102940235948359 0 -0.040690853729428482 0.026013540636167742 0 -0.038684628421834774 0.026477817543560513 0 -0.039693218686765182 0.025139223880104946 0 -0.038684628421834774 0.026477817543560513 0 -0.036958835373263534 0.025911198293867149 0 -0.035629739596321576 0.026151959820841623 0 -0.037101174516960524 0.025102940235948359 0 -0.036205452124907729 0.025237602713894833 0 -0.035442273027962871 0.027683245506467769 0 -0.035263339498055865 0.028878419755660294 0 -0.035483171648193694 0.028503889190895939 0 -0.035442273027962871 0.027683245506467769 0 -0.035263339498055865 0.028878419755660294 0 -0.035629739596321576 0.026151959820841623 0 -0.034619754897664501 0.028409088127779879 0 -0.035263339498055865 0.028878419755660294 0 -0.035483171648193694 0.028503889190895939 0 -0.036459961027021051 0.028154938379033441 0 -0.035471441185265934 0.027885788667018886 0 -0.035483171648193694 0.028503889190895939 0 -0.035471441185265934 0.027885788667018886 0 -0.034619754897664501 0.028409088127779879 0 -0.035483171648193694 0.028503889190895939 0 -0.060677805246091496 -0.032113191437975544 0 -0.060626028417432531 -0.034593792911006047 0 -0.06228453724204909 -0.036115579231266744 0 -0.060677805246091496 -0.032113191437975544 0 -0.060626028417432531 -0.034593792911006047 0 -0.059248948738792682 -0.035116682248028719 0 -0.061141193305786913 -0.031224428129353984 0 -0.059974089727073035 -0.032645069179549027 0 -0.059528587802681873 -0.034975792847984424 0 -0.008043939257313398 -0.0014126645332304144 0 -0.0088763097283121074 -0.0017287245338042539 0 -0.0090995340048542501 -0.003872815003836226 0 -0.034982831516688608 0.0011613031494651846 0 -0.038724805134039059 -0.016715607752070798 0 -0.034982831516688608 0.0011613031494651846 0 -0.024826987951027328 -0.018717002960770363 0 -0.034982831516688608 0.0011613031494651846 0 -0.040786951855160396 0.0057169177969662935 0 -0.02687031243276997 0.028308769374963311 0 -0.027795445797339176 0.028092274089710049 0 -0.027787291615669837 0.028976874641357842 0 -0.061141193305786913 -0.031224428129353984 0 -0.059974089727073035 -0.032645069179549027 0 -0.059128333368937254 -0.03298659621388985 0 -0.059974089727073035 -0.032645069179549027 0 -0.059155011694656388 -0.033029321917353971 0 -0.059528587802681873 -0.034975792847984424 0 -0.040995213554488916 0.0054723330707634752 0 -0.040786951855160396 0.0057169177969662935 0 -0.0097809074977272675 -0.0021556231633910695 0 -0.0088763097283121074 -0.0017287245338042539 0 -0.0090995340048542501 -0.003872815003836226 0 -0.0097809074977272675 -0.0021556231633910695 0 -0.01006073447528308 -0.0031053656170880834 0 -0.010502591474580016 -0.0024658770832719085 0 -0.0097809074977272675 -0.0021556231633910695 0 -0.0095962177915021474 -0.0010642645309768765 0 -0.010904425849946503 -0.0011347516070276992 0 -0.0097809074977272675 -0.0021556231633910695 0 -0.0088763097283121074 -0.0017287245338042539 0 -0.0095962177915021474 -0.0010642645309768765 0 -0.008043939257313398 -0.0014126645332304144 0 -0.0088763097283121074 -0.0017287245338042539 0 -0.0095962177915021474 -0.0010642645309768765 0 -0.02421239375393586 0.024305420064856115 0 -0.023671088817770473 0.02290580421460826 0 -0.024607175338214382 0.024045530547636695 0 -0.034982831516688608 0.0011613031494651846 0 -0.022982272555186419 0.0074750675140592259 0 -0.008043939257313398 -0.0014126645332304144 0 -0.0095962177915021474 -0.0010642645309768765 0 -0.0099657462653662057 0.00049482356034028863 0 -0.0095962177915021474 -0.0010642645309768765 0 -0.0099657462653662057 0.00049482356034028863 0 -0.010904425849946503 -0.0011347516070276992 0 -0.02535416233641305 0.026456733155149424 0 -0.026680396216198232 0.028508399230275924 0 -0.027080834997167933 0.027568300134205394 0 -0.03325993128110153 0.017187694390589175 0 -0.034982831516688608 0.0011613031494651846 0 -0.034982831516688608 0.0011613031494651846 0 -0.033275477087642003 0.0054563132661688048 0 -0.02687031243276997 0.028308769374963311 0 -0.027080834997167933 0.027568300134205394 0 -0.027795445797339176 0.028092274089710049 0 -0.026577819613971893 0.026596183232874999 0 -0.027080834997167933 0.027568300134205394 0 -0.02819464462403632 0.027243458564745578 0 -0.02819464462403632 0.027243458564745578 0 -0.029867280887067714 0.027647852170085259 0 -0.028705946718966088 0.028130616812637132 0 -0.027080834997167933 0.027568300134205394 0 -0.02819464462403632 0.027243458564745578 0 -0.027795445797339176 0.028092274089710049 0 -0.02819464462403632 0.027243458564745578 0 -0.027795445797339176 0.028092274089710049 0 -0.028705946718966088 0.028130616812637132 0 -0.029872596284427167 0.026184071408102125 0 -0.031309111955110581 0.027009823676608341 0 -0.029867280887067714 0.027647852170085259 0 -0.029872596284427167 0.026184071408102125 0 -0.02819464462403632 0.027243458564745578 0 -0.029867280887067714 0.027647852170085259 0 -0.031309111955110581 0.027009823676608341 0 -0.030920676384233018 0.028253108408186942 0 -0.029867280887067714 0.027647852170085259 0 -0.030920676384233018 0.028253108408186942 0 -0.029867280887067714 0.027647852170085259 0 -0.0295500467620845 0.028486111892577052 0 -0.029867280887067714 0.027647852170085259 0 -0.0295500467620845 0.028486111892577052 0 -0.028705946718966088 0.028130616812637132 0 -0.030920676384233018 0.028253108408186942 0 -0.0295500467620845 0.028486111892577052 0 -0.030453076774522785 0.029442486651145353 0 -0.0295500467620845 0.028486111892577052 0 -0.027787291615669837 0.028976874641357842 0 -0.030453076774522785 0.029442486651145353 0 -0.040786951855160396 0.0057169177969662935 0 -0.039954194460818444 0.018417299324015167 0 -0.0295500467620845 0.028486111892577052 0 -0.028705946718966088 0.028130616812637132 0 -0.027787291615669837 0.028976874641357842 0 -0.027795445797339176 0.028092274089710049 0 -0.028705946718966088 0.028130616812637132 0 -0.027787291615669837 0.028976874641357842 0 -0.055391416637566915 -0.036973007247057973 0 -0.057940317601074265 -0.038528097430158718 0 -0.059528587802681873 -0.034975792847984424 0 -0.040008330896223375 -0.021863718873328847 0 -0.038724805134039059 -0.016715607752070798 0 -0.040786951855160396 0.0057169177969662935 0 -0.045279844505087957 -0.00063589593758657601 0 -0.059155011694656388 -0.033029321917353971 0 -0.055391416637566915 -0.036973007247057973 0 -0.059528587802681873 -0.034975792847984424 0 -0.043125645818652802 0.026958351683614254 0 -0.044431416684914182 0.027368142527546699 0 -0.044085553204551216 0.027881011164405816 0 -0.04544633453716785 0.028235877366375998 0 -0.044431416684914182 0.027368142527546699 0 -0.044085553204551216 0.027881011164405816 0 -0.055391416637566915 -0.036973007247057973 0 -0.057940317601074265 -0.038528097430158718 0 -0.055342476670061966 -0.040894499197439628 0 -0.052027346407623076 -0.040679101328670537 0 -0.055391416637566915 -0.036973007247057973 0 -0.055342476670061966 -0.040894499197439628 0 -0.045380253139359721 -0.0058167132593181098 0 -0.045279844505087957 -0.00063589593758657601 0 -0.057940317601074265 -0.038528097430158718 0 -0.059342314204058555 -0.040952872559176616 0 -0.055342476670061966 -0.040894499197439628 0 -0.060420973232604293 -0.037561707928299645 0 -0.063149727559436486 -0.037436963981292072 0 -0.059342314204058555 -0.040952872559176616 0 -0.005297858679516345 -0.028878692842261699 0 -0.0076173808857080668 -0.02696121052442017 0 -0.0059694502980397485 -0.025803615029240046 0 -0.057940317601074265 -0.038528097430158718 0 -0.060420973232604293 -0.037561707928299645 0 -0.059342314204058555 -0.040952872559176616 0 -0.019998827255244572 -0.017944560016626619 0 -0.027362705493061818 -0.027015759597905038 0 -0.060420973232604293 -0.037561707928299645 0 -0.060577567528045759 -0.036012249894312155 0 -0.059248948738792682 -0.035116682248028719 0 -0.057940317601074265 -0.038528097430158718 0 -0.060420973232604293 -0.037561707928299645 0 -0.059248948738792682 -0.035116682248028719 0 -0.060420973232604293 -0.037561707928299645 0 -0.060577567528045759 -0.036012249894312155 0 -0.062693970781183148 -0.036361371055127129 0 -0.060420973232604293 -0.037561707928299645 0 -0.062693970781183148 -0.036361371055127129 0 -0.063149727559436486 -0.037436963981292072 0 -0.03253907606480861 -0.024327960483014065 0 -0.024826987951027328 -0.018717002960770363 0 -0.060577567528045759 -0.036012249894312155 0 -0.060626028417432531 -0.034593792911006047 0 -0.062693970781183148 -0.036361371055127129 0 -0.060577567528045759 -0.036012249894312155 0 -0.060626028417432531 -0.034593792911006047 0 -0.059248948738792682 -0.035116682248028719 0 -0.01006073447528308 -0.0031053656170880834 0 -0.0095689182831487293 -0.0042773148489299029 0 -0.011346654688197717 -0.002750781132866106 0 -0.0097809074977272675 -0.0021556231633910695 0 -0.01006073447528308 -0.0031053656170880834 0 -0.0090995340048542501 -0.003872815003836226 0 -0.022195704862401605 -0.012699993160403213 0 -0.023825445336133011 -0.016448391374845009 0 -0.025190033456103197 -0.015296027516028319 0 -0.024826987951027328 -0.018717002960770363 0 -0.019998827255244572 -0.017944560016626619 0 -0.024826987951027328 -0.018717002960770363 0 -0.01944946082230508 -0.016797348218250366 0 -0.019998827255244572 -0.017944560016626619 0 -0.01944946082230508 -0.016797348218250366 0 -0.01006073447528308 -0.0031053656170880834 0 -0.0090995340048542501 -0.003872815003836226 0 -0.0095689182831487293 -0.0042773148489299029 0 -0.013031413550357279 -0.013423138620173193 0 -0.012919540515987395 -0.013517194183977305 0 -0.012114644962261388 -0.012837422220324432 0 -0.013031413550357279 -0.013423138620173193 0 -0.012114644962261388 -0.012837422220324432 0 -0.012421918685580057 -0.012108531299419781 0 -0.01944946082230508 -0.016797348218250366 0 -0.0043651382468018526 -0.0093485932329883219 0 -0.019998827255244572 -0.017944560016626619 0 -0.0080705457948175123 -0.017696728551540749 0 0.032050895116538983 0.0045495720034833664 0 0.031233821123481248 0.0044845358124082253 0 0.031371777295765547 0.0058838816125596598 0 -0.009029390641974451 -0.0046689461720265876 0 -0.01089505058487956 -0.006283502504562429 0 -0.010779090501604966 -0.0044125707579920487 0 0.031233821123481248 0.0044845358124082253 0 0.030792343199576824 0.0052701770254768941 0 0.029424130892027004 0.0037842113194101776 0 0.032050895116538983 0.0045495720034833664 0 0.031233821123481248 0.0044845358124082253 0 0.031010452273407711 0.0034964117752297481 0 0.031233821123481248 0.0044845358124082253 0 0.030792343199576824 0.0052701770254768941 0 0.031371777295765547 0.0058838816125596598 0 0.030792343199576824 0.0052701770254768941 0 0.030793131629010526 0.0058602923828562177 0 0.031371777295765547 0.0058838816125596598 0 -0.01089505058487956 -0.006283502504562429 0 -0.012111500365357698 -0.0032976015088916526 0 -0.010779090501604966 -0.0044125707579920487 0 -0.009029390641974451 -0.0046689461720265876 0 -0.010779090501604966 -0.0044125707579920487 0 -0.011346654688197717 -0.002750781132866106 0 -0.012111500365357698 -0.0032976015088916526 0 -0.010779090501604966 -0.0044125707579920487 0 -0.011346654688197717 -0.002750781132866106 0 -0.0043651382468018526 -0.0093485932329883219 0 0.0021512745286821787 -0.0025854878753991213 0 -0.01944946082230508 -0.016797348218250366 0 -0.018383678334900115 -0.013914821412649971 0 0.029889729578050989 0.0047951242623289463 0 0.030392715298490851 0.0051727302720373843 0 0.029952475319848883 0.0054635134366900788 0 0.029889729578050989 0.0047951242623289463 0 0.030392715298490851 0.0051727302720373843 0 0.030379616167872246 0.0046089963896080019 0 0.030792343199576824 0.0052701770254768941 0 0.030392715298490851 0.0051727302720373843 0 0.030347960931118408 0.004745619988739882 0 0.027487383950536601 0.0033133950174562186 0 0.023598470504553767 -0.00077846537622023411 0 0.02437039488400786 0.0012264258362778997 0 0.023598470504553767 -0.00077846537622023411 0 0.030793131629010526 0.0058602923828562177 0 0.030392715298490851 0.0051727302720373843 0 0.030443575788117197 0.0060921704513254623 0 0.030792343199576824 0.0052701770254768941 0 0.030793131629010526 0.0058602923828562177 0 0.030392715298490851 0.0051727302720373843 0 0.029952475319848883 0.0054635134366900788 0 0.030038576667847681 0.0060526422198404397 0 0.029459342036382376 0.005812058690485805 0 0.029952475319848883 0.0054635134366900788 0 0.030038576667847681 0.0060526422198404397 0 0.030443575788117197 0.0060921704513254623 0 0.030392715298490851 0.0051727302720373843 0 0.029952475319848883 0.0054635134366900788 0 0.030443575788117197 0.0060921704513254623 0 0.030001763074462968 0.0068071644476820851 0 0.030443575788117197 0.0060921704513254623 0 0.030351105148572019 0.0068751581054939271 0 0.030001763074462968 0.0068071644476820851 0 0.030038576667847681 0.0060526422198404397 0 0.029459342036382376 0.005812058690485805 0 0.030001763074462968 0.0068071644476820851 0 0.030038576667847681 0.0060526422198404397 0 0.030443575788117197 0.0060921704513254623 0 0.030793131629010526 0.0058602923828562177 0 0.030443575788117197 0.0060921704513254623 0 0.030844252202619195 0.0066950281085321551 0 0.030443575788117197 0.0060921704513254623 0 0.030351105148572019 0.0068751581054939271 0 0.030844252202619195 0.0066950281085321551 0 0.030351105148572019 0.0068751581054939271 0 0.030844252202619195 0.0066950281085321551 0 0.030419194929064145 0.0071274432002778523 0 0.030001763074462968 0.0068071644476820851 0 0.030351105148572019 0.0068751581054939271 0 0.030090609881125049 0.0069511672692613323 0 -0.011346654688197717 -0.002750781132866106 0 -0.013081779799206314 -0.00077015562279575227 0 -0.010904425849946503 -0.0011347516070276992 0 -0.0097809074977272675 -0.0021556231633910695 0 -0.010502591474580016 -0.0024658770832719085 0 -0.010904425849946503 -0.0011347516070276992 0 -0.01006073447528308 -0.0031053656170880834 0 -0.010502591474580016 -0.0024658770832719085 0 -0.011346654688197717 -0.002750781132866106 0 -0.010502591474580016 -0.0024658770832719085 0 -0.011346654688197717 -0.002750781132866106 0 -0.010904425849946503 -0.0011347516070276992 0 0.030793131629010526 0.0058602923828562177 0 0.031371777295765547 0.0058838816125596598 0 0.030844252202619195 0.0066950281085321551 0 0.0021512745286821787 -0.0025854878753991213 0 0.0051717597944939339 0.0013135852069857577 0 -0.012111500365357698 -0.0032976015088916526 0 -0.011346654688197717 -0.002750781132866106 0 -0.013081779799206314 -0.00077015562279575227 0 0.0051717597944939339 0.0013135852069857577 0 0.0061867725692114559 0.0045704258951592422 0 -0.013081779799206314 -0.00077015562279575227 0 -0.011935465917252461 0.00052684406394705571 0 -0.014045661714996337 0.0016481294440300574 0 -0.0099657462653662057 0.00049482356034028863 0 -0.011935465917252461 0.00052684406394705571 0 -0.010904425849946503 -0.0011347516070276992 0 -0.013081779799206314 -0.00077015562279575227 0 -0.011935465917252461 0.00052684406394705571 0 -0.010904425849946503 -0.0011347516070276992 0 -0.0099657462653662057 0.00049482356034028863 0 -0.011935465917252461 0.00052684406394705571 0 -0.011833991189632657 0.0022618705040690881 0 -0.022982272555186419 0.0074750675140592259 0 -0.01671678039971819 0.012706602920906779 0 -0.024607175338214382 0.024045530547636695 0 -0.024702672987136878 0.024649595735896986 0 -0.02499594549954285 0.024802673010788572 0 -0.024755448465802313 0.02513400599622469 0 -0.024702672987136878 0.024649595735896986 0 -0.024825218476982686 0.024933631643728058 0 -0.024825218476982686 0.024933631643728058 0 -0.02499594549954285 0.024802673010788572 0 -0.024783489345834124 0.025090016568422982 0 -0.024702672987136878 0.024649595735896986 0 -0.024825218476982686 0.024933631643728058 0 -0.02499594549954285 0.024802673010788572 0 -0.024755448465802313 0.02513400599622469 0 -0.024825218476982686 0.024933631643728058 0 -0.024783489345834124 0.025090016568422982 0 -0.011833991189632657 0.0022618705040690881 0 -0.014045661714996337 0.0016481294440300574 0 -0.013675546585576735 0.0040031070943832821 0 -0.02499594549954285 0.024802673010788572 0 -0.025182206752252665 0.025054463238919654 0 -0.024783489345834124 0.025090016568422982 0 -0.01671678039971819 0.012706602920906779 0 -0.0067470157531068021 0.014963721878239333 0 -0.011935465917252461 0.00052684406394705571 0 -0.011833991189632657 0.0022618705040690881 0 -0.014045661714996337 0.0016481294440300574 0 0.030351105148572019 0.0068751581054939271 0 0.030419194929064145 0.0071274432002778523 0 0.030090609881125049 0.0069511672692613323 0 0.030419194929064145 0.0071274432002778523 0 0.030090609881125049 0.0069511672692613323 0 0.030160533304314424 0.0071462153322813804 0 0.030090609881125049 0.0069511672692613323 0 0.030160533304314424 0.0071462153322813804 0 0.030082841415996223 0.0070081338537945573 0 0.030160533304314424 0.0071462153322813804 0 0.030236827056548659 0.0073292329019849023 0 0.030062333516827851 0.0073141067855590431 0 0.030419194929064145 0.0071274432002778523 0 0.030160533304314424 0.0071462153322813804 0 0.030236827056548659 0.0073292329019849023 0 -0.014045661714996337 0.0016481294440300574 0 -0.013675546585576735 0.0040031070943832821 0 -0.015012167262731337 0.0040422752770510016 0 0.0061867725692114559 0.0045704258951592422 0 0.0052000286288896996 0.010143440542030318 0 0.0030924332015405125 0.012314733212646371 0 0.0045872778162338815 0.011311839428638181 0 0.0048795738028999365 0.010753888241851821 0 0.0030924332015405125 0.012314733212646371 0 0.0041407938680876142 0.012295708406082228 0 0.0045872778162338815 0.011311839428638181 0 -0.0067470157531068021 0.014963721878239333 0 0.0052000286288896996 0.010143440542030318 0 -0.0050197399984263629 0.028055859696099448 0 -0.0024896243079927868 0.025380641577085077 0 -0.0052389022675371376 0.025601751414616025 0 -0.0067470157531068021 0.014963721878239333 0 0.0044369561380815607 0.017950824630653353 0 0.0052000286288896996 0.010143440542030318 0 0.013753199605624192 0.013736943927573731 0 0.0041732430287493728 0.012280266812911765 0 0.0055174308849153019 0.012259016545921472 0 0.0045872778162338815 0.011311839428638181 0 -0.00046196020835352809 0.030487101885458841 0 -0.0019674205512219631 0.027020912110946916 0 4.5433296708932662e-05 0.02820406514440987 0 0.0055174308849153019 0.012259016545921472 0 0.0045872778162338815 0.011311839428638181 0 0.0048795738028999365 0.010753888241851821 0 0.013753199605624192 0.013736943927573731 0 0.0044369561380815607 0.017950824630653353 0 0.0052000286288896996 0.010143440542030318 0 0.0050306558144902177 0.010516903317092988 0 -0.00047879667642545593 0.027244649325874601 0 -0.0015647039185378059 0.026637578614593996 0 -0.0019674205512219631 0.027020912110946916 0 -0.00047879667642545593 0.027244649325874601 0 -0.0019674205512219631 0.027020912110946916 0 4.5433296708932662e-05 0.02820406514440987 0 -0.00047879667642545593 0.027244649325874601 0 -0.0015647039185378059 0.026637578614593996 0 -0.00064869912057483395 0.026237091930084059 0 0.0043318130127080389 0.018057665735652144 0 0.0044369561380815607 0.017950824630653353 0 0.0041870144822402956 0.01907839412073457 0 0.0044369561380815607 0.017950824630653353 0 -0.002967994791206666 0.024288884983403373 0 -0.0024896243079927868 0.025380641577085077 0 -0.0037980314356103771 0.024809089305246279 0 -0.002967994791206666 0.024288884983403373 0 -0.0015647039185378059 0.026637578614593996 0 -0.0020336264897242227 0.02705982286068262 0 -0.002967994791206666 0.024288884983403373 0 -0.00099036764987927217 0.024968175258115028 0 -0.0015647039185378059 0.026637578614593996 0 -0.00099036764987927217 0.024968175258115028 0 -0.0015647039185378059 0.026637578614593996 0 -0.00064869912057483395 0.026237091930084059 0 -0.0058629061554177691 0.023196645803450829 0 -0.0044353151374788968 0.024031618903926081 0 -0.0052389022675371376 0.025601751414616025 0 -0.0024896243079927868 0.025380641577085077 0 -0.0052389022675371376 0.025601751414616025 0 -0.0037980314356103771 0.024809089305246279 0 -0.0044353151374788968 0.024031618903926081 0 -0.0052389022675371376 0.025601751414616025 0 -0.0037980314356103771 0.024809089305246279 0 -0.0044353151374788968 0.024031618903926081 0 -0.002967994791206666 0.024288884983403373 0 -0.0037980314356103771 0.024809089305246279 0 -0.0072131868156134595 0.02447654532416409 0 -0.0056795651488530862 0.023866990165470205 0 -0.0075106251611780413 0.025627810870826717 0 -0.0058629061554177691 0.023196645803450829 0 -0.0052389022675371376 0.025601751414616025 0 -0.0075106251611780413 0.025627810870826717 0 -0.0054132064640686614 0.023184934184936615 0 -0.0060120762600537909 0.024238524135425491 0 -0.0052389022675371376 0.025601751414616025 0 -0.0075106251611780413 0.025627810870826717 0 -0.0068241614048476229 0.026035208980668651 0 -0.0072131868156134595 0.02447654532416409 0 -0.0075106251611780413 0.025627810870826717 0 -0.0076842468465806576 0.025098430994248491 0 -0.0072131868156134595 0.02447654532416409 0 -0.0079716030266423904 0.024101019082972755 0 -0.0076842468465806576 0.025098430994248491 0 -0.021207203763912195 0.020590647463626384 0 -0.018003791938811676 0.019486859017056872 0 -0.017877558912682535 0.023243285959112236 0 -0.014941868886573112 0.024393024863964389 0 -0.015735508032576465 0.028146950502671925 0 -0.0081581648526134181 0.0269505946841553 0 -0.0075106251611780413 0.025627810870826717 0 -0.0076842468465806576 0.025098430994248491 0 -0.0081581648526134181 0.0269505946841553 0 -0.018003791938811676 0.019486859017056872 0 -0.014941868886573112 0.024393024863964389 0 -0.0081581648526134181 0.0269505946841553 0 -0.013079621189003451 0.023453748792912656 0 -0.010736964115181357 0.025414927912637029 0 -0.018003791938811676 0.019486859017056872 0 -0.014941868886573112 0.024393024863964389 0 -0.017877558912682535 0.023243285959112236 0 -0.020753855949579837 0.023504390626167361 0 -0.017877558912682535 0.023243285959112236 0 -0.015735508032576465 0.028146950502671925 0 -0.014941868886573112 0.024393024863964389 0 -0.017877558912682535 0.023243285959112236 0 -0.015735508032576465 0.028146950502671925 0 -0.0050197399984263629 0.028055859696099448 0 -0.0052389022675371376 0.025601751414616025 0 -0.0068241614048476229 0.026035208980668651 0 -0.0067470157531068021 0.014963721878239333 0 -0.017279369744401269 0.019822964995303012 0 -0.0050197399984263629 0.028055859696099448 0 -0.015735508032576465 0.028146950502671925 0 -0.0081581648526134181 0.0269505946841553 0 -0.0050197399984263629 0.028055859696099448 0 -0.0081581648526134181 0.0269505946841553 0 -0.0068241614048476229 0.026035208980668651 0 -0.0075106251611780413 0.025627810870826717 0 -0.0081581648526134181 0.0269505946841553 0 -0.0068241614048476229 0.026035208980668651 0 0.030356230728818302 0.014313052571762854 0 0.029390140942043771 0.013617679722404512 0 0.030100968422236869 0.01624054908319477 0 0.030356230728818302 0.014313052571762854 0 0.030100968422236869 0.01624054908319477 0 0.03125120507062229 0.014262051227323286 0 0.0076652334237121205 0.027506687400451733 0 0.0044607530662881638 0.027278996381267913 0 0.0047928221262794725 0.029432232493688548 0 0.016588167362457915 0.020661148460143872 0 0.016635268465223164 0.018467104093929772 0 0.030356230728818302 0.014313052571762854 0 0.03125120507062229 0.014262051227323286 0 0.030522520706299124 0.013319078669515216 0 0.030356230728818302 0.014313052571762854 0 0.029390140942043771 0.013617679722404512 0 0.030522520706299124 0.013319078669515216 0 0.027722272817610319 0.014506265910959147 0 0.029390140942043771 0.013617679722404512 0 0.028145269635590373 0.012599730851665573 0 0.027722272817610319 0.014506265910959147 0 0.029390140942043771 0.013617679722404512 0 0.030100968422236869 0.01624054908319477 0 0.015183191665716843 0.022800617468887931 0 0.010109181450853839 0.023541860904054447 0 0.010509198767544378 0.025546145407089139 0 0.0076652334237121205 0.027506687400451733 0 0.0058547789487379803 0.025624622767688093 0 0.015183191665716843 0.022800617468887931 0 0.016588167362457915 0.020661148460143872 0 0.026951278747012641 0.020000254739762063 0 0.027722272817610319 0.014506265910959147 0 0.030100968422236869 0.01624054908319477 0 0.0076652334237121205 0.027506687400451733 0 0.0058547789487379803 0.025624622767688093 0 0.0044607530662881638 0.027278996381267913 0 0.0058547789487379803 0.025624622767688093 0 0.0033373912495602703 0.026073364681461406 0 0.0044607530662881638 0.027278996381267913 0 0.0033373912495602703 0.026073364681461406 0 0.0016991968392096935 0.025334343040541499 0 0.0021204065934917037 0.026978438329741575 0 0.0044607530662881638 0.027278996381267913 0 0.0021204065934917037 0.026978438329741575 0 0.0033715412704243045 0.028543196687163916 0 0.0033373912495602703 0.026073364681461406 0 0.0044607530662881638 0.027278996381267913 0 0.0021204065934917037 0.026978438329741575 0 -0.00099036764987927217 0.024968175258115028 0 -0.00064869912057483395 0.026237091930084059 0 0.00042147444762334217 0.026076444163368195 0 0.00042147444762334217 0.026076444163368195 0 0.0016991968392096935 0.025334343040541499 0 0.0021204065934917037 0.026978438329741575 0 0.0021204065934917037 0.026978438329741575 0 0.00092921366602138802 0.027401812966724604 0 0.0017419733509261859 0.028720683313956885 0 0.00042147444762334217 0.026076444163368195 0 0.0021204065934917037 0.026978438329741575 0 0.00092921366602138802 0.027401812966724604 0 -0.00047879667642545593 0.027244649325874601 0 0.00042147444762334217 0.026076444163368195 0 0.00092921366602138802 0.027401812966724604 0 -0.00047879667642545593 0.027244649325874601 0 0.00092921366602138802 0.027401812966724604 0 4.5433296708932662e-05 0.02820406514440987 0 -0.00047879667642545593 0.027244649325874601 0 -0.00064869912057483395 0.026237091930084059 0 0.00042147444762334217 0.026076444163368195 0 -0.00046196020835352809 0.030487101885458841 0 0.0017419733509261859 0.028720683313956885 0 0.0033212352351196617 0.030453968563725595 0 0.013753199605624192 0.013736943927573731 0 0.01672584441119794 0.016775094954124412 0 0.00092921366602138802 0.027401812966724604 0 4.5433296708932662e-05 0.02820406514440987 0 0.0017419733509261859 0.028720683313956885 0 -0.00046196020835352809 0.030487101885458841 0 4.5433296708932662e-05 0.02820406514440987 0 0.0017419733509261859 0.028720683313956885 0 0.0044607530662881638 0.027278996381267913 0 0.0033715412704243045 0.028543196687163916 0 0.0047928221262794725 0.029432232493688548 0 0.0017419733509261859 0.028720683313956885 0 0.0033715412704243045 0.028543196687163916 0 0.0033212352351196617 0.030453968563725595 0 0.0021204065934917037 0.026978438329741575 0 0.0017419733509261859 0.028720683313956885 0 0.0033715412704243045 0.028543196687163916 0 0.031744535734251129 0.013661858339401605 0 0.03125120507062229 0.014262051227323286 0 0.031366379136675483 0.013103096043261596 0 0.0033715412704243045 0.028543196687163916 0 0.0033212352351196617 0.030453968563725595 0 0.0047928221262794725 0.029432232493688548 0 0.01672584441119794 0.016775094954124412 0 0.016635268465223164 0.018467104093929772 0 0.03125120507062229 0.014262051227323286 0 0.031366379136675483 0.013103096043261596 0 0.030522520706299124 0.013319078669515216 0 0.031366379136675483 0.013103096043261596 0 0.030914492569797676 0.012458089937222009 0 0.030522520706299124 0.013319078669515216 0 0.031366379136675483 0.013103096043261596 0 0.031800237561371264 0.012367251463941544 0 0.03229559841156722 0.013177656004837069 0 0.031744535734251129 0.013661858339401605 0 0.031366379136675483 0.013103096043261596 0 0.03229559841156722 0.013177656004837069 0 0.01672584441119794 0.016775094954124412 0 0.018591656010859745 0.015764026436845095 0 0.031366379136675483 0.013103096043261596 0 0.031800237561371264 0.012367251463941544 0 0.030914492569797676 0.012458089937222009 0 0.033335056109784732 0.013625215564762618 0 0.03229559841156722 0.013177656004837069 0 0.032571005720844502 0.011764474588728977 0 0.033335056109784732 0.013625215564762618 0 0.031610506727989623 0.013651744243258193 0 0.03229559841156722 0.013177656004837069 0 0.013753199605624192 0.013736943927573731 0 0.022639137849787758 0.012284867565989859 0 0.030160533304314424 0.0071462153322813804 0 0.030062333516827851 0.0073141067855590431 0 0.030082841415996223 0.0070081338537945573 0 0.031800237561371264 0.012367251463941544 0 0.03229559841156722 0.013177656004837069 0 0.032571005720844502 0.011764474588728977 0 0.031800237561371264 0.012367251463941544 0 0.032571005720844502 0.011764474588728977 0 0.031206164857441456 0.011200682015111664 0 0.032571005720844502 0.011764474588728977 0 0.031206164857441456 0.011200682015111664 0 0.031667480089738798 0.009899313233291079 0 0.031800237561371264 0.012367251463941544 0 0.030914492569797676 0.012458089937222009 0 0.031206164857441456 0.011200682015111664 0 0.030914492569797676 0.012458089937222009 0 0.031206164857441456 0.011200682015111664 0 0.030330660417739432 0.01147139393624097 0 0.030330660417739432 0.01147139393624097 0 0.029410722611922534 0.011921577599855814 0 0.029811655388030926 0.010366576548847291 0 0.031206164857441456 0.011200682015111664 0 0.030330660417739432 0.01147139393624097 0 0.029811655388030926 0.010366576548847291 0 0.030914492569797676 0.012458089937222009 0 0.030330660417739432 0.01147139393624097 0 0.029410722611922534 0.011921577599855814 0 0.030914492569797676 0.012458089937222009 0 0.030522520706299124 0.013319078669515216 0 0.029410722611922534 0.011921577599855814 0 0.029390140942043771 0.013617679722404512 0 0.030522520706299124 0.013319078669515216 0 0.029410722611922534 0.011921577599855814 0 0.029390140942043771 0.013617679722404512 0 0.028145269635590373 0.012599730851665573 0 0.029410722611922534 0.011921577599855814 0 0.029410722611922534 0.011921577599855814 0 0.028283955710131023 0.011119259286877662 0 0.029811655388030926 0.010366576548847291 0 0.028145269635590373 0.012599730851665573 0 0.029410722611922534 0.011921577599855814 0 0.028283955710131023 0.011119259286877662 0 0.02827272172376552 0.0097202410734315327 0 0.028283955710131023 0.011119259286877662 0 0.029811655388030926 0.010366576548847291 0 0.029811655388030926 0.010366576548847291 0 0.030329116241783732 0.0092273009034295264 0 0.031667480089738798 0.009899313233291079 0 0.029811655388030926 0.010366576548847291 0 0.029417037337979471 0.0087188667234897425 0 0.030329116241783732 0.0092273009034295264 0 0.029417037337979471 0.0087188667234897425 0 0.030329116241783732 0.0092273009034295264 0 0.030585870599739363 0.0079685259457465303 0 0.02827272172376552 0.0097202410734315327 0 0.029811655388030926 0.010366576548847291 0 0.029417037337979471 0.0087188667234897425 0 0.02827272172376552 0.0097202410734315327 0 0.027859149920524094 0.0085648150108179645 0 0.029417037337979471 0.0087188667234897425 0 0.030090609881125049 0.0069511672692613323 0 0.030082841415996223 0.0070081338537945573 0 0.03036078758507486 0.0070305139765736964 0 0.030001763074462968 0.0068071644476820851 0 0.030090609881125049 0.0069511672692613323 0 0.03036078758507486 0.0070305139765736964 0 0.022639137849787758 0.012284867565989859 0 0.026152649716466723 0.01060231088886673 0 0.031206164857441456 0.011200682015111664 0 0.029811655388030926 0.010366576548847291 0 0.031667480089738798 0.009899313233291079 0 0.026152649716466723 0.01060231088886673 0 0.027046215700278688 0.0099208452264398783 0 0.030329116241783732 0.0092273009034295264 0 0.031667480089738798 0.009899313233291079 0 0.030585870599739363 0.0079685259457465303 0 0.03036078758507486 0.0070305139765736964 0 0.030292428931095721 0.0076991877891747071 0 0.030585870599739363 0.0079685259457465303 0 0.030160087821476379 0.0065835104640882217 0 0.030074718513865752 0.0063734060764518837 0 0.030001763074462968 0.0068071644476820851 0 0.03036078758507486 0.0070305139765736964 0 0.030292428931095721 0.0076991877891747071 0 0.029459342036382376 0.005812058690485805 0 0.029204769406476434 0.0051841322023783911 0 0.029582849745521316 0.0051086599467927681 0 0.029952475319848883 0.0054635134366900788 0 0.029459342036382376 0.005812058690485805 0 0.029582849745521316 0.0051086599467927681 0 0.030074718513865752 0.0063734060764518837 0 0.029814885509427801 0.0057009803213176604 0 0.030585870599739363 0.0079685259457465303 0 0.030642781532915029 0.0075386877976011185 0 0.029884245557412311 0.0078937300759272244 0 0.030292428931095721 0.0076991877891747071 0 0.030585870599739363 0.0079685259457465303 0 0.030642781532915029 0.0075386877976011185 0 0.029814885509427801 0.0057009803213176604 0 0.029234836715321021 0.0043592727294659928 0 0.029204769406476434 0.0051841322023783911 0 0.029407601983149428 0.0048112771373929148 0 0.029170802663095359 0.0042653312846245676 0 0.029204769406476434 0.0051841322023783911 0 0.029407601983149428 0.0048112771373929148 0 0.029582849745521316 0.0051086599467927681 0 0.029889729578050989 0.0047951242623289463 0 0.029952475319848883 0.0054635134366900788 0 0.029582849745521316 0.0051086599467927681 0 0.029407601983149428 0.0048112771373929148 0 0.029582849745521316 0.0051086599467927681 0 0.029592268638122903 0.0046305332260470735 0 0.029889729578050989 0.0047951242623289463 0 0.029582849745521316 0.0051086599467927681 0 0.029592268638122903 0.0046305332260470735 0 0.027859149920524094 0.0085648150108179645 0 0.029417037337979471 0.0087188667234897425 0 0.029090490802403758 0.0077049984209030063 0 0.029417037337979471 0.0087188667234897425 0 0.030585870599739363 0.0079685259457465303 0 0.029884245557412311 0.0078937300759272244 0 0.029417037337979471 0.0087188667234897425 0 0.029090490802403758 0.0077049984209030063 0 0.029884245557412311 0.0078937300759272244 0 0.030642781532915029 0.0075386877976011185 0 0.029884245557412311 0.0078937300759272244 0 0.029836092225283148 0.0072720784140197069 0 0.029090490802403758 0.0077049984209030063 0 0.029884245557412311 0.0078937300759272244 0 0.029836092225283148 0.0072720784140197069 0 0.030642781532915029 0.0075386877976011185 0 0.029836092225283148 0.0072720784140197069 0 0.029927069296750305 0.0063348660421029832 0 0.02819634698859385 0.0073558848930236837 0 0.029090490802403758 0.0077049984209030063 0 0.029032341144112007 0.0067170308578361846 0 0.02819634698859385 0.0073558848930236837 0 0.029032341144112007 0.0067170308578361846 0 0.028067732065111387 0.0063342332839585484 0 0.029090490802403758 0.0077049984209030063 0 0.029836092225283148 0.0072720784140197069 0 0.029032341144112007 0.0067170308578361846 0 0.029032341144112007 0.0067170308578361846 0 0.029927069296750305 0.0063348660421029832 0 0.029021471199545602 0.0051785870516990132 0 0.029032341144112007 0.0067170308578361846 0 0.029021471199545602 0.0051785870516990132 0 0.028067732065111387 0.0063342332839585484 0 0.029836092225283148 0.0072720784140197069 0 0.029032341144112007 0.0067170308578361846 0 0.029927069296750305 0.0063348660421029832 0 0.02802021382705313 0.0039460863625571706 0 0.028263394886559275 0.0015664784559834962 0 0.029241351256236635 0.0027813255230385824 0 0.028263394886559275 0.0015664784559834962 0 0.025933951368901538 0.0014144302910369809 0 0.027399531639873437 -0.00038653327110453698 0 0.02802021382705313 0.0039460863625571706 0 0.028263394886559275 0.0015664784559834962 0 0.025933951368901538 0.0014144302910369809 0 0.029234836715321021 0.0043592727294659928 0 0.02852551416693349 0.0023441211017915849 0 0.02852551416693349 0.0023441211017915849 0 0.027681358443620973 0.0048246028788052099 0 0.023844252566674027 -0.0035328413462140489 0 0.02648409294972421 -0.0020798597688881865 0 0.029889729578050989 0.0047951242623289463 0 0.029860306892775846 0.0043303827399285922 0 0.029592268638122903 0.0046305332260470735 0 0.029860306892775846 0.0043303827399285922 0 0.029592268638122903 0.0046305332260470735 0 0.029170802663095359 0.0042653312846245676 0 0.033100741184462323 0.0029393002853282326 0 0.029170802663095359 0.0042653312846245676 0 0.030703497014937308 0.0026325001082391792 0 0.029204769406476434 0.0051841322023783911 0 0.02802021382705313 0.0039460863625571706 0 0.029170802663095359 0.0042653312846245676 0 0.029407601983149428 0.0048112771373929148 0 0.029592268638122903 0.0046305332260470735 0 0.029170802663095359 0.0042653312846245676 0 0.029170802663095359 0.0042653312846245676 0 0.029241351256236635 0.0027813255230385824 0 0.030703497014937308 0.0026325001082391792 0 0.02802021382705313 0.0039460863625571706 0 0.029170802663095359 0.0042653312846245676 0 0.029241351256236635 0.0027813255230385824 0 0.028263394886559275 0.0015664784559834962 0 0.029241351256236635 0.0027813255230385824 0 0.029975848537170155 0.0013380236340138818 0 0.028263394886559275 0.0015664784559834962 0 0.029975848537170155 0.0013380236340138818 0 0.029555429193951866 -0.00040009902900093046 0 0.029241351256236635 0.0027813255230385824 0 0.029975848537170155 0.0013380236340138818 0 0.030703497014937308 0.0026325001082391792 0 0.029975848537170155 0.0013380236340138818 0 0.030703497014937308 0.0026325001082391792 0 0.032029250443066599 0.0018967513276908008 0 0.033100741184462323 0.0029393002853282326 0 0.030703497014937308 0.0026325001082391792 0 0.032029250443066599 0.0018967513276908008 0 0.033100741184462323 0.0029393002853282326 0 0.032029250443066599 0.0018967513276908008 0 0.032755957022082116 0.00065560807872044272 0 0.023844252566674027 -0.0035328413462140489 0 0.022787365509996355 -0.006241686620086547 0 0.032029250443066599 0.0018967513276908008 0 0.032755957022082116 0.00065560807872044272 0 0.031028335847233371 0.00035959628117210345 0 0.029975848537170155 0.0013380236340138818 0 0.032029250443066599 0.0018967513276908008 0 0.031028335847233371 0.00035959628117210345 0 0.032755957022082116 0.00065560807872044272 0 0.031028335847233371 0.00035959628117210345 0 0.030901043427565771 -0.0016248611674212416 0 0.022787365509996355 -0.006241686620086547 0 0.019969532426071263 -0.011972746174562178 0 0.020988324231523688 -0.010042888144398014 0 0.021009752643632695 -0.0099232699277029632 0 0.020915404380949541 -0.010062625581369861 0 0.018938239943440675 -0.015674939752123893 0 0.021669582093233036 -0.012433965437576485 0 0.019385833936081617 -0.012275761151918569 0 0.022787365509996355 -0.006241686620086547 0 0.024782718758633655 -0.0059628813967561528 0 0.029555429193951866 -0.00040009902900093046 0 0.030901043427565771 -0.0016248611674212416 0 0.029121095675071297 -0.0021558570422707179 0 0.031028335847233371 0.00035959628117210345 0 0.029555429193951866 -0.00040009902900093046 0 0.030901043427565771 -0.0016248611674212416 0 0.029975848537170155 0.0013380236340138818 0 0.031028335847233371 0.00035959628117210345 0 0.029555429193951866 -0.00040009902900093046 0 0.022715104200791453 -0.0093776324623698858 0 0.021669582093233036 -0.012433965437576485 0 0.024581623286006229 -0.0090161810342199843 0 0.024782718758633655 -0.0059628813967561528 0 0.025930836548943563 -0.0055472036064437612 0 0.030901043427565771 -0.0016248611674212416 0 0.029121095675071297 -0.0021558570422707179 0 0.029435870045724018 -0.003441858020854035 0 0.023247738525446194 -0.0088462767182007525 0 0.020535118152610179 -0.011193332288507872 0 0.021084910987104619 -0.0071688435313462502 0 0.019969532426071263 -0.011972746174562178 0 0.020141658829037609 -0.010246163231414423 0 0.022532542906611771 -0.0096188266842619045 0 0.019969532426071263 -0.011972746174562178 0 0.022715104200791453 -0.0093776324623698858 0 0.021669582093233036 -0.012433965437576485 0 0.019385833936081617 -0.012275761151918569 0 0.017628729507314568 -0.022579829605304618 0 0.018911679117865055 -0.014318560643495806 0 0.014652164562726501 -0.018226859589407111 0 0.028344818511993743 -0.0014329526258641501 0 0.02869507754179253 -0.0014345026172159234 0 0.028518186385876807 -0.0023166116543658476 0 0.028344818511993743 -0.0014329526258641501 0 0.028074430468752257 -0.0017512261046141338 0 0.028213471491273335 -0.0010766668557389975 0 0.02852551416693349 0.0023441211017915849 0 0.028143041313182945 0.0014690920212524405 0 0.02837099309914241 -0.0011025792321741911 0 0.028344818511993743 -0.0014329526258641501 0 0.028213471491273335 -0.0010766668557389975 0 0.02837099309914241 -0.0011025792321741911 0 0.028344818511993743 -0.0014329526258641501 0 0.02869507754179253 -0.0014345026172159234 0 0.02852551416693349 0.0023441211017915849 0 0.028950946876757422 0.00089225505559229444 0 0.028263394886559275 0.0015664784559834962 0 0.029555429193951866 -0.00040009902900093046 0 0.027399531639873437 -0.00038653327110453698 0 0.028950946876757422 0.00089225505559229444 0 0.029184121981519859 0.00031907916842532918 0 0.029555429193951866 -0.00040009902900093046 0 0.027399531639873437 -0.00038653327110453698 0 0.029121095675071297 -0.0021558570422707179 0 0.02869507754179253 -0.0014345026172159234 0 0.028518186385876807 -0.0023166116543658476 0 0.029121095675071297 -0.0021558570422707179 0 0.029121095675071297 -0.0021558570422707179 0 0.028648454941641234 -0.0032381425800629897 0 0.029435870045724018 -0.003441858020854035 0 0.028518186385876807 -0.0023166116543658476 0 0.028648454941641234 -0.0032381425800629897 0 0.028162265826417565 -0.0035324601995744523 0 0.028518186385876807 -0.0023166116543658476 0 0.029121095675071297 -0.0021558570422707179 0 0.028648454941641234 -0.0032381425800629897 0 0.028084636492074971 -0.0026167854250595496 0 0.027737066209431019 -0.004601537707597891 0 0.027453427752510657 -0.0020084827058382592 0 0.028518186385876807 -0.0023166116543658476 0 0.028084636492074971 -0.0026167854250595496 0 0.028162265826417565 -0.0035324601995744523 0 0.028344818511993743 -0.0014329526258641501 0 0.028518186385876807 -0.0023166116543658476 0 0.028084636492074971 -0.0026167854250595496 0 0.028074430468752257 -0.0017512261046141338 0 0.028084636492074971 -0.0026167854250595496 0 0.027453427752510657 -0.0020084827058382592 0 0.028344818511993743 -0.0014329526258641501 0 0.028074430468752257 -0.0017512261046141338 0 0.028084636492074971 -0.0026167854250595496 0 0.027737066209431019 -0.004601537707597891 0 0.028162265826417565 -0.0035324601995744523 0 0.027456030172583225 -0.0048378058971196127 0 0.028084636492074971 -0.0026167854250595496 0 0.027737066209431019 -0.004601537707597891 0 0.028162265826417565 -0.0035324601995744523 0 0.026050705118265283 -0.0057249185359191084 0 0.024229094477821504 -0.0077484356651613111 0 0.029034158185696757 -0.005430369819753836 0 0.030532772884149215 -0.0088524783471223209 0 0.027660196006992536 -0.0084504396426996666 0 0.027737066209431019 -0.004601537707597891 0 0.027456030172583225 -0.0048378058971196127 0 0.027578225985670113 -0.0027861254499411464 0 0.025732653738943751 -0.0043672483474009099 0 0.027456030172583225 -0.0048378058971196127 0 0.027578225985670113 -0.0027861254499411464 0 0.025732653738943751 -0.0043672483474009099 0 0.027456030172583225 -0.0048378058971196127 0 0.026218689115488771 -0.005952530783152798 0 0.025732653738943751 -0.0043672483474009099 0 0.026218689115488771 -0.005952530783152798 0 0.024692844731801646 -0.0054332762048709422 0 0.027456030172583225 -0.0048378058971196127 0 0.026218689115488771 -0.005952530783152798 0 0.024581623286006229 -0.0090161810342199843 0 0.028648454941641234 -0.0032381425800629897 0 0.028162265826417565 -0.0035324601995744523 0 0.027456030172583225 -0.0048378058971196127 0 0.026406265962744625 -0.0052089561341834003 0 0.025930836548943563 -0.0055472036064437612 0 0.028648454941641234 -0.0032381425800629897 0 0.027456030172583225 -0.0048378058971196127 0 0.029435870045724018 -0.003441858020854035 0 0.022532542906611771 -0.0096188266842619045 0 0.023926842088039749 -0.0083501901782927473 0 0.023247738525446194 -0.0088462767182007525 0 0.026218689115488771 -0.005952530783152798 0 0.023622614282133979 -0.0064333050724806598 0 0.022715104200791453 -0.0093776324623698858 0 0.026218689115488771 -0.005952530783152798 0 0.024581623286006229 -0.0090161810342199843 0 0.023247738525446194 -0.0088462767182007525 0 0.023622614282133979 -0.0064333050724806598 0 0.021084910987104619 -0.0071688435313462502 0 0.021084910987104619 -0.0071688435313462502 0 0.023182125596086855 -0.0049154309712965416 0 0.020917633869840049 -0.0041707797711643367 0 0.020141658829037609 -0.010246163231414423 0 0.020456762868084205 -0.0077789457924042071 0 0.018911679117865055 -0.014318560643495806 0 0.020917633869840049 -0.0041707797711643367 0 0.013736785724615654 -0.0080033554252252805 0 0.023622614282133979 -0.0064333050724806598 0 0.021084910987104619 -0.0071688435313462502 0 0.023182125596086855 -0.0049154309712965416 0 0.023622614282133979 -0.0064333050724806598 0 0.024692844731801646 -0.0054332762048709422 0 0.023182125596086855 -0.0049154309712965416 0 0.026218689115488771 -0.005952530783152798 0 0.023622614282133979 -0.0064333050724806598 0 0.024692844731801646 -0.0054332762048709422 0 0.025732653738943751 -0.0043672483474009099 0 0.023182125596086855 -0.0049154309712965416 0 0.024777211048663501 -0.0030157010157113606 0 0.025732653738943751 -0.0043672483474009099 0 0.024692844731801646 -0.0054332762048709422 0 0.023182125596086855 -0.0049154309712965416 0 0.024777211048663501 -0.0030157010157113606 0 0.022894383417584433 -0.0031929194508388413 0 0.023517267404871804 -0.0014577578577819566 0 0.023182125596086855 -0.0049154309712965416 0 0.024777211048663501 -0.0030157010157113606 0 0.022894383417584433 -0.0031929194508388413 0 0.023182125596086855 -0.0049154309712965416 0 0.022894383417584433 -0.0031929194508388413 0 0.020917633869840049 -0.0041707797711643367 0 0.022894383417584433 -0.0031929194508388413 0 0.021817158552885584 -0.0020700314279030268 0 0.020917633869840049 -0.0041707797711643367 0 0.021817158552885584 -0.0020700314279030268 0 0.022030713637191758 -0.00073001790192047322 0 0.023517267404871804 -0.0014577578577819566 0 0.022894383417584433 -0.0031929194508388413 0 0.021817158552885584 -0.0020700314279030268 0 0.023517267404871804 -0.0014577578577819566 0 0.024777211048663501 -0.0030157010157113606 0 0.023517267404871804 -0.0014577578577819566 0 0.025263990052566868 -0.0012208975894062403 0 0.023517267404871804 -0.0014577578577819566 0 0.023872203952606929 5.1411976970323723e-06 0 0.025263990052566868 -0.0012208975894062403 0 0.018580824062920036 -0.0028481783040884326 0 0.017559630775975769 -0.00032176519034752773 0 0.013736785724615654 -0.0080033554252252805 0 0.018580824062920036 -0.0028481783040884326 0 0.020917633869840049 -0.0041707797711643367 0 0.013736785724615654 -0.0080033554252252805 0 0.018580824062920036 -0.0028481783040884326 0 0.020917633869840049 -0.0041707797711643367 0 0.020278594664424738 -0.0019441680613206482 0 0.021817158552885584 -0.0020700314279030268 0 0.020917633869840049 -0.0041707797711643367 0 0.020278594664424738 -0.0019441680613206482 0 0.021817158552885584 -0.0020700314279030268 0 0.021061808739714367 -0.00079354135300068363 0 0.020278594664424738 -0.0019441680613206482 0 0.021817158552885584 -0.0020700314279030268 0 0.022030713637191758 -0.00073001790192047322 0 0.021061808739714367 -0.00079354135300068363 0 0.021061808739714367 -0.00079354135300068363 0 0.020278594664424738 -0.0019441680613206482 0 0.019308222181680417 -0.00032899692559163808 0 0.018580824062920036 -0.0028481783040884326 0 0.020278594664424738 -0.0019441680613206482 0 0.019308222181680417 -0.00032899692559163808 0 0.018580824062920036 -0.0028481783040884326 0 0.019308222181680417 -0.00032899692559163808 0 0.017559630775975769 -0.00032176519034752773 0 0.015112146673703154 -0.0052732304084899036 0 0.013700051899210303 -0.0090920915084968263 0 0.019308222181680417 -0.00032899692559163808 0 0.017559630775975769 -0.00032176519034752773 0 0.020296064432440693 0.0058679247896246123 0 0.014534144011789306 -0.0039289190643483473 0 0.013489386578338628 -0.0010917766807722489 0 0.015842281931302854 8.4025283321263934e-05 0 0.019308222181680417 -0.00032899692559163808 0 0.022776761747979466 0.0019938443162486248 0 0.020296064432440693 0.0058679247896246123 0 0.01758109065180662 -0.006284037990684296 0 0.016503426417553081 -0.0072938338971723256 0 0.021061808739714367 -0.00079354135300068363 0 0.019308222181680417 -0.00032899692559163808 0 0.022273126836312128 0.0006588036687658564 0 0.016503426417553081 -0.0072938338971723256 0 0.013700051899210303 -0.0090920915084968263 0 0.010429727778805797 -0.017304879520204521 0 0.010113005245926709 -0.017532772986727882 0 0.010340617151179529 -0.017605359778419427 0 0.023872203952606929 5.1411976970323723e-06 0 0.022267137148206675 0.00043899052049000699 0 0.025553527704970699 0.0024639631206678052 0 0.023872203952606929 5.1411976970323723e-06 0 0.025263990052566868 -0.0012208975894062403 0 0.025553527704970699 0.0024639631206678052 0 0.016503426417553081 -0.0072938338971723256 0 0.019395030766224151 -0.012005743644756371 0 0.022030713637191758 -0.00073001790192047322 0 0.023517267404871804 -0.0014577578577819566 0 0.022558303852199601 6.5105310969637215e-05 0 0.023872203952606929 5.1411976970323723e-06 0 0.022558303852199601 6.5105310969637215e-05 0 0.022267137148206675 0.00043899052049000699 0 0.023517267404871804 -0.0014577578577819566 0 0.023872203952606929 5.1411976970323723e-06 0 0.022558303852199601 6.5105310969637215e-05 0 0.022030713637191758 -0.00073001790192047322 0 0.021061808739714367 -0.00079354135300068363 0 0.022273126836312128 0.0006588036687658564 0 0.022030713637191758 -0.00073001790192047322 0 0.022558303852199601 6.5105310969637215e-05 0 0.022273126836312128 0.0006588036687658564 0 0.016504473711993293 -0.0072459390463527661 0 0.016503426417553081 -0.0072938338971723256 0 0.010429727778805797 -0.017304879520204521 0 0.010340617151179529 -0.017605359778419427 0 0.010559514471556683 -0.017532828649152087 0 0.029232858579120953 -0.011214801987172899 0 0.030532772884149215 -0.0088524783471223209 0 0.032056105419423629 -0.012238693937267401 0 0.024229094477821504 -0.0077484356651613111 0 0.019395030766224151 -0.012005743644756371 0 0.027578225985670113 -0.0027861254499411464 0 0.025263990052566868 -0.0012208975894062403 0 0.025553527704970699 0.0024639631206678052 0 0.029232858579120953 -0.011214801987172899 0 0.030532772884149215 -0.0088524783471223209 0 0.027660196006992536 -0.0084504396426996666 0 0.025732653738943751 -0.0043672483474009099 0 0.024777211048663501 -0.0030157010157113606 0 0.027578225985670113 -0.0027861254499411464 0 0.024777211048663501 -0.0030157010157113606 0 0.027578225985670113 -0.0027861254499411464 0 0.025263990052566868 -0.0012208975894062403 0 0.0025089153606191947 -0.0058313210497784249 0 0.0057349912012747374 -0.001821858762334062 0 0.0062095826274343492 -0.0068261863877904705 0 0.0025972455748865413 -0.0087904809363403384 0 -0.0011662670121548588 -0.011119503692141285 0 -0.0035310516262911382 -0.0050829431236087018 0 -0.00018961021319917795 -0.0010864248678011882 0 -0.0035310516262911382 -0.0050829431236087018 0 -0.0022838859954306462 0.0037444704954969887 0 0.0025972455748865413 -0.0087904809363403384 0 -0.00018961021319917795 -0.0010864248678011882 0 -0.0035310516262911382 -0.0050829431236087018 0 0.0025530691117998158 -0.0081056235951670174 0 0.0013841735514594678 -0.0052949176918580913 0 0.0025089153606191947 -0.0058313210497784249 0 -0.00018961021319917795 -0.0010864248678011882 0 0.0057349912012747374 -0.001821858762334062 0 0.0057349912012747374 -0.001821858762334062 0 0.0094156406856009504 -0.0042116834324561706 0 0.011125476377191754 0.0001989580575592981 0 0.012395495289939228 -0.0029673967044706396 0 0.0094156406856009504 -0.0042116834324561706 0 0.011125476377191754 0.0001989580575592981 0 0.013489386578338628 -0.0010917766807722489 0 0.012395495289939228 -0.0029673967044706396 0 0.011125476377191754 0.0001989580575592981 0 0.014534144011789306 -0.0039289190643483473 0 0.013489386578338628 -0.0010917766807722489 0 0.012395495289939228 -0.0029673967044706396 0 0.015112146673703154 -0.0052732304084899036 0 0.014836775993623536 -0.005837991861467425 0 0.01242152746146598 -0.0054523085695176738 0 0.0094156406856009504 -0.0042116834324561706 0 0.0093910947693343506 -0.0085001331155556536 0 0.014534144011789306 -0.0039289190643483473 0 0.01242152746146598 -0.0054523085695176738 0 0.013736785724615654 -0.0080033554252252805 0 0.014534144011789306 -0.0039289190643483473 0 0.012395495289939228 -0.0029673967044706396 0 0.01242152746146598 -0.0054523085695176738 0 0.012395495289939228 -0.0029673967044706396 0 0.01242152746146598 -0.0054523085695176738 0 0.0094156406856009504 -0.0042116834324561706 0 0.0057349912012747374 -0.001821858762334062 0 0.0062095826274343492 -0.0068261863877904705 0 0.0094156406856009504 -0.0042116834324561706 0 0.0062095826274343492 -0.0068261863877904705 0 0.0094156406856009504 -0.0042116834324561706 0 0.0093910947693343506 -0.0085001331155556536 0 0.0062095826274343492 -0.0068261863877904705 0 0.0093910947693343506 -0.0085001331155556536 0 0.0045299267854925817 -0.011331668307554821 0 0.0093910947693343506 -0.0085001331155556536 0 0.011178514712361514 -0.014210408505519717 0 0.0045299267854925817 -0.011331668307554821 0 0.0093910947693343506 -0.0085001331155556536 0 0.013736785724615654 -0.0080033554252252805 0 0.011178514712361514 -0.014210408505519717 0 0.01242152746146598 -0.0054523085695176738 0 0.0093910947693343506 -0.0085001331155556536 0 0.013736785724615654 -0.0080033554252252805 0 0.018911679117865055 -0.014318560643495806 0 0.013736785724615654 -0.0080033554252252805 0 0.011178514712361514 -0.014210408505519717 0 0.018911679117865055 -0.014318560643495806 0 0.011178514712361514 -0.014210408505519717 0 0.014652164562726501 -0.018226859589407111 0 0.011178514712361514 -0.014210408505519717 0 0.0045299267854925817 -0.011331668307554821 0 0.0069700531345570707 -0.018034993378354468 0 0.0023606548019145337 -0.018015501217198773 0 0.0033340118075152951 -0.020431332369257701 0 0.0065755623800046546 -0.020280437865935252 0 0.0046210356542619561 -0.013220155411329738 0 0.0066898952120926546 -0.018269825279827748 0 0.0023606548019145337 -0.018015501217198773 0 0.0045658307326955578 -0.0152888331957275 0 5.0148301356491182e-05 -0.015165638351181451 0 0.0023606548019145337 -0.018015501217198773 0 0.0045658307326955578 -0.0152888331957275 0 0.0065755623800046546 -0.020280437865935252 0 0.0023606548019145337 -0.018015501217198773 0 0.0014487345230360924 -0.019378454709881282 0 0.0033340118075152951 -0.020431332369257701 0 0.0025972455748865413 -0.0087904809363403384 0 0.0045658307326955578 -0.0152888331957275 0 5.0148301356491182e-05 -0.015165638351181451 0 0.0025530691117998158 -0.0081056235951670174 0 0.0046210356542619561 -0.013220155411329738 0 0.0025089153606191947 -0.0058313210497784249 0 0.0062095826274343492 -0.0068261863877904705 0 0.0045299267854925817 -0.011331668307554821 0 0.0025972455748865413 -0.0087904809363403384 0 -0.0011662670121548588 -0.011119503692141285 0 5.0148301356491182e-05 -0.015165638351181451 0 -0.0011662670121548588 -0.011119503692141285 0 5.0148301356491182e-05 -0.015165638351181451 0 -0.0041194004576133739 -0.015047760533790941 0 5.0148301356491182e-05 -0.015165638351181451 0 -0.0021887302641312289 -0.017650259365894278 0 -0.0041194004576133739 -0.015047760533790941 0 5.0148301356491182e-05 -0.015165638351181451 0 -0.0021887302641312289 -0.017650259365894278 0 9.3257358291870584e-05 -0.018398635998469401 0 0.0023606548019145337 -0.018015501217198773 0 5.0148301356491182e-05 -0.015165638351181451 0 9.3257358291870584e-05 -0.018398635998469401 0 9.3257358291870584e-05 -0.018398635998469401 0 0.0014487345230360924 -0.019378454709881282 0 -4.257551571182715e-05 -0.020636617717886711 0 0.0023606548019145337 -0.018015501217198773 0 9.3257358291870584e-05 -0.018398635998469401 0 0.0014487345230360924 -0.019378454709881282 0 -0.0021887302641312289 -0.017650259365894278 0 9.3257358291870584e-05 -0.018398635998469401 0 -4.257551571182715e-05 -0.020636617717886711 0 -0.0013078246441575311 -0.020518661173830333 0 0.0031857317886906126 -0.022917185822710996 0 0.0005908290171498619 -0.023295666695796573 0 -0.00036375503312970238 -0.021244740286762771 0 0.00099285133802519887 -0.020580669509470653 0 0.0053652256326395054 -0.022967955974811143 0 -0.0013078246441575311 -0.020518661173830333 0 -0.0014263868473425837 -0.022519587341177368 0 0.0005908290171498619 -0.023295666695796573 0 -0.0010582897539325494 -0.020921595076406091 0 0.0018944686006354757 -0.021904646057000644 0 -0.0013078246441575311 -0.020518661173830333 0 0.0053652256326395054 -0.022967955974811143 0 0.0031857317886906126 -0.022917185822710996 0 -4.257551571182715e-05 -0.020636617717886711 0 0.0033340118075152951 -0.020431332369257701 0 0.0058409737962559069 -0.022745603242868669 0 0.0014487345230360924 -0.019378454709881282 0 -4.257551571182715e-05 -0.020636617717886711 0 0.0033340118075152951 -0.020431332369257701 0 0.00099285133802519887 -0.020580669509470653 0 0.0053652256326395054 -0.022967955974811143 0 0.0058409737962559069 -0.022745603242868669 0 -3.2991229756549597e-05 -0.02030759100843128 0 0.0023232217420110549 -0.021418045516927484 0 0.0033340118075152951 -0.020431332369257701 0 0.0065755623800046546 -0.020280437865935252 0 0.0058409737962559069 -0.022745603242868669 0 0.0031857317886906126 -0.022917185822710996 0 0.0024899270634119119 -0.026542259522831169 0 0.0005908290171498619 -0.023295666695796573 0 0.0031857317886906126 -0.022917185822710996 0 0.0043650010671163267 -0.024724991100493903 0 0.0024899270634119119 -0.026542259522831169 0 0.0053652256326395054 -0.022967955974811143 0 0.0031857317886906126 -0.022917185822710996 0 0.0045706041647588583 -0.023610635915855105 0 0.0053535116166200433 -0.023847057619861608 0 0.0043650010671163267 -0.024724991100493903 0 0.0063859072139773598 -0.024619080444049837 0 0.0053652256326395054 -0.022967955974811143 0 0.0053535116166200433 -0.023847057619861608 0 0.0063661016978015829 -0.023824038020463578 0 0.0053652256326395054 -0.022967955974811143 0 0.0053535116166200433 -0.023847057619861608 0 0.0045706041647588583 -0.023610635915855105 0 0.0031857317886906126 -0.022917185822710996 0 0.0045706041647588583 -0.023610635915855105 0 0.0043650010671163267 -0.024724991100493903 0 0.0053535116166200433 -0.023847057619861608 0 0.0045706041647588583 -0.023610635915855105 0 0.0043650010671163267 -0.024724991100493903 0 0.0043650010671163267 -0.024724991100493903 0 0.0063859072139773598 -0.024619080444049837 0 0.006025251015293648 -0.026135556014828996 0 0.0043650010671163267 -0.024724991100493903 0 0.0024899270634119119 -0.026542259522831169 0 0.006025251015293648 -0.026135556014828996 0 0.0024899270634119119 -0.026542259522831169 0 0.0005908290171498619 -0.023295666695796573 0 -0.0025544010251755431 -0.024176002980849591 0 -0.0024737723329765833 -0.023448456683280584 0 -0.0036975269027444053 -0.023908915917582926 0 -0.0045037780913923485 -0.022689612566811932 0 0.0051263682131277221 -0.016337235278008972 0 -0.00018987705547108213 -0.018285952580492284 0 -0.0014263868473425837 -0.022519587341177368 0 0.0005908290171498619 -0.023295666695796573 0 -0.0025544010251755431 -0.024176002980849591 0 0.011178514712361514 -0.014210408505519717 0 0.010822236613040286 -0.021687187077876764 0 0.014652164562726501 -0.018226859589407111 0 0.013646315516431012 -0.017446689837207974 0 0.014111078318968113 -0.018247382502336873 0 0.017628729507314568 -0.022579829605304618 0 0.010822236613040286 -0.021687187077876764 0 0.014652164562726501 -0.018226859589407111 0 0.0065755623800046546 -0.020280437865935252 0 0.0058409737962559069 -0.022745603242868669 0 0.0093814878932900313 -0.024797444989491074 0 0.010489293642364195 -0.020888039647675945 0 0.0069700531345570707 -0.018034993378354468 0 0.0093814878932900313 -0.024797444989491074 0 0.0066898952120926546 -0.018269825279827748 0 0.0078272381405781154 -0.020955478326476006 0 0.011178514712361514 -0.014210408505519717 0 0.010489293642364195 -0.020888039647675945 0 0.0069700531345570707 -0.018034993378354468 0 0.010489293642364195 -0.020888039647675945 0 0.0093814878932900313 -0.024797444989491074 0 0.0096317968896672355 -0.027524250428749376 0 0.0063661016978015829 -0.023824038020463578 0 0.0063859072139773598 -0.024619080444049837 0 0.0093814878932900313 -0.024797444989491074 0 0.0058409737962559069 -0.022745603242868669 0 0.0063661016978015829 -0.023824038020463578 0 0.0093814878932900313 -0.024797444989491074 0 0.0053652256326395054 -0.022967955974811143 0 0.0058409737962559069 -0.022745603242868669 0 0.0063661016978015829 -0.023824038020463578 0 0.0053535116166200433 -0.023847057619861608 0 0.0063661016978015829 -0.023824038020463578 0 0.0063859072139773598 -0.024619080444049837 0 0.0063859072139773598 -0.024619080444049837 0 0.006025251015293648 -0.026135556014828996 0 0.0077051030874408883 -0.025815307634422465 0 0.006025251015293648 -0.026135556014828996 0 0.0077051030874408883 -0.025815307634422465 0 0.0077946177298096686 -0.027079064569451097 0 0.0063859072139773598 -0.024619080444049837 0 0.0077051030874408883 -0.025815307634422465 0 0.0093814878932900313 -0.024797444989491074 0 0.0077051030874408883 -0.025815307634422465 0 0.0093814878932900313 -0.024797444989491074 0 0.0096317968896672355 -0.027524250428749376 0 0.0077051030874408883 -0.025815307634422465 0 0.0096317968896672355 -0.027524250428749376 0 0.0077946177298096686 -0.027079064569451097 0 0.021009752643632695 -0.0099232699277029632 0 0.020915404380949541 -0.010062625581369861 0 0.020839755102801272 -0.010050436966131849 0 0.017628729507314568 -0.022579829605304618 0 0.010822236613040286 -0.021687187077876764 0 0.010319828318718922 -0.02884399265729053 0 0.014111078318968113 -0.018247382502336873 0 0.016263076686850529 -0.013143700005401472 0 0.019969532426071263 -0.011972746174562178 0 0.016263076686850529 -0.013143700005401472 0 0.024033445192800051 -0.0049461600642211499 0 0.0239599147687014 -0.0055122230781458953 0 0.024328030220361736 -0.005061278164615427 0 0.023844252566674027 -0.0035328413462140489 0 0.0223060865340374 -0.0055394503892243164 0 0.022787365509996355 -0.006241686620086547 0 0.0223060865340374 -0.0055394503892243164 0 0.020988324231523688 -0.010042888144398014 0 0.020907633452551273 -0.010130390782910325 0 0.020915404380949541 -0.010062625581369861 0 0.020915404380949541 -0.010062625581369861 0 0.020834996106228552 -0.010105748091940793 0 0.020839755102801272 -0.010050436966131849 0 0.020907633452551273 -0.010130390782910325 0 0.020915404380949541 -0.010062625581369861 0 0.020834996106228552 -0.010105748091940793 0 0.0223060865340374 -0.0055394503892243164 0 0.018229372251533191 -0.0091244924459367681 0 0.015359204518173445 -0.011523464333518378 0 0.0086926572404600385 -0.0091123771419186293 0 0.029289094793338539 0.0025174593834582444 0 0.029752493130736333 0.0023355724193137462 0 0.029797169946564825 0.0031269631934601567 0 0.018229372251533191 -0.0091244924459367681 0 0.015359204518173445 -0.011523464333518378 0 0.019846282164072554 -0.010985911590944621 0 0.019914273248971184 -0.010042177006426904 0 0.01913553378224131 -0.010711658584350357 0 0.018229372251533191 -0.0091244924459367681 0 0.016263076686850529 -0.013143700005401472 0 0.0096317968896672355 -0.027524250428749376 0 0.0077946177298096686 -0.027079064569451097 0 0.0078791192704043434 -0.028838347957011613 0 0.016263076686850529 -0.013143700005401472 0 0.015359204518173445 -0.011523464333518378 0 0.006025251015293648 -0.026135556014828996 0 0.0077946177298096686 -0.027079064569451097 0 0.0078791192704043434 -0.028838347957011613 0 0.029752493130736333 0.0023355724193137462 0 0.029797169946564825 0.0031269631934601567 0 0.031010452273407711 0.0034964117752297481 0 0.029424130892027004 0.0037842113194101776 0 0.029797169946564825 0.0031269631934601567 0 0.031010452273407711 0.0034964117752297481 0 0.018229372251533191 -0.0091244924459367681 0 0.023598470504553767 -0.00077846537622023411 0 0.029289094793338539 0.0025174593834582444 0 0.029424130892027004 0.0037842113194101776 0 0.029797169946564825 0.0031269631934601567 0 0.024677821970792768 -0.0007793188674321492 0 0.023844252566674027 -0.0035328413462140489 0 0.029889729578050989 0.0047951242623289463 0 0.029795370484782605 0.004293274760694612 0 0.030037384307985443 0.0045052290431010673 0 0.018739223718450684 -0.0062727123544034698 0 0.019572112820349912 -0.0065976128892168617 0 0.019682187339413626 -0.0051189755460009628 0 0.029889729578050989 0.0047951242623289463 0 0.030379616167872246 0.0046089963896080019 0 0.030037384307985443 0.0045052290431010673 0 0.030058454508445721 0.0041910804858926844 0 0.030379616167872246 0.0046089963896080019 0 0.030037384307985443 0.0045052290431010673 0 0.0223060865340374 -0.0055394503892243164 0 0.023598470504553767 -0.00077846537622023411 0 0.029795370484782605 0.004293274760694612 0 0.030058454508445721 0.0041910804858926844 0 0.030037384307985443 0.0045052290431010673 0 -0.0028722754387402634 -0.024613130598533588 0 -0.0037848393492698317 -0.024826252011452447 0 -0.0036975269027444053 -0.023908915917582926 0 -0.0037848393492698317 -0.024826252011452447 0 -0.0036975269027444053 -0.023908915917582926 0 -0.0050198846949381449 -0.023917280980937868 0 -0.0024737723329765833 -0.023448456683280584 0 -0.0028722754387402634 -0.024613130598533588 0 -0.0036975269027444053 -0.023908915917582926 0 0.0024899270634119119 -0.026542259522831169 0 0.006025251015293648 -0.026135556014828996 0 0.0078791192704043434 -0.028838347957011613 0 -0.00045544671555402958 -0.024181886336015698 0 -0.0019329439324771516 -0.024447728334222825 0 -0.0020609866386547011 -0.025531983526140122 0 0.0051263682131277221 -0.016337235278008972 0 0.015359204518173445 -0.011523464333518378 0 -0.0024737723329765833 -0.023448456683280584 0 -0.00045544671555402958 -0.024181886336015698 0 -0.0019329439324771516 -0.024447728334222825 0 -0.0024737723329765833 -0.023448456683280584 0 -0.0028722754387402634 -0.024613130598533588 0 -0.0019329439324771516 -0.024447728334222825 0 -0.0028722754387402634 -0.024613130598533588 0 -0.0019329439324771516 -0.024447728334222825 0 -0.0020609866386547011 -0.025531983526140122 0 0.031233821123481248 0.0044845358124082253 0 0.029424130892027004 0.0037842113194101776 0 0.031010452273407711 0.0034964117752297481 0 -0.0028722754387402634 -0.024613130598533588 0 -0.0020609866386547011 -0.025531983526140122 0 -0.0032688265933304458 -0.025482866121568571 0 -0.0043651382468018526 -0.0093485932329883219 0 0.0086926572404600385 -0.0091123771419186293 0 -0.0036117546230000569 -0.026794974328120044 0 -0.0020609866386547011 -0.025531983526140122 0 -0.0032688265933304458 -0.025482866121568571 0 -0.0028722754387402634 -0.024613130598533588 0 -0.0037848393492698317 -0.024826252011452447 0 -0.0032688265933304458 -0.025482866121568571 0 -0.0081240096090535972 -0.018487093431133011 0 -0.0080705457948175123 -0.017696728551540749 0 -0.0037848393492698317 -0.024826252011452447 0 -0.0032688265933304458 -0.025482866121568571 0 -0.0041210740651810799 -0.025621862966996499 0 -0.0036117546230000569 -0.026794974328120044 0 -0.0032688265933304458 -0.025482866121568571 0 -0.0041210740651810799 -0.025621862966996499 0 -0.0043651382468018526 -0.0093485932329883219 0 -0.0080705457948175123 -0.017696728551540749 0 -0.005297858679516345 -0.028878692842261699 0 -0.0040863991427172617 -0.026206246565756743 0 -0.0059694502980397485 -0.025803615029240046 0 -0.0037848393492698317 -0.024826252011452447 0 -0.0041453734021112878 -0.025648851574211418 0 -0.0050198846949381449 -0.023917280980937868 0 -0.0080705457948175123 -0.017696728551540749 0 -0.0064943161281200883 -0.021194374904211725 0 -0.0040863991427172617 -0.026206246565756743 0 -0.0050198846949381449 -0.023917280980937868 0 -0.0059694502980397485 -0.025803615029240046 0 -0.0050198846949381449 -0.023917280980937868 0 -0.0072102084399783984 -0.024151816853733788 0 -0.0058334505413168911 -0.02313044731782344 0 -0.0050198846949381449 -0.023917280980937868 0 -0.0072102084399783984 -0.024151816853733788 0 -0.0059694502980397485 -0.025803615029240046 0 -0.0072102084399783984 -0.024151816853733788 0 -0.0076173808857080668 -0.02696121052442017 0 -0.0059694502980397485 -0.025803615029240046 0 -0.059342314204058555 -0.040952872559176616 0 -0.055342476670061966 -0.040894499197439628 0 -0.055633611348696078 -0.044531428340842623 0 -0.027362705493061818 -0.027015759597905038 0 -0.030313100767357538 -0.031826117604018815 0 -0.055342476670061966 -0.040894499197439628 0 -0.055633611348696078 -0.044531428340842623 0 -0.052088037869291677 -0.044422659706306232 0 -0.030313100767357538 -0.031826117604018815 0 -0.03161457190110159 -0.034662507174486996 0 -0.0072102084399783984 -0.024151816853733788 0 -0.0076173808857080668 -0.02696121052442017 0 -0.010069325079564505 -0.025054777461553029 0 -0.0072102084399783984 -0.024151816853733788 0 -0.010069325079564505 -0.025054777461553029 0 -0.0094711246925215497 -0.022807290204823541 0 -0.0072102084399783984 -0.024151816853733788 0 -0.0094711246925215497 -0.022807290204823541 0 -0.0066694756596698389 -0.021815772112367907 0 -0.010069325079564505 -0.025054777461553029 0 -0.0094711246925215497 -0.022807290204823541 0 -0.01268768507500739 -0.022956134974475375 0 -0.0094711246925215497 -0.022807290204823541 0 -0.01076300123022067 -0.02084588646774457 0 -0.01268768507500739 -0.022956134974475375 0 -0.01076300123022067 -0.02084588646774457 0 -0.0088180777304676886 -0.020582697519934405 0 -0.010044941680758111 -0.018175603499727407 0 -0.0094711246925215497 -0.022807290204823541 0 -0.01076300123022067 -0.02084588646774457 0 -0.0088180777304676886 -0.020582697519934405 0 -0.0094711246925215497 -0.022807290204823541 0 -0.0088180777304676886 -0.020582697519934405 0 -0.0066694756596698389 -0.021815772112367907 0 -0.0066694756596698389 -0.021815772112367907 0 -0.0044022622429593658 -0.020895210754661196 0 -0.0065756935258498919 -0.019166520757465222 0 -0.0088180777304676886 -0.020582697519934405 0 -0.0066694756596698389 -0.021815772112367907 0 -0.0065756935258498919 -0.019166520757465222 0 -0.0066694756596698389 -0.021815772112367907 0 -0.0044022622429593658 -0.020895210754661196 0 -0.0030198982456150431 -0.021999239000779765 0 -0.00036375503312970238 -0.021244740286762771 0 0.00099285133802519887 -0.020580669509470653 0 -0.0035198432352948296 -0.018576657703657917 0 -0.0013078246441575311 -0.020518661173830333 0 -0.0044022622429593658 -0.020895210754661196 0 -0.0065756935258498919 -0.019166520757465222 0 -0.0010582897539325494 -0.020921595076406091 0 -0.005665717872913022 -0.019422326626831802 0 -0.0013078246441575311 -0.020518661173830333 0 -0.0014263868473425837 -0.022519587341177368 0 -0.0030198982456150431 -0.021999239000779765 0 -0.0013078246441575311 -0.020518661173830333 0 -0.0044022622429593658 -0.020895210754661196 0 -0.0030198982456150431 -0.021999239000779765 0 -0.0022771756478032978 -0.018609179062964238 0 -0.00018987705547108213 -0.018285952580492284 0 -0.0066694756596698389 -0.021815772112367907 0 -0.0045037780913923485 -0.022689612566811932 0 -0.0058334505413168911 -0.02313044731782344 0 -0.0066694756596698389 -0.021815772112367907 0 -0.0030198982456150431 -0.021999239000779765 0 -0.0025544010251755431 -0.024176002980849591 0 -0.0014263868473425837 -0.022519587341177368 0 -0.0030198982456150431 -0.021999239000779765 0 -0.0025544010251755431 -0.024176002980849591 0 -0.0036975269027444053 -0.023908915917582926 0 -0.0050198846949381449 -0.023917280980937868 0 -0.0045037780913923485 -0.022689612566811932 0 -0.0050198846949381449 -0.023917280980937868 0 -0.0045037780913923485 -0.022689612566811932 0 -0.0058334505413168911 -0.02313044731782344 0 -0.0072102084399783984 -0.024151816853733788 0 -0.0066694756596698389 -0.021815772112367907 0 -0.0058334505413168911 -0.02313044731782344 0 -0.03744585412286041 0.020980509806260404 0 -0.036216488365127614 0.017555371906813035 0 -0.032301957291085197 0.016813329740306318 0 -0.037334937914631716 0.023659169254574546 0 -0.039172510550920893 0.023494301037532604 0 -0.036434317714188889 0.022571047904990923 0 -0.039172510550920893 0.023494301037532604 0 -0.036434317714188889 0.022571047904990923 0 -0.036384074975703048 0.021330182217633682 0 -0.039028052448181381 0.020496600021497918 0 -0.036741465649498081 0.016674686271340996 0 -0.037334937914631716 0.023659169254574546 0 -0.038345428317037397 0.024872527610486226 0 -0.039172510550920893 0.023494301037532604 0 -0.037334937914631716 0.023659169254574546 0 -0.037080875676924585 0.024398341156807044 0 -0.038345428317037397 0.024872527610486226 0 -0.037080875676924585 0.024398341156807044 0 -0.036958835373263534 0.025911198293867149 0 -0.038345428317037397 0.024872527610486226 0 -0.038684628421834774 0.026477817543560513 0 -0.036958835373263534 0.025911198293867149 0 -0.038345428317037397 0.024872527610486226 0 -0.038345428317037397 0.024872527610486226 0 -0.039693218686765182 0.025139223880104946 0 -0.039172510550920893 0.023494301037532604 0 -0.039693218686765182 0.025139223880104946 0 -0.039172510550920893 0.023494301037532604 0 -0.041541874267250707 0.024771138613551093 0 -0.038684628421834774 0.026477817543560513 0 -0.038345428317037397 0.024872527610486226 0 -0.039693218686765182 0.025139223880104946 0 -0.048777910967343838 -0.044345213332283855 0 -0.048830679091031566 -0.047976303083113285 0 -0.045732691155546713 -0.048013029784335637 0 -0.03744585412286041 0.020980509806260404 0 -0.040066431245997854 0.022041753476086119 0 -0.036216488365127614 0.017555371906813035 0 -0.043529733798678076 -0.010522342121324283 0 -0.040898539853807134 -0.015045276642081334 0 -0.052088037869291677 -0.044422659706306232 0 -0.052053454733036936 -0.048068828542017328 0 -0.048830679091031566 -0.047976303083113285 0 -0.048777910967343838 -0.044345213332283855 0 -0.052088037869291677 -0.044422659706306232 0 -0.048830679091031566 -0.047976303083113285 0 -0.039028052448181381 0.020496600021497918 0 -0.040613283686952314 0.022255842481750502 0 -0.040690853729428482 0.026013540636167742 0 -0.039693218686765182 0.025139223880104946 0 -0.041541874267250707 0.024771138613551093 0 -0.045380253139359721 -0.0058167132593181098 0 -0.043529733798678076 -0.010522342121324283 0 -0.043112171409546061 0.025811601253312465 0 -0.040066431245997854 0.022041753476086119 0 -0.041541874267250707 0.024771138613551093 0 -0.03744585412286041 0.020980509806260404 0 -0.040066431245997854 0.022041753476086119 0 -0.041541874267250707 0.024771138613551093 0 -0.052027346407623076 -0.040679101328670537 0 -0.048777910967343838 -0.044345213332283855 0 -0.052088037869291677 -0.044422659706306232 0 -0.052027346407623076 -0.040679101328670537 0 -0.055342476670061966 -0.040894499197439628 0 -0.052088037869291677 -0.044422659706306232 0 -0.055633611348696078 -0.044531428340842623 0 -0.052088037869291677 -0.044422659706306232 0 -0.052053454733036936 -0.048068828542017328 0 -0.01076300123022067 -0.02084588646774457 0 -0.01268768507500739 -0.022956134974475375 0 -0.0128036514712619 -0.019708706580301865 0 -0.01268768507500739 -0.022956134974475375 0 -0.015254006080326985 -0.020722467104532523 0 -0.0128036514712619 -0.019708706580301865 0 -0.03161457190110159 -0.034662507174486996 0 -0.032554404659669176 -0.036833553100086007 0 -0.052053454733036936 -0.048068828542017328 0 -0.04861096351815819 -0.051496923702489976 0 -0.048830679091031566 -0.047976303083113285 0 -0.04861096351815819 -0.051496923702489976 0 -0.048830679091031566 -0.047976303083113285 0 -0.045732691155546713 -0.048013029784335637 0 -0.04861096351815819 -0.051496923702489976 0 -0.045267734743894797 -0.051845837405302131 0 -0.045732691155546713 -0.048013029784335637 0 -0.04861096351815819 -0.051496923702489976 0 -0.045267734743894797 -0.051845837405302131 0 -0.045358690061468004 -0.054608964532343422 0 -0.045267734743894797 -0.051845837405302131 0 -0.045732691155546713 -0.048013029784335637 0 -0.043153439312763775 -0.05154799813046012 0 -0.045267734743894797 -0.051845837405302131 0 -0.043153439312763775 -0.05154799813046012 0 -0.043742101915032909 -0.053370852027325756 0 -0.036216488365127614 0.017555371906813035 0 -0.032301957291085197 0.016813329740306318 0 -0.031627652904382964 0.012840258331062214 0 -0.040898539853807134 -0.015045276642081334 0 -0.038301447378830254 -0.019390561605032559 0 -0.017706685618447928 -0.0184892535172923 0 -0.016573382576048554 -0.015835742408035453 0 -0.019988942206625403 -0.016428553262398664 0 -0.034158958555763064 -0.039279614221278333 0 -0.038008292365667072 -0.043119520685220701 0 -0.045267734743894797 -0.051845837405302131 0 -0.045358690061468004 -0.054608964532343422 0 -0.043742101915032909 -0.053370852027325756 0 -0.045358690061468004 -0.054608964532343422 0 -0.043742101915032909 -0.053370852027325756 0 -0.043565102416214321 -0.054930078843029549 0 -0.032554404659669176 -0.036833553100086007 0 -0.034158958555763064 -0.039279614221278333 0 -0.015254006080326985 -0.020722467104532523 0 -0.017706685618447928 -0.0184892535172923 0 -0.015477525830865466 -0.017931491570391152 0 -0.017706685618447928 -0.0184892535172923 0 -0.015477525830865466 -0.017931491570391152 0 -0.016573382576048554 -0.015835742408035453 0 -0.013650782090402432 -0.016637095919653001 0 -0.015035881515366412 -0.014888523427304724 0 -0.016573382576048554 -0.015835742408035453 0 -0.013089237930673648 -0.016958227212017084 0 -0.014825640878052361 -0.016371317155137885 0 -0.015477525830865466 -0.017931491570391152 0 -0.013325703801306436 -0.017025548190520653 0 -0.016573382576048554 -0.015835742408035453 0 -0.015477525830865466 -0.017931491570391152 0 -0.0128036514712619 -0.019708706580301865 0 -0.013325703801306436 -0.017025548190520653 0 -0.015254006080326985 -0.020722467104532523 0 -0.015477525830865466 -0.017931491570391152 0 -0.0128036514712619 -0.019708706580301865 0 -0.0128036514712619 -0.019708706580301865 0 -0.013325703801306436 -0.017025548190520653 0 -0.010044941680758111 -0.018175603499727407 0 -0.013089237930673648 -0.016958227212017084 0 -0.0097426985663516558 -0.018083876829374641 0 -0.013650782090402432 -0.016637095919653001 0 -0.012353728445298978 -0.014507312052267775 0 -0.011094912385707166 -0.01536222021636317 0 -0.013650782090402432 -0.016637095919653001 0 -0.012353728445298978 -0.014507312052267775 0 -0.013736773735155397 -0.01458673414463978 0 -0.012353728445298978 -0.014507312052267775 0 -0.013254943112513847 -0.013661507567144496 0 -0.013736773735155397 -0.01458673414463978 0 -0.012353728445298978 -0.014507312052267775 0 -0.012128338953664783 -0.01319830956119342 0 -0.013254943112513847 -0.013661507567144496 0 -0.012353728445298978 -0.014507312052267775 0 -0.012128338953664783 -0.01319830956119342 0 -0.010791753697387836 -0.013919228380736885 0 -0.025889014414409176 -0.021157503954467874 0 -0.026314570449357064 -0.021473484996794943 0 -0.012128338953664783 -0.01319830956119342 0 -0.0126648913156975 -0.01207636637186532 0 -0.01107153414634433 -0.012226153978609797 0 -0.012787111731821673 -0.012640455688058756 0 -0.013645235857735362 -0.012842604855622225 0 -0.013581890137134628 -0.011707100340507651 0 -0.012128338953664783 -0.01319830956119342 0 -0.012787111731821673 -0.012640455688058756 0 -0.013645235857735362 -0.012842604855622225 0 -0.012128338953664783 -0.01319830956119342 0 -0.013645235857735362 -0.012842604855622225 0 -0.013254943112513847 -0.013661507567144496 0 -0.013645235857735362 -0.012842604855622225 0 -0.013254943112513847 -0.013661507567144496 0 -0.014473579145307107 -0.013401270218021897 0 -0.013645235857735362 -0.012842604855622225 0 -0.014473579145307107 -0.013401270218021897 0 -0.014669088349321348 -0.01223110188585866 0 -0.014473579145307107 -0.013401270218021897 0 -0.016016630322577562 -0.012154881902495782 0 -0.014669088349321348 -0.01223110188585866 0 -0.014473579145307107 -0.013401270218021897 0 -0.015035881515366412 -0.014888523427304724 0 -0.016364698474147898 -0.013861104369259969 0 -0.013650782090402432 -0.016637095919653001 0 -0.013736773735155397 -0.01458673414463978 0 -0.015035881515366412 -0.014888523427304724 0 -0.013254943112513847 -0.013661507567144496 0 -0.014473579145307107 -0.013401270218021897 0 -0.013736773735155397 -0.01458673414463978 0 -0.014473579145307107 -0.013401270218021897 0 -0.013736773735155397 -0.01458673414463978 0 -0.015035881515366412 -0.014888523427304724 0 -0.015035881515366412 -0.014888523427304724 0 -0.016573382576048554 -0.015835742408035453 0 -0.016364698474147898 -0.013861104369259969 0 -0.014473579145307107 -0.013401270218021897 0 -0.016364698474147898 -0.013861104369259969 0 -0.016016630322577562 -0.012154881902495782 0 -0.016364698474147898 -0.013861104369259969 0 -0.016016630322577562 -0.012154881902495782 0 -0.018913722794196935 -0.013507258653977543 0 -0.016573382576048554 -0.015835742408035453 0 -0.019988942206625403 -0.016428553262398664 0 -0.018913722794196935 -0.013507258653977543 0 -0.016573382576048554 -0.015835742408035453 0 -0.016364698474147898 -0.013861104369259969 0 -0.018913722794196935 -0.013507258653977543 0 -0.0064430293389423883 -0.015441459879038152 0 -0.0056535379317796562 -0.017682173549535319 0 -0.008449836312747103 -0.016101211361064488 0 -0.0064430293389423883 -0.015441459879038152 0 -0.008449836312747103 -0.016101211361064488 0 -0.0074186201187778295 -0.014247341314800233 0 -0.0064430293389423883 -0.015441459879038152 0 -0.0041194004576133739 -0.015047760533790941 0 -0.0059533475078609082 -0.014030751890473453 0 -0.0064430293389423883 -0.015441459879038152 0 -0.0041194004576133739 -0.015047760533790941 0 -0.0056535379317796562 -0.017682173549535319 0 -0.0021887302641312289 -0.017650259365894278 0 -4.257551571182715e-05 -0.020636617717886711 0 -0.0056535379317796562 -0.017682173549535319 0 -3.2991229756549597e-05 -0.02030759100843128 0 -0.0040177548670072647 -0.018401412987303637 0 -0.00036375503312970238 -0.021244740286762771 0 -0.0035198432352948296 -0.018576657703657917 0 -0.0055505210558463138 -0.019531723792617847 0 -0.0021887302641312289 -0.017650259365894278 0 -0.0041194004576133739 -0.015047760533790941 0 -0.0056535379317796562 -0.017682173549535319 0 -0.0040177548670072647 -0.018401412987303637 0 -0.007364262465062406 -0.016808573466205384 0 -0.0035198432352948296 -0.018576657703657917 0 -0.0055505210558463138 -0.019531723792617847 0 -0.0075726912820224344 -0.016820429882491134 0 -0.0088180777304676886 -0.020582697519934405 0 -0.0065756935258498919 -0.019166520757465222 0 -0.010044941680758111 -0.018175603499727407 0 -0.0055505210558463138 -0.019531723792617847 0 -0.010015681750299136 -0.017944422697973906 0 -0.0075726912820224344 -0.016820429882491134 0 -0.005665717872913022 -0.019422326626831802 0 -0.0097426985663516558 -0.018083876829374641 0 -0.01076300123022067 -0.02084588646774457 0 -0.0128036514712619 -0.019708706580301865 0 -0.010044941680758111 -0.018175603499727407 0 -0.010015681750299136 -0.017944422697973906 0 -0.011094912385707166 -0.01536222021636317 0 -0.0075726912820224344 -0.016820429882491134 0 -0.013650782090402432 -0.016637095919653001 0 -0.010015681750299136 -0.017944422697973906 0 -0.011094912385707166 -0.01536222021636317 0 -0.011094912385707166 -0.01536222021636317 0 -0.008449836312747103 -0.016101211361064488 0 -0.0092633995539296195 -0.014130692461239649 0 -0.008992776147340514 -0.01605238274253 0 -0.007364262465062406 -0.016808573466205384 0 -0.008449836312747103 -0.016101211361064488 0 -0.0092633995539296195 -0.014130692461239649 0 -0.0074186201187778295 -0.014247341314800233 0 -0.0092633995539296195 -0.014130692461239649 0 -0.0079496916016155768 -0.013131775482725958 0 -0.0074186201187778295 -0.014247341314800233 0 -0.012353728445298978 -0.014507312052267775 0 -0.011094912385707166 -0.01536222021636317 0 -0.010791753697387836 -0.013919228380736885 0 -0.011094912385707166 -0.01536222021636317 0 -0.0092633995539296195 -0.014130692461239649 0 -0.010791753697387836 -0.013919228380736885 0 -0.0092633995539296195 -0.014130692461239649 0 -0.010791753697387836 -0.013919228380736885 0 -0.010099291959730512 -0.012805096983544857 0 -0.012128338953664783 -0.01319830956119342 0 -0.011016470214302789 -0.013023402916077195 0 -0.01107153414634433 -0.012226153978609797 0 -0.012128338953664783 -0.01319830956119342 0 -0.010791753697387836 -0.013919228380736885 0 -0.011016470214302789 -0.013023402916077195 0 -0.010791753697387836 -0.013919228380736885 0 -0.011016470214302789 -0.013023402916077195 0 -0.010099291959730512 -0.012805096983544857 0 -0.011016470214302789 -0.013023402916077195 0 -0.010099291959730512 -0.012805096983544857 0 -0.01107153414634433 -0.012226153978609797 0 -0.010099291959730512 -0.012805096983544857 0 -0.0099628589802643313 -0.01176661871478819 0 -0.01107153414634433 -0.012226153978609797 0 -0.0099628589802643313 -0.01176661871478819 0 -0.01107153414634433 -0.012226153978609797 0 -0.010623710184991482 -0.010756143544056436 0 -0.0126648913156975 -0.01207636637186532 0 -0.01107153414634433 -0.012226153978609797 0 -0.010623710184991482 -0.010756143544056436 0 -0.0092633995539296195 -0.014130692461239649 0 -0.010099291959730512 -0.012805096983544857 0 -0.008788060490494326 -0.012235965854591333 0 -0.0092633995539296195 -0.014130692461239649 0 -0.0079496916016155768 -0.013131775482725958 0 -0.008788060490494326 -0.012235965854591333 0 -0.0079496916016155768 -0.013131775482725958 0 -0.008788060490494326 -0.012235965854591333 0 -0.0077245945392379256 -0.01186042568941255 0 -0.010099291959730512 -0.012805096983544857 0 -0.0099628589802643313 -0.01176661871478819 0 -0.008788060490494326 -0.012235965854591333 0 -0.0099628589802643313 -0.01176661871478819 0 -0.008788060490494326 -0.012235965854591333 0 -0.0090207205096920744 -0.011081101010030738 0 -0.008788060490494326 -0.012235965854591333 0 -0.0077245945392379256 -0.01186042568941255 0 -0.0090207205096920744 -0.011081101010030738 0 -0.0077245945392379256 -0.01186042568941255 0 -0.0064280827831093377 -0.011577267978929179 0 -0.0066261183730774694 -0.012883461911095016 0 -0.0079496916016155768 -0.013131775482725958 0 -0.0077245945392379256 -0.01186042568941255 0 -0.0066261183730774694 -0.012883461911095016 0 -0.0079496916016155768 -0.013131775482725958 0 -0.0066261183730774694 -0.012883461911095016 0 -0.0074186201187778295 -0.014247341314800233 0 -0.0066261183730774694 -0.012883461911095016 0 -0.0059533475078609082 -0.014030751890473453 0 -0.0074186201187778295 -0.014247341314800233 0 -0.0064430293389423883 -0.015441459879038152 0 -0.0059533475078609082 -0.014030751890473453 0 -0.0074186201187778295 -0.014247341314800233 0 -0.0061131932149396662 -0.011749731191003091 0 -0.0066291097504670715 -0.0091288279147628808 0 -0.0011662670121548588 -0.011119503692141285 0 -0.0041194004576133739 -0.015047760533790941 0 -0.0035310516262911382 -0.0050829431236087018 0 -0.0041194004576133739 -0.015047760533790941 0 -0.0059533475078609082 -0.014030751890473453 0 -0.0047058632706602809 -0.012744498157500356 0 -0.0066261183730774694 -0.012883461911095016 0 -0.0059533475078609082 -0.014030751890473453 0 -0.0047058632706602809 -0.012744498157500356 0 -0.0064280827831093377 -0.011577267978929179 0 -0.0066261183730774694 -0.012883461911095016 0 -0.0047058632706602809 -0.012744498157500356 0 -0.0064280827831093377 -0.011577267978929179 0 -0.0047058632706602809 -0.012744498157500356 0 -0.0058389639844540746 -0.01050244164507453 0 -0.0047058632706602809 -0.012744498157500356 0 -0.0058389639844540746 -0.01050244164507453 0 -0.0045832598972075913 -0.0099172254333046005 0 -0.0066291097504670715 -0.0091288279147628808 0 -0.0090107336706544468 -0.0073363856518562564 0 -0.0058389639844540746 -0.01050244164507453 0 -0.006215969044590001 -0.0090456764751145682 0 -0.0045832598972075913 -0.0099172254333046005 0 -0.006215969044590001 -0.0090456764751145682 0 -0.0045832598972075913 -0.0099172254333046005 0 -0.0043965192210308748 -0.0070480346035025135 0 -0.006215969044590001 -0.0090456764751145682 0 -0.0079201159644726547 -0.008866479089935226 0 -0.0069069376571615111 -0.0074303446800602531 0 -0.006215969044590001 -0.0090456764751145682 0 -0.0079201159644726547 -0.008866479089935226 0 -0.007602919583543105 -0.010237834084087133 0 -0.0064280827831093377 -0.011577267978929179 0 -0.0058389639844540746 -0.01050244164507453 0 -0.007602919583543105 -0.010237834084087133 0 -0.0058389639844540746 -0.01050244164507453 0 -0.006215969044590001 -0.0090456764751145682 0 -0.007602919583543105 -0.010237834084087133 0 -0.0077245945392379256 -0.01186042568941255 0 -0.0064280827831093377 -0.011577267978929179 0 -0.007602919583543105 -0.010237834084087133 0 -0.0077245945392379256 -0.01186042568941255 0 -0.007602919583543105 -0.010237834084087133 0 -0.0090207205096920744 -0.011081101010030738 0 -0.007602919583543105 -0.010237834084087133 0 -0.0090207205096920744 -0.011081101010030738 0 -0.0093919661941075008 -0.0098172346538592213 0 -0.0090207205096920744 -0.011081101010030738 0 -0.0093919661941075008 -0.0098172346538592213 0 -0.010623710184991482 -0.010756143544056436 0 -0.0126648913156975 -0.01207636637186532 0 -0.010623710184991482 -0.010756143544056436 0 -0.010857333194780843 -0.0094485230746808226 0 -0.0099628589802643313 -0.01176661871478819 0 -0.0090207205096920744 -0.011081101010030738 0 -0.010623710184991482 -0.010756143544056436 0 -0.0093919661941075008 -0.0098172346538592213 0 -0.010623710184991482 -0.010756143544056436 0 -0.010769112948652319 -0.0096647196963929472 0 -0.02647802240369207 -0.023963390891562387 0 -0.026913506249352227 -0.026009706566053864 0 -0.0293702064935496 -0.033371068636393088 0 -0.029135972850669486 -0.033020639566758936 0 -0.029425087803285014 -0.033066569722857722 0 -0.026913506249352227 -0.026009706566053864 0 -0.028646444968137029 -0.033089228174270839 0 -0.0093919661941075008 -0.0098172346538592213 0 -0.010769112948652319 -0.0096647196963929472 0 -0.0095304936655986935 -0.0078217837017301242 0 -0.028814341660669651 -0.030274855331349711 0 -0.02873536138513012 -0.03073530479421106 0 -0.028508008454768644 -0.030450355512156333 0 -0.026913506249352227 -0.026009706566053864 0 -0.030867667488535727 -0.035552769520707649 0 -0.0079201159644726547 -0.008866479089935226 0 -0.0093919661941075008 -0.0098172346538592213 0 -0.0095304936655986935 -0.0078217837017301242 0 -0.0079201159644726547 -0.008866479089935226 0 -0.007602919583543105 -0.010237834084087133 0 -0.0093919661941075008 -0.0098172346538592213 0 -0.0079201159644726547 -0.008866479089935226 0 -0.0095304936655986935 -0.0078217837017301242 0 -0.0069069376571615111 -0.0074303446800602531 0 -0.037544351813292111 -0.044365182314248935 0 -0.039944432242968314 -0.048087295167196759 0 -0.041171182963615709 -0.045046613875407919 0 -0.028646444968137029 -0.033089228174270839 0 -0.023241296977783894 -0.028115677890337785 0 -0.028646444968137029 -0.033089228174270839 0 -0.038480780985914224 -0.047040956755450988 0 -0.040470266127183817 -0.04844626381082752 0 -0.039543320718592144 -0.048277508837513389 0 -0.040238742717769845 -0.04947618815704552 0 -0.030867667488535727 -0.035552769520707649 0 -0.033857134428244721 -0.046034791716519863 0 -0.039543320718592144 -0.048277508837513389 0 -0.040238742717769845 -0.04947618815704552 0 -0.039323443224851082 -0.049780920337385147 0 -0.028646444968137029 -0.033089228174270839 0 -0.030867667488535727 -0.035552769520707649 0 -0.040238742717769845 -0.04947618815704552 0 -0.039323443224851082 -0.049780920337385147 0 -0.040326427151031748 -0.050711185192484041 0 -0.040470266127183817 -0.04844626381082752 0 -0.040238742717769845 -0.04947618815704552 0 -0.041507528639617625 -0.050143149316805975 0 -0.040238742717769845 -0.04947618815704552 0 -0.041507528639617625 -0.050143149316805975 0 -0.040326427151031748 -0.050711185192484041 0 -0.039944432242968314 -0.048087295167196759 0 -0.042797775815459863 -0.047863710733823644 0 -0.041171182963615709 -0.045046613875407919 0 -0.042797775815459863 -0.047863710733823644 0 -0.044851274917181189 -0.049664327778882543 0 -0.044650393701714149 -0.045722471869148469 0 -0.023241296977783894 -0.028115677890337785 0 -0.016427469336618997 -0.023920971603292346 0 -0.006215969044590001 -0.0090456764751145682 0 -0.0069069376571615111 -0.0074303446800602531 0 -0.0043965192210308748 -0.0070480346035025135 0 -0.042797775815459863 -0.047863710733823644 0 -0.041171182963615709 -0.045046613875407919 0 -0.044650393701714149 -0.045722471869148469 0 -0.028008788016435873 -0.035797667746479626 0 -0.026372944684359367 -0.04153914451793865 0 -0.028008788016435873 -0.035797667746479626 0 -0.031481252064773951 -0.036973783909303629 0 -0.017885441328812729 -0.010969793229353257 0 -0.016016630322577562 -0.012154881902495782 0 -0.018913722794196935 -0.013507258653977543 0 -0.017885441328812729 -0.010969793229353257 0 -0.016016630322577562 -0.012154881902495782 0 -0.01585496223741447 -0.010930880955025656 0 -0.016016630322577562 -0.012154881902495782 0 -0.01585496223741447 -0.010930880955025656 0 -0.01473756124024094 -0.011167713010330614 0 -0.017885441328812729 -0.010969793229353257 0 -0.01585496223741447 -0.010930880955025656 0 -0.01706729073895619 -0.0086356302632672136 0 -0.01585496223741447 -0.010930880955025656 0 -0.01508595055205981 -0.010108184503823857 0 -0.01706729073895619 -0.0086356302632672136 0 -0.029869002642358908 -0.034584311858148753 0 -0.027170706638698409 -0.025078427305703876 0 -0.014760857723334918 -0.010053169276065135 0 -0.01473756124024094 -0.011167713010330614 0 -0.013581890137134628 -0.011707100340507651 0 -0.01508595055205981 -0.010108184503823857 0 -0.014760857723334918 -0.010053169276065135 0 -0.015151512346678137 -0.010639908373228847 0 -0.02953222447863477 -0.0344247930312735 0 -0.029869002642358908 -0.034584311858148753 0 -0.014760857723334918 -0.010053169276065135 0 -0.015151512346678137 -0.010639908373228847 0 -0.01473756124024094 -0.011167713010330614 0 -0.01585496223741447 -0.010930880955025656 0 -0.01508595055205981 -0.010108184503823857 0 -0.015151512346678137 -0.010639908373228847 0 -0.01585496223741447 -0.010930880955025656 0 -0.015151512346678137 -0.010639908373228847 0 -0.01473756124024094 -0.011167713010330614 0 -0.016016630322577562 -0.012154881902495782 0 -0.01473756124024094 -0.011167713010330614 0 -0.014669088349321348 -0.01223110188585866 0 -0.013645235857735362 -0.012842604855622225 0 -0.014669088349321348 -0.01223110188585866 0 -0.013581890137134628 -0.011707100340507651 0 -0.01473756124024094 -0.011167713010330614 0 -0.014669088349321348 -0.01223110188585866 0 -0.013581890137134628 -0.011707100340507651 0 -0.028404421149116062 -0.02961590751366712 0 -0.028214051526571089 -0.029981289986562271 0 -0.028489567590742747 -0.030161053037417795 0 -0.028404421149116062 -0.02961590751366712 0 -0.028814341660669651 -0.030274855331349711 0 -0.028489567590742747 -0.030161053037417795 0 -0.026314570449357064 -0.021473484996794943 0 -0.026913506249352227 -0.026009706566053864 0 -0.026314570449357064 -0.021473484996794943 0 -0.027170706638698409 -0.025078427305703876 0 -0.02873536138513012 -0.03073530479421106 0 -0.027903274484376846 -0.030596281138705838 0 -0.028508008454768644 -0.030450355512156333 0 -0.028814341660669651 -0.030274855331349711 0 -0.028489567590742747 -0.030161053037417795 0 -0.028508008454768644 -0.030450355512156333 0 -0.027903274484376846 -0.030596281138705838 0 -0.028489567590742747 -0.030161053037417795 0 -0.028508008454768644 -0.030450355512156333 0 -0.030867667488535727 -0.035552769520707649 0 -0.029869002642358908 -0.034584311858148753 0 -0.027898060503547283 -0.030610796135124563 0 -0.028214051526571089 -0.029981289986562271 0 -0.028489567590742747 -0.030161053037417795 0 -0.029869002642358908 -0.034584311858148753 0 -0.029915760280081253 -0.033493424817772323 0 -0.039517991543406773 -0.049784932464795345 0 -0.039367867029276034 -0.050759423551239802 0 -0.038595677368855927 -0.050446759198345993 0 -0.039517991543406773 -0.049784932464795345 0 -0.038305301611180009 -0.04957988604870326 0 -0.038595677368855927 -0.050446759198345993 0 -0.039367867029276034 -0.050759423551239802 0 -0.038550697369303451 -0.051173949434062276 0 -0.038595677368855927 -0.050446759198345993 0 -0.038550697369303451 -0.051173949434062276 0 -0.038102500027763594 -0.050954212431975947 0 -0.038595677368855927 -0.050446759198345993 0 -0.038102500027763594 -0.050954212431975947 0 -0.038595677368855927 -0.050446759198345993 0 -0.037897563186576534 -0.050409898469373431 0 -0.029869002642358908 -0.034584311858148753 0 -0.031170931046872269 -0.044769129908341358 0 -0.038305301611180009 -0.04957988604870326 0 -0.038595677368855927 -0.050446759198345993 0 -0.037897563186576534 -0.050409898469373431 0 -0.029869002642358908 -0.034584311858148753 0 -0.026372944684359367 -0.04153914451793865 0 -0.03598318424377777 -0.054530399865139453 0 -0.036455062706323121 -0.053787456204597288 0 -0.037160174128228737 -0.053847945759680327 0 -0.01508595055205981 -0.010108184503823857 0 -0.01476588079161973 -0.010056764789599862 0 -0.01706729073895619 -0.0086356302632672136 0 -0.036455062706323121 -0.053787456204597288 0 -0.037116218059683438 -0.053660993285544502 0 -0.037160174128228737 -0.053847945759680327 0 -0.038102500027763594 -0.050954212431975947 0 -0.037897563186576534 -0.050409898469373431 0 -0.037556670694134028 -0.05127193463667281 0 -0.036455062706323121 -0.053787456204597288 0 -0.036947022191589442 -0.052846098309025036 0 -0.037116218059683438 -0.053660993285544502 0 -0.031170931046872269 -0.044769129908341358 0 -0.03264206516761238 -0.048190496600555459 0 -0.026372944684359367 -0.04153914451793865 0 -0.030703750749595516 -0.044058683930614073 0 -0.037629296744130687 -0.053154665736522881 0 -0.037169389579302471 -0.053934190159254436 0 -0.038937424993315178 -0.053041739793473895 0 -0.037116218059683438 -0.053660993285544502 0 -0.037629296744130687 -0.053154665736522881 0 -0.037169389579302471 -0.053934190159254436 0 -0.036947022191589442 -0.052846098309025036 0 -0.037116218059683438 -0.053660993285544502 0 -0.037629296744130687 -0.053154665736522881 0 -0.037919803944522532 -0.057253528088641266 0 -0.036858214829237457 -0.054676109894871844 0 -0.038929797243728109 -0.055295203756145772 0 -0.026555459047802515 -0.041952816158421349 0 -0.026372944684359367 -0.04153914451793865 0 -0.037517750033622281 -0.051864027849838353 0 -0.037290774622298538 -0.052597923973537651 0 -0.037817819134273699 -0.051677961747163756 0 -0.037517750033622281 -0.051864027849838353 0 -0.037998881923294155 -0.051803838116395093 0 -0.037817819134273699 -0.051677961747163756 0 -0.037517750033622281 -0.051864027849838353 0 -0.037998881923294155 -0.051803838116395093 0 -0.03802630296510786 -0.052329196877863034 0 -0.036947022191589442 -0.052846098309025036 0 -0.037629296744130687 -0.053154665736522881 0 -0.03802630296510786 -0.052329196877863034 0 -0.03264206516761238 -0.048190496600555459 0 -0.033211555380408687 -0.048989976908424444 0 -0.037629296744130687 -0.053154665736522881 0 -0.03802630296510786 -0.052329196877863034 0 -0.038937424993315178 -0.053041739793473895 0 -0.036947022191589442 -0.052846098309025036 0 -0.037517750033622281 -0.051864027849838353 0 -0.03802630296510786 -0.052329196877863034 0 -0.037556670694134028 -0.05127193463667281 0 -0.037517750033622281 -0.051864027849838353 0 -0.03770009778793379 -0.051760320432341432 0 -0.038102500027763594 -0.050954212431975947 0 -0.037556670694134028 -0.05127193463667281 0 -0.038076498831131844 -0.051498685836854005 0 -0.037556670694134028 -0.05127193463667281 0 -0.03770009778793379 -0.051760320432341432 0 -0.038076498831131844 -0.051498685836854005 0 -0.03770009778793379 -0.051760320432341432 0 -0.038031958207614215 -0.052075937885367664 0 -0.038076498831131844 -0.051498685836854005 0 -0.037517750033622281 -0.051864027849838353 0 -0.03762103282105602 -0.052135453463237717 0 -0.037290774622298538 -0.052597923973537651 0 -0.03770009778793379 -0.051760320432341432 0 -0.03762103282105602 -0.052135453463237717 0 -0.038031958207614215 -0.052075937885367664 0 -0.037517750033622281 -0.051864027849838353 0 -0.03770009778793379 -0.051760320432341432 0 -0.03762103282105602 -0.052135453463237717 0 -0.03762103282105602 -0.052135453463237717 0 -0.038031958207614215 -0.052075937885367664 0 -0.037719589063535314 -0.052614450055904816 0 -0.038613966692927069 -0.052274687251957878 0 -0.038031958207614215 -0.052075937885367664 0 -0.038247697520964234 -0.052883036019072384 0 -0.038031958207614215 -0.052075937885367664 0 -0.038247697520964234 -0.052883036019072384 0 -0.037719589063535314 -0.052614450055904816 0 -0.038613966692927069 -0.052274687251957878 0 -0.038031958207614215 -0.052075937885367664 0 -0.038564297647031995 -0.05173945748101421 0 -0.038031958207614215 -0.052075937885367664 0 -0.038076498831131844 -0.051498685836854005 0 -0.038564297647031995 -0.05173945748101421 0 -0.038550697369303451 -0.051173949434062276 0 -0.038102500027763594 -0.050954212431975947 0 -0.038076498831131844 -0.051498685836854005 0 -0.038550697369303451 -0.051173949434062276 0 -0.038076498831131844 -0.051498685836854005 0 -0.038564297647031995 -0.05173945748101421 0 -0.038550697369303451 -0.051173949434062276 0 -0.038564297647031995 -0.05173945748101421 0 -0.039226923549895966 -0.051713002217992118 0 -0.033857134428244721 -0.046034791716519863 0 -0.035516876005843641 -0.049681058122923748 0 -0.039367867029276034 -0.050759423551239802 0 -0.038550697369303451 -0.051173949434062276 0 -0.039226923549895966 -0.051713002217992118 0 -0.038613966692927069 -0.052274687251957878 0 -0.039226923549895966 -0.051713002217992118 0 -0.03907723570212835 -0.052776276714135276 0 -0.035516876005843641 -0.049681058122923748 0 -0.036008428245233468 -0.050774424252707777 0 -0.038613966692927069 -0.052274687251957878 0 -0.038564297647031995 -0.05173945748101421 0 -0.039226923549895966 -0.051713002217992118 0 -0.03907723570212835 -0.052776276714135276 0 -0.039262854860410118 -0.054006990777992481 0 -0.038666028076059435 -0.053463885762568601 0 -0.03907723570212835 -0.052776276714135276 0 -0.039262854860410118 -0.054006990777992481 0 -0.039967987959835964 -0.053362584709657768 0 -0.039464741997990611 -0.054582254864595441 0 -0.038639521100162479 -0.05452045291307199 0 -0.039598670584125036 -0.055110065665263552 0 -0.037941616507714104 -0.054283558800708891 0 -0.039113515099385349 -0.055814451451590648 0 -0.039262854860410118 -0.054006990777992481 0 -0.037941616507714104 -0.054283558800708891 0 -0.038666028076059435 -0.053463885762568601 0 -0.037941616507714104 -0.054283558800708891 0 -0.037996254715441748 -0.055531082325120655 0 -0.039113515099385349 -0.055814451451590648 0 -0.037941616507714104 -0.054283558800708891 0 -0.038247697520964234 -0.052883036019072384 0 -0.037745019454432469 -0.053301228671479822 0 -0.038613966692927069 -0.052274687251957878 0 -0.03907723570212835 -0.052776276714135276 0 -0.038247697520964234 -0.052883036019072384 0 -0.03907723570212835 -0.052776276714135276 0 -0.038666028076059435 -0.053463885762568601 0 -0.038247697520964234 -0.052883036019072384 0 -0.037941616507714104 -0.054283558800708891 0 -0.038666028076059435 -0.053463885762568601 0 -0.038247697520964234 -0.052883036019072384 0 -0.038247697520964234 -0.052883036019072384 0 -0.037719589063535314 -0.052614450055904816 0 -0.037745019454432469 -0.053301228671479822 0 -0.037719589063535314 -0.052614450055904816 0 -0.037290774622298538 -0.052597923973537651 0 -0.03734667148999981 -0.053185009083548597 0 -0.03762103282105602 -0.052135453463237717 0 -0.037719589063535314 -0.052614450055904816 0 -0.037290774622298538 -0.052597923973537651 0 -0.03734667148999981 -0.053185009083548597 0 -0.036960687725488377 -0.053520008207961635 0 -0.037601237587329216 -0.053942125843353297 0 -0.03734667148999981 -0.053185009083548597 0 -0.036960687725488377 -0.053520008207961635 0 -0.036786477316569463 -0.052736349773305317 0 -0.037290774622298538 -0.052597923973537651 0 -0.03734667148999981 -0.053185009083548597 0 -0.036786477316569463 -0.052736349773305317 0 -0.03734667148999981 -0.053185009083548597 0 -0.037745019454432469 -0.053301228671479822 0 -0.037601237587329216 -0.053942125843353297 0 -0.037719589063535314 -0.052614450055904816 0 -0.03734667148999981 -0.053185009083548597 0 -0.037745019454432469 -0.053301228671479822 0 -0.037941616507714104 -0.054283558800708891 0 -0.037745019454432469 -0.053301228671479822 0 -0.037601237587329216 -0.053942125843353297 0 -0.037941616507714104 -0.054283558800708891 0 -0.037601237587329216 -0.053942125843353297 0 -0.037996254715441748 -0.055531082325120655 0 -0.040450628089043449 -0.053750983357515117 0 -0.04021332431944831 -0.054746966926825159 0 -0.040256495883395742 -0.055497288003421845 0 -0.036960687725488377 -0.053520008207961635 0 -0.037601237587329216 -0.053942125843353297 0 -0.037996254715441748 -0.055531082325120655 0 -0.038736513599760748 -0.053671200178436324 0 -0.039135012910045487 -0.05486411494318718 0 -0.04021332431944831 -0.054746966926825159 0 -0.040339973507975024 -0.054017602945290864 0 -0.040224734207085222 -0.054463524553865668 0 -0.040450628089043449 -0.053750983357515117 0 -0.04021332431944831 -0.054746966926825159 0 -0.040339973507975024 -0.054017602945290864 0 -0.040450628089043449 -0.053750983357515117 0 -0.040390016129697844 -0.05381384537027973 0 -0.040409941622788423 -0.053743892670376221 0 -0.040390016129697844 -0.05381384537027973 0 -0.040395293703187431 -0.053712668535094987 0 -0.040409941622788423 -0.053743892670376221 0 -0.040395293703187431 -0.053712668535094987 0 -0.040339973507975024 -0.054017602945290864 0 -0.04025596864919076 -0.0541258007916047 0 -0.040390016129697844 -0.05381384537027973 0 -0.040395293703187431 -0.053712668535094987 0 -0.040339973507975024 -0.054017602945290864 0 -0.040450628089043449 -0.053750983357515117 0 -0.040390016129697844 -0.05381384537027973 0 -0.040339973507975024 -0.054017602945290864 0 -0.04025596864919076 -0.0541258007916047 0 -0.040224734207085222 -0.054463524553865668 0 -0.040097316403712065 -0.054858328966830724 0 -0.040339973507975024 -0.054017602945290864 0 -0.04025596864919076 -0.0541258007916047 0 -0.040224734207085222 -0.054463524553865668 0 -0.04025596864919076 -0.0541258007916047 0 -0.040400035038433077 -0.053553346097219533 0 -0.040173869667352813 -0.05417383409545052 0 -0.040395293703187431 -0.053712668535094987 0 -0.04025596864919076 -0.0541258007916047 0 -0.040400035038433077 -0.053553346097219533 0 -0.040395293703187431 -0.053712668535094987 0 -0.040572156255557101 -0.053170547657354107 0 -0.040400035038433077 -0.053553346097219533 0 -0.040409941622788423 -0.053743892670376221 0 -0.040078286543285074 -0.053467250917239972 0 -0.040197910123620249 -0.053437899886544279 0 -0.040450628089043449 -0.053750983357515117 0 -0.040409941622788423 -0.053743892670376221 0 -0.040197910123620249 -0.053437899886544279 0 -0.038736513599760748 -0.053671200178436324 0 -0.038576304679258565 -0.052623620479177437 0 -0.03801684595745064 -0.052409688885627762 0 -0.038576304679258565 -0.052623620479177437 0 -0.036960687725488377 -0.053520008207961635 0 -0.036786477316569463 -0.052736349773305317 0 -0.035457863533421459 -0.051666841630819617 0 -0.040409941622788423 -0.053743892670376221 0 -0.040810644450943234 -0.052744176734674131 0 -0.040572156255557101 -0.053170547657354107 0 -0.040395293703187431 -0.053712668535094987 0 -0.040409941622788423 -0.053743892670376221 0 -0.040572156255557101 -0.053170547657354107 0 -0.040452204602341495 -0.05309284076058559 0 -0.04051857866210095 -0.052960106423514626 0 -0.037290774622298538 -0.052597923973537651 0 -0.036786477316569463 -0.052736349773305317 0 -0.035457863533421459 -0.051666841630819617 0 -0.042513319959567197 -0.051577263674518779 0 -0.041332117488427571 -0.051461882913046049 0 -0.041650049461381587 -0.053343954351313554 0 -0.042513319959567197 -0.051577263674518779 0 -0.043330727343356794 -0.053486348847777532 0 -0.044802440808720437 -0.052787471232289017 0 -0.042513319959567197 -0.051577263674518779 0 -0.044802440808720437 -0.052787471232289017 0 -0.044851274917181189 -0.049664327778882543 0 -0.042797775815459863 -0.047863710733823644 0 -0.042513319959567197 -0.051577263674518779 0 -0.044851274917181189 -0.049664327778882543 0 -0.038480780985914224 -0.047040956755450988 0 -0.040538220062568714 -0.049830326208635221 0 -0.039944432242968314 -0.048087295167196759 0 -0.042797775815459863 -0.047863710733823644 0 -0.042513319959567197 -0.051577263674518779 0 -0.041507528639617625 -0.050143149316805975 0 -0.042513319959567197 -0.051577263674518779 0 -0.041332117488427571 -0.051461882913046049 0 -0.041507528639617625 -0.050143149316805975 0 -0.040326427151031748 -0.050711185192484041 0 -0.041332117488427571 -0.051461882913046049 0 -0.040326427151031748 -0.050711185192484041 0 -0.040447621304101775 -0.052214476154373225 0 -0.041332117488427571 -0.051461882913046049 0 -0.039148278343482168 -0.051294714839653976 0 -0.040326427151031748 -0.050711185192484041 0 -0.040447621304101775 -0.052214476154373225 0 -0.039323443224851082 -0.049780920337385147 0 -0.039148278343482168 -0.051294714839653976 0 -0.040326427151031748 -0.050711185192484041 0 -0.039148278343482168 -0.051294714839653976 0 -0.03907723570212835 -0.052776276714135276 0 -0.040447621304101775 -0.052214476154373225 0 -0.040447621304101775 -0.052214476154373225 0 -0.041332117488427571 -0.051461882913046049 0 -0.041650049461381587 -0.053343954351313554 0 -0.039967987959835964 -0.053362584709657768 0 -0.040722216526924745 -0.054279655051082717 0 -0.041650049461381587 -0.053343954351313554 0 -0.040447621304101775 -0.052214476154373225 0 -0.039967987959835964 -0.053362584709657768 0 -0.041650049461381587 -0.053343954351313554 0 -0.03907723570212835 -0.052776276714135276 0 -0.040447621304101775 -0.052214476154373225 0 -0.039967987959835964 -0.053362584709657768 0 -0.039464741997990611 -0.054582254864595441 0 -0.040880501548188612 -0.054679243747658958 0 -0.039598670584125036 -0.055110065665263552 0 -0.04088673189507637 -0.055229477603434128 0 -0.039988392115424251 -0.056392622836403124 0 -0.039262854860410118 -0.054006990777992481 0 -0.039967987959835964 -0.053362584709657768 0 -0.040722216526924745 -0.054279655051082717 0 -0.040880501548188612 -0.054679243747658958 0 -0.041788222045853265 -0.054727779463093568 0 -0.04088673189507637 -0.055229477603434128 0 -0.042706139864123839 -0.054861481702192461 0 -0.041736666630455763 -0.055983585569261196 0 -0.041650049461381587 -0.053343954351313554 0 -0.043131344008517231 -0.054243670327916223 0 -0.042706139864123839 -0.054861481702192461 0 -0.040722216526924745 -0.054279655051082717 0 -0.041650049461381587 -0.053343954351313554 0 -0.042706139864123839 -0.054861481702192461 0 -0.042513319959567197 -0.051577263674518779 0 -0.041650049461381587 -0.053343954351313554 0 -0.043330727343356794 -0.053486348847777532 0 -0.043330727343356794 -0.053486348847777532 0 -0.043612622929273197 -0.054966946405557042 0 -0.044802440808720437 -0.052787471232289017 0 -0.041650049461381587 -0.053343954351313554 0 -0.043330727343356794 -0.053486348847777532 0 -0.043131344008517231 -0.054243670327916223 0 -0.043330727343356794 -0.053486348847777532 0 -0.043131344008517231 -0.054243670327916223 0 -0.043612622929273197 -0.054966946405557042 0 -0.043131344008517231 -0.054243670327916223 0 -0.042706139864123839 -0.054861481702192461 0 -0.043612622929273197 -0.054966946405557042 0 -0.023391195677602075 -0.050673357358931512 0 -0.022233546142734671 -0.048946296466089785 0 -0.022509945137805545 -0.052392786490973717 0 -0.04313908983677664 -0.055498299341209173 0 -0.043891194108481218 -0.055074234628210983 0 -0.043989951026876847 -0.056184494386984862 0 -0.029892140706088196 -0.050513856671777914 0 -0.030954876043328101 -0.053201818860644207 0 -0.022233546142734671 -0.048946296466089785 0 -0.023651726016763859 -0.04950868416210296 0 -0.02416066300319725 -0.048490447947209712 0 -0.023391195677602075 -0.050673357358931512 0 -0.022233546142734671 -0.048946296466089785 0 -0.023651726016763859 -0.04950868416210296 0 -0.020033970851154204 -0.052399126990505619 0 -0.020527078763076589 -0.051141980657290642 0 -0.021236971563735847 -0.052920061344641438 0 -0.017646626528879061 -0.045878760032097697 0 -0.018428470092287895 -0.054567846846308686 0 -0.020033970851154204 -0.052399126990505619 0 -0.021236971563735847 -0.052920061344641438 0 -0.020701627817117822 -0.05358703664687104 0 -0.022718512271338778 -0.0519110528563166 0 -0.023479479921479137 -0.056460744048736147 0 -0.023391195677602075 -0.050673357358931512 0 -0.024873842307640438 -0.049744322454423812 0 -0.023720108637179094 -0.052661994400435778 0 -0.022718512271338778 -0.0519110528563166 0 -0.028674349438434537 -0.054297811328187534 0 -0.023391195677602075 -0.050673357358931512 0 -0.023651726016763859 -0.04950868416210296 0 -0.024873842307640438 -0.049744322454423812 0 -0.02416066300319725 -0.048490447947209712 0 -0.024850669354865282 -0.049728369031966806 0 -0.025907039036869216 -0.047076160480921739 0 -0.023651726016763859 -0.04950868416210296 0 -0.02416066300319725 -0.048490447947209712 0 -0.024873842307640438 -0.049744322454423812 0 -0.022701610666789551 -0.051755268632179802 0 -0.022718512271338778 -0.0519110528563166 0 -0.022718512271338778 -0.0519110528563166 0 -0.017646626528879061 -0.045878760032097697 0 -0.02416066300319725 -0.048490447947209712 0 -0.025907039036869216 -0.047076160480921739 0 -0.023599543062939505 -0.046331533701544365 0 -0.029892140706088196 -0.050513856671777914 0 -0.027890931697562446 -0.045835840089611002 0 -0.022233546142734671 -0.048946296466089785 0 -0.021958871468387719 -0.045520518592137363 0 -0.023599543062939505 -0.046331533701544365 0 -0.04313908983677664 -0.055498299341209173 0 -0.043891194108481218 -0.055074234628210983 0 -0.043753129580805822 -0.053938026061138032 0 -0.034665045668942109 -0.050905685409737104 0 -0.027890931697562446 -0.045835840089611002 0 -0.022233546142734671 -0.048946296466089785 0 -0.02416066300319725 -0.048490447947209712 0 -0.023599543062939505 -0.046331533701544365 0 -0.022359344803154733 -0.043560342904715471 0 -0.025218531967079367 -0.037327688201056745 0 -0.021698618613123152 -0.035249594071242736 0 -0.027890931697562446 -0.045835840089611002 0 -0.018011402669744259 -0.035239307688929383 0 -0.027890931697562446 -0.045835840089611002 0 -0.025063372873693236 -0.040022791067549184 0 -0.021958871468387719 -0.045520518592137363 0 -0.023599543062939505 -0.046331533701544365 0 -0.023735783103582393 -0.041622820180519278 0 -0.025907039036869216 -0.047076160480921739 0 -0.023599543062939505 -0.046331533701544365 0 -0.023735783103582393 -0.041622820180519278 0 -0.0098309346292787918 -0.038749954342155182 0 -0.0076631773230731439 -0.033322875675593784 0 -0.011858702958577655 -0.033567064151283396 0 -0.017646626528879061 -0.045878760032097697 0 -0.018011402669744259 -0.035239307688929383 0 -0.014003380438418672 -0.026330365454020642 0 -0.013210904975029129 -0.024319042347276144 0 -0.014809208480964281 -0.024544311585570931 0 -0.0076631773230731439 -0.033322875675593784 0 -0.011858702958577655 -0.033567064151283396 0 -0.0089283045281023602 -0.030542687632131169 0 -0.018011402669744259 -0.035239307688929383 0 -0.011820242287242903 -0.026877266865886897 0 -0.025218531967079367 -0.037327688201056745 0 -0.021698618613123152 -0.035249594071242736 0 -0.023212183697799156 -0.03226777536921626 0 -0.018011402669744259 -0.035239307688929383 0 -0.017267988967880794 -0.029351395026114856 0 -0.0085137977280289392 -0.041227468502264504 0 -0.0078598755316554927 -0.041590973045158075 0 -0.0084352739159509506 -0.042522623952219764 0 -0.0085137977280289392 -0.041227468502264504 0 -0.0084352739159509506 -0.042522623952219764 0 -0.0090535670363562602 -0.041663351447329557 0 -0.0085137977280289392 -0.041227468502264504 0 -0.0078598755316554927 -0.041590973045158075 0 -0.008235523864935335 -0.0405684960282914 0 -0.0097541245796072332 -0.036921454693161 0 -0.0026263962625769368 -0.025377945863146088 0 -0.011858702958577655 -0.033567064151283396 0 -0.0089283045281023602 -0.030542687632131169 0 -0.01209130612333199 -0.029278714092054115 0 -0.0074818118099057645 -0.042636404236921159 0 -0.0078598755316554927 -0.041590973045158075 0 -0.0084352739159509506 -0.042522623952219764 0 -0.017646626528879061 -0.045878760032097697 0 -0.0097541245796072332 -0.036921454693161 0 -0.01029908704299509 -0.049949263802153629 0 -0.0053222523416436157 -0.044900052638849719 0 -0.0074818118099057645 -0.042636404236921159 0 -0.0084352739159509506 -0.042522623952219764 0 -0.0077936992007879386 -0.043401431017095642 0 -0.01029908704299509 -0.049949263802153629 0 -0.018428470092287895 -0.054567846846308686 0 -0.0067128812597740109 -0.054315530909947715 0 -0.0057692562322154261 -0.055549920595941153 0 -0.0067816751778370932 -0.055627383539244249 0 -0.0067128812597740109 -0.054315530909947715 0 -0.0067816751778370932 -0.055627383539244249 0 -0.0078193020197030397 -0.055491313875647139 0 -0.007483108610336668 -0.063125297394991481 0 -0.0044674166985962434 -0.059939090353897467 0 -0.0028348584002774375 -0.069379432428970531 0 -0.0034380539011074785 -0.069554143945816577 0 -0.0032399660455111304 -0.068166559771952823 0 -0.0051555221190544244 -0.070523443642106026 0 -0.0050416966948776303 -0.069636435141144232 0 -0.0034380539011074785 -0.069554143945816577 0 -0.0032399660455111304 -0.068166559771952823 0 -0.0043859176312611818 -0.068552438547992312 0 -0.0032399660455111304 -0.068166559771952823 0 -0.0043859176312611818 -0.068552438547992312 0 -0.0040228770019293484 -0.06763408310961716 0 -0.0067128812597740109 -0.054315530909947715 0 -0.0078193020197030397 -0.055491313875647139 0 -0.0082684010553052637 -0.054302744213537202 0 -0.0061172067834644774 -0.070929839625045787 0 -0.0069137164849349892 -0.073036953075763092 0 -0.0089445527983781949 -0.072111921675813748 0 -0.0061172067834644774 -0.070929839625045787 0 -0.0051465021464638574 -0.073199572438847851 0 -0.0069137164849349892 -0.073036953075763092 0 -0.0017464980575187924 -0.072499736547011182 0 -0.0037747416742132155 -0.072345428930526007 0 -0.003856764288685359 -0.069921751949852964 0 -0.0061172067834644774 -0.070929839625045787 0 -0.0037747416742132155 -0.072345428930526007 0 -0.0051465021464638574 -0.073199572438847851 0 -0.0061172067834644774 -0.070929839625045787 0 -0.0037747416742132155 -0.072345428930526007 0 -0.003856764288685359 -0.069921751949852964 0 -0.0043859176312611818 -0.068552438547992312 0 -0.0047037437069650662 -0.06713367661117689 0 -0.0040228770019293484 -0.06763408310961716 0 -0.0050416966948776303 -0.069636435141144232 0 -0.0055590370038038992 -0.068762634674229675 0 -0.003856764288685359 -0.069921751949852964 0 -0.0063730994276456022 -0.069156132512948373 0 -0.0060918359875258878 -0.067235969255355896 0 -0.0061172067834644774 -0.070929839625045787 0 -0.0063730994276456022 -0.069156132512948373 0 -0.008278011060643577 -0.06985942622211036 0 -0.0061172067834644774 -0.070929839625045787 0 -0.003856764288685359 -0.069921751949852964 0 -0.0063730994276456022 -0.069156132512948373 0 -0.0060918359875258878 -0.067235969255355896 0 -0.0047037437069650662 -0.06713367661117689 0 -0.0080427767710251792 -0.066629038307352076 0 -0.0047037437069650662 -0.06713367661117689 0 -0.005187317677688397 -0.066436947452759534 0 -0.0058933234152116366 -0.06661589314609638 0 -0.0046199997891235812 -0.062862590852972605 0 -0.004578694287902552 -0.061296883179143731 0 -0.0063730994276456022 -0.069156132512948373 0 -0.0060918359875258878 -0.067235969255355896 0 -0.0078015484541439275 -0.06827174744373353 0 -0.0043859176312611818 -0.068552438547992312 0 -0.0060918359875258878 -0.067235969255355896 0 -0.0047037437069650662 -0.06713367661117689 0 -0.0047037437069650662 -0.06713367661117689 0 -0.0045244213695605304 -0.06644695233335822 0 -0.005187317677688397 -0.066436947452759534 0 -0.0047037437069650662 -0.06713367661117689 0 -0.0040228770019293484 -0.06763408310961716 0 -0.0038025294543750426 -0.066700341815604317 0 -0.0047037437069650662 -0.06713367661117689 0 -0.0045244213695605304 -0.06644695233335822 0 -0.0038025294543750426 -0.066700341815604317 0 -0.0045244213695605304 -0.06644695233335822 0 -0.0038025294543750426 -0.066700341815604317 0 -0.0043544364584370389 -0.065568255503295078 0 -0.0045244213695605304 -0.06644695233335822 0 -0.005187317677688397 -0.066436947452759534 0 -0.0043544364584370389 -0.065568255503295078 0 -0.005187317677688397 -0.066436947452759534 0 -0.0058933234152116366 -0.06661589314609638 0 -0.0057243054243854225 -0.065920567817673373 0 -0.005187317677688397 -0.066436947452759534 0 -0.0043544364584370389 -0.065568255503295078 0 -0.0057243054243854225 -0.065920567817673373 0 -0.0067128812597740109 -0.054315530909947715 0 -0.0082684010553052637 -0.054302744213537202 0 -0.0076542788166955198 -0.053060808697045596 0 -0.0044674166985962434 -0.059939090353897467 0 -0.0013468745039802868 -0.05506741044827123 0 -0.0032399660455111304 -0.068166559771952823 0 -0.0040228770019293484 -0.06763408310961716 0 -0.0038025294543750426 -0.066700341815604317 0 -0.0082684010553052637 -0.054302744213537202 0 -0.0076542788166955198 -0.053060808697045596 0 -0.008712793018988035 -0.053099640461773769 0 -0.008712793018988035 -0.053099640461773769 0 -0.0085996468121717004 -0.05180281160181624 0 -0.0091591486684543463 -0.051897826266664344 0 -0.0076542788166955198 -0.053060808697045596 0 -0.008712793018988035 -0.053099640461773769 0 -0.0085996468121717004 -0.05180281160181624 0 -0.0053222523416436157 -0.044900052638849719 0 0.0017877952720778893 -0.038100601950949116 0 -0.0013468745039802868 -0.05506741044827123 0 0.0021043687649328511 -0.043646414515881839 0 -0.0090535670363562602 -0.041663351447329557 0 -0.0089584886641916727 -0.040714132270138328 0 -0.009658426052667082 -0.040841982238892065 0 -0.0085137977280289392 -0.041227468502264504 0 -0.0090535670363562602 -0.041663351447329557 0 -0.0089584886641916727 -0.040714132270138328 0 0.00010926720786925978 -0.031324692644460493 0 0.0017877952720778893 -0.038100601950949116 0 0.0099803947063809278 -0.017989690687836693 0 0.010128753014555783 -0.018018804279380997 0 0.010155555353298989 -0.01805993157009805 0 0.0017877952720778893 -0.038100601950949116 0 0.0021043687649328511 -0.043646414515881839 0 0.010128753014555783 -0.018018804279380997 0 0.010155555353298989 -0.01805993157009805 0 0.010109892220473298 -0.0180525707164375 0 0.0099803947063809278 -0.017989690687836693 0 0.010155555353298989 -0.01805993157009805 0 0.010010891444864953 -0.018104518582351344 0 0.0099803947063809278 -0.017989690687836693 0 0.010010891444864953 -0.018104518582351344 0 0.0099023067713753243 -0.018066297809598085 0 0.010010891444864953 -0.018104518582351344 0 0.0099043308392397379 -0.018171210830514629 0 0.0099023067713753243 -0.018066297809598085 0 0.014773798429774977 -0.032658902928862157 0 0.014790177451096228 -0.032659218084807276 0 0.014808240284487748 -0.032694775596197691 0 0.0021043687649328511 -0.043646414515881839 0 0.0039404018793009025 -0.048581891982242255 0 0.014728825341245489 -0.032659905287749126 0 0.014773798429774977 -0.032658902928862157 0 0.014808240284487748 -0.032694775596197691 0 0.014678850513353416 -0.032670316503061701 0 0.014741747726619823 -0.032661316068512768 0 0.014764044363503181 -0.032653546219544236 0 0.0017877952720778893 -0.038100601950949116 0 0.0099184813157763597 -0.028583279750674269 0 0.014741747726619823 -0.032661316068512768 0 0.014728825341245489 -0.032659905287749126 0 0.014773798429774977 -0.032658902928862157 0 0.002472359365393586 -0.042434143370388436 0 0.0021043687649328511 -0.043646414515881839 0 0.014678850513353416 -0.032670316503061701 0 0.014741747726619823 -0.032661316068512768 0 0.014708207980620834 -0.032659571353960512 0 0.010155555353298989 -0.01805993157009805 0 0.010109892220473298 -0.0180525707164375 0 0.010176377747853139 -0.017931573501611963 0 0.014741747726619823 -0.032661316068512768 0 0.014764044363503181 -0.032653546219544236 0 0.014773798429774977 -0.032658902928862157 0 0.014764044363503181 -0.032653546219544236 0 0.014773798429774977 -0.032658902928862157 0 0.014775852283985281 -0.032633697621362513 0 0.014773798429774977 -0.032658902928862157 0 0.014775852283985281 -0.032633697621362513 0 0.014781163360843083 -0.03262915216900393 0 0.014775852283985281 -0.032633697621362513 0 0.014781163360843083 -0.03262915216900393 0 0.014780929041988557 -0.032616318900017136 0 0.014773798429774977 -0.032658902928862157 0 0.014781163360843083 -0.03262915216900393 0 0.014790177451096228 -0.032659218084807276 0 0.0099184813157763597 -0.028583279750674269 0 0.018239009056655337 -0.022933325950893608 0 0.014775852283985281 -0.032633697621362513 0 0.014788198838464607 -0.032600780470735932 0 0.014780929041988557 -0.032616318900017136 0 0.014788198838464607 -0.032600780470735932 0 0.014780929041988557 -0.032616318900017136 0 0.014774040474678576 -0.032606345002090274 0 0.014764044363503181 -0.032653546219544236 0 0.014775852283985281 -0.032633697621362513 0 0.014788198838464607 -0.032600780470735932 0 0.010109892220473298 -0.0180525707164375 0 0.0099398523077968062 -0.01784509335298113 0 0.010108419631849049 -0.01784518682808443 0 0.010109892220473298 -0.0180525707164375 0 0.010108419631849049 -0.01784518682808443 0 0.010176377747853139 -0.017931573501611963 0 0.010108419631849049 -0.01784518682808443 0 0.010176377747853139 -0.017931573501611963 0 0.010207112654365179 -0.01774450542850279 0 0.010108419631849049 -0.01784518682808443 0 0.010174541652400126 -0.01765169840625732 0 0.010207112654365179 -0.01774450542850279 0 0.0099398523077968062 -0.01784509335298113 0 0.010108419631849049 -0.01784518682808443 0 0.010174541652400126 -0.01765169840625732 0 0.028936920985683338 -0.014353309697244174 0 0.032056105419423629 -0.012238693937267401 0 0.030286816915357274 -0.013019361777078669 0 0.018239009056655337 -0.022933325950893608 0 0.019395030766224151 -0.012005743644756371 0 0.029232858579120953 -0.011214801987172899 0 0.032056105419423629 -0.012238693937267401 0 0.030286816915357274 -0.013019361777078669 0 0.019395030766224151 -0.012005743644756371 0 0.019025967186710183 -0.012423411417561283 0 0.029232858579120953 -0.011214801987172899 0 0.030286816915357274 -0.013019361777078669 0 0.028483032228129364 -0.01366477897432386 0 0.023378447440548074 -0.020788188980190369 0 0.020386055527825891 -0.022341089288424602 0 0.028936920985683338 -0.014353309697244174 0 0.030286816915357274 -0.013019361777078669 0 0.028402863493206615 -0.013707106013429097 0 0.018239009056655337 -0.022933325950893608 0 0.020386055527825891 -0.022341089288424602 0 0.010010891444864953 -0.018104518582351344 0 0.010077124470767128 -0.01819817791774098 0 0.0099043308392397379 -0.018171210830514629 0 0.010077124470767128 -0.01819817791774098 0 0.010033155519181592 -0.018294072815946492 0 0.0099043308392397379 -0.018171210830514629 0 0.010155555353298989 -0.01805993157009805 0 0.010176377747853139 -0.017931573501611963 0 0.010370000184027147 -0.017868415545832111 0 0.010155555353298989 -0.01805993157009805 0 0.010010891444864953 -0.018104518582351344 0 0.010077124470767128 -0.01819817791774098 0 0.010778568084591569 -0.016361279177874544 0 0.01130141624603071 -0.015056143784143704 0 0.010176377747853139 -0.017931573501611963 0 0.010370000184027147 -0.017868415545832111 0 0.010207112654365179 -0.01774450542850279 0 0.010370000184027147 -0.017868415545832111 0 0.010340617151179529 -0.017605359778419427 0 0.010559514471556683 -0.017532828649152087 0 0.010370000184027147 -0.017868415545832111 0 0.010207112654365179 -0.01774450542850279 0 0.010340617151179529 -0.017605359778419427 0 0.010113005245926709 -0.017532772986727882 0 0.010207112654365179 -0.01774450542850279 0 0.010340617151179529 -0.017605359778419427 0 0.015842281931302854 8.4025283321263934e-05 0 0.013271910694058909 0.00095023630972050643 0 0.012617059895629699 0.0044624217165460476 0 0.01130141624603071 -0.015056143784143704 0 0.013700051899210303 -0.0090920915084968263 0 0.013700051899210303 -0.0090920915084968263 0 0.0064074498180640626 -0.011652771259168065 0 0.013489386578338628 -0.0010917766807722489 0 0.015842281931302854 8.4025283321263934e-05 0 0.013271910694058909 0.00095023630972050643 0 0.013271910694058909 0.00095023630972050643 0 0.011125476377191754 0.0001989580575592981 0 0.012617059895629699 0.0044624217165460476 0 0.013489386578338628 -0.0010917766807722489 0 0.013271910694058909 0.00095023630972050643 0 0.011125476377191754 0.0001989580575592981 0 0.011125476377191754 0.0001989580575592981 0 0.012617059895629699 0.0044624217165460476 0 0.0093774541008311181 0.0042052110243229017 0 0.0057349912012747374 -0.001821858762334062 0 0.011125476377191754 0.0001989580575592981 0 0.0071397377663148303 0.0019773444481459312 0 0.0083188671942831475 0.0062147088520326018 0 0.0071397377663148303 0.0019773444481459312 0 0.0034214850328319756 0.0033725019447129701 0 0.00095640167159422409 -0.0025626276545810539 0 -0.0015337316539926081 -0.0037951654379558596 0 0.011125476377191754 0.0001989580575592981 0 0.0083188671942831475 0.0062147088520326018 0 0.0071397377663148303 0.0019773444481459312 0 -0.00018961021319917795 -0.0010864248678011882 0 0.0057349912012747374 -0.001821858762334062 0 0.0034214850328319756 0.0033725019447129701 0 0.0057349912012747374 -0.001821858762334062 0 0.0071397377663148303 0.0019773444481459312 0 0.0034214850328319756 0.0033725019447129701 0 -0.00018961021319917795 -0.0010864248678011882 0 0.0034214850328319756 0.0033725019447129701 0 -0.0022838859954306462 0.0037444704954969887 0 -0.0022838859954306462 0.0037444704954969887 0 0.00090814636027859762 0.0065301840985310545 0 -0.001585686353451914 0.010956046993965754 0 -0.0090107336706544468 -0.0073363856518562564 0 -0.016427469336618997 -0.023920971603292346 0 0.0034214850328319756 0.0033725019447129701 0 -0.0022838859954306462 0.0037444704954969887 0 0.00090814636027859762 0.0065301840985310545 0 0.0083188671942831475 0.0062147088520326018 0 0.0034214850328319756 0.0033725019447129701 0 0.0041346389403335579 0.0079462045139426004 0 0.0034214850328319756 0.0033725019447129701 0 0.00090814636027859762 0.0065301840985310545 0 0.0041346389403335579 0.0079462045139426004 0 0.0041346389403335579 0.0079462045139426004 0 0.0054981644722319669 0.012169899465383719 0 -0.001585686353451914 0.010956046993965754 0 -0.0057930914534114761 -0.018001814000006507 0 -0.016427469336618997 -0.023920971603292346 0 0.0083188671942831475 0.0062147088520326018 0 0.0041346389403335579 0.0079462045139426004 0 0.0054981644722319669 0.012169899465383719 0 0.00090814636027859762 0.0065301840985310545 0 0.0041346389403335579 0.0079462045139426004 0 -0.001585686353451914 0.010956046993965754 0 -0.016427469336618997 -0.023920971603292346 0 -0.017267988967880794 -0.029351395026114856 0 -0.015610197776404716 -0.022771050293878797 0 -0.012366164410254746 -0.02221345840425153 0 -0.013210904975029129 -0.024319042347276144 0 -0.025063372873693236 -0.040022791067549184 0 -0.016427469336618997 -0.023920971603292346 0 -0.021698618613123152 -0.035249594071242736 0 -0.021039764457494527 -0.026901923598425668 0 -0.023212183697799156 -0.03226777536921626 0 -0.015610197776404716 -0.022771050293878797 0 -0.013210904975029129 -0.024319042347276144 0 -0.014809208480964281 -0.024544311585570931 0 -0.010187269622011167 -0.027770153667501813 0 -0.0089283045281023602 -0.030542687632131169 0 -0.01209130612333199 -0.029278714092054115 0 -0.0057930914534114761 -0.018001814000006507 0 -0.011820242287242903 -0.026877266865886897 0 -0.011858702958577655 -0.033567064151283396 0 -0.01209130612333199 -0.029278714092054115 0 -0.013864894976618755 -0.028407889796860541 0 -0.0057930914534114761 -0.018001814000006507 0 -0.00176115506608878 -0.021571683018196623 0 -0.010187269622011167 -0.027770153667501813 0 -0.01209130612333199 -0.029278714092054115 0 -0.012765799094218629 -0.028216112352020855 0 -0.01209130612333199 -0.029278714092054115 0 -0.012760893185997066 -0.028220427540738342 0 -0.013864894976618755 -0.028407889796860541 0 -0.00176115506608878 -0.021571683018196623 0 -0.0026263962625769368 -0.025377945863146088 0 -0.0019257036839970803 -0.021713641148858931 0 -0.00176115506608878 -0.021571683018196623 0 0.00010926720786925978 -0.031324692644460493 0 -0.0026263962625769368 -0.025377945863146088 0 -0.0085137977280289392 -0.041227468502264504 0 -0.0089584886641916727 -0.040714132270138328 0 -0.008235523864935335 -0.0405684960282914 0 0.0099803947063809278 -0.017989690687836693 0 0.0097878875765874448 -0.018000473420607861 0 0.0099023067713753243 -0.018066297809598085 0 0.0097267115542589485 -0.018018105814033587 0 0.0097793588855864862 -0.018005516668120197 0 0.009815815966729223 -0.018053026384346024 0 0.0099043308392397379 -0.018171210830514629 0 0.009815815966729223 -0.018053026384346024 0 0.0099023067713753243 -0.018066297809598085 0 0.0097878875765874448 -0.018000473420607861 0 0.009815815966729223 -0.018053026384346024 0 0.0099023067713753243 -0.018066297809598085 0 0.0099043308392397379 -0.018171210830514629 0 0.0097267115542589485 -0.018018105814033587 0 0.009815815966729223 -0.018053026384346024 0 -0.0026263962625769368 -0.025377945863146088 0 -0.0024243113257058514 -0.025115940831593648 0 0.0064074498180640626 -0.011652771259168065 0 -0.00176115506608878 -0.021571683018196623 0 -0.0015337316539926081 -0.0037951654379558596 0 -0.0057930914534114761 -0.018001814000006507 0 0.0093774541008311181 0.0042052110243229017 0 0.0075965323332279752 0.0079560627081159789 0 0.0098763784495207018 0.0083720798967807705 0 0.012617059895629699 0.0044624217165460476 0 0.0093774541008311181 0.0042052110243229017 0 0.0098763784495207018 0.0083720798967807705 0 -0.078847966518348897 -0.013865739166799661 0 -0.074999793564014164 -0.014804811934132049 0 -0.078539825039704275 -0.018448118187486848 0 -0.074999793564014164 -0.014804811934132049 0 -0.078539825039704275 -0.018448118187486848 0 -0.074999910623516505 -0.019309551804738159 0 -0.076778626931456914 -0.018317925287146524 0 -0.076812395306533027 -0.014963031071710386 0 -0.078847966518348897 -0.013865739166799661 0 -0.078539825039704275 -0.018448118187486848 0 -0.081609730890799398 -0.016891861958550702 0 -0.076778626931456914 -0.018317925287146524 0 -0.076248501451586584 -0.020372992921366156 0 -0.076740918010838641 -0.014785993945095693 0 -0.074387689683275249 -0.015780237297927081 0 -0.073671378758170133 -0.015223164181847118 0 -0.076812395306533027 -0.014963031071710386 0 -0.075330331062938738 -0.011368777432560342 0 -0.074387689683275249 -0.015780237297927081 0 -0.073671378758170133 -0.015223164181847118 0 -0.072030915287412386 -0.016769592986520011 0 -0.081609730890799398 -0.016891861958550702 0 -0.082253103178444475 -0.013965511642977449 0 -0.084859979773848696 -0.015372113090623795 0 -0.078847966518348897 -0.013865739166799661 0 -0.081609730890799398 -0.016891861958550702 0 -0.082253103178444475 -0.013965511642977449 0 -0.078847966518348897 -0.013865739166799661 0 -0.081888724736881205 -0.010728671726145576 0 -0.079122996157632158 -0.0096393597968002873 0 -0.078847966518348897 -0.013865739166799661 0 -0.082253103178444475 -0.013965511642977449 0 -0.081888724736881205 -0.010728671726145576 0 -0.082253103178444475 -0.013965511642977449 0 -0.081888724736881205 -0.010728671726145576 0 -0.08578120189139439 -0.012105114716160914 0 -0.083286291156804776 -0.0076488331754481125 0 -0.08282500805535141 -0.0065294609667988441 0 -0.081888724736881205 -0.010728671726145576 0 -0.082993070497051097 -0.0075910896162202221 0 -0.084548406942727153 -0.0086205036933826116 0 -0.081888724736881205 -0.010728671726145576 0 -0.079122996157632158 -0.0096393597968002873 0 -0.081085920311067969 -0.007255774192828396 0 -0.078847966518348897 -0.013865739166799661 0 -0.079122996157632158 -0.0096393597968002873 0 -0.074999853352318124 -0.010299850840711292 0 -0.078847966518348897 -0.013865739166799661 0 -0.074999793564014164 -0.014804811934132049 0 -0.074999853352318124 -0.010299850840711292 0 -0.074999853352318124 -0.010299850840711292 0 -0.078467174531467704 -0.00636761877289447 0 -0.074999953690097251 -0.0057952621607914555 0 -0.079122996157632158 -0.0096393597968002873 0 -0.074999853352318124 -0.010299850840711292 0 -0.078467174531467704 -0.00636761877289447 0 -0.074999953690097251 -0.0057952621607914555 0 -0.078114568252850222 -0.001525075336711841 0 -0.074999871620237121 -0.0012908277260607166 0 -0.078467174531467704 -0.00636761877289447 0 -0.074999953690097251 -0.0057952621607914555 0 -0.078114568252850222 -0.001525075336711841 0 -0.078467174531467704 -0.00636761877289447 0 -0.078114568252850222 -0.001525075336711841 0 -0.081107025915673897 -0.0042551151753113855 0 -0.084382537780885142 -0.00021545554890223964 0 -0.081790083275597864 -0.0012731286240781135 0 -0.084211742843795387 -0.0018756309489761241 0 -0.081790083275597864 -0.0012731286240781135 0 -0.08305221551388553 -0.0035388120106296028 0 -0.084211742843795387 -0.0018756309489761241 0 -0.079879593040550589 0.00068775988032946809 0 -0.078114568252850222 -0.001525075336711841 0 -0.081790083275597864 -0.0012731286240781135 0 -0.078114568252850222 -0.001525075336711841 0 -0.081790083275597864 -0.0012731286240781135 0 -0.081107025915673897 -0.0042551151753113855 0 -0.081107025915673897 -0.0042551151753113855 0 -0.08305221551388553 -0.0035388120106296028 0 -0.082864301352380473 -0.0054380293246605611 0 -0.081790083275597864 -0.0012731286240781135 0 -0.081107025915673897 -0.0042551151753113855 0 -0.08305221551388553 -0.0035388120106296028 0 -0.081107025915673897 -0.0042551151753113855 0 -0.082864301352380473 -0.0054380293246605611 0 -0.081085920311067969 -0.007255774192828396 0 -0.078467174531467704 -0.00636761877289447 0 -0.081107025915673897 -0.0042551151753113855 0 -0.081085920311067969 -0.007255774192828396 0 -0.079122996157632158 -0.0096393597968002873 0 -0.078467174531467704 -0.00636761877289447 0 -0.081085920311067969 -0.007255774192828396 0 -0.082864301352380473 -0.0054380293246605611 0 -0.081085920311067969 -0.007255774192828396 0 -0.082993070497051097 -0.0075910896162202221 0 -0.081888724736881205 -0.010728671726145576 0 -0.081085920311067969 -0.007255774192828396 0 -0.082993070497051097 -0.0075910896162202221 0 -0.082993070497051097 -0.0075910896162202221 0 -0.084485015493396556 -0.0058822375877030202 0 -0.084548406942727153 -0.0086205036933826116 0 -0.085709820454824864 -0.0070394328543581146 0 -0.086432814728794369 -0.0084320643579977803 0 -0.084548406942727153 -0.0086205036933826116 0 -0.085709820454824864 -0.0070394328543581146 0 -0.084485015493396556 -0.0058822375877030202 0 -0.086299744789395186 -0.0054760953508625632 0 -0.085709820454824864 -0.0070394328543581146 0 -0.084485015493396556 -0.0058822375877030202 0 -0.084548406942727153 -0.0086205036933826116 0 -0.085709820454824864 -0.0070394328543581146 0 -0.086778975426096902 -0.0067776325019311733 0 -0.086432814728794369 -0.0084320643579977803 0 -0.085709820454824864 -0.0070394328543581146 0 -0.086299744789395186 -0.0054760953508625632 0 -0.086778975426096902 -0.0067776325019311733 0 -0.08555041828349591 -0.0040316596990824377 0 -0.084485015493396556 -0.0058822375877030202 0 -0.086299744789395186 -0.0054760953508625632 0 -0.08555041828349591 -0.0040316596990824377 0 -0.084485015493396556 -0.0058822375877030202 0 -0.084321668841416855 -0.0039571087490157461 0 -0.082864301352380473 -0.0054380293246605611 0 -0.082993070497051097 -0.0075910896162202221 0 -0.084485015493396556 -0.0058822375877030202 0 -0.082864301352380473 -0.0054380293246605611 0 -0.084485015493396556 -0.0058822375877030202 0 -0.084321668841416855 -0.0039571087490157461 0 -0.08305221551388553 -0.0035388120106296028 0 -0.082864301352380473 -0.0054380293246605611 0 -0.084321668841416855 -0.0039571087490157461 0 -0.08305221551388553 -0.0035388120106296028 0 -0.084321668841416855 -0.0039571087490157461 0 -0.084211742843795387 -0.0018756309489761241 0 -0.084321668841416855 -0.0039571087490157461 0 -0.085224375666134236 -0.0026367303491857236 0 -0.084211742843795387 -0.0018756309489761241 0 -0.08555041828349591 -0.0040316596990824377 0 -0.084321668841416855 -0.0039571087490157461 0 -0.085224375666134236 -0.0026367303491857236 0 -0.08555041828349591 -0.0040316596990824377 0 -0.085224375666134236 -0.0026367303491857236 0 -0.086131682545257784 -0.0025913323535930555 0 -0.085224375666134236 -0.0026367303491857236 0 -0.085680434075369918 -0.0011882522597638178 0 -0.086131682545257784 -0.0025913323535930555 0 -0.085224375666134236 -0.0026367303491857236 0 -0.085680434075369918 -0.0011882522597638178 0 -0.084211742843795387 -0.0018756309489761241 0 -0.084382537780885142 -0.00021545554890223964 0 -0.085680434075369918 -0.0011882522597638178 0 -0.084211742843795387 -0.0018756309489761241 0 -0.085360012261607304 -0.0017233499512602313 0 -0.08211635682052032 -3.2534496687739647e-05 0 -0.086022840029980285 -0.00049329512052697679 0 -0.08211635682052032 -3.2534496687739647e-05 0 -0.086022840029980285 -0.00049329512052697679 0 -0.082277509254220726 0.0026706292448107852 0 -0.08211635682052032 -3.2534496687739647e-05 0 -0.082277509254220726 0.0026706292448107852 0 -0.079857358212742563 0.0023989766364104436 0 -0.085360012261607304 -0.0017233499512602313 0 -0.085680434075369918 -0.0011882522597638178 0 -0.086022840029980285 -0.00049329512052697679 0 -0.085680434075369918 -0.0011882522597638178 0 -0.086022840029980285 -0.00049329512052697679 0 -0.086131682545257784 -0.0025913323535930555 0 -0.086022840029980285 -0.00049329512052697679 0 -0.086131682545257784 -0.0025913323535930555 0 -0.087404735162294273 -0.0033084514302229267 0 -0.08555041828349591 -0.0040316596990824377 0 -0.086131682545257784 -0.0025913323535930555 0 -0.087073767617351291 -0.0044056368436771126 0 -0.086131682545257784 -0.0025913323535930555 0 -0.087404735162294273 -0.0033084514302229267 0 -0.087073767617351291 -0.0044056368436771126 0 -0.086022840029980285 -0.00049329512052697679 0 -0.087404735162294273 -0.0033084514302229267 0 -0.089135553206766402 -0.0041953946713408265 0 -0.082277509254220726 0.0026706292448107852 0 -0.084276373469322249 0.0076416302903016377 0 -0.079908879037542374 0.0047157765141700083 0 -0.086022840029980285 -0.00049329512052697679 0 -0.082277509254220726 0.0026706292448107852 0 -0.084276373469322249 0.0076416302903016377 0 -0.079769040126471444 -0.0012203697826265467 0 -0.076763188619983491 0.00012000766515431771 0 -0.087404735162294273 -0.0033084514302229267 0 -0.08865421065598475 -0.0041397863255431024 0 -0.089135553206766402 -0.0041953946713408265 0 -0.087404735162294273 -0.0033084514302229267 0 -0.08865421065598475 -0.0041397863255431024 0 -0.087771403852790392 -0.0041273763543244581 0 -0.088996005219583021 -0.0042376904190208255 0 -0.088314957796665094 -0.0051947268664681882 0 -0.090116839415018954 -0.0070646294449318095 0 -0.076763188619983491 0.00012000766515431771 0 -0.073346931693765771 0.0012816694709571125 0 -0.076897099042639167 8.6239701464084002e-05 0 -0.076763188619983491 0.00012000766515431771 0 -0.08865421065598475 -0.0041397863255431024 0 -0.088314957796665094 -0.0051947268664681882 0 -0.087771403852790392 -0.0041273763543244581 0 -0.08865421065598475 -0.0041397863255431024 0 -0.088996005219583021 -0.0042376904190208255 0 -0.088314957796665094 -0.0051947268664681882 0 -0.08555041828349591 -0.0040316596990824377 0 -0.087073767617351291 -0.0044056368436771126 0 -0.086299744789395186 -0.0054760953508625632 0 -0.088314957796665094 -0.0051947268664681882 0 -0.087073767617351291 -0.0044056368436771126 0 -0.087771403852790392 -0.0041273763543244581 0 -0.087404735162294273 -0.0033084514302229267 0 -0.087073767617351291 -0.0044056368436771126 0 -0.087771403852790392 -0.0041273763543244581 0 -0.088314957796665094 -0.0051947268664681882 0 -0.087073767617351291 -0.0044056368436771126 0 -0.087310860835751375 -0.0057059070708357119 0 -0.088314957796665094 -0.0051947268664681882 0 -0.087310860835751375 -0.0057059070708357119 0 -0.088164993416813872 -0.0066068406665701646 0 -0.087310860835751375 -0.0057059070708357119 0 -0.086299744789395186 -0.0054760953508625632 0 -0.086778975426096902 -0.0067776325019311733 0 -0.087073767617351291 -0.0044056368436771126 0 -0.087310860835751375 -0.0057059070708357119 0 -0.086299744789395186 -0.0054760953508625632 0 -0.086778975426096902 -0.0067776325019311733 0 -0.088375100721277536 -0.0083824025391791897 0 -0.086432814728794369 -0.0084320643579977803 0 -0.087310860835751375 -0.0057059070708357119 0 -0.086778975426096902 -0.0067776325019311733 0 -0.088164993416813872 -0.0066068406665701646 0 -0.086778975426096902 -0.0067776325019311733 0 -0.088164993416813872 -0.0066068406665701646 0 -0.088375100721277536 -0.0083824025391791897 0 -0.088164993416813872 -0.0066068406665701646 0 -0.088375100721277536 -0.0083824025391791897 0 -0.090116839415018954 -0.0070646294449318095 0 -0.088314957796665094 -0.0051947268664681882 0 -0.088164993416813872 -0.0066068406665701646 0 -0.090116839415018954 -0.0070646294449318095 0 -0.088375100721277536 -0.0083824025391791897 0 -0.089644855565739243 -0.0089066108019606304 0 -0.090116839415018954 -0.0070646294449318095 0 -0.088375100721277536 -0.0083824025391791897 0 -0.089644855565739243 -0.0089066108019606304 0 -0.08897174763248851 -0.010559833742287311 0 -0.088375100721277536 -0.0083824025391791897 0 -0.08897174763248851 -0.010559833742287311 0 -0.087381429449129674 -0.0098316056833857302 0 -0.058541381427587268 0.023620567178154125 0 -0.063326327522482212 0.025625048347607839 0 -0.056342970719391129 0.027910540197326281 0 -0.058541381427587268 0.023620567178154125 0 -0.056342970719391129 0.027910540197326281 0 -0.055184690176168893 0.024971302728899504 0 -0.07080121440653718 0.0057755076788180964 0 -0.07252271370167919 0.00015599438887151418 0 -0.08897174763248851 -0.010559833742287311 0 -0.086879005332825013 -0.011475903689456975 0 -0.087381429449129674 -0.0098316056833857302 0 -0.086879005332825013 -0.011475903689456975 0 -0.087381429449129674 -0.0098316056833857302 0 -0.085922465033646409 -0.0098726194361291146 0 -0.088375100721277536 -0.0083824025391791897 0 -0.087381429449129674 -0.0098316056833857302 0 -0.086432814728794369 -0.0084320643579977803 0 -0.087381429449129674 -0.0098316056833857302 0 -0.086432814728794369 -0.0084320643579977803 0 -0.085922465033646409 -0.0098726194361291146 0 -0.086432814728794369 -0.0084320643579977803 0 -0.085922465033646409 -0.0098726194361291146 0 -0.084548406942727153 -0.0086205036933826116 0 -0.085922465033646409 -0.0098726194361291146 0 -0.084548406942727153 -0.0086205036933826116 0 -0.084328051072381782 -0.01080301809303535 0 -0.081888724736881205 -0.010728671726145576 0 -0.084548406942727153 -0.0086205036933826116 0 -0.084328051072381782 -0.01080301809303535 0 -0.07252271370167919 0.00015599438887151418 0 -0.08282500805535141 -0.0065294609667988441 0 -0.086879005332825013 -0.011475903689456975 0 -0.085922465033646409 -0.0098726194361291146 0 -0.084328051072381782 -0.01080301809303535 0 -0.089362491678664432 -0.013273766620686599 0 -0.08578120189139439 -0.012105114716160914 0 -0.08809219548460033 -0.013826253851085707 0 -0.070641275485487751 -0.0063155106792579119 0 -0.075330331062938738 -0.011368777432560342 0 -0.069283474514104021 -0.022566475935967615 0 -0.071479368206968763 -0.017434416592147908 0 -0.065932374371457325 -0.018267734060691095 0 -0.069691327775568176 -0.017757423203353582 0 -0.072030915287412386 -0.016769592986520011 0 -0.070601964360107808 -0.015668406332115897 0 -0.070641275485487751 -0.0063155106792579119 0 -0.068795643504275361 -0.025480091752754876 0 -0.08578120189139439 -0.012105114716160914 0 -0.08809219548460033 -0.013826253851085707 0 -0.084859979773848696 -0.015372113090623795 0 -0.082253103178444475 -0.013965511642977449 0 -0.08578120189139439 -0.012105114716160914 0 -0.084859979773848696 -0.015372113090623795 0 -0.076248501451586584 -0.020372992921366156 0 -0.068795643504275361 -0.025480091752754876 0 -0.073671378758170133 -0.015223164181847118 0 -0.072030915287412386 -0.016769592986520011 0 -0.070601964360107808 -0.015668406332115897 0 -0.068795643504275361 -0.025480091752754876 0 -0.06383880381586951 -0.029278283731706257 0 -0.064947486752418876 -0.066189729777243828 0 -0.060045890362304351 -0.06302881971455418 0 -0.064461252788887438 -0.062213609701897023 0 -0.071395866660491164 -0.065612357026177862 0 -0.064947486752418876 -0.066189729777243828 0 -0.064461252788887438 -0.062213609701897023 0 -0.06383880381586951 -0.029278283731706257 0 -0.058444959200177587 -0.028062345579061149 0 -0.064947486752418876 -0.066189729777243828 0 -0.05896870639378065 -0.066336125927871081 0 -0.060045890362304351 -0.06302881971455418 0 -0.063564844802170062 0.025324788661398437 0 -0.05853322768812895 0.027824894798862302 0 -0.056342970719391129 0.027910540197326281 0 -0.065932374371457325 -0.018267734060691095 0 -0.060367267301820085 -0.01910969794783612 0 -0.062018569503944319 -0.021262240153468986 0 -0.07252271370167919 0.00015599438887151418 0 -0.0600982200289472 0.010178097159050627 0 -0.063564844802170062 0.025324788661398437 0 -0.065873130649060238 0.026216870958383057 0 -0.05853322768812895 0.027824894798862302 0 -0.070641275485487751 -0.0063155106792579119 0 -0.059598949160751868 -0.0089884681440238149 0 -0.069283474514104021 -0.022566475935967615 0 -0.065932374371457325 -0.018267734060691095 0 -0.062018569503944319 -0.021262240153468986 0 -0.07252271370167919 0.00015599438887151418 0 -0.070641275485487751 -0.0063155106792579119 0 -0.053573119878917365 -0.021037254871289955 0 -0.051690422147390482 -0.019420957568164369 0 -0.051391797318894615 0.029188786124688608 0 -0.049848916423016316 0.026759748314968277 0 -0.052059015882892135 0.02535056629117351 0 -0.052326378329287611 -0.019650925842944606 0 -0.051408867356350932 -0.019477657681081423 0 -0.050597154037791511 -0.01990049182945372 0 -0.051391797318894615 0.029188786124688608 0 -0.049848916423016316 0.026759748314968277 0 -0.047745760357542959 0.028495199640844505 0 -0.053573119878917365 -0.021037254871289955 0 -0.051038695745342692 -0.024071406142024115 0 -0.051038695745342692 -0.024071406142024115 0 -0.050551973351682933 -0.024783457531803284 0 -0.053642172943407028 -0.06633335688757358 0 -0.051483728579017347 -0.065794768165760603 0 -0.052661085970586184 -0.065208599157266636 0 -0.051391797318894615 0.029188786124688608 0 -0.053733049826672555 0.026867544864819345 0 -0.052059015882892135 0.02535056629117351 0 -0.058444959200177587 -0.028062345579061149 0 -0.053573119878917365 -0.021037254871289955 0 -0.060367267301820085 -0.01910969794783612 0 -0.062018569503944319 -0.021262240153468986 0 -0.054792510716758662 -0.019969434002112811 0 -0.051391797318894615 0.029188786124688608 0 -0.053733049826672555 0.026867544864819345 0 -0.056342970719391129 0.027910540197326281 0 -0.059598949160751868 -0.0089884681440238149 0 -0.053573119878917365 -0.021037254871289955 0 -0.05853322768812895 0.027824894798862302 0 -0.051391797318894615 0.029188786124688608 0 -0.056342970719391129 0.027910540197326281 0 -0.053733049826672555 0.026867544864819345 0 -0.056342970719391129 0.027910540197326281 0 -0.055184690176168893 0.024971302728899504 0 -0.060045890362304351 -0.06302881971455418 0 -0.055406499820163192 -0.063932241869085388 0 -0.05592738324490535 -0.060447282490605214 0 -0.05896870639378065 -0.066336125927871081 0 -0.053642172943407028 -0.06633335688757358 0 -0.055406499820163192 -0.063932241869085388 0 -0.05896870639378065 -0.066336125927871081 0 -0.060045890362304351 -0.06302881971455418 0 -0.055406499820163192 -0.063932241869085388 0 -0.055406499820163192 -0.063932241869085388 0 -0.052849880794930644 -0.062338980834421111 0 -0.05592738324490535 -0.060447282490605214 0 -0.053642172943407028 -0.06633335688757358 0 -0.055406499820163192 -0.063932241869085388 0 -0.052661085970586184 -0.065208599157266636 0 -0.055406499820163192 -0.063932241869085388 0 -0.052849880794930644 -0.062338980834421111 0 -0.052661085970586184 -0.065208599157266636 0 -0.05161845565119734 -0.065519294759690205 0 -0.052661085970586184 -0.065208599157266636 0 -0.05125566910071519 -0.063533872423403734 0 -0.052849880794930644 -0.062338980834421111 0 -0.052661085970586184 -0.065208599157266636 0 -0.05125566910071519 -0.063533872423403734 0 -0.052849880794930644 -0.062338980834421111 0 -0.05125566910071519 -0.063533872423403734 0 -0.050058033107019569 -0.061364596338900512 0 -0.05161845565119734 -0.065519294759690205 0 -0.049543125136843252 -0.063102338284133599 0 -0.04744463153653574 -0.063846643877642134 0 -0.051038695745342692 -0.024071406142024115 0 -0.048948231591742587 -0.032434597710140595 0 -0.05125566910071519 -0.063533872423403734 0 -0.049543125136843252 -0.063102338284133599 0 -0.050058033107019569 -0.061364596338900512 0 -0.049543125136843252 -0.063102338284133599 0 -0.047410514433416637 -0.061332212967933938 0 -0.050058033107019569 -0.061364596338900512 0 -0.049543125136843252 -0.063102338284133599 0 -0.047410514433416637 -0.061332212967933938 0 -0.04744463153653574 -0.063846643877642134 0 -0.05161845565119734 -0.065519294759690205 0 -0.05125566910071519 -0.063533872423403734 0 -0.049543125136843252 -0.063102338284133599 0 -0.048948231591742587 -0.032434597710140595 0 -0.047114864206262951 -0.037371939561718914 0 -0.046618431084023707 -0.020838629900869484 0 -0.045588251143974218 -0.021090584788272634 0 -0.044203546211019171 -0.02039477729481079 0 -0.044943802292140435 -0.061096328445898351 0 -0.04744463153653574 -0.063846643877642134 0 -0.043584272571252011 -0.061860036158995373 0 -0.044943802292140435 -0.061096328445898351 0 -0.047410514433416637 -0.061332212967933938 0 -0.045582663552395125 -0.060116659935650706 0 -0.044943802292140435 -0.061096328445898351 0 -0.047410514433416637 -0.061332212967933938 0 -0.04744463153653574 -0.063846643877642134 0 -0.051690422147390482 -0.019420957568164369 0 -0.047682735909882014 -0.0099768961275671659 0 -0.047935063386095038 -0.021715181671936153 0 -0.046840885926577508 -0.021850610789401263 0 -0.045013395633632013 -0.023125394782711365 0 -0.045843585683860967 -0.021818079808453735 0 -0.046840885926577508 -0.021850610789401263 0 -0.045013395633632013 -0.023125394782711365 0 -0.045588251143974218 -0.021090584788272634 0 -0.045843585683860967 -0.021818079808453735 0 -0.045196498284702513 -0.022107991434668094 0 -0.045588251143974218 -0.021090584788272634 0 -0.045196498284702513 -0.022107991434668094 0 -0.044203274551312871 -0.022384419975282704 0 -0.046618431084023707 -0.020838629900869484 0 -0.045588251143974218 -0.021090584788272634 0 -0.045843585683860967 -0.021818079808453735 0 -0.046618431084023707 -0.020838629900869484 0 -0.045843585683860967 -0.021818079808453735 0 -0.046840885926577508 -0.021850610789401263 0 -0.045843585683860967 -0.021818079808453735 0 -0.045196498284702513 -0.022107991434668094 0 -0.045013395633632013 -0.023125394782711365 0 -0.049848916423016316 0.026759748314968277 0 -0.047745760357542959 0.028495199640844505 0 -0.04808826214167411 0.024595425537102141 0 -0.048804243109755445 -0.021246223089393518 0 -0.046618431084023707 -0.020838629900869484 0 -0.047957128481115309 -0.021688664814286107 0 -0.051038695745342692 -0.024071406142024115 0 -0.051690422147390482 -0.019420957568164369 0 -0.046618431084023707 -0.020838629900869484 0 -0.047957128481115309 -0.021688664814286107 0 -0.046840885926577508 -0.021850610789401263 0 -0.051690422147390482 -0.019420957568164369 0 -0.05101399187788544 -0.019590665149961915 0 -0.047745760357542959 0.028495199640844505 0 -0.04808826214167411 0.024595425537102141 0 -0.04202587095706601 0.025665727067814309 0 -0.04808826214167411 0.024595425537102141 0 -0.04202587095706601 0.025665727067814309 0 -0.044940833147493642 0.022209859021072691 0 -0.044940833147493642 0.022209859021072691 0 -0.044535830432849192 0.019099904512367875 0 -0.041160414836767731 0.020842953318447304 0 -0.04202587095706601 0.025665727067814309 0 -0.044940833147493642 0.022209859021072691 0 -0.041160414836767731 0.020842953318447304 0 -0.057630171610696647 0.011035171266974045 0 -0.052397842630561381 0.010978275820320415 0 -0.04808826214167411 0.024595425537102141 0 -0.044940833147493642 0.022209859021072691 0 -0.048892762107010532 0.020784363494165306 0 -0.044940833147493642 0.022209859021072691 0 -0.048892762107010532 0.020784363494165306 0 -0.044535830432849192 0.019099904512367875 0 -0.048892762107010532 0.020784363494165306 0 -0.050504176886628706 0.02359114579174838 0 -0.053208556385530799 0.022519287145799691 0 -0.057630171610696647 0.011035171266974045 0 -0.06430319576293983 0.0095005482239009422 0 -0.061696743623425782 0.010126294698427086 0 -0.066304822313676251 0.012121427778576062 0 -0.064722923208254485 0.0080226025163335699 0 -0.04808826214167411 0.024595425537102141 0 -0.048892762107010532 0.020784363494165306 0 -0.050504176886628706 0.02359114579174838 0 -0.050504176886628706 0.02359114579174838 0 -0.052059015882892135 0.02535056629117351 0 -0.053208556385530799 0.022519287145799691 0 -0.049848916423016316 0.026759748314968277 0 -0.050504176886628706 0.02359114579174838 0 -0.052059015882892135 0.02535056629117351 0 -0.049848916423016316 0.026759748314968277 0 -0.04808826214167411 0.024595425537102141 0 -0.050504176886628706 0.02359114579174838 0 -0.058541381427587268 0.023620567178154125 0 -0.055184690176168893 0.024971302728899504 0 -0.053683428740952485 0.021511497935752424 0 -0.07080121440653718 0.0057755076788180964 0 -0.06430319576293983 0.0095005482239009422 0 -0.053733049826672555 0.026867544864819345 0 -0.052059015882892135 0.02535056629117351 0 -0.055184690176168893 0.024971302728899504 0 -0.052059015882892135 0.02535056629117351 0 -0.055184690176168893 0.024971302728899504 0 -0.053683428740952485 0.021511497935752424 0 -0.061779893968132361 0.014275118183113403 0 -0.06430319576293983 0.0095005482239009422 0 -0.066304822313676251 0.012121427778576062 0 -0.068462917573644158 0.0071411217580673548 0 -0.064722923208254485 0.0080226025163335699 0 -0.089644855565739243 -0.0089066108019606304 0 -0.08897174763248851 -0.010559833742287311 0 -0.091121856516165639 -0.0095934104866285397 0 -0.089644855565739243 -0.0089066108019606304 0 -0.091121856516165639 -0.0095934104866285397 0 -0.090116839415018954 -0.0070646294449318095 0 -0.06430319576293983 0.0095005482239009422 0 -0.073346931693765771 0.0012816694709571125 0 -0.068462917573644158 0.0071411217580673548 0 -0.064722923208254485 0.0080226025163335699 0 -0.064565343597222588 0.0034744501747812954 0 -0.061696743623425782 0.010126294698427086 0 -0.064722923208254485 0.0080226025163335699 0 -0.062011272051724041 0.0063262824384848048 0 -0.064722923208254485 0.0080226025163335699 0 -0.062011272051724041 0.0063262824384848048 0 -0.064565343597222588 0.0034744501747812954 0 -0.073802349800860881 0.010759250128204076 0 -0.077258010620631201 0.0070621875556812104 0 -0.06112557828527778 0.0033575238267221363 0 -0.062011272051724041 0.0063262824384848048 0 -0.064565343597222588 0.0034744501747812954 0 -0.058504110457593579 0.0048013264144903802 0 -0.084276373469322249 0.0076416302903016377 0 -0.073802349800860881 0.010759250128204076 0 -0.077258010620631201 0.0070621875556812104 0 -0.070628075017654696 0.0021481991691193942 0 -0.068462917573644158 0.0071411217580673548 0 -0.064565343597222588 0.0034744501747812954 0 -0.076763188619983491 0.00012000766515431771 0 -0.06794239782581972 0.0047638938638695488 0 -0.084276373469322249 0.0076416302903016377 0 -0.077258010620631201 0.0070621875556812104 0 -0.079908879037542374 0.0047157765141700083 0 -0.082277509254220726 0.0026706292448107852 0 -0.079908879037542374 0.0047157765141700083 0 -0.079857358212742563 0.0023989766364104436 0 -0.079908879037542374 0.0047157765141700083 0 -0.077675072594325545 0.0036725477375077024 0 -0.079857358212742563 0.0023989766364104436 0 -0.077258010620631201 0.0070621875556812104 0 -0.077675072594325545 0.0036725477375077024 0 -0.074983917093743718 0.0037884239791504438 0 -0.077258010620631201 0.0070621875556812104 0 -0.079908879037542374 0.0047157765141700083 0 -0.077675072594325545 0.0036725477375077024 0 -0.071111921191451988 0.0067605564956498493 0 -0.064656385625131443 0.0059403541906004617 0 -0.077258010620631201 0.0070621875556812104 0 -0.074983917093743718 0.0037884239791504438 0 -0.071786921250479294 0.0047438258111152237 0 -0.077675072594325545 0.0036725477375077024 0 -0.074983917093743718 0.0037884239791504438 0 -0.075857263756953022 0.001973801048225721 0 -0.075857263756953022 0.001973801048225721 0 -0.075822270072629316 0.00015162138933210004 0 -0.077850797656175114 0.00075638729650279266 0 -0.073862454503333536 -0.0011931732658462028 0 -0.073470868214201221 0.0013303839707168954 0 -0.075822270072629316 0.00015162138933210004 0 -0.075857263756953022 0.001973801048225721 0 -0.073470868214201221 0.0013303839707168954 0 -0.075822270072629316 0.00015162138933210004 0 -0.074983917093743718 0.0037884239791504438 0 -0.075857263756953022 0.001973801048225721 0 -0.073470868214201221 0.0013303839707168954 0 -0.078172049592070872 -0.0018763157136180385 0 -0.075822270072629316 0.00015162138933210004 0 -0.077850797656175114 0.00075638729650279266 0 -0.082615752411930338 -0.0024023424598720133 0 -0.08211635682052032 -3.2534496687739647e-05 0 -0.077850797656175114 0.00075638729650279266 0 -0.08211635682052032 -3.2534496687739647e-05 0 -0.077850797656175114 0.00075638729650279266 0 -0.079857358212742563 0.0023989766364104436 0 -0.077675072594325545 0.0036725477375077024 0 -0.077850797656175114 0.00075638729650279266 0 -0.079857358212742563 0.0023989766364104436 0 -0.077675072594325545 0.0036725477375077024 0 -0.075857263756953022 0.001973801048225721 0 -0.077850797656175114 0.00075638729650279266 0 -0.067006603465414816 -0.0016780141298781098 0 -0.069909683330299219 0.001750759480280819 0 -0.066698445003732842 0.003664304881700883 0 -0.072234753100267474 -0.00096534610689074372 0 -0.073470868214201221 0.0013303839707168954 0 -0.069909683330299219 0.001750759480280819 0 -0.073470868214201221 0.0013303839707168954 0 -0.069909683330299219 0.001750759480280819 0 -0.071786921250479294 0.0047438258111152237 0 -0.074983917093743718 0.0037884239791504438 0 -0.073470868214201221 0.0013303839707168954 0 -0.071786921250479294 0.0047438258111152237 0 -0.064656385625131443 0.0059403541906004617 0 -0.050152013118496992 0.0051273717575735173 0 -0.06112557828527778 0.0033575238267221363 0 -0.049678737484902279 0.0088366107447421533 0 -0.044111554228645766 0.00049596324957793642 0 -0.069909683330299219 0.001750759480280819 0 -0.071786921250479294 0.0047438258111152237 0 -0.066698445003732842 0.003664304881700883 0 -0.049678737484902279 0.0088366107447421533 0 -0.058295208129312964 0.014462569926213302 0 -0.043138374490469665 0.017079283596890697 0 -0.06112557828527778 0.0033575238267221363 0 -0.049678737484902279 0.0088366107447421533 0 -0.058295208129312964 0.014462569926213302 0 -0.073802349800860881 0.010759250128204076 0 -0.06112557828527778 0.0033575238267221363 0 -0.058295208129312964 0.014462569926213302 0 -0.06794239782581972 0.0047638938638695488 0 -0.05818924388984701 0.0079658336821360025 0 -0.061696743623425782 0.010126294698427086 0 -0.062011272051724041 0.0063262824384848048 0 -0.057068808180088228 0.0081335190273279546 0 -0.062011272051724041 0.0063262824384848048 0 -0.058504110457593579 0.0048013264144903802 0 -0.057068808180088228 0.0081335190273279546 0 -0.05818924388984701 0.0079658336821360025 0 -0.048438938766001818 0.010129575209258307 0 -0.058504110457593579 0.0048013264144903802 0 -0.057068808180088228 0.0081335190273279546 0 -0.052430488432634779 0.0061340503054516929 0 -0.052397842630561381 0.010978275820320415 0 -0.048438938766001818 0.010129575209258307 0 -0.044535830432849192 0.019099904512367875 0 -0.040192609851327915 0.017068340704050097 0 -0.041160414836767731 0.020842953318447304 0 -0.039481811009152705 0.019215297129040899 0 -0.040192609851327915 0.017068340704050097 0 -0.041160414836767731 0.020842953318447304 0 -0.039486747848271185 0.015001603719230393 0 -0.042310188843058455 0.01622550231992366 0 -0.038115199209189495 0.016938087694363856 0 -0.039481811009152705 0.019215297129040899 0 -0.040192609851327915 0.017068340704050097 0 -0.038115199209189495 0.016938087694363856 0 -0.048438938766001818 0.010129575209258307 0 -0.047085307514752019 0.010590293278608666 0 -0.048036910652346596 0.010135436160434464 0 -0.048438938766001818 0.010129575209258307 0 -0.038115199209189495 0.016938087694363856 0 -0.033418022977321014 0.010141527144796348 0 -0.037245053991863349 0.020819925649337816 0 -0.034663157179633516 0.021426754799065074 0 -0.03532935491882476 0.021009405763424065 0 -0.037245053991863349 0.020819925649337816 0 -0.035409705200360984 0.016015171835200709 0 -0.03624038881753483 0.018483300851986562 0 -0.03532935491882476 0.021009405763424065 0 -0.035421866275522566 0.020790410797204339 0 -0.037245053991863349 0.020819925649337816 0 -0.039481811009152705 0.019215297129040899 0 -0.038115199209189495 0.016938087694363856 0 -0.037245053991863349 0.020819925649337816 0 -0.039486747848271185 0.015001603719230393 0 -0.039096158158849724 0.0096272165972176998 0 -0.033418022977321014 0.010141527144796348 0 -0.039486747848271185 0.015001603719230393 0 -0.038115199209189495 0.016938087694363856 0 -0.033418022977321014 0.010141527144796348 0 -0.039096158158849724 0.0096272165972176998 0 -0.033418022977321014 0.010141527144796348 0 -0.039428858233823937 0.0057017079730541185 0 -0.049678737484902279 0.0088366107447421533 0 -0.043138374490469665 0.017079283596890697 0 -0.043127664825749222 0.01130769008077428 0 -0.039486747848271185 0.015001603719230393 0 -0.043138374490469665 0.017079283596890697 0 -0.043127664825749222 0.01130769008077428 0 -0.039486747848271185 0.015001603719230393 0 -0.039096158158849724 0.0096272165972176998 0 -0.043127664825749222 0.01130769008077428 0 -0.039096158158849724 0.0096272165972176998 0 -0.043127664825749222 0.01130769008077428 0 -0.043756668297801407 0.0057101153556177496 0 -0.049678737484902279 0.0088366107447421533 0 -0.043127664825749222 0.01130769008077428 0 -0.043756668297801407 0.0057101153556177496 0 -0.049678737484902279 0.0088366107447421533 0 -0.043756668297801407 0.0057101153556177496 0 -0.044111554228645766 0.00049596324957793642 0 -0.04996232840703816 0.0050687405806799897 0 -0.050152013118496992 0.0051273717575735173 0 -0.04389910616921737 0.0020720538044081125 0 -0.039428858233823937 0.0057017079730541185 0 -0.037133740746504988 0.0010835161941183174 0 -0.050152013118496992 0.0051273717575735173 0 -0.042213994365542074 0.0032460134217399792 0 -0.039096158158849724 0.0096272165972176998 0 -0.043756668297801407 0.0057101153556177496 0 -0.039428858233823937 0.0057017079730541185 0 -0.043756668297801407 0.0057101153556177496 0 -0.04389910616921737 0.0020720538044081125 0 -0.039428858233823937 0.0057017079730541185 0 -0.033418022977321014 0.010141527144796348 0 -0.037133740746504988 0.0010835161941183174 0 -0.03068778284290901 5.5943374614169325e-05 0 -0.033418022977321014 0.010141527144796348 0 -0.039428858233823937 0.0057017079730541185 0 -0.037133740746504988 0.0010835161941183174 0 -0.035739541760008812 0.00099714116204847793 0 -0.031871075266093833 -0.0022158734429995868 0 -0.03068778284290901 5.5943374614169325e-05 0 -0.042213994365542074 0.0032460134217399792 0 -0.039295163465994418 0.0025770317821834973 0 -0.035739541760008812 0.00099714116204847793 0 -0.033969858503267489 -0.0038971628541970174 0 -0.031871075266093833 -0.0022158734429995868 0 -0.035739541760008812 0.00099714116204847793 0 -0.033969858503267489 -0.0038971628541970174 0 -0.037633745564246368 -0.0033939469854388205 0 -0.040783837432561545 0.0020140522704541783 0 -0.035739541760008812 0.00099714116204847793 0 -0.037633745564246368 -0.0033939469854388205 0 -0.051054847732705667 0.0069955150656734171 0 -0.050152013118496992 0.0051273717575735173 0 -0.041406638300553925 -0.0077392742304124972 0 -0.040783837432561545 0.0020140522704541783 0 -0.037633745564246368 -0.0033939469854388205 0 -0.037080875676924585 0.024398341156807044 0 -0.036958835373263534 0.025911198293867149 0 -0.035192640921366793 0.022500784748908018 0 -0.036958835373263534 0.025911198293867149 0 -0.035549952156791138 0.024682806998883793 0 -0.035901951629690627 0.022763868024954569 0 -0.038248820399899734 0.022670528072073055 0 -0.038017950622912008 0.020193220040311228 0 -0.035549952156791138 0.024682806998883793 0 -0.03512015046522534 0.02551020859305491 0 -0.034983516694353289 0.024568762154187084 0 -0.036958835373263534 0.025911198293867149 0 -0.035549952156791138 0.024682806998883793 0 -0.035629739596321576 0.026151959820841623 0 -0.035549952156791138 0.024682806998883793 0 -0.035629739596321576 0.026151959820841623 0 -0.03512015046522534 0.02551020859305491 0 -0.035168370531788999 0.026474304346430774 0 -0.035629739596321576 0.026151959820841623 0 -0.03512015046522534 0.02551020859305491 0 -0.035168370531788999 0.026474304346430774 0 -0.03512015046522534 0.02551020859305491 0 -0.034279508206728301 0.024886601924814691 0 -0.031140259295695982 -0.0051347700416081322 0 -0.031871075266093833 -0.0022158734429995868 0 -0.029549963831430135 -0.001188814608179313 0 -0.031140259295695982 -0.0051347700416081322 0 -0.033969858503267489 -0.0038971628541970174 0 -0.031871075266093833 -0.0022158734429995868 0 -0.031871075266093833 -0.0022158734429995868 0 -0.03068778284290901 5.5943374614169325e-05 0 -0.029549963831430135 -0.001188814608179313 0 -0.034279508206728301 0.024886601924814691 0 -0.034983516694353289 0.024568762154187084 0 -0.03507506157384245 0.023382311831876029 0 -0.03512015046522534 0.02551020859305491 0 -0.034279508206728301 0.024886601924814691 0 -0.034983516694353289 0.024568762154187084 0 -0.034663157179633516 0.021426754799065074 0 -0.034279508206728301 0.024886601924814691 0 -0.03507506157384245 0.023382311831876029 0 -0.035549952156791138 0.024682806998883793 0 -0.034983516694353289 0.024568762154187084 0 -0.03507506157384245 0.023382311831876029 0 -0.033418022977321014 0.010141527144796348 0 -0.03068778284290901 5.5943374614169325e-05 0 -0.029549963831430135 -0.001188814608179313 0 -0.035409705200360984 0.016015171835200709 0 -0.035169687690224084 0.012972395690182823 0 -0.034663157179633516 0.021426754799065074 0 -0.03507506157384245 0.023382311831876029 0 -0.035223534023856237 0.022218108242054106 0 -0.03507506157384245 0.023382311831876029 0 -0.035901951629690627 0.022763868024954569 0 -0.035223534023856237 0.022218108242054106 0 -0.037334937914631716 0.023659169254574546 0 -0.037080875676924585 0.024398341156807044 0 -0.035192640921366793 0.022500784748908018 0 -0.037334937914631716 0.023659169254574546 0 -0.035192640921366793 0.022500784748908018 0 -0.036434317714188889 0.022571047904990923 0 -0.035549952156791138 0.024682806998883793 0 -0.03507506157384245 0.023382311831876029 0 -0.035901951629690627 0.022763868024954569 0 -0.035192640921366793 0.022500784748908018 0 -0.036434317714188889 0.022571047904990923 0 -0.036384074975703048 0.021330182217633682 0 -0.035192640921366793 0.022500784748908018 0 -0.036384074975703048 0.021330182217633682 0 -0.033471055993052751 0.01917399798675308 0 -0.036741465649498081 0.016674686271340996 0 -0.037744219333241083 0.012334944195244196 0 -0.035901951629690627 0.022763868024954569 0 -0.035267551324671749 0.021612203477152248 0 -0.035450832275469808 0.02073772199591007 0 -0.038017950622912008 0.020193220040311228 0 -0.037744219333241083 0.012334944195244196 0 -0.034663157179633516 0.021426754799065074 0 -0.035223534023856237 0.022218108242054106 0 -0.035267551324671749 0.021612203477152248 0 -0.035901951629690627 0.022763868024954569 0 -0.035223534023856237 0.022218108242054106 0 -0.035267551324671749 0.021612203477152248 0 -0.035267551324671749 0.021612203477152248 0 -0.03532935491882476 0.021009405763424065 0 -0.035450832275469808 0.02073772199591007 0 -0.034663157179633516 0.021426754799065074 0 -0.035267551324671749 0.021612203477152248 0 -0.03532935491882476 0.021009405763424065 0 -0.02661214165327782 0.012494842222167964 0 -0.031627652904382964 0.012840258331062214 0 -0.026691799905877507 0.0080872465989344187 0 -0.035170111183544933 0.02059643509123376 0 -0.035421866275522566 0.020790410797204339 0 -0.0362474239979153 0.02286046365160441 0 -0.03532935491882476 0.021009405763424065 0 -0.035450832275469808 0.02073772199591007 0 -0.035421866275522566 0.020790410797204339 0 -0.037744219333241083 0.012334944195244196 0 -0.037767654778811117 0.012397797765507942 0 -0.038301447378830254 -0.019390561605032559 0 -0.037307493602885558 -0.022834422598375294 0 -0.032301957291085197 0.016813329740306318 0 -0.02661214165327782 0.012494842222167964 0 -0.031627652904382964 0.012840258331062214 0 -0.043153439312763775 -0.05154799813046012 0 -0.042533587755511505 -0.053408467564232343 0 -0.040883985001453967 -0.054662585004037159 0 -0.043153439312763775 -0.05154799813046012 0 -0.042533587755511505 -0.053408467564232343 0 -0.043742101915032909 -0.053370852027325756 0 -0.042849680059310676 -0.054656157869464143 0 -0.04269450076552516 -0.056635704165600403 0 -0.042031284987719277 -0.054478413709706699 0 -0.043742101915032909 -0.053370852027325756 0 -0.042849680059310676 -0.054656157869464143 0 -0.043565102416214321 -0.054930078843029549 0 -0.042533587755511505 -0.053408467564232343 0 -0.043742101915032909 -0.053370852027325756 0 -0.042849680059310676 -0.054656157869464143 0 -0.042533587755511505 -0.053408467564232343 0 -0.042849680059310676 -0.054656157869464143 0 -0.042031284987719277 -0.054478413709706699 0 -0.042849680059310676 -0.054656157869464143 0 -0.043565102416214321 -0.054930078843029549 0 -0.04269450076552516 -0.056635704165600403 0 -0.045358690061468004 -0.054608964532343422 0 -0.043565102416214321 -0.054930078843029549 0 -0.04269450076552516 -0.056635704165600403 0 -0.038008292365667072 -0.043119520685220701 0 -0.040338894472192834 -0.050253360834977959 0 -0.04355819931947863 -0.058589824499143121 0 -0.041432479391296136 -0.05789245265680619 0 -0.042031284987719277 -0.054478413709706699 0 -0.041432479391296136 -0.05789245265680619 0 -0.041243043046774112 -0.055309163694875547 0 -0.040247116749187184 -0.058426913799696049 0 -0.041432479391296136 -0.05789245265680619 0 -0.040955201604109329 -0.059404235509180392 0 -0.04133597662542382 -0.059959333279586156 0 -0.04355819931947863 -0.058589824499143121 0 -0.041432479391296136 -0.05789245265680619 0 -0.04133597662542382 -0.059959333279586156 0 -0.041432479391296136 -0.05789245265680619 0 -0.042031284987719277 -0.054478413709706699 0 -0.041243043046774112 -0.055309163694875547 0 -0.02661214165327782 0.012494842222167964 0 -0.026691799905877507 0.0080872465989344187 0 -0.023462774798153178 0.0062912030137662993 0 -0.037744219333241083 0.012334944195244196 0 -0.040536928077118235 -0.013032802934134152 0 -0.037307493602885558 -0.022834422598375294 0 -0.040536928077118235 -0.013032802934134152 0 -0.03591280928314692 -0.026393405686705056 0 -0.037307493602885558 -0.022834422598375294 0 -0.042533587755511505 -0.053408467564232343 0 -0.042031284987719277 -0.054478413709706699 0 -0.041243043046774112 -0.055309163694875547 0 -0.037307493602885558 -0.022834422598375294 0 -0.039326124843258613 -0.024265123645071992 0 -0.039533025760219151 -0.022190593874043301 0 -0.041444500980706997 -0.021214272729676697 0 -0.042176229620468235 -0.019886040743225357 0 -0.037245053991863349 0.020819925649337816 0 -0.0362474239979153 0.02286046365160441 0 -0.041160414836767731 0.020842953318447304 0 -0.035421866275522566 0.020790410797204339 0 -0.037245053991863349 0.020819925649337816 0 -0.0362474239979153 0.02286046365160441 0 -0.04202587095706601 0.025665727067814309 0 -0.0362474239979153 0.02286046365160441 0 -0.041160414836767731 0.020842953318447304 0 -0.039481811009152705 0.019215297129040899 0 -0.037245053991863349 0.020819925649337816 0 -0.041160414836767731 0.020842953318447304 0 -0.045013395633632013 -0.023125394782711365 0 -0.04234866846581465 -0.024420406065776723 0 -0.042835130376679312 -0.023564567837337617 0 -0.047682735909882014 -0.0099768961275671659 0 -0.040536928077118235 -0.013032802934134152 0 -0.045013395633632013 -0.023125394782711365 0 -0.042835130376679312 -0.023564567837337617 0 -0.044203274551312871 -0.022384419975282704 0 -0.039326124843258613 -0.024265123645071992 0 -0.041989655542216273 -0.022580713986578314 0 -0.041432479391296136 -0.05789245265680619 0 -0.040247116749187184 -0.058426913799696049 0 -0.040955201604109329 -0.059404235509180392 0 -0.040536928077118235 -0.013032802934134152 0 -0.039326124843258613 -0.024265123645071992 0 -0.040247116749187184 -0.058426913799696049 0 -0.040955201604109329 -0.059404235509180392 0 -0.041114436903939504 -0.059732171814404024 0 -0.039326124843258613 -0.024265123645071992 0 -0.042055556193069665 -0.033887397369821742 0 -0.040955201604109329 -0.059404235509180392 0 -0.041354285608682179 -0.059929434661994373 0 -0.041114436903939504 -0.059732171814404024 0 -0.041354285608682179 -0.059929434661994373 0 -0.041114436903939504 -0.059732171814404024 0 -0.041620467336163217 -0.060091930692480235 0 -0.045196498284702513 -0.022107991434668094 0 -0.045013395633632013 -0.023125394782711365 0 -0.044203274551312871 -0.022384419975282704 0 -0.041919098067963748 -0.024466801660282301 0 -0.043841161284084933 -0.022753382933074686 0 -0.043073248757036185 -0.022360482640485613 0 -0.043841161284084933 -0.022753382933074686 0 -0.043073248757036185 -0.022360482640485613 0 -0.044184580900929867 -0.021647070313292532 0 -0.041114436903939504 -0.059732171814404024 0 -0.041806686708666066 -0.060423062355556563 0 -0.041620467336163217 -0.060091930692480235 0 -0.042055556193069665 -0.033887397369821742 0 -0.047114864206262951 -0.037371939561718914 0 -0.045588251143974218 -0.021090584788272634 0 -0.043841161284084933 -0.022753382933074686 0 -0.044184580900929867 -0.021647070313292532 0 -0.043073248757036185 -0.022360482640485613 0 -0.044184580900929867 -0.021647070313292532 0 -0.044203546211019171 -0.02039477729481079 0 -0.04295707324778008 -0.021924666204712659 0 -0.041989655542216273 -0.022580713986578314 0 -0.045588251143974218 -0.021090584788272634 0 -0.044184580900929867 -0.021647070313292532 0 -0.044203546211019171 -0.02039477729481079 0 -0.043584272571252011 -0.061860036158995373 0 -0.042119051335702956 -0.060574754436186859 0 -0.043265797516586157 -0.061044515742858942 0 -0.041806686708666066 -0.060423062355556563 0 -0.041620467336163217 -0.060091930692480235 0 -0.042119051335702956 -0.060574754436186859 0 -0.041620467336163217 -0.060091930692480235 0 -0.042119051335702956 -0.060574754436186859 0 -0.041757317505994269 -0.060019547911661628 0 -0.047114864206262951 -0.037371939561718914 0 -0.047084560156174848 -0.03772235975213882 0 -0.042119051335702956 -0.060574754436186859 0 -0.042314314899816532 -0.060026599360079369 0 -0.041757317505994269 -0.060019547911661628 0 -0.042314314899816532 -0.060026599360079369 0 -0.042853162829414829 -0.060456051754040063 0 -0.043232598967827537 -0.060087809154960065 0 -0.042119051335702956 -0.060574754436186859 0 -0.042314314899816532 -0.060026599360079369 0 -0.042853162829414829 -0.060456051754040063 0 -0.042119051335702956 -0.060574754436186859 0 -0.042853162829414829 -0.060456051754040063 0 -0.043265797516586157 -0.061044515742858942 0 -0.042853162829414829 -0.060456051754040063 0 -0.043265797516586157 -0.061044515742858942 0 -0.043661342164814133 -0.060676821983030933 0 -0.043584272571252011 -0.061860036158995373 0 -0.043265797516586157 -0.061044515742858942 0 -0.043899412704757335 -0.061124925746126248 0 -0.043265797516586157 -0.061044515742858942 0 -0.043661342164814133 -0.060676821983030933 0 -0.043899412704757335 -0.061124925746126248 0 -0.043232598967827537 -0.060087809154960065 0 -0.043661342164814133 -0.060676821983030933 0 -0.043965012602208441 -0.060307873114521612 0 -0.042853162829414829 -0.060456051754040063 0 -0.043232598967827537 -0.060087809154960065 0 -0.043661342164814133 -0.060676821983030933 0 -0.044943802292140435 -0.061096328445898351 0 -0.043965012602208441 -0.060307873114521612 0 -0.044184345116511717 -0.059662085013250321 0 -0.044943802292140435 -0.061096328445898351 0 -0.043661342164814133 -0.060676821983030933 0 -0.043965012602208441 -0.060307873114521612 0 -0.044943802292140435 -0.061096328445898351 0 -0.043584272571252011 -0.061860036158995373 0 -0.043899412704757335 -0.061124925746126248 0 -0.044943802292140435 -0.061096328445898351 0 -0.043661342164814133 -0.060676821983030933 0 -0.043899412704757335 -0.061124925746126248 0 -0.041354285608682179 -0.059929434661994373 0 -0.041757317505994269 -0.060019547911661628 0 -0.04122774846207438 -0.059437565348158396 0 -0.041354285608682179 -0.059929434661994373 0 -0.041620467336163217 -0.060091930692480235 0 -0.041757317505994269 -0.060019547911661628 0 -0.042314314899816532 -0.060026599360079369 0 -0.041757317505994269 -0.060019547911661628 0 -0.041805224481799977 -0.059361924017626452 0 -0.041757317505994269 -0.060019547911661628 0 -0.04122774846207438 -0.059437565348158396 0 -0.041805224481799977 -0.059361924017626452 0 -0.041354285608682179 -0.059929434661994373 0 -0.04122774846207438 -0.059437565348158396 0 -0.040823614295009233 -0.059519647619098212 0 -0.04122774846207438 -0.059437565348158396 0 -0.040823614295009233 -0.059519647619098212 0 -0.040232639303049614 -0.058666780940363678 0 -0.040823614295009233 -0.059519647619098212 0 -0.039344814120164218 -0.059347719648816653 0 -0.04133597662542382 -0.059959333279586156 0 -0.040823614295009233 -0.059519647619098212 0 -0.039344814120164218 -0.059347719648816653 0 -0.040232639303049614 -0.058666780940363678 0 -0.038008292365667072 -0.043119520685220701 0 -0.031481252064773951 -0.036973783909303629 0 -0.040398771511379571 -0.060733489398807371 0 -0.039344814120164218 -0.059347719648816653 0 -0.04133597662542382 -0.059959333279586156 0 -0.038008292365667072 -0.043119520685220701 0 -0.037009044452296427 -0.045803662982934375 0 -0.040955201604109329 -0.059404235509180392 0 -0.041354285608682179 -0.059929434661994373 0 -0.04133597662542382 -0.059959333279586156 0 -0.041354285608682179 -0.059929434661994373 0 -0.040823614295009233 -0.059519647619098212 0 -0.04133597662542382 -0.059959333279586156 0 -0.040147251759483298 -0.057056243817985401 0 -0.041216012689446475 -0.057546021142393371 0 -0.041088369193906599 -0.058445250687446604 0 -0.040147251759483298 -0.057056243817985401 0 -0.041216012689446475 -0.057546021142393371 0 -0.041143145343073409 -0.056329352937610065 0 -0.040147251759483298 -0.057056243817985401 0 -0.041143145343073409 -0.056329352937610065 0 -0.040307245287497045 -0.055541563554372814 0 -0.037919803944522532 -0.057253528088641266 0 -0.040147251759483298 -0.057056243817985401 0 -0.038929797243728109 -0.055295203756145772 0 -0.037919803944522532 -0.057253528088641266 0 -0.039344814120164218 -0.059347719648816653 0 -0.040232639303049614 -0.058666780940363678 0 -0.037919803944522532 -0.057253528088641266 0 -0.040147251759483298 -0.057056243817985401 0 -0.040232639303049614 -0.058666780940363678 0 -0.040147251759483298 -0.057056243817985401 0 -0.040232639303049614 -0.058666780940363678 0 -0.041088369193906599 -0.058445250687446604 0 -0.04122774846207438 -0.059437565348158396 0 -0.040232639303049614 -0.058666780940363678 0 -0.041088369193906599 -0.058445250687446604 0 -0.041088369193906599 -0.058445250687446604 0 -0.041805224481799977 -0.059361924017626452 0 -0.041970764612297193 -0.058527862532584102 0 -0.04122774846207438 -0.059437565348158396 0 -0.041088369193906599 -0.058445250687446604 0 -0.041805224481799977 -0.059361924017626452 0 -0.042314314899816532 -0.060026599360079369 0 -0.041805224481799977 -0.059361924017626452 0 -0.042391457693444747 -0.05923818016251195 0 -0.041805224481799977 -0.059361924017626452 0 -0.042391457693444747 -0.05923818016251195 0 -0.041970764612297193 -0.058527862532584102 0 -0.041970764612297193 -0.058527862532584102 0 -0.04281902749724608 -0.05857536888075264 0 -0.042629525277936252 -0.05779725498691117 0 -0.042391457693444747 -0.05923818016251195 0 -0.041970764612297193 -0.058527862532584102 0 -0.04281902749724608 -0.05857536888075264 0 -0.041216012689446475 -0.057546021142393371 0 -0.041088369193906599 -0.058445250687446604 0 -0.041970764612297193 -0.058527862532584102 0 -0.043232598967827537 -0.060087809154960065 0 -0.043965012602208441 -0.060307873114521612 0 -0.044184345116511717 -0.059662085013250321 0 -0.043232598967827537 -0.060087809154960065 0 -0.044184345116511717 -0.059662085013250321 0 -0.043036560047258886 -0.05941871527101289 0 -0.044184345116511717 -0.059662085013250321 0 -0.043036560047258886 -0.05941871527101289 0 -0.043566928899601683 -0.058855182492818001 0 -0.042314314899816532 -0.060026599360079369 0 -0.043232598967827537 -0.060087809154960065 0 -0.043036560047258886 -0.05941871527101289 0 -0.042314314899816532 -0.060026599360079369 0 -0.042391457693444747 -0.05923818016251195 0 -0.043036560047258886 -0.05941871527101289 0 -0.042391457693444747 -0.05923818016251195 0 -0.043036560047258886 -0.05941871527101289 0 -0.04281902749724608 -0.05857536888075264 0 -0.04281902749724608 -0.05857536888075264 0 -0.043614925723709758 -0.057852452365806453 0 -0.042629525277936252 -0.05779725498691117 0 -0.04281902749724608 -0.05857536888075264 0 -0.043566928899601683 -0.058855182492818001 0 -0.043614925723709758 -0.057852452365806453 0 -0.043036560047258886 -0.05941871527101289 0 -0.04281902749724608 -0.05857536888075264 0 -0.043566928899601683 -0.058855182492818001 0 -0.044390958592243263 -0.058698543064279553 0 -0.044745955831217592 -0.057977881400005607 0 -0.043614925723709758 -0.057852452365806453 0 -0.044184345116511717 -0.059662085013250321 0 -0.043566928899601683 -0.058855182492818001 0 -0.044390958592243263 -0.058698543064279553 0 -0.043566928899601683 -0.058855182492818001 0 -0.044390958592243263 -0.058698543064279553 0 -0.043614925723709758 -0.057852452365806453 0 -0.044390958592243263 -0.058698543064279553 0 -0.044745955831217592 -0.057977881400005607 0 -0.045331732295625191 -0.058928550085787026 0 -0.044184345116511717 -0.059662085013250321 0 -0.044390958592243263 -0.058698543064279553 0 -0.045331732295625191 -0.058928550085787026 0 -0.044812000801817728 -0.056997515965229027 0 -0.044745955831217592 -0.057977881400005607 0 -0.043614925723709758 -0.057852452365806453 0 -0.044812000801817728 -0.056997515965229027 0 -0.043614925723709758 -0.057852452365806453 0 -0.043893896543509267 -0.056603912887213795 0 -0.043614925723709758 -0.057852452365806453 0 -0.042940451336443738 -0.056878257459506559 0 -0.043893896543509267 -0.056603912887213795 0 -0.043614925723709758 -0.057852452365806453 0 -0.042940451336443738 -0.056878257459506559 0 -0.042629525277936252 -0.05779725498691117 0 -0.043893896543509267 -0.056603912887213795 0 -0.044650068172985696 -0.055635697087675677 0 -0.043444747810893844 -0.055939923847496423 0 -0.042940451336443738 -0.056878257459506559 0 -0.043893896543509267 -0.056603912887213795 0 -0.043444747810893844 -0.055939923847496423 0 -0.044812000801817728 -0.056997515965229027 0 -0.043893896543509267 -0.056603912887213795 0 -0.044650068172985696 -0.055635697087675677 0 -0.044812000801817728 -0.056997515965229027 0 -0.044650068172985696 -0.055635697087675677 0 -0.045773872495476889 -0.056301191482246236 0 -0.041216012689446475 -0.057546021142393371 0 -0.041143145343073409 -0.056329352937610065 0 -0.042014822059109933 -0.057093972091395495 0 -0.041216012689446475 -0.057546021142393371 0 -0.041970764612297193 -0.058527862532584102 0 -0.042014822059109933 -0.057093972091395495 0 -0.042940451336443738 -0.056878257459506559 0 -0.042014822059109933 -0.057093972091395495 0 -0.042629525277936252 -0.05779725498691117 0 -0.041970764612297193 -0.058527862532584102 0 -0.042014822059109933 -0.057093972091395495 0 -0.042629525277936252 -0.05779725498691117 0 -0.042940451336443738 -0.056878257459506559 0 -0.042364466754769563 -0.055883264361908255 0 -0.043444747810893844 -0.055939923847496423 0 -0.042940451336443738 -0.056878257459506559 0 -0.042014822059109933 -0.057093972091395495 0 -0.042364466754769563 -0.055883264361908255 0 -0.041143145343073409 -0.056329352937610065 0 -0.042014822059109933 -0.057093972091395495 0 -0.042364466754769563 -0.055883264361908255 0 -0.041143145343073409 -0.056329352937610065 0 -0.042364466754769563 -0.055883264361908255 0 -0.041271745059737901 -0.055060080696628995 0 -0.042364466754769563 -0.055883264361908255 0 -0.042251510644982893 -0.054588413129286015 0 -0.041271745059737901 -0.055060080696628995 0 -0.042364466754769563 -0.055883264361908255 0 -0.042251510644982893 -0.054588413129286015 0 -0.04347534643933073 -0.054710704471861146 0 -0.042251510644982893 -0.054588413129286015 0 -0.04347534643933073 -0.054710704471861146 0 -0.042564962338099893 -0.05348798240318773 0 -0.042251510644982893 -0.054588413129286015 0 -0.041526354817970068 -0.053993925406491852 0 -0.041271745059737901 -0.055060080696628995 0 -0.042364466754769563 -0.055883264361908255 0 -0.043444747810893844 -0.055939923847496423 0 -0.04347534643933073 -0.054710704471861146 0 -0.044650068172985696 -0.055635697087675677 0 -0.043444747810893844 -0.055939923847496423 0 -0.04347534643933073 -0.054710704471861146 0 -0.04347534643933073 -0.054710704471861146 0 -0.043792934125106091 -0.053568115835583525 0 -0.045271450852345275 -0.05400866968211894 0 -0.044650068172985696 -0.055635697087675677 0 -0.04347534643933073 -0.054710704471861146 0 -0.045271450852345275 -0.05400866968211894 0 -0.043792934125106091 -0.053568115835583525 0 -0.04473030885086534 -0.052671909097058191 0 -0.045271450852345275 -0.05400866968211894 0 -0.04347534643933073 -0.054710704471861146 0 -0.043792934125106091 -0.053568115835583525 0 -0.042564962338099893 -0.05348798240318773 0 -0.043792934125106091 -0.053568115835583525 0 -0.04473030885086534 -0.052671909097058191 0 -0.043376508258129436 -0.052147682825550962 0 -0.041756413338046659 -0.053212433716416915 0 -0.041406341269144532 -0.053088474691376251 0 -0.043792934125106091 -0.053568115835583525 0 -0.042564962338099893 -0.05348798240318773 0 -0.043376508258129436 -0.052147682825550962 0 -0.041526354817970068 -0.053993925406491852 0 -0.042564962338099893 -0.05348798240318773 0 -0.041279111152307875 -0.052989852667075316 0 -0.042251510644982893 -0.054588413129286015 0 -0.041526354817970068 -0.053993925406491852 0 -0.042564962338099893 -0.05348798240318773 0 -0.042564962338099893 -0.05348798240318773 0 -0.042037741423999894 -0.052698872519809481 0 -0.043376508258129436 -0.052147682825550962 0 -0.042564962338099893 -0.05348798240318773 0 -0.042037741423999894 -0.052698872519809481 0 -0.041279111152307875 -0.052989852667075316 0 -0.041279111152307875 -0.052989852667075316 0 -0.040290409496489189 -0.054044823538362922 0 -0.040078288371073148 -0.052518865923992138 0 -0.040290409496489189 -0.054044823538362922 0 -0.038937424993315178 -0.053041739793473895 0 -0.040078288371073148 -0.052518865923992138 0 -0.041526354817970068 -0.053993925406491852 0 -0.041279111152307875 -0.052989852667075316 0 -0.040290409496489189 -0.054044823538362922 0 -0.040290409496489189 -0.054044823538362922 0 -0.041271745059737901 -0.055060080696628995 0 -0.040307245287497045 -0.055541563554372814 0 -0.041526354817970068 -0.053993925406491852 0 -0.040290409496489189 -0.054044823538362922 0 -0.041271745059737901 -0.055060080696628995 0 -0.040290409496489189 -0.054044823538362922 0 -0.040307245287497045 -0.055541563554372814 0 -0.038929797243728109 -0.055295203756145772 0 -0.041143145343073409 -0.056329352937610065 0 -0.041271745059737901 -0.055060080696628995 0 -0.040307245287497045 -0.055541563554372814 0 -0.040147251759483298 -0.057056243817985401 0 -0.040307245287497045 -0.055541563554372814 0 -0.038929797243728109 -0.055295203756145772 0 -0.036858214829237457 -0.054676109894871844 0 -0.038929797243728109 -0.055295203756145772 0 -0.038937424993315178 -0.053041739793473895 0 -0.040290409496489189 -0.054044823538362922 0 -0.038929797243728109 -0.055295203756145772 0 -0.038937424993315178 -0.053041739793473895 0 -0.03802630296510786 -0.052329196877863034 0 -0.038937424993315178 -0.053041739793473895 0 -0.038759310500115628 -0.051556866496215728 0 -0.038937424993315178 -0.053041739793473895 0 -0.040078288371073148 -0.052518865923992138 0 -0.038759310500115628 -0.051556866496215728 0 -0.037998881923294155 -0.051803838116395093 0 -0.03802630296510786 -0.052329196877863034 0 -0.038759310500115628 -0.051556866496215728 0 -0.040078288371073148 -0.052518865923992138 0 -0.040456707285815734 -0.051480605021935764 0 -0.04129548554669573 -0.052317552861854584 0 -0.041279111152307875 -0.052989852667075316 0 -0.040078288371073148 -0.052518865923992138 0 -0.04129548554669573 -0.052317552861854584 0 -0.040078288371073148 -0.052518865923992138 0 -0.040456707285815734 -0.051480605021935764 0 -0.038759310500115628 -0.051556866496215728 0 -0.041741257805853423 -0.052361685380458364 0 -0.040810644450943234 -0.052744176734674131 0 -0.041166137309370673 -0.052532867042684062 0 -0.039913555111905037 -0.053286749818096044 0 -0.040078286543285074 -0.053467250917239972 0 -0.039814882044569663 -0.053263321699754042 0 -0.04051857866210095 -0.052960106423514626 0 -0.040968360669726728 -0.052943249126826859 0 -0.041741257805853423 -0.052361685380458364 0 -0.040810644450943234 -0.052744176734674131 0 -0.04244565432275501 -0.052506748954451787 0 -0.040456707285815734 -0.051480605021935764 0 -0.038759310500115628 -0.051556866496215728 0 -0.037815541240318842 -0.050736094704596148 0 -0.039913555111905037 -0.053286749818096044 0 -0.040078286543285074 -0.053467250917239972 0 -0.040197910123620249 -0.053437899886544279 0 -0.040120289891695332 -0.052776321108575268 0 -0.038576304679258565 -0.052623620479177437 0 -0.037998881923294155 -0.051803838116395093 0 -0.038759310500115628 -0.051556866496215728 0 -0.037817819134273699 -0.051677961747163756 0 -0.038504808392833115 -0.052472995419917456 0 -0.038576304679258565 -0.052623620479177437 0 -0.040572156255557101 -0.053170547657354107 0 -0.040957484687288673 -0.05262469083030788 0 -0.040567066684434293 -0.053041870267900554 0 -0.040572156255557101 -0.053170547657354107 0 -0.040856590585350731 -0.052758018941864195 0 -0.040957484687288673 -0.05262469083030788 0 -0.040810644450943234 -0.052744176734674131 0 -0.040856590585350731 -0.052758018941864195 0 -0.041166137309370673 -0.052532867042684062 0 -0.040810644450943234 -0.052744176734674131 0 -0.040572156255557101 -0.053170547657354107 0 -0.040856590585350731 -0.052758018941864195 0 -0.041166137309370673 -0.052532867042684062 0 -0.041551729118898463 -0.052223830250972304 0 -0.040957484687288673 -0.05262469083030788 0 -0.040856590585350731 -0.052758018941864195 0 -0.041166137309370673 -0.052532867042684062 0 -0.040957484687288673 -0.05262469083030788 0 -0.041741257805853423 -0.052361685380458364 0 -0.041551729118898463 -0.052223830250972304 0 -0.042554610600061105 -0.051839488611091951 0 -0.041741257805853423 -0.052361685380458364 0 -0.041166137309370673 -0.052532867042684062 0 -0.041551729118898463 -0.052223830250972304 0 -0.041551729118898463 -0.052223830250972304 0 -0.041224934632206139 -0.05227846039173599 0 -0.042063434444237081 -0.051784243176677659 0 -0.041551729118898463 -0.052223830250972304 0 -0.040957484687288673 -0.05262469083030788 0 -0.041224934632206139 -0.05227846039173599 0 -0.041224934632206139 -0.05227846039173599 0 -0.040726446689940847 -0.052639778593865927 0 -0.040567066684434293 -0.053041870267900554 0 -0.040957484687288673 -0.05262469083030788 0 -0.041224934632206139 -0.05227846039173599 0 -0.040567066684434293 -0.053041870267900554 0 -0.040726446689940847 -0.052639778593865927 0 -0.040567066684434293 -0.053041870267900554 0 -0.040301198374765486 -0.053449171325858844 0 -0.040400035038433077 -0.053553346097219533 0 -0.040567066684434293 -0.053041870267900554 0 -0.040173869667352813 -0.05417383409545052 0 -0.040572156255557101 -0.053170547657354107 0 -0.040400035038433077 -0.053553346097219533 0 -0.040567066684434293 -0.053041870267900554 0 -0.04443239664815847 -0.050550349590954266 0 -0.041773343582657448 -0.051537648477595087 0 -0.044024317399030607 -0.050238125689950112 0 -0.04443239664815847 -0.050550349590954266 0 -0.041773343582657448 -0.051537648477595087 0 -0.043559597943624719 -0.051162190020570916 0 -0.041773343582657448 -0.051537648477595087 0 -0.042063434444237081 -0.051784243176677659 0 -0.043559597943624719 -0.051162190020570916 0 -0.041224934632206139 -0.05227846039173599 0 -0.040726446689940847 -0.052639778593865927 0 -0.041773343582657448 -0.051537648477595087 0 -0.041224934632206139 -0.05227846039173599 0 -0.041773343582657448 -0.051537648477595087 0 -0.042063434444237081 -0.051784243176677659 0 -0.041551729118898463 -0.052223830250972304 0 -0.042063434444237081 -0.051784243176677659 0 -0.042554610600061105 -0.051839488611091951 0 -0.042063434444237081 -0.051784243176677659 0 -0.042554610600061105 -0.051839488611091951 0 -0.043559597943624719 -0.051162190020570916 0 -0.043559597943624719 -0.051162190020570916 0 -0.045057322584289364 -0.050803976773514052 0 -0.045984275852616573 -0.050177217728574149 0 -0.042554610600061105 -0.051839488611091951 0 -0.043559597943624719 -0.051162190020570916 0 -0.043850809042929616 -0.051366392922061396 0 -0.04443239664815847 -0.050550349590954266 0 -0.043559597943624719 -0.051162190020570916 0 -0.045984275852616573 -0.050177217728574149 0 -0.043559597943624719 -0.051162190020570916 0 -0.045057322584289364 -0.050803976773514052 0 -0.043850809042929616 -0.051366392922061396 0 -0.045057322584289364 -0.050803976773514052 0 -0.043850809042929616 -0.051366392922061396 0 -0.044464813939229617 -0.051500169690205752 0 -0.043850809042929616 -0.051366392922061396 0 -0.044464813939229617 -0.051500169690205752 0 -0.043174575917186646 -0.051838943565236731 0 -0.044464813939229617 -0.051500169690205752 0 -0.043174575917186646 -0.051838943565236731 0 -0.043219233223008795 -0.05209204118270943 0 -0.041741257805853423 -0.052361685380458364 0 -0.042554610600061105 -0.051839488611091951 0 -0.042544910865030414 -0.052131271395586563 0 -0.042554610600061105 -0.051839488611091951 0 -0.043174575917186646 -0.051838943565236731 0 -0.042544910865030414 -0.052131271395586563 0 -0.042554610600061105 -0.051839488611091951 0 -0.043850809042929616 -0.051366392922061396 0 -0.043174575917186646 -0.051838943565236731 0 -0.043174575917186646 -0.051838943565236731 0 -0.043219233223008795 -0.05209204118270943 0 -0.042544910865030414 -0.052131271395586563 0 -0.043219233223008795 -0.05209204118270943 0 -0.042544910865030414 -0.052131271395586563 0 -0.04244565432275501 -0.052506748954451787 0 -0.041741257805853423 -0.052361685380458364 0 -0.042544910865030414 -0.052131271395586563 0 -0.04244565432275501 -0.052506748954451787 0 -0.039913555111905037 -0.053286749818096044 0 -0.039814882044569663 -0.053263321699754042 0 -0.039655754498554997 -0.053140821432338496 0 -0.042037741423999894 -0.052698872519809481 0 -0.04129548554669573 -0.052317552861854584 0 -0.043376508258129436 -0.052147682825550962 0 -0.04244565432275501 -0.052506748954451787 0 -0.043949011889925581 -0.052130567559238658 0 -0.043951919736893635 -0.052563625440650748 0 -0.043219233223008795 -0.05209204118270943 0 -0.04244565432275501 -0.052506748954451787 0 -0.043949011889925581 -0.052130567559238658 0 -0.040120289891695332 -0.052776321108575268 0 -0.041406341269144532 -0.053088474691376251 0 -0.040456707285815734 -0.051480605021935764 0 -0.04129548554669573 -0.052317552861854584 0 -0.043376508258129436 -0.052147682825550962 0 -0.040968360669726728 -0.052943249126826859 0 -0.041406341269144532 -0.053088474691376251 0 -0.042037741423999894 -0.052698872519809481 0 -0.041279111152307875 -0.052989852667075316 0 -0.04129548554669573 -0.052317552861854584 0 -0.044464813939229617 -0.051500169690205752 0 -0.044867094650681449 -0.051971367891978683 0 -0.046167128058695807 -0.051344733718927352 0 -0.044464813939229617 -0.051500169690205752 0 -0.043949011889925581 -0.052130567559238658 0 -0.044867094650681449 -0.051971367891978683 0 -0.044464813939229617 -0.051500169690205752 0 -0.043219233223008795 -0.05209204118270943 0 -0.043949011889925581 -0.052130567559238658 0 -0.04473030885086534 -0.052671909097058191 0 -0.043949011889925581 -0.052130567559238658 0 -0.043951919736893635 -0.052563625440650748 0 -0.04473030885086534 -0.052671909097058191 0 -0.044867094650681449 -0.051971367891978683 0 -0.046167128058695807 -0.051344733718927352 0 -0.04473030885086534 -0.052671909097058191 0 -0.043949011889925581 -0.052130567559238658 0 -0.044867094650681449 -0.051971367891978683 0 -0.046167128058695807 -0.051344733718927352 0 -0.048349660836808507 -0.05069903504739616 0 -0.046839836145749505 -0.050205802161037233 0 -0.046167128058695807 -0.051344733718927352 0 -0.048349660836808507 -0.05069903504739616 0 -0.046788341796827844 -0.052383395145216428 0 -0.048349660836808507 -0.05069903504739616 0 -0.050017266267359209 -0.048675526047049673 0 -0.051693302522085906 -0.049890349184490299 0 -0.048349660836808507 -0.05069903504739616 0 -0.046839836145749505 -0.050205802161037233 0 -0.050017266267359209 -0.048675526047049673 0 -0.046839836145749505 -0.050205802161037233 0 -0.048431103704203254 -0.049210390931928 0 -0.050017266267359209 -0.048675526047049673 0 -0.044464813939229617 -0.051500169690205752 0 -0.046167128058695807 -0.051344733718927352 0 -0.046839836145749505 -0.050205802161037233 0 -0.045057322584289364 -0.050803976773514052 0 -0.044464813939229617 -0.051500169690205752 0 -0.046839836145749505 -0.050205802161037233 0 -0.046839836145749505 -0.050205802161037233 0 -0.045984275852616573 -0.050177217728574149 0 -0.048431103704203254 -0.049210390931928 0 -0.045057322584289364 -0.050803976773514052 0 -0.046839836145749505 -0.050205802161037233 0 -0.045984275852616573 -0.050177217728574149 0 -0.045984275852616573 -0.050177217728574149 0 -0.048431103704203254 -0.049210390931928 0 -0.046917709921135156 -0.049378856649303381 0 -0.048431103704203254 -0.049210390931928 0 -0.046917709921135156 -0.049378856649303381 0 -0.049365746011795365 -0.048572313238289769 0 -0.04443239664815847 -0.050550349590954266 0 -0.045984275852616573 -0.050177217728574149 0 -0.046917709921135156 -0.049378856649303381 0 -0.04443239664815847 -0.050550349590954266 0 -0.046917709921135156 -0.049378856649303381 0 -0.044024317399030607 -0.050238125689950112 0 -0.050301271822614603 -0.04842260589957216 0 -0.049365746011795365 -0.048572313238289769 0 -0.050790597952938749 -0.048358438234187132 0 -0.048431103704203254 -0.049210390931928 0 -0.049365746011795365 -0.048572313238289769 0 -0.050790597952938749 -0.048358438234187132 0 -0.048431103704203254 -0.049210390931928 0 -0.050790597952938749 -0.048358438234187132 0 -0.050017266267359209 -0.048675526047049673 0 -0.050790597952938749 -0.048358438234187132 0 -0.053984327892717864 -0.046343887504739827 0 -0.05048921338425242 -0.048416393104864404 0 -0.050301271822614603 -0.04842260589957216 0 -0.050790597952938749 -0.048358438234187132 0 -0.05048921338425242 -0.048416393104864404 0 -0.056858185129399053 -0.046158987338889443 0 -0.058723357072720118 -0.044605162543886037 0 -0.050790597952938749 -0.048358438234187132 0 -0.050017266267359209 -0.048675526047049673 0 -0.053984327892717864 -0.046343887504739827 0 -0.050017266267359209 -0.048675526047049673 0 -0.051693302522085906 -0.049890349184490299 0 -0.053984327892717864 -0.046343887504739827 0 -0.051693302522085906 -0.049890349184490299 0 -0.053984327892717864 -0.046343887504739827 0 -0.058152412055443498 -0.050564263302731137 0 -0.051693302522085906 -0.049890349184490299 0 -0.058152412055443498 -0.050564263302731137 0 -0.052999158736971447 -0.052974159682247626 0 -0.056905898557352584 -0.054381226591192808 0 -0.052999158736971447 -0.052974159682247626 0 -0.054673180212020042 -0.056638063468748959 0 -0.058152412055443498 -0.050564263302731137 0 -0.056905898557352584 -0.054381226591192808 0 -0.052999158736971447 -0.052974159682247626 0 -0.052999158736971447 -0.052974159682247626 0 -0.049352008518624056 -0.05230697379899165 0 -0.049989335564406191 -0.054639199812089319 0 -0.052999158736971447 -0.052974159682247626 0 -0.054673180212020042 -0.056638063468748959 0 -0.051873827479998233 -0.05591346274905 0 -0.052999158736971447 -0.052974159682247626 0 -0.049989335564406191 -0.054639199812089319 0 -0.051873827479998233 -0.05591346274905 0 -0.051693302522085906 -0.049890349184490299 0 -0.052999158736971447 -0.052974159682247626 0 -0.049352008518624056 -0.05230697379899165 0 -0.048349660836808507 -0.05069903504739616 0 -0.049352008518624056 -0.05230697379899165 0 -0.046788341796827844 -0.052383395145216428 0 -0.048349660836808507 -0.05069903504739616 0 -0.051693302522085906 -0.049890349184490299 0 -0.049352008518624056 -0.05230697379899165 0 -0.049352008518624056 -0.05230697379899165 0 -0.046788341796827844 -0.052383395145216428 0 -0.047307971960360247 -0.054341108600453041 0 -0.046788341796827844 -0.052383395145216428 0 -0.045271450852345275 -0.05400866968211894 0 -0.047307971960360247 -0.054341108600453041 0 -0.04473030885086534 -0.052671909097058191 0 -0.046167128058695807 -0.051344733718927352 0 -0.046788341796827844 -0.052383395145216428 0 -0.04473030885086534 -0.052671909097058191 0 -0.046788341796827844 -0.052383395145216428 0 -0.045271450852345275 -0.05400866968211894 0 -0.045271450852345275 -0.05400866968211894 0 -0.047307971960360247 -0.054341108600453041 0 -0.045948473321965326 -0.05520899684782142 0 -0.047307971960360247 -0.054341108600453041 0 -0.046812166216512067 -0.055800857028115908 0 -0.045948473321965326 -0.05520899684782142 0 -0.047307971960360247 -0.054341108600453041 0 -0.046812166216512067 -0.055800857028115908 0 -0.048237319659219284 -0.056184339077119387 0 -0.044650068172985696 -0.055635697087675677 0 -0.045271450852345275 -0.05400866968211894 0 -0.045948473321965326 -0.05520899684782142 0 -0.044650068172985696 -0.055635697087675677 0 -0.045948473321965326 -0.05520899684782142 0 -0.045773872495476889 -0.056301191482246236 0 -0.046812166216512067 -0.055800857028115908 0 -0.045948473321965326 -0.05520899684782142 0 -0.045773872495476889 -0.056301191482246236 0 -0.049352008518624056 -0.05230697379899165 0 -0.047307971960360247 -0.054341108600453041 0 -0.049989335564406191 -0.054639199812089319 0 -0.047307971960360247 -0.054341108600453041 0 -0.049989335564406191 -0.054639199812089319 0 -0.048237319659219284 -0.056184339077119387 0 -0.049989335564406191 -0.054639199812089319 0 -0.050214515286364371 -0.057591663064163717 0 -0.051873827479998233 -0.05591346274905 0 -0.049989335564406191 -0.054639199812089319 0 -0.048237319659219284 -0.056184339077119387 0 -0.050214515286364371 -0.057591663064163717 0 -0.048237319659219284 -0.056184339077119387 0 -0.048294799014006448 -0.057994074787888629 0 -0.046877922160810916 -0.057003831565260787 0 -0.048237319659219284 -0.056184339077119387 0 -0.048294799014006448 -0.057994074787888629 0 -0.050214515286364371 -0.057591663064163717 0 -0.048294799014006448 -0.057994074787888629 0 -0.050214515286364371 -0.057591663064163717 0 -0.049818103123468536 -0.059237081394663486 0 -0.044812000801817728 -0.056997515965229027 0 -0.045773872495476889 -0.056301191482246236 0 -0.045673780956138707 -0.057514593577479088 0 -0.045773872495476889 -0.056301191482246236 0 -0.046877922160810916 -0.057003831565260787 0 -0.045673780956138707 -0.057514593577479088 0 -0.046812166216512067 -0.055800857028115908 0 -0.048237319659219284 -0.056184339077119387 0 -0.046877922160810916 -0.057003831565260787 0 -0.046812166216512067 -0.055800857028115908 0 -0.045773872495476889 -0.056301191482246236 0 -0.046877922160810916 -0.057003831565260787 0 -0.048294799014006448 -0.057994074787888629 0 -0.046877922160810916 -0.057003831565260787 0 -0.046644250421730753 -0.058296091793697727 0 -0.046877922160810916 -0.057003831565260787 0 -0.045673780956138707 -0.057514593577479088 0 -0.046644250421730753 -0.058296091793697727 0 -0.044812000801817728 -0.056997515965229027 0 -0.044745955831217592 -0.057977881400005607 0 -0.045673780956138707 -0.057514593577479088 0 -0.044745955831217592 -0.057977881400005607 0 -0.045673780956138707 -0.057514593577479088 0 -0.045331732295625191 -0.058928550085787026 0 -0.045673780956138707 -0.057514593577479088 0 -0.045331732295625191 -0.058928550085787026 0 -0.046644250421730753 -0.058296091793697727 0 -0.045331732295625191 -0.058928550085787026 0 -0.046565614231237507 -0.059473565905358967 0 -0.046644250421730753 -0.058296091793697727 0 -0.046565614231237507 -0.059473565905358967 0 -0.046644250421730753 -0.058296091793697727 0 -0.048152888980011237 -0.059703444768722684 0 -0.047410514433416637 -0.061332212967933938 0 -0.046565614231237507 -0.059473565905358967 0 -0.048152888980011237 -0.059703444768722684 0 -0.047410514433416637 -0.061332212967933938 0 -0.046565614231237507 -0.059473565905358967 0 -0.045582663552395125 -0.060116659935650706 0 -0.045331732295625191 -0.058928550085787026 0 -0.046565614231237507 -0.059473565905358967 0 -0.045582663552395125 -0.060116659935650706 0 -0.044943802292140435 -0.061096328445898351 0 -0.044184345116511717 -0.059662085013250321 0 -0.045582663552395125 -0.060116659935650706 0 -0.044184345116511717 -0.059662085013250321 0 -0.045331732295625191 -0.058928550085787026 0 -0.045582663552395125 -0.060116659935650706 0 -0.050214515286364371 -0.057591663064163717 0 -0.049818103123468536 -0.059237081394663486 0 -0.052138216825771827 -0.059343944099128895 0 -0.049818103123468536 -0.059237081394663486 0 -0.050058033107019569 -0.061364596338900512 0 -0.052138216825771827 -0.059343944099128895 0 -0.048294799014006448 -0.057994074787888629 0 -0.049818103123468536 -0.059237081394663486 0 -0.048152888980011237 -0.059703444768722684 0 -0.048294799014006448 -0.057994074787888629 0 -0.046644250421730753 -0.058296091793697727 0 -0.048152888980011237 -0.059703444768722684 0 -0.047410514433416637 -0.061332212967933938 0 -0.048152888980011237 -0.059703444768722684 0 -0.050058033107019569 -0.061364596338900512 0 -0.049818103123468536 -0.059237081394663486 0 -0.048152888980011237 -0.059703444768722684 0 -0.050058033107019569 -0.061364596338900512 0 -0.052849880794930644 -0.062338980834421111 0 -0.052138216825771827 -0.059343944099128895 0 -0.05592738324490535 -0.060447282490605214 0 -0.052849880794930644 -0.062338980834421111 0 -0.050058033107019569 -0.061364596338900512 0 -0.052138216825771827 -0.059343944099128895 0 -0.052138216825771827 -0.059343944099128895 0 -0.05592738324490535 -0.060447282490605214 0 -0.054673180212020042 -0.056638063468748959 0 -0.05592738324490535 -0.060447282490605214 0 -0.058033217652803691 -0.057099970334050294 0 -0.061316372993408155 -0.059176377005546309 0 -0.05592738324490535 -0.060447282490605214 0 -0.058033217652803691 -0.057099970334050294 0 -0.054673180212020042 -0.056638063468748959 0 -0.056905898557352584 -0.054381226591192808 0 -0.058033217652803691 -0.057099970334050294 0 -0.054673180212020042 -0.056638063468748959 0 -0.050214515286364371 -0.057591663064163717 0 -0.052138216825771827 -0.059343944099128895 0 -0.051873827479998233 -0.05591346274905 0 -0.052138216825771827 -0.059343944099128895 0 -0.054673180212020042 -0.056638063468748959 0 -0.051873827479998233 -0.05591346274905 0 -0.064665050744728822 -0.055358376337990928 0 -0.067678376907931007 -0.058550797415890983 0 -0.067986322852018111 -0.052212326808639499 0 -0.064665050744728822 -0.055358376337990928 0 -0.061316372993408155 -0.059176377005546309 0 -0.067678376907931007 -0.058550797415890983 0 -0.064665050744728822 -0.055358376337990928 0 -0.061016616332318939 -0.054705283440066726 0 -0.061316372993408155 -0.059176377005546309 0 -0.058033217652803691 -0.057099970334050294 0 -0.061016616332318939 -0.054705283440066726 0 -0.061316372993408155 -0.059176377005546309 0 -0.056905898557352584 -0.054381226591192808 0 -0.058033217652803691 -0.057099970334050294 0 -0.061016616332318939 -0.054705283440066726 0 -0.060045890362304351 -0.06302881971455418 0 -0.05592738324490535 -0.060447282490605214 0 -0.061316372993408155 -0.059176377005546309 0 -0.060045890362304351 -0.06302881971455418 0 -0.061316372993408155 -0.059176377005546309 0 -0.064461252788887438 -0.062213609701897023 0 -0.061316372993408155 -0.059176377005546309 0 -0.064461252788887438 -0.062213609701897023 0 -0.067678376907931007 -0.058550797415890983 0 -0.071395866660491164 -0.065612357026177862 0 -0.064461252788887438 -0.062213609701897023 0 -0.067678376907931007 -0.058550797415890983 0 -0.071395866660491164 -0.065612357026177862 0 -0.067678376907931007 -0.058550797415890983 0 -0.075715902025088641 -0.057461776414092884 0 -0.068795643504275361 -0.025480091752754876 0 -0.074186846011774082 -0.035483176066204297 0 -0.081247888667891136 -0.019622985078291241 0 -0.083917789210379623 -0.019236314322138154 0 -0.082393373698150751 -0.021435883399577083 0 -0.083917789210379623 -0.019236314322138154 0 -0.082393373698150751 -0.021435883399577083 0 -0.082841790437085533 -0.021900690479982259 0 -0.067678376907931007 -0.058550797415890983 0 -0.067986322852018111 -0.052212326808639499 0 -0.073004328717632697 -0.052529435745224375 0 -0.067678376907931007 -0.058550797415890983 0 -0.075715902025088641 -0.057461776414092884 0 -0.073004328717632697 -0.052529435745224375 0 -0.067986322852018111 -0.052212326808639499 0 -0.073980551960531285 -0.045759162979948712 0 -0.068442624803871782 -0.047530144070646034 0 -0.067986322852018111 -0.052212326808639499 0 -0.073004328717632697 -0.052529435745224375 0 -0.073980551960531285 -0.045759162979948712 0 -0.073004328717632697 -0.052529435745224375 0 -0.073980551960531285 -0.045759162979948712 0 -0.080708428907508137 -0.04743392527822192 0 -0.074186846011774082 -0.035483176066204297 0 -0.078283063316708132 -0.035449076782160756 0 -0.075715902025088641 -0.057461776414092884 0 -0.073004328717632697 -0.052529435745224375 0 -0.080708428907508137 -0.04743392527822192 0 -0.073980551960531285 -0.045759162979948712 0 -0.077147184619426185 -0.040579776392427824 0 -0.078687677948268142 -0.043420780468307864 0 -0.077433357098359357 -0.036555996411564033 0 -0.078283063316708132 -0.035449076782160756 0 -0.073980551960531285 -0.045759162979948712 0 -0.071130700902748589 -0.04321744290893078 0 -0.075529641968930236 -0.040485005691545714 0 -0.073980551960531285 -0.045759162979948712 0 -0.077147184619426185 -0.040579776392427824 0 -0.075529641968930236 -0.040485005691545714 0 -0.073980551960531285 -0.045759162979948712 0 -0.068442624803871782 -0.047530144070646034 0 -0.071130700902748589 -0.04321744290893078 0 -0.068442624803871782 -0.047530144070646034 0 -0.064055564786935748 -0.050750372137352111 0 -0.065180666057319772 -0.046072640803169841 0 -0.068442624803871782 -0.047530144070646034 0 -0.065180666057319772 -0.046072640803169841 0 -0.071130700902748589 -0.04321744290893078 0 -0.064665050744728822 -0.055358376337990928 0 -0.061016616332318939 -0.054705283440066726 0 -0.064055564786935748 -0.050750372137352111 0 -0.064665050744728822 -0.055358376337990928 0 -0.067986322852018111 -0.052212326808639499 0 -0.064055564786935748 -0.050750372137352111 0 -0.067986322852018111 -0.052212326808639499 0 -0.068442624803871782 -0.047530144070646034 0 -0.064055564786935748 -0.050750372137352111 0 -0.058152412055443498 -0.050564263302731137 0 -0.056905898557352584 -0.054381226591192808 0 -0.061016616332318939 -0.054705283440066726 0 -0.058152412055443498 -0.050564263302731137 0 -0.061016616332318939 -0.054705283440066726 0 -0.064055564786935748 -0.050750372137352111 0 -0.058152412055443498 -0.050564263302731137 0 -0.064055564786935748 -0.050750372137352111 0 -0.065180666057319772 -0.046072640803169841 0 -0.053984327892717864 -0.046343887504739827 0 -0.065180666057319772 -0.046072640803169841 0 -0.065283514565803225 -0.040980995882585254 0 -0.053984327892717864 -0.046343887504739827 0 -0.058152412055443498 -0.050564263302731137 0 -0.065180666057319772 -0.046072640803169841 0 -0.065180666057319772 -0.046072640803169841 0 -0.065283514565803225 -0.040980995882585254 0 -0.070116515817793545 -0.040734044394381871 0 -0.065180666057319772 -0.046072640803169841 0 -0.070116515817793545 -0.040734044394381871 0 -0.071130700902748589 -0.04321744290893078 0 -0.065283514565803225 -0.040980995882585254 0 -0.07125369703398847 -0.037094352285806986 0 -0.070116515817793545 -0.040734044394381871 0 -0.053984327892717864 -0.046343887504739827 0 -0.065283514565803225 -0.040980995882585254 0 -0.0623741340114565 -0.035638925952953669 0 -0.065283514565803225 -0.040980995882585254 0 -0.0623741340114565 -0.035638925952953669 0 -0.07125369703398847 -0.037094352285806986 0 -0.07125369703398847 -0.037094352285806986 0 -0.076389084978040644 -0.03416678964723973 0 -0.068461169347558123 -0.030442084229811522 0 -0.0623741340114565 -0.035638925952953669 0 -0.07125369703398847 -0.037094352285806986 0 -0.068461169347558123 -0.030442084229811522 0 -0.058723357072720118 -0.044605162543886037 0 -0.06203577880716768 -0.045495386627148825 0 -0.050301271822614603 -0.04842260589957216 0 -0.05048921338425242 -0.048416393104864404 0 -0.050875535295947676 -0.04806501570780309 0 -0.076389084978040644 -0.03416678964723973 0 -0.075926885026912264 -0.036006742401023646 0 -0.077307570718101362 -0.03606783856727408 0 -0.07125369703398847 -0.037094352285806986 0 -0.076389084978040644 -0.03416678964723973 0 -0.075926885026912264 -0.036006742401023646 0 -0.07125369703398847 -0.037094352285806986 0 -0.075926885026912264 -0.036006742401023646 0 -0.07541552884594277 -0.038202034096156003 0 -0.075926885026912264 -0.036006742401023646 0 -0.07541552884594277 -0.038202034096156003 0 -0.077186180517966607 -0.036206103262538925 0 -0.075926885026912264 -0.036006742401023646 0 -0.077186180517966607 -0.036206103262538925 0 -0.077307570718101362 -0.03606783856727408 0 -0.07125369703398847 -0.037094352285806986 0 -0.07541552884594277 -0.038202034096156003 0 -0.070116515817793545 -0.040734044394381871 0 -0.07541552884594277 -0.038202034096156003 0 -0.070116515817793545 -0.040734044394381871 0 -0.071130700902748589 -0.04321744290893078 0 -0.07541552884594277 -0.038202034096156003 0 -0.075529641968930236 -0.040485005691545714 0 -0.078049742525127697 -0.037595943535966431 0 -0.07541552884594277 -0.038202034096156003 0 -0.071130700902748589 -0.04321744290893078 0 -0.075529641968930236 -0.040485005691545714 0 -0.077147184619426185 -0.040579776392427824 0 -0.075529641968930236 -0.040485005691545714 0 -0.078049742525127697 -0.037595943535966431 0 -0.078049742525127697 -0.037595943535966431 0 -0.078527304108023124 -0.035600687426957725 0 -0.079488856547018719 -0.037193365679819568 0 -0.078049742525127697 -0.037595943535966431 0 -0.078527304108023124 -0.035600687426957725 0 -0.078114596176334011 -0.036146808840669203 0 -0.078527304108023124 -0.035600687426957725 0 -0.078114596176334011 -0.036146808840669203 0 -0.07767705371005007 -0.03390398942940407 0 -0.078527304108023124 -0.035600687426957725 0 -0.07767705371005007 -0.03390398942940407 0 -0.077807905138488329 -0.032945641423920119 0 -0.078527304108023124 -0.035600687426957725 0 -0.077807905138488329 -0.032945641423920119 0 -0.079488856547018719 -0.037193365679819568 0 -0.078114596176334011 -0.036146808840669203 0 -0.07776778483136311 -0.035863499980525917 0 -0.07767705371005007 -0.03390398942940407 0 -0.07541552884594277 -0.038202034096156003 0 -0.078049742525127697 -0.037595943535966431 0 -0.078114596176334011 -0.036146808840669203 0 -0.07541552884594277 -0.038202034096156003 0 -0.078114596176334011 -0.036146808840669203 0 -0.077186180517966607 -0.036206103262538925 0 -0.077186180517966607 -0.036206103262538925 0 -0.07776778483136311 -0.035863499980525917 0 -0.077307570718101362 -0.03606783856727408 0 -0.078114596176334011 -0.036146808840669203 0 -0.077186180517966607 -0.036206103262538925 0 -0.07776778483136311 -0.035863499980525917 0 -0.07776778483136311 -0.035863499980525917 0 -0.077373396693779628 -0.036891006334542981 0 -0.0769422862018634 -0.037486468041922349 0 -0.07776778483136311 -0.035863499980525917 0 -0.077373396693779628 -0.036891006334542981 0 -0.077307570718101362 -0.03606783856727408 0 -0.074999294422402163 -0.036988358093874213 0 -0.076848816476572171 -0.035021970342223055 0 -0.0769422862018634 -0.037486468041922349 0 -0.07776778483136311 -0.035863499980525917 0 -0.076848816476572171 -0.035021970342223055 0 -0.0769422862018634 -0.037486468041922349 0 -0.07776778483136311 -0.035863499980525917 0 -0.076848816476572171 -0.035021970342223055 0 -0.07767705371005007 -0.03390398942940407 0 -0.074999294422402163 -0.036988358093874213 0 -0.076848816476572171 -0.035021970342223055 0 -0.074999667598416322 -0.032663867022242325 0 -0.07767705371005007 -0.03390398942940407 0 -0.074999474089666437 -0.028339650692015682 0 -0.077807905138488329 -0.032945641423920119 0 -0.074999667598416322 -0.032663867022242325 0 -0.07767705371005007 -0.03390398942940407 0 -0.074999474089666437 -0.028339650692015682 0 -0.076848816476572171 -0.035021970342223055 0 -0.074999667598416322 -0.032663867022242325 0 -0.07767705371005007 -0.03390398942940407 0 -0.074999474089666437 -0.028339650692015682 0 -0.077387780909409287 -0.029406116434044973 0 -0.077807905138488329 -0.032945641423920119 0 -0.074999474089666437 -0.028339650692015682 0 -0.074999106271667365 -0.024013338160201861 0 -0.077387780909409287 -0.029406116434044973 0 -0.07499983870117051 -0.024015909046636925 0 -0.076651182511219246 -0.028863599401388801 0 -0.07500007184947606 -0.024007361078023672 0 -0.078581842382138001 -0.024347989342586002 0 -0.077754743912995319 -0.022148508899997189 0 -0.077387780909409287 -0.029406116434044973 0 -0.077807905138488329 -0.032945641423920119 0 -0.079488856547018719 -0.037193365679819568 0 -0.077387780909409287 -0.029406116434044973 0 -0.079488856547018719 -0.037193365679819568 0 -0.080791576969664838 -0.034436379887821458 0 -0.077147184619426185 -0.040579776392427824 0 -0.078049742525127697 -0.037595943535966431 0 -0.079488856547018719 -0.037193365679819568 0 -0.078190207459429839 -0.035964326214108437 0 -0.078283063316708132 -0.035449076782160756 0 -0.077147184619426185 -0.040579776392427824 0 -0.079488856547018719 -0.037193365679819568 0 -0.078687677948268142 -0.043420780468307864 0 -0.076651182511219246 -0.028863599401388801 0 -0.078283063316708132 -0.035449076782160756 0 -0.078581842382138001 -0.024347989342586002 0 -0.08166302180138546 -0.024850131085508244 0 -0.08076545489941421 -0.022613740197056434 0 -0.078581842382138001 -0.024347989342586002 0 -0.079175299293022833 -0.022485232549457463 0 -0.08076545489941421 -0.022613740197056434 0 -0.079175299293022833 -0.022485232549457463 0 -0.08076545489941421 -0.022613740197056434 0 -0.079565929622101253 -0.020855621965360591 0 -0.082393373698150751 -0.021435883399577083 0 -0.082841790437085533 -0.021900690479982259 0 -0.08076545489941421 -0.022613740197056434 0 -0.082841790437085533 -0.021900690479982259 0 -0.08166302180138546 -0.024850131085508244 0 -0.08076545489941421 -0.022613740197056434 0 -0.082393373698150751 -0.021435883399577083 0 -0.08076545489941421 -0.022613740197056434 0 -0.079565929622101253 -0.020855621965360591 0 -0.080715898326692764 -0.020845591869216938 0 -0.07916379268990488 -0.020519405261714387 0 -0.081247888667891136 -0.019622985078291241 0 -0.082393373698150751 -0.021435883399577083 0 -0.0796577040433184 -0.021080210243565531 0 -0.078459777220174567 -0.020029833055199231 0 -0.081247888667891136 -0.019622985078291241 0 -0.0796577040433184 -0.021080210243565531 0 -0.07916379268990488 -0.020519405261714387 0 -0.075975955542390602 -0.019713434542148238 0 -0.078459777220174567 -0.020029833055199231 0 -0.0796577040433184 -0.021080210243565531 0 -0.076910441986152989 -0.020700475502123693 0 -0.079565929622101253 -0.020855621965360591 0 -0.076290962625930103 -0.020061079965844462 0 -0.077754743912995319 -0.022148508899997189 0 -0.076778626931456914 -0.018317925287146524 0 -0.075975955542390602 -0.019713434542148238 0 -0.076778626931456914 -0.018317925287146524 0 -0.075002118597200129 -0.019308365660923126 0 -0.078429653762863621 -0.018794393552245433 0 -0.076322750093912498 -0.019708524245493294 0 -0.07500004490979989 -0.019310231164466545 0 -0.075975955542390602 -0.019713434542148238 0 -0.075002517476776942 -0.019545393391666669 0 -0.0764539979557705 -0.019744004712813065 0 -0.074999998675069887 -0.019544882404544779 0 -0.074999999393660616 -0.020379962832044279 0 -0.076322750093912498 -0.019708524245493294 0 -0.07500004490979989 -0.019310231164466545 0 -0.074999949007005254 -0.019544642193222238 0 -0.076290962625930103 -0.020061079965844462 0 -0.074999759475934721 -0.020381340941802214 0 -0.076185010025267577 -0.021672804265121845 0 -0.075975955542390602 -0.019713434542148238 0 -0.075002083075823428 -0.020377958248753904 0 -0.07500007184947606 -0.024007361078023672 0 -0.074999759475934721 -0.020381340941802214 0 -0.076185010025267577 -0.021672804265121845 0 -0.07500007184947606 -0.024007361078023672 0 -0.076185010025267577 -0.021672804265121845 0 -0.077754743912995319 -0.022148508899997189 0 -0.076290962625930103 -0.020061079965844462 0 -0.076185010025267577 -0.021672804265121845 0 -0.077754743912995319 -0.022148508899997189 0 -0.078581842382138001 -0.024347989342586002 0 -0.079175299293022833 -0.022485232549457463 0 -0.077754743912995319 -0.022148508899997189 0 -0.079175299293022833 -0.022485232549457463 0 -0.079565929622101253 -0.020855621965360591 0 -0.077754743912995319 -0.022148508899997189 0 -0.07598278523763001 -0.052646981398239118 0 -0.075398974663112114 -0.054853620757069517 0 -0.07599118711304656 -0.054952104585051897 0 -0.07598278523763001 -0.052646981398239118 0 -0.07533929234204674 -0.052414086057227659 0 -0.075398974663112114 -0.054853620757069517 0 -0.07533929234204674 -0.052414086057227659 0 -0.074998328750998863 -0.054296107491940346 0 -0.075398974663112114 -0.054853620757069517 0 -0.07533929234204674 -0.052414086057227659 0 -0.074998328750998863 -0.054296107491940346 0 -0.074998048474496051 -0.049967690283025105 0 -0.074998328750998863 -0.054296107491940346 0 -0.075398974663112114 -0.054853620757069517 0 -0.075088230694524194 -0.057026032111025624 0 -0.075398974663112114 -0.054853620757069517 0 -0.075122241313929999 -0.056725024232351859 0 -0.075088230694524194 -0.057026032111025624 0 -0.075398974663112114 -0.054853620757069517 0 -0.07599118711304656 -0.054952104585051897 0 -0.075122241313929999 -0.056725024232351859 0 -0.07599118711304656 -0.054952104585051897 0 -0.075361622384827409 -0.057034597774357723 0 -0.075122241313929999 -0.056725024232351859 0 -0.07599118711304656 -0.054952104585051897 0 -0.077425926119266977 -0.054434896932512501 0 -0.075361622384827409 -0.057034597774357723 0 -0.077425926119266977 -0.054434896932512501 0 -0.077203054042087757 -0.055605522358417217 0 -0.075361622384827409 -0.057034597774357723 0 -0.074153312024095502 -0.05272297770160092 0 -0.073167477757442395 -0.053281291067085942 0 -0.077425926119266977 -0.054434896932512501 0 -0.078166792987972133 -0.051254713357148401 0 -0.080546381491631791 -0.050885862084737027 0 -0.07599118711304656 -0.054952104585051897 0 -0.077425926119266977 -0.054434896932512501 0 -0.076817402226269857 -0.053012892676162555 0 -0.077425926119266977 -0.054434896932512501 0 -0.076817402226269857 -0.053012892676162555 0 -0.078166792987972133 -0.051254713357148401 0 -0.07598278523763001 -0.052646981398239118 0 -0.07599118711304656 -0.054952104585051897 0 -0.076817402226269857 -0.053012892676162555 0 -0.07598278523763001 -0.052646981398239118 0 -0.076817402226269857 -0.053012892676162555 0 -0.076899470379561727 -0.050813137884498316 0 -0.076899470379561727 -0.050813137884498316 0 -0.077963653050831874 -0.048163213162804017 0 -0.076121008551873981 -0.048762562554708733 0 -0.07598278523763001 -0.052646981398239118 0 -0.076899470379561727 -0.050813137884498316 0 -0.076121008551873981 -0.048762562554708733 0 -0.078166792987972133 -0.051254713357148401 0 -0.077963653050831874 -0.048163213162804017 0 -0.080493289458746661 -0.050319089309970935 0 -0.07454230873050334 -0.052562475609569788 0 -0.073230834714240925 -0.052675678485253688 0 -0.078166792987972133 -0.051254713357148401 0 -0.080493289458746661 -0.050319089309970935 0 -0.080546381491631791 -0.050885862084737027 0 -0.076817402226269857 -0.053012892676162555 0 -0.076899470379561727 -0.050813137884498316 0 -0.078166792987972133 -0.051254713357148401 0 -0.076899470379561727 -0.050813137884498316 0 -0.078166792987972133 -0.051254713357148401 0 -0.077963653050831874 -0.048163213162804017 0 -0.077963653050831874 -0.048163213162804017 0 -0.079092433951136215 -0.043915106756995809 0 -0.080914081539330315 -0.049938922686922863 0 -0.077963653050831874 -0.048163213162804017 0 -0.077570926401182058 -0.045185828025693216 0 -0.079092433951136215 -0.043915106756995809 0 -0.077963653050831874 -0.048163213162804017 0 -0.076121008551873981 -0.048762562554708733 0 -0.077570926401182058 -0.045185828025693216 0 -0.076121008551873981 -0.048762562554708733 0 -0.076565901064003794 -0.044273119699362033 0 -0.075713105109038323 -0.046455622929232727 0 -0.07598278523763001 -0.052646981398239118 0 -0.07533929234204674 -0.052414086057227659 0 -0.076121008551873981 -0.048762562554708733 0 -0.07533929234204674 -0.052414086057227659 0 -0.076121008551873981 -0.048762562554708733 0 -0.074998048474496051 -0.049967690283025105 0 -0.076121008551873981 -0.048762562554708733 0 -0.074998048474496051 -0.049967690283025105 0 -0.075713105109038323 -0.046455622929232727 0 -0.074998048474496051 -0.049967690283025105 0 -0.074998533191999422 -0.045640752290112212 0 -0.075713105109038323 -0.046455622929232727 0 -0.074998533191999422 -0.045640752290112212 0 -0.075713105109038323 -0.046455622929232727 0 -0.075743718192543094 -0.04329651553802441 0 -0.076565901064003794 -0.044273119699362033 0 -0.075713105109038323 -0.046455622929232727 0 -0.075743718192543094 -0.04329651553802441 0 -0.076565901064003794 -0.044273119699362033 0 -0.075743718192543094 -0.04329651553802441 0 -0.0765108804045838 -0.040662161790832374 0 -0.074998533191999422 -0.045640752290112212 0 -0.075743718192543094 -0.04329651553802441 0 -0.074998694530634027 -0.041314063973924751 0 -0.074998694530634027 -0.041314063973924751 0 -0.0765108804045838 -0.040662161790832374 0 -0.075898439398353862 -0.039128137140912636 0 -0.075743718192543094 -0.04329651553802441 0 -0.074998694530634027 -0.041314063973924751 0 -0.0765108804045838 -0.040662161790832374 0 -0.0765108804045838 -0.040662161790832374 0 -0.0769422862018634 -0.037486468041922349 0 -0.075898439398353862 -0.039128137140912636 0 -0.074999294422402163 -0.036988358093874213 0 -0.0769422862018634 -0.037486468041922349 0 -0.075898439398353862 -0.039128137140912636 0 -0.074999294422402163 -0.036988358093874213 0 -0.074998694530634027 -0.041314063973924751 0 -0.075898439398353862 -0.039128137140912636 0 -0.077373396693779628 -0.036891006334542981 0 -0.077307570718101362 -0.03606783856727408 0 -0.077463634022014116 -0.038784854748941111 0 -0.077307570718101362 -0.03606783856727408 0 -0.077463634022014116 -0.038784854748941111 0 -0.077595998628337326 -0.037650221474767459 0 -0.077373396693779628 -0.036891006334542981 0 -0.0769422862018634 -0.037486468041922349 0 -0.077463634022014116 -0.038784854748941111 0 -0.0765108804045838 -0.040662161790832374 0 -0.0769422862018634 -0.037486468041922349 0 -0.077463634022014116 -0.038784854748941111 0 -0.0765108804045838 -0.040662161790832374 0 -0.077463634022014116 -0.038784854748941111 0 -0.07768116382180186 -0.041975103798275445 0 -0.077463634022014116 -0.038784854748941111 0 -0.07768116382180186 -0.041975103798275445 0 -0.078514062436084303 -0.040991553732099298 0 -0.07768116382180186 -0.041975103798275445 0 -0.079092433951136215 -0.043915106756995809 0 -0.078514062436084303 -0.040991553732099298 0 -0.076565901064003794 -0.044273119699362033 0 -0.0765108804045838 -0.040662161790832374 0 -0.07768116382180186 -0.041975103798275445 0 -0.076121008551873981 -0.048762562554708733 0 -0.076565901064003794 -0.044273119699362033 0 -0.077570926401182058 -0.045185828025693216 0 -0.076565901064003794 -0.044273119699362033 0 -0.07768116382180186 -0.041975103798275445 0 -0.077570926401182058 -0.045185828025693216 0 -0.07768116382180186 -0.041975103798275445 0 -0.077570926401182058 -0.045185828025693216 0 -0.079092433951136215 -0.043915106756995809 0 -0.079092433951136215 -0.043915106756995809 0 -0.080102092022098517 -0.043784557470158941 0 -0.078514062436084303 -0.040991553732099298 0 -0.054951159100288104 -0.053897955778129739 0 -0.055186650616081294 -0.053857791590928281 0 -0.054877373217201778 -0.053997185818088669 0 -0.055033427408357642 -0.053842550061387474 0 -0.054951159100288104 -0.053897955778129739 0 -0.054848312077059633 -0.053837055812508826 0 -0.055033427408357642 -0.053842550061387474 0 -0.054951159100288104 -0.053897955778129739 0 -0.055186650616081294 -0.053857791590928281 0 -0.055186650616081294 -0.053857791590928281 0 -0.054893237436628183 -0.054161177631550671 0 -0.054877373217201778 -0.053997185818088669 0 -0.069015125379160311 -0.04961860388117869 0 -0.066308898663752003 -0.047203192703540904 0 -0.055186650616081294 -0.053857791590928281 0 -0.054930041161175287 -0.054564972144187165 0 -0.054893237436628183 -0.054161177631550671 0 -0.080102092022098517 -0.043784557470158941 0 -0.078514062436084303 -0.040991553732099298 0 -0.080389058847466013 -0.040302841681355506 0 -0.076389084978040644 -0.03416678964723973 0 -0.077595998628337326 -0.037650221474767459 0 -0.080389058847466013 -0.040302841681355506 0 -0.077463634022014116 -0.038784854748941111 0 -0.078514062436084303 -0.040991553732099298 0 -0.077595998628337326 -0.037650221474767459 0 -0.078514062436084303 -0.040991553732099298 0 -0.077595998628337326 -0.037650221474767459 0 -0.080389058847466013 -0.040302841681355506 0 -0.076389084978040644 -0.03416678964723973 0 -0.077307570718101362 -0.03606783856727408 0 -0.077595998628337326 -0.037650221474767459 0 -0.076389084978040644 -0.03416678964723973 0 -0.081707355694463038 -0.035238661245018559 0 -0.080389058847466013 -0.040302841681355506 0 -0.06203577880716768 -0.045495386627148825 0 -0.053675813633769325 -0.048729969222555458 0 -0.054401646196006334 -0.055768246592337513 0 -0.054047349992186799 -0.054939472017157168 0 -0.053249949730845215 -0.055547140640353203 0 -0.050301271822614603 -0.04842260589957216 0 -0.050875535295947676 -0.04806501570780309 0 -0.050250929495599041 -0.047739948042198874 0 -0.068178994392355849 -0.044168783522365716 0 -0.06203577880716768 -0.045495386627148825 0 -0.054047349992186799 -0.054939472017157168 0 -0.054930041161175287 -0.054564972144187165 0 -0.054363596513193981 -0.054385521723292432 0 -0.06203577880716768 -0.045495386627148825 0 -0.066308898663752003 -0.047203192703540904 0 -0.054401646196006334 -0.055768246592337513 0 -0.054047349992186799 -0.054939472017157168 0 -0.054930041161175287 -0.054564972144187165 0 -0.054047349992186799 -0.054939472017157168 0 -0.053650117023718621 -0.054499585529677701 0 -0.053539381317340311 -0.054958868956749646 0 -0.054047349992186799 -0.054939472017157168 0 -0.053650117023718621 -0.054499585529677701 0 -0.054363596513193981 -0.054385521723292432 0 -0.053812764615471582 -0.054091924208777911 0 -0.054363596513193981 -0.054385521723292432 0 -0.054678342008441121 -0.053974720958188324 0 -0.053650117023718621 -0.054499585529677701 0 -0.053812764615471582 -0.054091924208777911 0 -0.054363596513193981 -0.054385521723292432 0 -0.054930041161175287 -0.054564972144187165 0 -0.054363596513193981 -0.054385521723292432 0 -0.054722355285835966 -0.054223234917442527 0 -0.054363596513193981 -0.054385521723292432 0 -0.054722355285835966 -0.054223234917442527 0 -0.054678342008441121 -0.053974720958188324 0 -0.054930041161175287 -0.054564972144187165 0 -0.054722355285835966 -0.054223234917442527 0 -0.054893237436628183 -0.054161177631550671 0 -0.054722355285835966 -0.054223234917442527 0 -0.054893237436628183 -0.054161177631550671 0 -0.054739495977661666 -0.053998080281589991 0 -0.054893237436628183 -0.054161177631550671 0 -0.054877373217201778 -0.053997185818088669 0 -0.054739495977661666 -0.053998080281589991 0 -0.054722355285835966 -0.054223234917442527 0 -0.054739495977661666 -0.053998080281589991 0 -0.054678342008441121 -0.053974720958188324 0 -0.052514029023249545 -0.054709408708614148 0 -0.052504509762764308 -0.054709871337039161 0 -0.05263078460586814 -0.054670432171233754 0 -0.052504509762764308 -0.054709871337039161 0 -0.054877373217201778 -0.053997185818088669 0 -0.05476750378337783 -0.054044339612992653 0 -0.054799687271849501 -0.053962364224490578 0 -0.054877373217201778 -0.053997185818088669 0 -0.054739495977661666 -0.053998080281589991 0 -0.054685756226959703 -0.053979299804568032 0 -0.052504509762764308 -0.054709871337039161 0 -0.051719193071982722 -0.054898523436704122 0 -0.05476750378337783 -0.054044339612992653 0 -0.054799687271849501 -0.053962364224490578 0 -0.054524543815404787 -0.054033886215064678 0 -0.054713682916757503 -0.054096806494152078 0 -0.054666466052956914 -0.054094498850384157 0 -0.054899338459178382 -0.053884713116412929 0 -0.053391760401426035 -0.054062449197776342 0 -0.051719193071982722 -0.054898523436704122 0 -0.051088111999693347 -0.055055126746123034 0 -0.052870992525469736 -0.05398911763311362 0 -0.054799687271849501 -0.053962364224490578 0 -0.054848312077059633 -0.053837055812508826 0 -0.054524543815404787 -0.054033886215064678 0 -0.054967009235045716 -0.053922645661342951 0 -0.054713682916757503 -0.054096806494152078 0 -0.054899338459178382 -0.053884713116412929 0 -0.054951159100288104 -0.053897955778129739 0 -0.054877373217201778 -0.053997185818088669 0 -0.054799687271849501 -0.053962364224490578 0 -0.054951159100288104 -0.053897955778129739 0 -0.054799687271849501 -0.053962364224490578 0 -0.054848312077059633 -0.053837055812508826 0 -0.051562167727350477 -0.054736782036898163 0 -0.052504509762764308 -0.054709871337039161 0 -0.051684455708284997 -0.054807580493612743 0 -0.052051675456390584 -0.054694731344585475 0 -0.051862048182233958 -0.054685105951698704 0 -0.051088111999693347 -0.055055126746123034 0 -0.043048538210141589 -0.056875308424037707 0 -0.054258188350039892 -0.054595941519153562 0 -0.054271993964578102 -0.05415297559000528 0 -0.053510049078357422 -0.054565653749606868 0 -0.046947016072623311 -0.055405127868271578 0 -0.04742798387111806 -0.05495899779392855 0 -0.046479101646499786 -0.054908163335139995 0 -0.051562167727350477 -0.054736782036898163 0 -0.051088111999693347 -0.055055126746123034 0 -0.05167202732389601 -0.054605221479409466 0 -0.050800123088210684 -0.055221823464840371 0 -0.051018927798654717 -0.05523137093534132 0 -0.051562167727350477 -0.054736782036898163 0 -0.051719193071982722 -0.054898523436704122 0 -0.051719193071982722 -0.054898523436704122 0 -0.051088111999693347 -0.055055126746123034 0 -0.054258188350039892 -0.054595941519153562 0 -0.054271993964578102 -0.05415297559000528 0 -0.054804328104558701 -0.054074458904978494 0 -0.047965375455939589 -0.057501603199827715 0 -0.043048538210141589 -0.056875308424037707 0 -0.030186849050724919 -0.059675867514660627 0 -0.03164124916263495 -0.060344640049856929 0 -0.031637952047581054 -0.058825724785788146 0 -0.047965375455939589 -0.057501603199827715 0 -0.048186208794222717 -0.057280369643052005 0 -0.030186849050724919 -0.059675867514660627 0 -0.031076598975349073 -0.062397596351436678 0 -0.03164124916263495 -0.060344640049856929 0 -0.05473576154835124 -0.053976199590676344 0 -0.054670967337625338 -0.053663093925999453 0 -0.054902634637421809 -0.053675297913903713 0 -0.054670967337625338 -0.053663093925999453 0 -0.054902634637421809 -0.053675297913903713 0 -0.054803219232453217 -0.053548809533370115 0 -0.054902634637421809 -0.053675297913903713 0 -0.05508849818703318 -0.053643383226048225 0 -0.055047328822626772 -0.053516798337095717 0 -0.054902634637421809 -0.053675297913903713 0 -0.055085432822727994 -0.053750998339412694 0 -0.05508849818703318 -0.053643383226048225 0 -0.054902634637421809 -0.053675297913903713 0 -0.05489437089618758 -0.053875367766756964 0 -0.055085432822727994 -0.053750998339412694 0 -0.05473576154835124 -0.053976199590676344 0 -0.054902634637421809 -0.053675297913903713 0 -0.05489437089618758 -0.053875367766756964 0 -0.047965375455939589 -0.057501603199827715 0 -0.050296589661603774 -0.056172274054667196 0 -0.054271993964578102 -0.05415297559000528 0 -0.054804328104558701 -0.054074458904978494 0 -0.05489437089618758 -0.053875367766756964 0 -0.052870992525469736 -0.05398911763311362 0 -0.053375916192152366 -0.053703524784454434 0 -0.054967009235045716 -0.053922645661342951 0 -0.054899338459178382 -0.053884713116412929 0 -0.055085432822727994 -0.053750998339412694 0 -0.054804328104558701 -0.054074458904978494 0 -0.05489437089618758 -0.053875367766756964 0 -0.055085432822727994 -0.053750998339412694 0 -0.054967009235045716 -0.053922645661342951 0 -0.055144602278559295 -0.053775248136791125 0 -0.055085432822727994 -0.053750998339412694 0 -0.055033427408357642 -0.053842550061387474 0 -0.054848312077059633 -0.053837055812508826 0 -0.055144602278559295 -0.053775248136791125 0 -0.055186650616081294 -0.053857791590928281 0 -0.055144602278559295 -0.053775248136791125 0 -0.055189956952231362 -0.053701095221552898 0 -0.053391760401426035 -0.054062449197776342 0 -0.053850472446907355 -0.053844992928787437 0 -0.055033427408357642 -0.053842550061387474 0 -0.055186650616081294 -0.053857791590928281 0 -0.055144602278559295 -0.053775248136791125 0 -0.055144602278559295 -0.053775248136791125 0 -0.055085432822727994 -0.053750998339412694 0 -0.055189956952231362 -0.053701095221552898 0 -0.080102092022098517 -0.043784557470158941 0 -0.079283224208535119 -0.045347086324540133 0 -0.079367488185178803 -0.045398949905312291 0 -0.069015125379160311 -0.04961860388117869 0 -0.07287927116960051 -0.05277364102113756 0 -0.079092433951136215 -0.043915106756995809 0 -0.080102092022098517 -0.043784557470158941 0 -0.079283224208535119 -0.045347086324540133 0 -0.055186650616081294 -0.053857791590928281 0 -0.055322550189354072 -0.053647493691484194 0 -0.055189956952231362 -0.053701095221552898 0 -0.074522280292352569 -0.047983885435185829 0 -0.073230834714240925 -0.052675678485253688 0 -0.074409344706517153 -0.052249523743723228 0 -0.07414587320556304 -0.052092738350316289 0 -0.074331695624843333 -0.051724300781843931 0 -0.073230834714240925 -0.052675678485253688 0 -0.07287927116960051 -0.05277364102113756 0 -0.074857084362400475 -0.068921286309112262 0 -0.075007446191755048 -0.068617590532598624 0 -0.073560833215241608 -0.06673720063724467 0 -0.07287927116960051 -0.05277364102113756 0 -0.073167477757442395 -0.053281291067085942 0 -0.073230834714240925 -0.052675678485253688 0 -0.073167477757442395 -0.053281291067085942 0 -0.055322550189354072 -0.053647493691484194 0 -0.05508849818703318 -0.053643383226048225 0 -0.055047328822626772 -0.053516798337095717 0 -0.055322550189354072 -0.053647493691484194 0 -0.055189956952231362 -0.053701095221552898 0 -0.05508849818703318 -0.053643383226048225 0 -0.07287927116960051 -0.05277364102113756 0 -0.065437050592544496 -0.056967551070487364 0 -0.055085432822727994 -0.053750998339412694 0 -0.055189956952231362 -0.053701095221552898 0 -0.05508849818703318 -0.053643383226048225 0 -0.074857084362400475 -0.068921286309112262 0 -0.071160186478199772 -0.066754538203669861 0 -0.073560833215241608 -0.06673720063724467 0 -0.071160186478199772 -0.066754538203669861 0 -0.072232335478222387 -0.06497372946602975 0 -0.069501543007290695 -0.064631991465993063 0 -0.071160186478199772 -0.066754538203669861 0 -0.073560833215241608 -0.06673720063724467 0 -0.072232335478222387 -0.06497372946602975 0 -0.077425926119266977 -0.054434896932512501 0 -0.07787133295283713 -0.053643779878224745 0 -0.077203054042087757 -0.055605522358417217 0 -0.075007446191755048 -0.068617590532598624 0 -0.073560833215241608 -0.06673720063724467 0 -0.074473579390161027 -0.064392626842913733 0 -0.073167477757442395 -0.053281291067085942 0 -0.074489620730206679 -0.058480443899650923 0 -0.073560833215241608 -0.06673720063724467 0 -0.074473579390161027 -0.064392626842913733 0 -0.072232335478222387 -0.06497372946602975 0 -0.074473579390161027 -0.064392626842913733 0 -0.072232335478222387 -0.06497372946602975 0 -0.071721231473256 -0.06245594261649539 0 -0.072232335478222387 -0.06497372946602975 0 -0.069501543007290695 -0.064631991465993063 0 -0.071721231473256 -0.06245594261649539 0 -0.069501543007290695 -0.064631991465993063 0 -0.068696278273104913 -0.062467706987904166 0 -0.071721231473256 -0.06245594261649539 0 -0.071160186478199772 -0.066754538203669861 0 -0.069501543007290695 -0.064631991465993063 0 -0.067496686338164816 -0.064597979249155904 0 -0.067674347564800882 -0.064767504971293924 0 -0.066553026409461979 -0.063170272617287498 0 -0.068696278273104913 -0.062467706987904166 0 -0.067674347564800882 -0.064767504971293924 0 -0.065348463007135676 -0.06483721438060247 0 -0.066553026409461979 -0.063170272617287498 0 -0.069501543007290695 -0.064631991465993063 0 -0.067674347564800882 -0.064767504971293924 0 -0.068696278273104913 -0.062467706987904166 0 -0.060852376587384391 -0.059616566630008784 0 -0.053763254235568318 -0.060397040776327335 0 -0.062740731660547722 -0.059975717989158669 0 -0.060852376587384391 -0.059616566630008784 0 -0.054670967337625338 -0.053663093925999453 0 -0.054803219232453217 -0.053548809533370115 0 -0.054591658762622598 -0.053415163055658958 0 -0.054766153758012998 -0.053407002361365849 0 -0.054803219232453217 -0.053548809533370115 0 -0.054591658762622598 -0.053415163055658958 0 -0.054902634637421809 -0.053675297913903713 0 -0.055047328822626772 -0.053516798337095717 0 -0.054803219232453217 -0.053548809533370115 0 -0.065437050592544496 -0.056967551070487364 0 -0.060852376587384391 -0.059616566630008784 0 -0.055047328822626772 -0.053516798337095717 0 -0.054766153758012998 -0.053407002361365849 0 -0.054803219232453217 -0.053548809533370115 0 -0.03313882837504635 -0.063380505847622226 0 -0.032007111609658287 -0.065250476397904308 0 -0.034201521605728834 -0.065406848557994987 0 -0.03313882837504635 -0.063380505847622226 0 -0.034201521605728834 -0.065406848557994987 0 -0.03463122630318153 -0.063500841558318005 0 -0.031076598975349073 -0.062397596351436678 0 -0.03313882837504635 -0.063380505847622226 0 -0.032007111609658287 -0.065250476397904308 0 -0.048186208794222717 -0.057280369643052005 0 -0.053763254235568318 -0.060397040776327335 0 -0.053763254235568318 -0.060397040776327335 0 -0.047541231187974931 -0.063346237880312864 0 -0.063509980955519754 -0.070276193114114482 0 -0.057082923363353764 -0.070086653657853965 0 -0.061509853368892364 -0.064266625310251249 0 -0.047541231187974931 -0.063346237880312864 0 -0.044727161529361376 -0.064640001060428748 0 -0.034201521605728834 -0.065406848557994987 0 -0.036601560844239572 -0.065721250073910456 0 -0.03463122630318153 -0.063500841558318005 0 -0.057082923363353764 -0.070086653657853965 0 -0.049529450808588511 -0.069306554348942825 0 -0.051416978932490823 -0.064940998960075741 0 -0.049529450808588511 -0.069306554348942825 0 -0.040978834550206324 -0.06589197355615975 0 -0.046205697985685461 -0.063836011216660979 0 -0.044727161529361376 -0.064640001060428748 0 -0.043710731162430037 -0.064922977096061207 0 -0.036601560844239572 -0.065721250073910456 0 -0.036362621238609116 -0.062785774881391476 0 -0.038471464964188566 -0.063816135845247063 0 -0.036601560844239572 -0.065721250073910456 0 -0.03463122630318153 -0.063500841558318005 0 -0.036362621238609116 -0.062785774881391476 0 -0.03463122630318153 -0.063500841558318005 0 -0.034454861709092163 -0.061640952490822458 0 -0.036362621238609116 -0.062785774881391476 0 -0.034454861709092163 -0.061640952490822458 0 -0.036362621238609116 -0.062785774881391476 0 -0.036311590412153615 -0.060638777460071229 0 -0.036362621238609116 -0.062785774881391476 0 -0.037805929228981315 -0.062229269929626366 0 -0.038471464964188566 -0.063816135845247063 0 -0.036362621238609116 -0.062785774881391476 0 -0.036311590412153615 -0.060638777460071229 0 -0.037805929228981315 -0.062229269929626366 0 -0.036311590412153615 -0.060638777460071229 0 -0.034759647612432214 -0.060074010833530297 0 -0.035635511662307294 -0.05912785504863826 0 -0.034454861709092163 -0.061640952490822458 0 -0.036311590412153615 -0.060638777460071229 0 -0.034759647612432214 -0.060074010833530297 0 -0.034454861709092163 -0.061640952490822458 0 -0.034759647612432214 -0.060074010833530297 0 -0.033635601131565745 -0.060219328045261415 0 -0.034454861709092163 -0.061640952490822458 0 -0.033635601131565745 -0.060219328045261415 0 -0.032677184948524153 -0.06105620768277116 0 -0.033635601131565745 -0.060219328045261415 0 -0.032677184948524153 -0.06105620768277116 0 -0.032613498990295378 -0.059796062462524828 0 -0.03313882837504635 -0.063380505847622226 0 -0.03463122630318153 -0.063500841558318005 0 -0.034454861709092163 -0.061640952490822458 0 -0.03313882837504635 -0.063380505847622226 0 -0.034454861709092163 -0.061640952490822458 0 -0.032677184948524153 -0.06105620768277116 0 -0.031076598975349073 -0.062397596351436678 0 -0.03313882837504635 -0.063380505847622226 0 -0.032677184948524153 -0.06105620768277116 0 -0.031076598975349073 -0.062397596351436678 0 -0.032677184948524153 -0.06105620768277116 0 -0.03164124916263495 -0.060344640049856929 0 -0.032677184948524153 -0.06105620768277116 0 -0.03164124916263495 -0.060344640049856929 0 -0.032613498990295378 -0.059796062462524828 0 -0.043048538210141589 -0.056875308424037707 0 -0.035702034756937735 -0.057547065634036478 0 -0.03164124916263495 -0.060344640049856929 0 -0.032613498990295378 -0.059796062462524828 0 -0.031637952047581054 -0.058825724785788146 0 -0.032613498990295378 -0.059796062462524828 0 -0.031637952047581054 -0.058825724785788146 0 -0.033705840983351838 -0.058959315252635473 0 -0.027635247636917899 -0.058302126193051938 0 -0.030345230001599777 -0.058451434074384065 0 -0.029943536652340091 -0.05687898371165561 0 -0.034759647612432214 -0.060074010833530297 0 -0.033635601131565745 -0.060219328045261415 0 -0.033705840983351838 -0.058959315252635473 0 -0.033635601131565745 -0.060219328045261415 0 -0.032613498990295378 -0.059796062462524828 0 -0.033705840983351838 -0.058959315252635473 0 -0.045306453267490963 -0.055574408126818242 0 -0.045507308116374039 -0.055832375917218381 0 -0.044136233447680258 -0.056223425125232283 0 -0.048344381207296554 -0.054764577814447706 0 -0.044061887327483687 -0.054984894339568255 0 -0.052563231061366976 -0.05415835877578018 0 -0.051717610638052851 -0.054754461459466296 0 -0.051278208897886104 -0.054506412293488883 0 -0.041172971304714485 -0.056828386624934696 0 -0.044061887327483687 -0.054984894339568255 0 -0.030345230001599777 -0.058451434074384065 0 -0.029943536652340091 -0.05687898371165561 0 -0.031838219048394394 -0.057219705298676878 0 -0.052563231061366976 -0.05415835877578018 0 -0.052964209157406933 -0.05429555132309969 0 -0.052206610752537394 -0.054823154837528816 0 -0.053739221327465787 -0.053817082773712478 0 -0.052563231061366976 -0.05415835877578018 0 -0.052964209157406933 -0.05429555132309969 0 -0.051562167727350477 -0.054736782036898163 0 -0.048344381207296554 -0.054764577814447706 0 -0.043048538210141589 -0.056875308424037707 0 -0.041172971304714485 -0.056828386624934696 0 -0.046947016072623311 -0.055405127868271578 0 -0.046479101646499786 -0.054908163335139995 0 -0.045507308116374039 -0.055832375917218381 0 -0.046479101646499786 -0.054908163335139995 0 -0.045306453267490963 -0.055574408126818242 0 -0.045507308116374039 -0.055832375917218381 0 -0.051562167727350477 -0.054736782036898163 0 -0.052249771446211631 -0.054421701752471546 0 -0.053650117023718621 -0.054499585529677701 0 -0.053147077467838456 -0.054568783212476081 0 -0.053402801776527772 -0.054710657715896421 0 -0.051562167727350477 -0.054736782036898163 0 -0.052201660155884656 -0.054480598591481258 0 -0.053650117023718621 -0.054499585529677701 0 -0.053812764615471582 -0.054091924208777911 0 -0.053147077467838456 -0.054568783212476081 0 -0.053635731174788107 -0.053890550708832065 0 -0.052937374820979197 -0.054345151550435088 0 -0.053015608732038429 -0.054499855299459554 0 -0.053650117023718621 -0.054499585529677701 0 -0.053402801776527772 -0.054710657715896421 0 -0.053539381317340311 -0.054958868956749646 0 -0.053270921448833386 -0.054815737827410248 0 -0.053539381317340311 -0.054958868956749646 0 -0.052960118476231381 -0.055076864306097963 0 -0.054047349992186799 -0.054939472017157168 0 -0.053539381317340311 -0.054958868956749646 0 -0.053249949730845215 -0.055547140640353203 0 -0.053147077467838456 -0.054568783212476081 0 -0.053402801776527772 -0.054710657715896421 0 -0.053270921448833386 -0.054815737827410248 0 -0.053402801776527772 -0.054710657715896421 0 -0.053270921448833386 -0.054815737827410248 0 -0.053539381317340311 -0.054958868956749646 0 -0.053539381317340311 -0.054958868956749646 0 -0.052960118476231381 -0.055076864306097963 0 -0.053249949730845215 -0.055547140640353203 0 -0.052960118476231381 -0.055076864306097963 0 -0.052337728582575127 -0.055189319892467628 0 -0.053249949730845215 -0.055547140640353203 0 -0.053147077467838456 -0.054568783212476081 0 -0.052960118476231381 -0.055076864306097963 0 -0.052337728582575127 -0.055189319892467628 0 -0.053147077467838456 -0.054568783212476081 0 -0.053270921448833386 -0.054815737827410248 0 -0.052960118476231381 -0.055076864306097963 0 -0.052937374820979197 -0.054345151550435088 0 -0.053015608732038429 -0.054499855299459554 0 -0.052206610752537394 -0.054823154837528816 0 -0.052201660155884656 -0.054480598591481258 0 -0.052223044366846542 -0.054564505608080641 0 -0.052249771446211631 -0.054421701752471546 0 -0.052275823051759304 -0.054441980342631334 0 -0.052337728582575127 -0.055189319892467628 0 -0.053249949730845215 -0.055547140640353203 0 -0.051780286180147288 -0.055245540105349829 0 -0.053015608732038429 -0.054499855299459554 0 -0.052206610752537394 -0.054823154837528816 0 -0.052337728582575127 -0.055189319892467628 0 -0.052563231061366976 -0.05415835877578018 0 -0.052206610752537394 -0.054823154837528816 0 -0.051717610638052851 -0.054754461459466296 0 -0.052206610752537394 -0.054823154837528816 0 -0.051780286180147288 -0.055245540105349829 0 -0.051717610638052851 -0.054754461459466296 0 -0.052206610752537394 -0.054823154837528816 0 -0.052337728582575127 -0.055189319892467628 0 -0.051780286180147288 -0.055245540105349829 0 -0.053675813633769325 -0.048729969222555458 0 -0.049601143949519901 -0.051161618725660871 0 -0.049365746011795365 -0.048572313238289769 0 -0.050250929495599041 -0.047739948042198874 0 -0.048406695841902138 -0.047423846665012835 0 -0.050301271822614603 -0.04842260589957216 0 -0.049365746011795365 -0.048572313238289769 0 -0.050250929495599041 -0.047739948042198874 0 -0.046917709921135156 -0.049378856649303381 0 -0.045920989994173073 -0.048788481105335159 0 -0.044024317399030607 -0.050238125689950112 0 -0.045920989994173073 -0.048788481105335159 0 -0.044024317399030607 -0.050238125689950112 0 -0.043751079939751275 -0.049565558473622262 0 -0.046917709921135156 -0.049378856649303381 0 -0.045920989994173073 -0.048788481105335159 0 -0.048406695841902138 -0.047423846665012835 0 -0.046917709921135156 -0.049378856649303381 0 -0.049365746011795365 -0.048572313238289769 0 -0.048406695841902138 -0.047423846665012835 0 -0.045920989994173073 -0.048788481105335159 0 -0.048406695841902138 -0.047423846665012835 0 -0.045021517109630323 -0.046991064667628014 0 -0.049601143949519901 -0.051161618725660871 0 -0.044175361990042038 -0.053194926642349608 0 -0.051780286180147288 -0.055245540105349829 0 -0.051000143456180008 -0.054656592766583377 0 -0.050181718848147761 -0.054837870054239443 0 -0.051780286180147288 -0.055245540105349829 0 -0.051717610638052851 -0.054754461459466296 0 -0.051000143456180008 -0.054656592766583377 0 -0.051717610638052851 -0.054754461459466296 0 -0.051278208897886104 -0.054506412293488883 0 -0.051000143456180008 -0.054656592766583377 0 -0.044061887327483687 -0.054984894339568255 0 -0.044277430840931054 -0.054893333306824027 0 -0.051273241609461229 -0.054494745035368775 0 -0.051000143456180008 -0.054656592766583377 0 -0.050181718848147761 -0.054837870054239443 0 -0.044061887327483687 -0.054984894339568255 0 -0.044175361990042038 -0.053194926642349608 0 -0.045920989994173073 -0.048788481105335159 0 -0.045021517109630323 -0.046991064667628014 0 -0.043751079939751275 -0.049565558473622262 0 -0.03516795063394073 -0.054367066768477079 0 -0.034795681175561942 -0.054281195315421985 0 -0.035674046004183668 -0.055713086058901483 0 -0.044059643309318455 -0.05317600802476094 0 -0.044175361990042038 -0.053194926642349608 0 -0.032444991394285902 -0.055237614801183943 0 -0.034795681175561942 -0.054281195315421985 0 -0.033999746885993137 -0.056463999351436034 0 -0.034795681175561942 -0.054281195315421985 0 -0.035674046004183668 -0.055713086058901483 0 -0.033999746885993137 -0.056463999351436034 0 -0.035674046004183668 -0.055713086058901483 0 -0.033999746885993137 -0.056463999351436034 0 -0.035435373310638618 -0.057335754950700202 0 -0.033999746885993137 -0.056463999351436034 0 -0.035435373310638618 -0.057335754950700202 0 -0.033308626683358433 -0.058744156461782368 0 -0.029943536652340091 -0.05687898371165561 0 -0.032444991394285902 -0.055237614801183943 0 -0.031838219048394394 -0.057219705298676878 0 -0.032444991394285902 -0.055237614801183943 0 -0.033999746885993137 -0.056463999351436034 0 -0.031838219048394394 -0.057219705298676878 0 -0.033999746885993137 -0.056463999351436034 0 -0.031838219048394394 -0.057219705298676878 0 -0.033308626683358433 -0.058744156461782368 0 -0.030345230001599777 -0.058451434074384065 0 -0.031838219048394394 -0.057219705298676878 0 -0.033308626683358433 -0.058744156461782368 0 -0.034759647612432214 -0.060074010833530297 0 -0.033705840983351838 -0.058959315252635473 0 -0.035635511662307294 -0.05912785504863826 0 -0.035702034756937735 -0.057547065634036478 0 -0.035135423980764434 -0.058020961651020081 0 -0.035435373310638618 -0.057335754950700202 0 -0.033308626683358433 -0.058744156461782368 0 -0.0369126473882209 -0.059028991502882273 0 -0.036311590412153615 -0.060638777460071229 0 -0.035635511662307294 -0.05912785504863826 0 -0.0369126473882209 -0.059028991502882273 0 -0.035135423980764434 -0.058020961651020081 0 -0.035655649455980473 -0.058193986799932158 0 -0.0369126473882209 -0.059028991502882273 0 -0.03817487847749327 -0.058125371027772904 0 -0.038306446105296189 -0.060573432926282533 0 -0.0369126473882209 -0.059028991502882273 0 -0.03817487847749327 -0.058125371027772904 0 -0.037175638392100467 -0.05683382092174482 0 -0.03817487847749327 -0.058125371027772904 0 -0.038994250545628717 -0.058024544670472078 0 -0.038306446105296189 -0.060573432926282533 0 -0.03817487847749327 -0.058125371027772904 0 -0.039309745652039436 -0.055278752422771811 0 -0.038994250545628717 -0.058024544670472078 0 -0.03817487847749327 -0.058125371027772904 0 -0.039309745652039436 -0.055278752422771811 0 -0.037175638392100467 -0.05683382092174482 0 -0.035435373310638618 -0.057335754950700202 0 -0.0369126473882209 -0.059028991502882273 0 -0.037175638392100467 -0.05683382092174482 0 -0.035674046004183668 -0.055713086058901483 0 -0.035435373310638618 -0.057335754950700202 0 -0.037175638392100467 -0.05683382092174482 0 -0.039309745652039436 -0.055278752422771811 0 -0.037175638392100467 -0.05683382092174482 0 -0.0374335545562079 -0.054999351899497749 0 -0.035674046004183668 -0.055713086058901483 0 -0.037175638392100467 -0.05683382092174482 0 -0.0374335545562079 -0.054999351899497749 0 -0.03516795063394073 -0.054367066768477079 0 -0.035674046004183668 -0.055713086058901483 0 -0.0374335545562079 -0.054999351899497749 0 -0.03516795063394073 -0.054367066768477079 0 -0.0374335545562079 -0.054999351899497749 0 -0.040037280804284772 -0.051971267574301899 0 -0.044175361990042038 -0.053194926642349608 0 -0.042305505226133522 -0.053049294701239473 0 -0.045021517109630323 -0.046991064667628014 0 -0.040037280804284772 -0.051971267574301899 0 -0.043751079939751275 -0.049565558473622262 0 -0.03516795063394073 -0.054367066768477079 0 -0.034565632014630976 -0.054242067768473415 0 -0.040037280804284772 -0.051971267574301899 0 -0.039309745652039436 -0.055278752422771811 0 -0.040037280804284772 -0.051971267574301899 0 -0.040255563784748802 -0.052866772646682263 0 -0.039309745652039436 -0.055278752422771811 0 -0.0374335545562079 -0.054999351899497749 0 -0.040037280804284772 -0.051971267574301899 0 -0.041773343582657448 -0.051537648477595087 0 -0.040037280804284772 -0.051971267574301899 0 -0.040255563784748802 -0.052866772646682263 0 -0.040726446689940847 -0.052639778593865927 0 -0.041773343582657448 -0.051537648477595087 0 -0.040255563784748802 -0.052866772646682263 0 -0.040037280804284772 -0.051971267574301899 0 -0.044024317399030607 -0.050238125689950112 0 -0.043751079939751275 -0.049565558473622262 0 -0.041773343582657448 -0.051537648477595087 0 -0.040037280804284772 -0.051971267574301899 0 -0.044024317399030607 -0.050238125689950112 0 -0.040173869667352813 -0.05417383409545052 0 -0.040301198374765486 -0.053449171325858844 0 -0.039978210890003175 -0.054931753296603471 0 -0.040567066684434293 -0.053041870267900554 0 -0.040173869667352813 -0.05417383409545052 0 -0.040301198374765486 -0.053449171325858844 0 -0.040301198374765486 -0.053449171325858844 0 -0.040255563784748802 -0.052866772646682263 0 -0.039978210890003175 -0.054931753296603471 0 -0.040726446689940847 -0.052639778593865927 0 -0.040301198374765486 -0.053449171325858844 0 -0.040255563784748802 -0.052866772646682263 0 -0.039309745652039436 -0.055278752422771811 0 -0.040255563784748802 -0.052866772646682263 0 -0.039978210890003175 -0.054931753296603471 0 -0.040173869667352813 -0.05417383409545052 0 -0.039978210890003175 -0.054931753296603471 0 -0.039715086104471581 -0.056079825491733487 0 -0.039978210890003175 -0.054931753296603471 0 -0.039076751551541028 -0.058249054953557408 0 -0.039715086104471581 -0.056079825491733487 0 -0.039978210890003175 -0.054931753296603471 0 -0.038994250545628717 -0.058024544670472078 0 -0.039076751551541028 -0.058249054953557408 0 -0.039309745652039436 -0.055278752422771811 0 -0.039978210890003175 -0.054931753296603471 0 -0.038994250545628717 -0.058024544670472078 0 -0.038994250545628717 -0.058024544670472078 0 -0.039076751551541028 -0.058249054953557408 0 -0.038515077905926634 -0.060764437666295287 0 -0.039076751551541028 -0.058249054953557408 0 -0.038515077905926634 -0.060764437666295287 0 -0.037686275093489846 -0.060981900779178699 0 -0.035679170499843003 -0.062788498274087085 0 -0.037686275093489846 -0.060981900779178699 0 -0.036388793655718808 -0.063305239418598183 0 -0.038515077905926634 -0.060764437666295287 0 -0.035679170499843003 -0.062788498274087085 0 -0.037686275093489846 -0.060981900779178699 0 -0.038515077905926634 -0.060764437666295287 0 -0.039456860348097027 -0.063344332143064189 0 -0.039811625723148572 -0.063492496805080512 0 -0.037449719767835593 -0.062964986382394589 0 -0.037228313909288123 -0.063612232456289289 0 -0.038994250545628717 -0.058024544670472078 0 -0.038515077905926634 -0.060764437666295287 0 -0.038306446105296189 -0.060573432926282533 0 -0.036311590412153615 -0.060638777460071229 0 -0.0369126473882209 -0.059028991502882273 0 -0.038306446105296189 -0.060573432926282533 0 -0.036311590412153615 -0.060638777460071229 0 -0.038306446105296189 -0.060573432926282533 0 -0.037805929228981315 -0.062229269929626366 0 -0.038306446105296189 -0.060573432926282533 0 -0.037805929228981315 -0.062229269929626366 0 -0.039456860348097027 -0.063344332143064189 0 -0.038515077905926634 -0.060764437666295287 0 -0.038306446105296189 -0.060573432926282533 0 -0.039456860348097027 -0.063344332143064189 0 -0.039456860348097027 -0.063344332143064189 0 -0.038471464964188566 -0.063816135845247063 0 -0.040978834550206324 -0.06589197355615975 0 -0.037805929228981315 -0.062229269929626366 0 -0.039456860348097027 -0.063344332143064189 0 -0.038471464964188566 -0.063816135845247063 0 -0.036601560844239572 -0.065721250073910456 0 -0.038471464964188566 -0.063816135845247063 0 -0.040978834550206324 -0.06589197355615975 0 -0.040978834550206324 -0.06589197355615975 0 -0.040089140323731023 -0.064371351864137699 0 -0.04235880708229349 -0.063375057123885803 0 -0.039456860348097027 -0.063344332143064189 0 -0.040978834550206324 -0.06589197355615975 0 -0.040089140323731023 -0.064371351864137699 0 -0.040089140323731023 -0.064371351864137699 0 -0.038792537914145671 -0.063816472982499026 0 -0.039811625723148572 -0.063492496805080512 0 -0.036702323140085667 -0.064328156376242521 0 -0.037228313909288123 -0.063612232456289289 0 -0.034091557314585547 -0.065196744561601169 0 -0.035679170499843003 -0.062788498274087085 0 -0.036388793655718808 -0.063305239418598183 0 -0.039456860348097027 -0.063344332143064189 0 -0.040089140323731023 -0.064371351864137699 0 -0.039811625723148572 -0.063492496805080512 0 -0.039674769852272966 -0.060035892386556731 0 -0.037243534813907415 -0.060346098376597553 0 -0.039496676480722789 -0.062316511498206752 0 -0.039674769852272966 -0.060035892386556731 0 -0.039496676480722789 -0.062316511498206752 0 -0.041161111942573145 -0.061708555032722774 0 -0.036702323140085667 -0.064328156376242521 0 -0.036321894781920404 -0.064824656279358947 0 -0.038792537914145671 -0.063816472982499026 0 -0.037243534813907415 -0.060346098376597553 0 -0.039496676480722789 -0.062316511498206752 0 -0.034091557314585547 -0.065196744561601169 0 -0.032632624588265803 -0.068165591294497244 0 -0.035161700542359266 -0.067114718253393768 0 -0.040089140323731023 -0.064371351864137699 0 -0.038792537914145671 -0.063816472982499026 0 -0.039496676480722789 -0.062316511498206752 0 -0.040089140323731023 -0.064371351864137699 0 -0.039496676480722789 -0.062316511498206752 0 -0.041161111942573145 -0.061708555032722774 0 -0.040089140323731023 -0.064371351864137699 0 -0.04235880708229349 -0.063375057123885803 0 -0.041161111942573145 -0.061708555032722774 0 -0.04235880708229349 -0.063375057123885803 0 -0.044965388120140427 -0.059669857580567885 0 -0.046205697985685461 -0.063836011216660979 0 -0.040978834550206324 -0.06589197355615975 0 -0.04235880708229349 -0.063375057123885803 0 -0.046205697985685461 -0.063836011216660979 0 -0.04235880708229349 -0.063375057123885803 0 -0.044965388120140427 -0.059669857580567885 0 -0.041161111942573145 -0.061708555032722774 0 -0.044965388120140427 -0.059669857580567885 0 -0.041161111942573145 -0.061708555032722774 0 -0.04202644412775499 -0.058708716468427763 0 -0.039674769852272966 -0.060035892386556731 0 -0.041161111942573145 -0.061708555032722774 0 -0.04202644412775499 -0.058708716468427763 0 -0.04202644412775499 -0.058708716468427763 0 -0.043536813417904212 -0.05578207262301129 0 -0.039199110387147011 -0.057656411318148519 0 -0.044398847295901538 -0.05727931179965582 0 -0.042229951364359523 -0.057443443832751108 0 -0.043536813417904212 -0.05578207262301129 0 -0.046588711457465591 -0.056910104226689094 0 -0.049929354528162204 -0.054323285333025328 0 -0.044965388120140427 -0.059669857580567885 0 -0.044332924207948189 -0.057715881041389187 0 -0.046588711457465591 -0.056910104226689094 0 -0.04202644412775499 -0.058708716468427763 0 -0.044332924207948189 -0.057715881041389187 0 -0.043536813417904212 -0.05578207262301129 0 -0.044965388120140427 -0.059669857580567885 0 -0.04202644412775499 -0.058708716468427763 0 -0.044332924207948189 -0.057715881041389187 0 -0.044332924207948189 -0.057715881041389187 0 -0.043536813417904212 -0.05578207262301129 0 -0.046588711457465591 -0.056910104226689094 0 -0.044398847295901538 -0.05727931179965582 0 -0.049083927666510242 -0.057253146660076158 0 -0.042618172728327269 -0.057479898937760655 0 -0.0428377008139239 -0.056306664429868723 0 -0.044540894453277323 -0.056131627545099802 0 -0.045880766504030959 -0.063381084846566793 0 -0.045208938010786251 -0.065532179163759224 0 -0.0428377008139239 -0.056306664429868723 0 -0.044103148894037811 -0.054570940416710997 0 -0.044540894453277323 -0.056131627545099802 0 -0.042618172728327269 -0.057479898937760655 0 -0.040757477071327451 -0.056469998217605948 0 -0.039199110387147011 -0.057656411318148519 0 -0.0428377008139239 -0.056306664429868723 0 -0.040757477071327451 -0.056469998217605948 0 -0.040122037698657596 -0.053840419547879423 0 -0.042618172728327269 -0.057479898937760655 0 -0.0428377008139239 -0.056306664429868723 0 -0.040757477071327451 -0.056469998217605948 0 -0.038633528248865026 -0.05553516236389492 0 -0.039199110387147011 -0.057656411318148519 0 -0.036767808425854233 -0.056519729007375771 0 -0.040757477071327451 -0.056469998217605948 0 -0.038633528248865026 -0.05553516236389492 0 -0.040122037698657596 -0.053840419547879423 0 -0.040757477071327451 -0.056469998217605948 0 -0.038633528248865026 -0.05553516236389492 0 -0.039199110387147011 -0.057656411318148519 0 -0.039674769852272966 -0.060035892386556731 0 -0.04202644412775499 -0.058708716468427763 0 -0.039199110387147011 -0.057656411318148519 0 -0.039674769852272966 -0.060035892386556731 0 -0.037243534813907415 -0.060346098376597553 0 -0.039199110387147011 -0.057656411318148519 0 -0.036321894781920404 -0.064824656279358947 0 -0.036786282407196183 -0.066105049401813873 0 -0.037243534813907415 -0.060346098376597553 0 -0.039199110387147011 -0.057656411318148519 0 -0.036767808425854233 -0.056519729007375771 0 -0.032632624588265803 -0.068165591294497244 0 -0.03157516794044108 -0.073679771366520749 0 -0.033742232529024418 -0.070397974842233507 0 -0.036786282407196183 -0.066105049401813873 0 -0.039154772944822988 -0.071002470629519143 0 -0.03157516794044108 -0.073679771366520749 0 -0.032108106551177788 -0.078781697904758155 0 -0.03270333206526619 -0.076927912581923552 0 -0.038633528248865026 -0.05553516236389492 0 -0.036767808425854233 -0.056519729007375771 0 -0.036374440600991452 -0.053185114110183195 0 -0.041392902832206854 -0.068218382052637402 0 -0.039154772944822988 -0.071002470629519143 0 -0.038633528248865026 -0.05553516236389492 0 -0.040122037698657596 -0.053840419547879423 0 -0.036374440600991452 -0.053185114110183195 0 -0.042055502228630186 -0.082968752472192903 0 -0.038708902330529975 -0.079647178496588283 0 -0.041173899150997131 -0.078611011045659387 0 -0.042055502228630186 -0.082968752472192903 0 -0.037240379067352954 -0.082270444219528394 0 -0.038708902330529975 -0.079647178496588283 0 -0.037240379067352954 -0.082270444219528394 0 -0.038708902330529975 -0.079647178496588283 0 -0.036330312203879708 -0.077178699726582797 0 -0.039154772944822988 -0.071002470629519143 0 -0.038699540332972286 -0.075600567759878667 0 -0.038708902330529975 -0.079647178496588283 0 -0.039070618425242648 -0.077352020931354126 0 -0.036330312203879708 -0.077178699726582797 0 -0.038708902330529975 -0.079647178496588283 0 -0.039070618425242648 -0.077352020931354126 0 -0.041173899150997131 -0.078611011045659387 0 -0.039070618425242648 -0.077352020931354126 0 -0.041173899150997131 -0.078611011045659387 0 -0.041211150190266763 -0.076566476707980169 0 -0.041211150190266763 -0.076566476707980169 0 -0.038682059776633929 -0.074999317223375522 0 -0.043176659421885602 -0.074999959228678553 0 -0.039070618425242648 -0.077352020931354126 0 -0.038682059776633929 -0.074999317223375522 0 -0.036330312203879708 -0.077178699726582797 0 -0.039070618425242648 -0.077352020931354126 0 -0.041211150190266763 -0.076566476707980169 0 -0.038682059776633929 -0.074999317223375522 0 -0.045840466093030885 -0.075453112933170363 0 -0.043176659421885602 -0.074999959228678553 0 -0.047669823288786377 -0.074999958650674506 0 -0.046355986875127424 -0.077217182965241729 0 -0.045840466093030885 -0.075453112933170363 0 -0.044034719879433956 -0.077087274210424134 0 -0.046355986875127424 -0.077217182965241729 0 -0.045840466093030885 -0.075453112933170363 0 -0.048140192597931453 -0.076603735461417286 0 -0.041211150190266763 -0.076566476707980169 0 -0.043176659421885602 -0.074999959228678553 0 -0.044034719879433956 -0.077087274210424134 0 -0.045840466093030885 -0.075453112933170363 0 -0.043176659421885602 -0.074999959228678553 0 -0.044034719879433956 -0.077087274210424134 0 -0.041173899150997131 -0.078611011045659387 0 -0.041211150190266763 -0.076566476707980169 0 -0.044034719879433956 -0.077087274210424134 0 -0.041173899150997131 -0.078611011045659387 0 -0.044034719879433956 -0.077087274210424134 0 -0.043573804744624821 -0.07975307966007715 0 -0.044034719879433956 -0.077087274210424134 0 -0.045807628705736209 -0.07914113496626575 0 -0.043573804744624821 -0.07975307966007715 0 -0.046355986875127424 -0.077217182965241729 0 -0.044034719879433956 -0.077087274210424134 0 -0.045807628705736209 -0.07914113496626575 0 -0.046355986875127424 -0.077217182965241729 0 -0.045807628705736209 -0.07914113496626575 0 -0.047858809144297174 -0.07849262108909795 0 -0.045807628705736209 -0.07914113496626575 0 -0.045251503972898191 -0.081231432903692183 0 -0.048488455987282124 -0.080729276822299176 0 -0.045251503972898191 -0.081231432903692183 0 -0.046514578682536105 -0.083684959927830163 0 -0.048488455987282124 -0.080729276822299176 0 -0.045807628705736209 -0.07914113496626575 0 -0.045251503972898191 -0.081231432903692183 0 -0.043573804744624821 -0.07975307966007715 0 -0.042055502228630186 -0.082968752472192903 0 -0.045251503972898191 -0.081231432903692183 0 -0.043573804744624821 -0.07975307966007715 0 -0.042055502228630186 -0.082968752472192903 0 -0.041173899150997131 -0.078611011045659387 0 -0.043573804744624821 -0.07975307966007715 0 -0.041392902832206854 -0.068218382052637402 0 -0.045208938010786251 -0.065532179163759224 0 -0.0428377008139239 -0.056306664429868723 0 -0.040122037698657596 -0.053840419547879423 0 -0.044015868464068235 -0.054585730291381182 0 -0.042055502228630186 -0.082968752472192903 0 -0.045251503972898191 -0.081231432903692183 0 -0.046514578682536105 -0.083684959927830163 0 -0.045208938010786251 -0.065532179163759224 0 -0.047230453081446869 -0.07093313179145469 0 -0.048983454085130336 -0.066405689910246757 0 -0.048460393997036194 -0.066304245836161624 0 -0.04863931385732867 -0.066937148538917718 0 -0.045208938010786251 -0.065532179163759224 0 -0.046749081419308718 -0.06358479888759247 0 -0.044103148894037811 -0.054570940416710997 0 -0.046829424710620404 -0.05516155322801778 0 -0.044540894453277323 -0.056131627545099802 0 -0.048460393997036194 -0.066304245836161624 0 -0.048283624139480251 -0.066659921967058541 0 -0.047928029668401456 -0.066197348152454163 0 -0.048460393997036194 -0.066304245836161624 0 -0.048283624139480251 -0.066659921967058541 0 -0.04863931385732867 -0.066937148538917718 0 -0.048283624139480251 -0.066659921967058541 0 -0.048231360001151996 -0.067026283989338853 0 -0.047940258586124086 -0.066744638212164226 0 -0.048283624139480251 -0.066659921967058541 0 -0.048231360001151996 -0.067026283989338853 0 -0.04863931385732867 -0.066937148538917718 0 -0.047858809144297174 -0.07849262108909795 0 -0.050452787317037097 -0.0777971959147057 0 -0.048140192597931453 -0.076603735461417286 0 -0.048488455987282124 -0.080729276822299176 0 -0.047858809144297174 -0.07849262108909795 0 -0.050452787317037097 -0.0777971959147057 0 -0.045807628705736209 -0.07914113496626575 0 -0.048488455987282124 -0.080729276822299176 0 -0.047858809144297174 -0.07849262108909795 0 -0.046355986875127424 -0.077217182965241729 0 -0.047858809144297174 -0.07849262108909795 0 -0.048140192597931453 -0.076603735461417286 0 -0.047230453081446869 -0.07093313179145469 0 -0.050459778862411465 -0.072292448163271392 0 -0.048231360001151996 -0.067026283989338853 0 -0.048292096750681732 -0.067476801758666896 0 -0.047954292890012795 -0.067296265149275322 0 -0.048231360001151996 -0.067026283989338853 0 -0.04863931385732867 -0.066937148538917718 0 -0.048292096750681732 -0.067476801758666896 0 -0.050459778862411465 -0.072292448163271392 0 -0.0520663785472609 -0.069479293807127987 0 -0.050459778862411465 -0.072292448163271392 0 -0.049624709863552226 -0.073303939091487705 0 -0.050459778862411465 -0.072292448163271392 0 -0.052031980394996777 -0.074550529641883204 0 -0.047669823288786377 -0.074999958650674506 0 -0.048117995388322343 -0.076653343281823438 0 -0.052166738632149323 -0.075225174653559615 0 -0.047669823288786377 -0.074999958650674506 0 -0.052166738632149323 -0.075225174653559615 0 -0.05216312850873351 -0.075000009060093006 0 -0.050389258807184541 -0.077837433619034557 0 -0.048117995388322343 -0.076653343281823438 0 -0.052166738632149323 -0.075225174653559615 0 -0.048973720287976433 -0.073410638947730797 0 -0.049624709863552226 -0.073303939091487705 0 -0.045840466093030885 -0.075453112933170363 0 -0.047669823288786377 -0.074999958650674506 0 -0.048117995388322343 -0.076653343281823438 0 -0.055763757229836779 -0.074999977707332646 0 -0.053968049577845512 -0.076937359732725405 0 -0.052163186334808806 -0.074999971132821128 0 -0.055763757229836779 -0.074999977707332646 0 -0.053968049577845512 -0.076937359732725405 0 -0.056713715710916046 -0.077693385662956818 0 -0.053092444891120825 -0.071949618220613867 0 -0.052519459073250792 -0.072803850933493411 0 -0.052498966050808206 -0.071635773709770631 0 -0.053968049577845512 -0.076937359732725405 0 -0.052170434995019499 -0.075221697990878508 0 -0.052260477338058095 -0.078746091939507448 0 -0.053968049577845512 -0.076937359732725405 0 -0.052170434995019499 -0.075221697990878508 0 -0.052163186334808806 -0.074999971132821128 0 -0.052031980394996777 -0.074550529641883204 0 -0.0520663785472609 -0.069479293807127987 0 -0.052031980394996777 -0.074550529641883204 0 -0.052159024801827818 -0.074992708036375089 0 -0.053968049577845512 -0.076937359732725405 0 -0.052260477338058095 -0.078746091939507448 0 -0.054575860950348033 -0.079947999350863899 0 -0.0520663785472609 -0.069479293807127987 0 -0.054995552012450301 -0.066567896382894676 0 -0.054575860950348033 -0.079947999350863899 0 -0.056891891324597092 -0.081143881579556612 0 -0.056713715710916046 -0.077693385662956818 0 -0.053968049577845512 -0.076937359732725405 0 -0.054575860950348033 -0.079947999350863899 0 -0.056713715710916046 -0.077693385662956818 0 -0.054995552012450301 -0.066567896382894676 0 -0.060109319038330562 -0.064062061992415695 0 -0.049851860131877646 -0.056025978305943858 0 -0.049839716307163905 -0.056115116206701329 0 -0.050005391137760577 -0.056098616710167248 0 -0.048231360001151996 -0.067026283989338853 0 -0.047954292890012795 -0.067296265149275322 0 -0.047940258586124086 -0.066744638212164226 0 -0.0520663785472609 -0.069479293807127987 0 -0.04967516539421038 -0.064005626787995762 0 -0.049714803247813869 -0.055984076744875738 0 -0.049851860131877646 -0.056025978305943858 0 -0.049691688420461101 -0.056111710935307695 0 -0.049851860131877646 -0.056025978305943858 0 -0.049839716307163905 -0.056115116206701329 0 -0.049691688420461101 -0.056111710935307695 0 -0.048283624139480251 -0.066659921967058541 0 -0.047940258586124086 -0.066744638212164226 0 -0.047928029668401456 -0.066197348152454163 0 -0.049691688420461101 -0.056111710935307695 0 -0.049725543509457577 -0.056215244191869289 0 -0.04958013762086156 -0.056345830617473891 0 -0.04967516539421038 -0.064005626787995762 0 -0.047618567246251069 -0.062510697942560867 0 -0.049839716307163905 -0.056115116206701329 0 -0.049691688420461101 -0.056111710935307695 0 -0.049725543509457577 -0.056215244191869289 0 -0.049725543509457577 -0.056215244191869289 0 -0.049892998764328463 -0.056206015356266147 0 -0.049601917026025497 -0.056353795745578236 0 -0.049725543509457577 -0.056215244191869289 0 -0.04958013762086156 -0.056345830617473891 0 -0.049601917026025497 -0.056353795745578236 0 -0.049839716307163905 -0.056115116206701329 0 -0.049892998764328463 -0.056206015356266147 0 -0.050005391137760577 -0.056098616710167248 0 -0.058906676726373869 -0.059510434736827017 0 -0.060109319038330562 -0.064062061992415695 0 -0.049839716307163905 -0.056115116206701329 0 -0.049725543509457577 -0.056215244191869289 0 -0.049892998764328463 -0.056206015356266147 0 -0.065947867907399274 -0.056380243622481625 0 -0.067455692956166755 -0.057601029907386816 0 -0.068664739259041471 -0.057565324608947074 0 -0.066653232900617199 -0.056592037395701754 0 -0.065947867907399274 -0.056380243622481625 0 -0.068664739259041471 -0.057565324608947074 0 -0.066653232900617199 -0.056592037395701754 0 -0.065947867907399274 -0.056380243622481625 0 -0.065943707837146995 -0.056357373679383718 0 -0.065947867907399274 -0.056380243622481625 0 -0.064097561881727577 -0.057459307008060151 0 -0.067455692956166755 -0.057601029907386816 0 -0.064097561881727577 -0.057459307008060151 0 -0.06673577078619107 -0.058954750912557079 0 -0.067455692956166755 -0.057601029907386816 0 -0.064097561881727577 -0.057459307008060151 0 -0.06673577078619107 -0.058954750912557079 0 -0.064620375773388888 -0.05991799598321091 0 -0.061047309522751537 -0.059064137155322542 0 -0.060864212998193515 -0.057001644328607028 0 -0.056497643473388141 -0.056761155646102859 0 -0.064097561881727577 -0.057459307008060151 0 -0.061047309522751537 -0.059064137155322542 0 -0.064620375773388888 -0.05991799598321091 0 -0.064097561881727577 -0.057459307008060151 0 -0.061047309522751537 -0.059064137155322542 0 -0.060864212998193515 -0.057001644328607028 0 -0.064097561881727577 -0.057459307008060151 0 -0.060864212998193515 -0.057001644328607028 0 -0.061676750927878825 -0.05476327459478271 0 -0.056342829117650824 -0.05783601299025376 0 -0.054987429952668053 -0.058398180033653928 0 -0.060864212998193515 -0.057001644328607028 0 -0.061676750927878825 -0.05476327459478271 0 -0.056497643473388141 -0.056761155646102859 0 -0.065947867907399274 -0.056380243622481625 0 -0.064097561881727577 -0.057459307008060151 0 -0.061676750927878825 -0.05476327459478271 0 -0.05829860864160899 -0.057553654617545358 0 -0.056342829117650824 -0.05783601299025376 0 -0.049892998764328463 -0.056206015356266147 0 -0.049658220987432646 -0.056689352727889802 0 -0.049601917026025497 -0.056353795745578236 0 -0.058906676726373869 -0.059510434736827017 0 -0.056342829117650824 -0.05783601299025376 0 -0.047629539876769565 -0.062341200659330492 0 -0.047618567246251069 -0.062510697942560867 0 -0.049658220987432646 -0.056689352727889802 0 -0.049463786308236106 -0.056358789621664747 0 -0.049601917026025497 -0.056353795745578236 0 -0.049463786308236106 -0.056358789621664747 0 -0.049547234551466063 -0.056338351937302807 0 -0.049601917026025497 -0.056353795745578236 0 -0.047618567246251069 -0.062510697942560867 0 -0.047627428216816356 -0.062498935696199263 0 -0.056342829117650824 -0.05783601299025376 0 -0.049083927666510242 -0.057253146660076158 0 -0.046749081419308718 -0.06358479888759247 0 -0.047618567246251069 -0.062510697942560867 0 -0.046829424710620404 -0.05516155322801778 0 -0.049463786308236106 -0.056358789621664747 0 -0.049457073105367864 -0.055775487829163015 0 -0.049658220987432646 -0.056689352727889802 0 -0.049463786308236106 -0.056358789621664747 0 -0.046273708251322827 -0.057164054834619012 0 -0.046829424710620404 -0.05516155322801778 0 -0.049463786308236106 -0.056358789621664747 0 -0.046273708251322827 -0.057164054834619012 0 -0.046829424710620404 -0.05516155322801778 0 -0.044540894453277323 -0.056131627545099802 0 -0.046273708251322827 -0.057164054834619012 0 -0.042618172728327269 -0.057479898937760655 0 -0.044540894453277323 -0.056131627545099802 0 -0.046273708251322827 -0.057164054834619012 0 -0.044965388120140427 -0.059669857580567885 0 -0.046588711457465591 -0.056910104226689094 0 -0.049666083882977982 -0.057384751315863326 0 -0.046588711457465591 -0.056910104226689094 0 -0.049929354528162204 -0.054323285333025328 0 -0.049666083882977982 -0.057384751315863326 0 -0.056044264282422755 -0.053608033583499477 0 -0.049929354528162204 -0.054323285333025328 0 -0.05298021830111458 -0.056919247580023695 0 -0.049929354528162204 -0.054323285333025328 0 -0.049666083882977982 -0.057384751315863326 0 -0.05298021830111458 -0.056919247580023695 0 -0.049666083882977982 -0.057384751315863326 0 -0.05298021830111458 -0.056919247580023695 0 -0.050331820242129503 -0.060077223852417642 0 -0.054987429952668053 -0.058398180033653928 0 -0.053841337497561148 -0.059268798017454848 0 -0.061047309522751537 -0.059064137155322542 0 -0.056497643473388141 -0.056761155646102859 0 -0.056465926192747345 -0.062708082257306633 0 -0.056497643473388141 -0.056761155646102859 0 -0.056465926192747345 -0.062708082257306633 0 -0.050331820242129503 -0.060077223852417642 0 -0.044965388120140427 -0.059669857580567885 0 -0.049666083882977982 -0.057384751315863326 0 -0.050331820242129503 -0.060077223852417642 0 -0.044965388120140427 -0.059669857580567885 0 -0.050331820242129503 -0.060077223852417642 0 -0.046205697985685461 -0.063836011216660979 0 -0.049529450808588511 -0.069306554348942825 0 -0.046205697985685461 -0.063836011216660979 0 -0.051416978932490823 -0.064940998960075741 0 -0.050331820242129503 -0.060077223852417642 0 -0.046205697985685461 -0.063836011216660979 0 -0.051416978932490823 -0.064940998960075741 0 -0.056465926192747345 -0.062708082257306633 0 -0.050331820242129503 -0.060077223852417642 0 -0.051416978932490823 -0.064940998960075741 0 -0.057082923363353764 -0.070086653657853965 0 -0.056465926192747345 -0.062708082257306633 0 -0.051416978932490823 -0.064940998960075741 0 -0.057082923363353764 -0.070086653657853965 0 -0.056465926192747345 -0.062708082257306633 0 -0.061509853368892364 -0.064266625310251249 0 -0.053763254235568318 -0.060397040776327335 0 -0.057506100034337905 -0.062631629592298274 0 -0.064088838984662513 -0.062477727782322939 0 -0.066558691870591352 -0.061190753510107852 0 -0.066553026409461979 -0.063170272617287498 0 -0.065348463007135676 -0.06483721438060247 0 -0.064088838984662513 -0.062477727782322939 0 -0.066553026409461979 -0.063170272617287498 0 -0.06673577078619107 -0.058954750912557079 0 -0.066558691870591352 -0.061190753510107852 0 -0.064620375773388888 -0.05991799598321091 0 -0.064088838984662513 -0.062477727782322939 0 -0.066558691870591352 -0.061190753510107852 0 -0.064620375773388888 -0.05991799598321091 0 -0.061047309522751537 -0.059064137155322542 0 -0.056465926192747345 -0.062708082257306633 0 -0.061509853368892364 -0.064266625310251249 0 -0.058001180974306232 -0.061647329259587581 0 -0.057506100034337905 -0.062631629592298274 0 -0.061047309522751537 -0.059064137155322542 0 -0.064088838984662513 -0.062477727782322939 0 -0.064620375773388888 -0.05991799598321091 0 -0.070692758332595085 -0.060430518983796248 0 -0.068845338382153398 -0.059976769248853763 0 -0.070893612486235269 -0.05863934083666314 0 -0.06673577078619107 -0.058954750912557079 0 -0.066558691870591352 -0.061190753510107852 0 -0.068845338382153398 -0.059976769248853763 0 -0.066558691870591352 -0.061190753510107852 0 -0.068845338382153398 -0.059976769248853763 0 -0.068696278273104913 -0.062467706987904166 0 -0.066558691870591352 -0.061190753510107852 0 -0.066553026409461979 -0.063170272617287498 0 -0.068696278273104913 -0.062467706987904166 0 -0.070692758332595085 -0.060430518983796248 0 -0.068845338382153398 -0.059976769248853763 0 -0.068696278273104913 -0.062467706987904166 0 -0.070692758332595085 -0.060430518983796248 0 -0.068696278273104913 -0.062467706987904166 0 -0.071721231473256 -0.06245594261649539 0 -0.070692758332595085 -0.060430518983796248 0 -0.071721231473256 -0.06245594261649539 0 -0.073686931496246041 -0.059216797315801872 0 -0.077203054042087757 -0.055605522358417217 0 -0.073686931496246041 -0.059216797315801872 0 -0.075361622384827409 -0.057034597774357723 0 -0.074473579390161027 -0.064392626842913733 0 -0.071721231473256 -0.06245594261649539 0 -0.073686931496246041 -0.059216797315801872 0 -0.074489620730206679 -0.058480443899650923 0 -0.074439235847208934 -0.058556350345255248 0 -0.073686931496246041 -0.059216797315801872 0 -0.072189299321207198 -0.058594581691765062 0 -0.073533033707417941 -0.058600475917442919 0 -0.073686931496246041 -0.059216797315801872 0 -0.073533033707417941 -0.058600475917442919 0 -0.075361622384827409 -0.057034597774357723 0 -0.073686931496246041 -0.059216797315801872 0 -0.070893612486235269 -0.05863934083666314 0 -0.072189299321207198 -0.058594581691765062 0 -0.070692758332595085 -0.060430518983796248 0 -0.073686931496246041 -0.059216797315801872 0 -0.070893612486235269 -0.05863934083666314 0 -0.070893612486235269 -0.05863934083666314 0 -0.072189299321207198 -0.058594581691765062 0 -0.070871030086070153 -0.058339828539066038 0 -0.072189299321207198 -0.058594581691765062 0 -0.071380727757294996 -0.05849902178609364 0 -0.070871030086070153 -0.058339828539066038 0 -0.072189299321207198 -0.058594581691765062 0 -0.071380727757294996 -0.05849902178609364 0 -0.073533033707417941 -0.058600475917442919 0 -0.069911983009029927 -0.058810841988059442 0 -0.070871030086070153 -0.058339828539066038 0 -0.069629752221210581 -0.059712748340572386 0 -0.071380727757294996 -0.05849902178609364 0 -0.069911983009029927 -0.058810841988059442 0 -0.070871030086070153 -0.058339828539066038 0 -0.071380727757294996 -0.05849902178609364 0 -0.069911983009029927 -0.058810841988059442 0 -0.070496267913370186 -0.05861365138757018 0 -0.070893612486235269 -0.05863934083666314 0 -0.070871030086070153 -0.058339828539066038 0 -0.070722009317739781 -0.058133073430373668 0 -0.070871030086070153 -0.058339828539066038 0 -0.070722009317739781 -0.058133073430373668 0 -0.069629752221210581 -0.059712748340572386 0 -0.070722009317739781 -0.058133073430373668 0 -0.068993606467623134 -0.058115996928318106 0 -0.068664739259041471 -0.057565324608947074 0 -0.070893612486235269 -0.05863934083666314 0 -0.070722009317739781 -0.058133073430373668 0 -0.068993606467623134 -0.058115996928318106 0 -0.068845338382153398 -0.059976769248853763 0 -0.070893612486235269 -0.05863934083666314 0 -0.068993606467623134 -0.058115996928318106 0 -0.06673577078619107 -0.058954750912557079 0 -0.068845338382153398 -0.059976769248853763 0 -0.068993606467623134 -0.058115996928318106 0 -0.06673577078619107 -0.058954750912557079 0 -0.068993606467623134 -0.058115996928318106 0 -0.067455692956166755 -0.057601029907386816 0 -0.068993606467623134 -0.058115996928318106 0 -0.067455692956166755 -0.057601029907386816 0 -0.068664739259041471 -0.057565324608947074 0 -0.066653232900617199 -0.056592037395701754 0 -0.068664739259041471 -0.057565324608947074 0 -0.068727072181852963 -0.056224592435879184 0 -0.068664739259041471 -0.057565324608947074 0 -0.071319900463015978 -0.058890705458832827 0 -0.068727072181852963 -0.056224592435879184 0 -0.070722009317739781 -0.058133073430373668 0 -0.068664739259041471 -0.057565324608947074 0 -0.071319900463015978 -0.058890705458832827 0 -0.070722009317739781 -0.058133073430373668 0 -0.071319900463015978 -0.058890705458832827 0 -0.069034260805452025 -0.062187322130296617 0 -0.071319900463015978 -0.058890705458832827 0 -0.072151094192967627 -0.068260182376509812 0 -0.069034260805452025 -0.062187322130296617 0 -0.071319900463015978 -0.058890705458832827 0 -0.077040497296607224 -0.061744462968822571 0 -0.072151094192967627 -0.068260182376509812 0 -0.060109319038330562 -0.064062061992415695 0 -0.062619689167959222 -0.070356805696580094 0 -0.063745606236491503 -0.064381306140971276 0 -0.060109319038330562 -0.064062061992415695 0 -0.056891891324597092 -0.081143881579556612 0 -0.056713715710916046 -0.077693385662956818 0 -0.059758886428406974 -0.07808425049591014 0 -0.059758886428406974 -0.07808425049591014 0 -0.059207540845901407 -0.074999972563068645 0 -0.062651314539451913 -0.075000003709923255 0 -0.056713715710916046 -0.077693385662956818 0 -0.059758886428406974 -0.07808425049591014 0 -0.059207540845901407 -0.074999972563068645 0 -0.055763757229836779 -0.074999977707332646 0 -0.056713715710916046 -0.077693385662956818 0 -0.059207540845901407 -0.074999972563068645 0 -0.064786647636545971 -0.072738340701783727 0 -0.062676121768409823 -0.074997137860213198 0 -0.065668570490293718 -0.069700979462970172 0 -0.064786647636545971 -0.072738340701783727 0 -0.062676121768409823 -0.074997137860213198 0 -0.066299207539397678 -0.074996721528126933 0 -0.062676121768409823 -0.074997137860213198 0 -0.067249153676928908 -0.068121395451668385 0 -0.065668570490293718 -0.069700979462970172 0 -0.072151094192967627 -0.068260182376509812 0 -0.062676121768409823 -0.074997137860213198 0 -0.067249153676928908 -0.068121395451668385 0 -0.062619689167959222 -0.070356805696580094 0 -0.062650338494042085 -0.074994070757078202 0 -0.072151094192967627 -0.068260182376509812 0 -0.067249153676928908 -0.068121395451668385 0 -0.069034260805452025 -0.062187322130296617 0 -0.067249153676928908 -0.068121395451668385 0 -0.066534289955268097 -0.066305327899291278 0 -0.065668570490293718 -0.069700979462970172 0 -0.064786647636545971 -0.072738340701783727 0 -0.065668570490293718 -0.069700979462970172 0 -0.063116770776138448 -0.069690628856765691 0 -0.066534289955268097 -0.066305327899291278 0 -0.065668570490293718 -0.069700979462970172 0 -0.063116770776138448 -0.069690628856765691 0 -0.066534289955268097 -0.066305327899291278 0 -0.06732402820748247 -0.063012309853354126 0 -0.069034260805452025 -0.062187322130296617 0 -0.066534289955268097 -0.066305327899291278 0 -0.06732402820748247 -0.063012309853354126 0 -0.063116770776138448 -0.069690628856765691 0 -0.067249153676928908 -0.068121395451668385 0 -0.066534289955268097 -0.066305327899291278 0 -0.069034260805452025 -0.062187322130296617 0 -0.070722009317739781 -0.058133073430373668 0 -0.069034260805452025 -0.062187322130296617 0 -0.069629752221210581 -0.059712748340572386 0 -0.06732402820748247 -0.063012309853354126 0 -0.069034260805452025 -0.062187322130296617 0 -0.069629752221210581 -0.059712748340572386 0 -0.06732402820748247 -0.063012309853354126 0 -0.069629752221210581 -0.059712748340572386 0 -0.068694311980244394 -0.060010642097284343 0 -0.069911983009029927 -0.058810841988059442 0 -0.069629752221210581 -0.059712748340572386 0 -0.068694311980244394 -0.060010642097284343 0 -0.068694311980244394 -0.060010642097284343 0 -0.068668829984065968 -0.058658046548978771 0 -0.066469441935640639 -0.059735329893770957 0 -0.069911983009029927 -0.058810841988059442 0 -0.068694311980244394 -0.060010642097284343 0 -0.068668829984065968 -0.058658046548978771 0 -0.071074973386407614 -0.0573548731077431 0 -0.071702373851002241 -0.058458293378244673 0 -0.070679425880846192 -0.058360707696117682 0 -0.068668829984065968 -0.058658046548978771 0 -0.07022809812379012 -0.05807483402419937 0 -0.070679425880846192 -0.058360707696117682 0 -0.07022809812379012 -0.05807483402419937 0 -0.071074973386407614 -0.0573548731077431 0 -0.070679425880846192 -0.058360707696117682 0 -0.071775542519594338 -0.068957145646373189 0 -0.071731272869425045 -0.069155323955308365 0 -0.07022809812379012 -0.05807483402419937 0 -0.070442036336579569 -0.057564494756456634 0 -0.071074973386407614 -0.0573548731077431 0 -0.068668829984065968 -0.058658046548978771 0 -0.07022809812379012 -0.05807483402419937 0 -0.070442036336579569 -0.057564494756456634 0 -0.06732402820748247 -0.063012309853354126 0 -0.068694311980244394 -0.060010642097284343 0 -0.066469441935640639 -0.059735329893770957 0 -0.071074973386407614 -0.0573548731077431 0 -0.074313776902498199 -0.057816033248233617 0 -0.074134395127343808 -0.055368025916927049 0 -0.071731272869425045 -0.069155323955308365 0 -0.072678332736003326 -0.069490885412561612 0 -0.071074973386407614 -0.0573548731077431 0 -0.074313776902498199 -0.057816033248233617 0 -0.074749286943786616 -0.060464701905024183 0 -0.070442036336579569 -0.057564494756456634 0 -0.071074973386407614 -0.0573548731077431 0 -0.074134395127343808 -0.055368025916927049 0 -0.067490833587700833 -0.082730074365222991 0 -0.06994014281771134 -0.080957161774416225 0 -0.067666901271314681 -0.078946775110504519 0 -0.071731272869425045 -0.069155323955308365 0 -0.068878907318809288 -0.072840839478029662 0 -0.066585642251874091 -0.068689607013111248 0 -0.066419580597864791 -0.070765719122268991 0 -0.06732402820748247 -0.063012309853354126 0 -0.066469441935640639 -0.059735329893770957 0 -0.064539243014066425 -0.067979985746881175 0 -0.064539243014066425 -0.067979985746881175 0 -0.06741127231637789 -0.070109309430294406 0 -0.067719506165406201 -0.075003131359232075 0 -0.06732402820748247 -0.063012309853354126 0 -0.064539243014066425 -0.067979985746881175 0 -0.06741127231637789 -0.070109309430294406 0 -0.067666901271314681 -0.078946775110504519 0 -0.070117240088076627 -0.077765807994655392 0 -0.067735826936947519 -0.075000021455387658 0 -0.06994014281771134 -0.080957161774416225 0 -0.067666901271314681 -0.078946775110504519 0 -0.070117240088076627 -0.077765807994655392 0 -0.070117240088076627 -0.077765807994655392 0 -0.07026593323944276 -0.074999918723994696 0 -0.067735826936947519 -0.075000021455387658 0 -0.066419580597864791 -0.070765719122268991 0 -0.066317898318951823 -0.074993735189664276 0 -0.06741127231637789 -0.070109309430294406 0 -0.067719506165406201 -0.075003131359232075 0 -0.066333441373698079 -0.07499513832236844 0 -0.068878907318809288 -0.072840839478029662 0 -0.067736991238919977 -0.074997442699608799 0 -0.064786647636545971 -0.072738340701783727 0 -0.063116770776138448 -0.069690628856765691 0 -0.066299207539397678 -0.074996721528126933 0 -0.074605294532046923 -0.073750463786786027 0 -0.072804081297398238 -0.074997451736298612 0 -0.075798643908874988 -0.072603428911552137 0 -0.074605294532046923 -0.073750463786786027 0 -0.074997581115227918 -0.07499805549051354 0 -0.074997156038403831 -0.072396355926993505 0 -0.072797820623845697 -0.074997551919809391 0 -0.073672489274395916 -0.070571763294890955 0 -0.074605294532046923 -0.073750463786786027 0 -0.074997581115227918 -0.07499805549051354 0 -0.072804081297398238 -0.074997451736298612 0 -0.072796246493997074 -0.075000002561399853 0 -0.071420071508818128 -0.07673807462693405 0 -0.072480262299849413 -0.079151650943767388 0 -0.070117240088076627 -0.077765807994655392 0 -0.07026593323944276 -0.074999918723994696 0 -0.071420071508818128 -0.07673807462693405 0 -0.07026593323944276 -0.074999918723994696 0 -0.072796246493997074 -0.075000002561399853 0 -0.071420071508818128 -0.07673807462693405 0 -0.06994014281771134 -0.080957161774416225 0 -0.070117240088076627 -0.077765807994655392 0 -0.072480262299849413 -0.079151650943767388 0 -0.070117240088076627 -0.077765807994655392 0 -0.071420071508818128 -0.07673807462693405 0 -0.072480262299849413 -0.079151650943767388 0 -0.077394697181727173 -0.070615133218486018 0 -0.07499996445304212 -0.072389870528186753 0 -0.075000065531387591 -0.06894779758372753 0 -0.074605294532046923 -0.073750463786786027 0 -0.075798643908874988 -0.072603428911552137 0 -0.074997156038403831 -0.072396355926993505 0 -0.073672489274395916 -0.070571763294890955 0 -0.07499709339793359 -0.072385475646177158 0 -0.077394697181727173 -0.070615133218486018 0 -0.075000065531387591 -0.06894779758372753 0 -0.077571324720756854 -0.066343854420974666 0 -0.072678332736003326 -0.069490885412561612 0 -0.073672489274395916 -0.070571763294890955 0 -0.073672489274395916 -0.070571763294890955 0 -0.075513746324676737 -0.063495704978928397 0 -0.074134395127343808 -0.055368025916927049 0 -0.07720463552172345 -0.053152716036905835 0 -0.076973829705030486 -0.058035708525312937 0 -0.074313776902498199 -0.057816033248233617 0 -0.076973829705030486 -0.058035708525312937 0 -0.074749286943786616 -0.060464701905024183 0 -0.074313776902498199 -0.057816033248233617 0 -0.074134395127343808 -0.055368025916927049 0 -0.076973829705030486 -0.058035708525312937 0 -0.075000065531387591 -0.06894779758372753 0 -0.077571324720756854 -0.066343854420974666 0 -0.074999678153801444 -0.065504892092957276 0 -0.077571324720756854 -0.066343854420974666 0 -0.076441728695888791 -0.064025790809855945 0 -0.076879892773537295 -0.061730115947594859 0 -0.074999678153801444 -0.065504892092957276 0 -0.076441728695888791 -0.064025790809855945 0 -0.076181731435643898 -0.062655679039715126 0 -0.077571324720756854 -0.066343854420974666 0 -0.074999678153801444 -0.065504892092957276 0 -0.076441728695888791 -0.064025790809855945 0 -0.074999678153801444 -0.065504892092957276 0 -0.075000019989534136 -0.062063591100178034 0 -0.076181731435643898 -0.062655679039715126 0 -0.075000019989534136 -0.062063591100178034 0 -0.076181731435643898 -0.062655679039715126 0 -0.077235876032793679 -0.061990458042755762 0 -0.076441728695888791 -0.064025790809855945 0 -0.076181731435643898 -0.062655679039715126 0 -0.076879892773537295 -0.061730115947594859 0 -0.076181731435643898 -0.062655679039715126 0 -0.077235876032793679 -0.061990458042755762 0 -0.076879892773537295 -0.061730115947594859 0 -0.073891144613924917 -0.058238169242970907 0 -0.074418322192712563 -0.057984410428438792 0 -0.073240355227353879 -0.058278685872117611 0 -0.075020262409827648 -0.059262977737440707 0 -0.07411185881431509 -0.058864031390388843 0 -0.077235876032793679 -0.061990458042755762 0 -0.076879892773537295 -0.061730115947594859 0 -0.074749286943786616 -0.060464701905024183 0 -0.073891144613924917 -0.058238169242970907 0 -0.074418322192712563 -0.057984410428438792 0 -0.074327720394368704 -0.058077013175602495 0 -0.075513746324676737 -0.063495704978928397 0 -0.075930086486546478 -0.062508027821814902 0 -0.076973829705030486 -0.058035708525312937 0 -0.076879892773537295 -0.061730115947594859 0 -0.074749286943786616 -0.060464701905024183 0 -0.073216999732004351 -0.058162235709707084 0 -0.07411185881431509 -0.058864031390388843 0 -0.071074973386407614 -0.0573548731077431 0 -0.071702373851002241 -0.058458293378244673 0 -0.073240355227353879 -0.058278685872117611 0 -0.071702373851002241 -0.058458293378244673 0 -0.073240355227353879 -0.058278685872117611 0 -0.073101207061700077 -0.058447406947765165 0 -0.068668829984065968 -0.058658046548978771 0 -0.070496267913370186 -0.05861365138757018 0 -0.070679425880846192 -0.058360707696117682 0 -0.069911983009029927 -0.058810841988059442 0 -0.068668829984065968 -0.058658046548978771 0 -0.070496267913370186 -0.05861365138757018 0 -0.071702373851002241 -0.058458293378244673 0 -0.070496267913370186 -0.05861365138757018 0 -0.070679425880846192 -0.058360707696117682 0 -0.071702373851002241 -0.058458293378244673 0 -0.070496267913370186 -0.05861365138757018 0 -0.072471501742699854 -0.058561730376270799 0 -0.071380727757294996 -0.05849902178609364 0 -0.070496267913370186 -0.05861365138757018 0 -0.072471501742699854 -0.058561730376270799 0 -0.072471501742699854 -0.058561730376270799 0 -0.073790732015149407 -0.058302786543200029 0 -0.073533033707417941 -0.058600475917442919 0 -0.071380727757294996 -0.05849902178609364 0 -0.072471501742699854 -0.058561730376270799 0 -0.073533033707417941 -0.058600475917442919 0 -0.073891144613924917 -0.058238169242970907 0 -0.073240355227353879 -0.058278685872117611 0 -0.073101207061700077 -0.058447406947765165 0 -0.071702373851002241 -0.058458293378244673 0 -0.072471501742699854 -0.058561730376270799 0 -0.073101207061700077 -0.058447406947765165 0 -0.072471501742699854 -0.058561730376270799 0 -0.073101207061700077 -0.058447406947765165 0 -0.073790732015149407 -0.058302786543200029 0 -0.073891144613924917 -0.058238169242970907 0 -0.073101207061700077 -0.058447406947765165 0 -0.073790732015149407 -0.058302786543200029 0 -0.073891144613924917 -0.058238169242970907 0 -0.073790732015149407 -0.058302786543200029 0 -0.074520083039153084 -0.057892738992850204 0 -0.073790732015149407 -0.058302786543200029 0 -0.07456906476558621 -0.057696890504887167 0 -0.074520083039153084 -0.057892738992850204 0 -0.073790732015149407 -0.058302786543200029 0 -0.073533033707417941 -0.058600475917442919 0 -0.07456906476558621 -0.057696890504887167 0 -0.073533033707417941 -0.058600475917442919 0 -0.075361622384827409 -0.057034597774357723 0 -0.07456906476558621 -0.057696890504887167 0 -0.075361622384827409 -0.057034597774357723 0 -0.07456906476558621 -0.057696890504887167 0 -0.075122241313929999 -0.056725024232351859 0 -0.07456906476558621 -0.057696890504887167 0 -0.075122241313929999 -0.056725024232351859 0 -0.074520083039153084 -0.057892738992850204 0 -0.075122241313929999 -0.056725024232351859 0 -0.075088230694524194 -0.057026032111025624 0 -0.074520083039153084 -0.057892738992850204 0 -0.075088230694524194 -0.057026032111025624 0 -0.074520083039153084 -0.057892738992850204 0 -0.074647446939181517 -0.058070792650417057 0 -0.074998328750998863 -0.054296107491940346 0 -0.075088230694524194 -0.057026032111025624 0 -0.074997737261826986 -0.058616271856573858 0 -0.075088230694524194 -0.057026032111025624 0 -0.074997737261826986 -0.058616271856573858 0 -0.074647446939181517 -0.058070792650417057 0 -0.075020262409827648 -0.059262977737440707 0 -0.07499986373142431 -0.058622048101984625 0 -0.074418322192712563 -0.057984410428438792 0 -0.074997737261826986 -0.058616271856573858 0 -0.074647446939181517 -0.058070792650417057 0 -0.075000019989534136 -0.062063591100178034 0 -0.077235876032793679 -0.061990458042755762 0 -0.074999944837634863 -0.058621192287768124 0 -0.074418322192712563 -0.057984410428438792 0 -0.074327720394368704 -0.058077013175602495 0 -0.074647446939181517 -0.058070792650417057 0 -0.073891144613924917 -0.058238169242970907 0 -0.074327720394368704 -0.058077013175602495 0 -0.074520083039153084 -0.057892738992850204 0 -0.074327720394368704 -0.058077013175602495 0 -0.074520083039153084 -0.057892738992850204 0 -0.074647446939181517 -0.058070792650417057 0 -0.027473073570173208 -0.069223223421834262 0 -0.02460947294247905 -0.068452851092957095 0 -0.046533281007968046 -0.064709340356032596 0 -0.0465184570764745 -0.064482532600914882 0 -0.046943736240529624 -0.062998104694647991 0 -0.0465184570764745 -0.064482532600914882 0 -0.046943736240529624 -0.062998104694647991 0 -0.04630854385453733 -0.063876722891367768 0 -0.0086491239550114118 -0.074261728459269483 0 -0.0063204081518580327 -0.074950161099062829 0 -0.0075725803001810621 -0.076664967424739106 0 -0.0063204081518580327 -0.074950161099062829 0 -0.006392667657789541 -0.072679393130523476 0 -0.004217129895132757 -0.074637948165372295 0 -0.0075725803001810621 -0.076664967424739106 0 -0.0051335548549984915 -0.076741665512071053 0 -0.0059492160255226259 -0.078105874026751773 0 -0.0063204081518580327 -0.074950161099062829 0 -0.0050271125181249269 -0.075635674906780553 0 -0.0051335548549984915 -0.076741665512071053 0 -0.0063204081518580327 -0.074950161099062829 0 -0.0075725803001810621 -0.076664967424739106 0 -0.0051335548549984915 -0.076741665512071053 0 -0.046943736240529624 -0.062998104694647991 0 -0.046063689362024894 -0.063499577236610455 0 -0.04630854385453733 -0.063876722891367768 0 -0.046943736240529624 -0.062998104694647991 0 -0.046063689362024894 -0.063499577236610455 0 -0.046275486392449508 -0.062564861342576328 0 -0.046063689362024894 -0.063499577236610455 0 -0.044868175200660609 -0.063898834293913728 0 -0.046275486392449508 -0.062564861342576328 0 -0.041575818879765761 -0.06153400010675842 0 -0.038644750144351619 -0.059643941763883969 0 -0.044815973392654369 -0.063026790923702128 0 -0.044399876031328535 -0.061004347534448146 0 -0.046204668015184858 -0.060960612728464189 0 -0.044815973392654369 -0.063026790923702128 0 -0.044399876031328535 -0.061004347534448146 0 -0.043027133650598445 -0.062107072137436541 0 -0.044815973392654369 -0.063026790923702128 0 -0.043027133650598445 -0.062107072137436541 0 -0.042707294411515689 -0.065760288316210794 0 -0.041575818879765761 -0.06153400010675842 0 -0.041592545234652972 -0.06294563473200307 0 -0.044868175200660609 -0.063898834293913728 0 -0.045695751909309551 -0.06491490795014139 0 -0.04478932126520685 -0.065781526337459206 0 -0.0465184570764745 -0.064482532600914882 0 -0.04630854385453733 -0.063876722891367768 0 -0.046097603348341551 -0.064338579895253392 0 -0.046063689362024894 -0.063499577236610455 0 -0.045818096021395215 -0.064087914791157524 0 -0.04630854385453733 -0.063876722891367768 0 -0.045818096021395215 -0.064087914791157524 0 -0.04630854385453733 -0.063876722891367768 0 -0.046097603348341551 -0.064338579895253392 0 -0.046063689362024894 -0.063499577236610455 0 -0.044868175200660609 -0.063898834293913728 0 -0.045818096021395215 -0.064087914791157524 0 -0.044868175200660609 -0.063898834293913728 0 -0.045818096021395215 -0.064087914791157524 0 -0.045695751909309551 -0.06491490795014139 0 -0.045818096021395215 -0.064087914791157524 0 -0.045695751909309551 -0.06491490795014139 0 -0.046097603348341551 -0.064338579895253392 0 -0.0465184570764745 -0.064482532600914882 0 -0.045695751909309551 -0.06491490795014139 0 -0.046097603348341551 -0.064338579895253392 0 -0.045695751909309551 -0.06491490795014139 0 -0.04478932126520685 -0.065781526337459206 0 -0.046213745987226038 -0.067289731892248697 0 -0.0465184570764745 -0.064482532600914882 0 -0.045695751909309551 -0.06491490795014139 0 -0.046213745987226038 -0.067289731892248697 0 -0.046533281007968046 -0.064709340356032596 0 -0.0465184570764745 -0.064482532600914882 0 -0.045527877026036355 -0.066631906580632574 0 -0.03566945822478404 -0.064900665029980223 0 -0.030493002046041245 -0.069374590074118295 0 -0.027473073570173208 -0.069223223421834262 0 -0.030493002046041245 -0.069374590074118295 0 -0.044868175200660609 -0.063898834293913728 0 -0.04478932126520685 -0.065781526337459206 0 -0.042707294411515689 -0.065760288316210794 0 -0.04478932126520685 -0.065781526337459206 0 -0.044158383963431296 -0.067635398363770097 0 -0.042707294411515689 -0.065760288316210794 0 -0.04478932126520685 -0.065781526337459206 0 -0.044158383963431296 -0.067635398363770097 0 -0.046213745987226038 -0.067289731892248697 0 -0.044158383963431296 -0.067635398363770097 0 -0.042003686194981099 -0.068071634246750778 0 -0.043223759272604877 -0.07003029863453461 0 -0.044158383963431296 -0.067635398363770097 0 -0.046213745987226038 -0.067289731892248697 0 -0.045845284954424928 -0.069664041611802535 0 -0.030493002046041245 -0.069374590074118295 0 -0.026074551204107174 -0.075443965624194489 0 -0.0097482463896916161 -0.071824754151707318 0 -0.0086517338375581322 -0.070753896344798561 0 -0.010385570524526152 -0.070205219589385678 0 -0.0086517338375581322 -0.070753896344798561 0 -0.008235841724215983 -0.072538837100706535 0 -0.006392667657789541 -0.072679393130523476 0 -0.0097482463896916161 -0.071824754151707318 0 -0.0086517338375581322 -0.070753896344798561 0 -0.008235841724215983 -0.072538837100706535 0 -0.014666344368959685 -0.082675905349687093 0 -0.010544344646940068 -0.083843077834518276 0 -0.0086491239550114118 -0.074261728459269483 0 -0.008235841724215983 -0.072538837100706535 0 -0.006392667657789541 -0.072679393130523476 0 -0.0086491239550114118 -0.074261728459269483 0 -0.0097482463896916161 -0.071824754151707318 0 -0.008235841724215983 -0.072538837100706535 0 -0.0086491239550114118 -0.074261728459269483 0 -0.0063204081518580327 -0.074950161099062829 0 -0.006392667657789541 -0.072679393130523476 0 -0.01557135769821766 -0.091831628314317251 0 -0.012545648736606628 -0.094328273810424412 0 -0.012644444010270057 -0.091555922738360898 0 -0.012545648736606628 -0.094328273810424412 0 -0.010474736298915304 -0.092752873618885581 0 -0.012644444010270057 -0.091555922738360898 0 -0.010391056344604053 -0.092552150707997174 0 -0.010064939839936291 -0.09299543775274674 0 -0.010464261387187814 -0.089025448084579809 0 -0.0036008313368273465 -0.085767434315767513 0 -0.0042203168360363998 -0.085870687219948186 0 -0.004183239765354594 -0.086086222414804445 0 -0.0042203168360363998 -0.085870687219948186 0 -0.00404805684111827 -0.085094034687640929 0 -0.0045118610948268866 -0.086419936095383926 0 -0.00404805684111827 -0.085094034687640929 0 -0.004930803997536262 -0.085546820147982261 0 -0.0043213938747149834 -0.08693854597191332 0 -0.00404805684111827 -0.085094034687640929 0 -0.0042730608814788391 -0.086983459523991488 0 -0.0043213938747149834 -0.08693854597191332 0 -0.0036993283392718181 -0.086038069614130297 0 -0.0035569325352010008 -0.086190508439488847 0 -0.0042203168360363998 -0.085870687219948186 0 -0.0043049753805688446 -0.086151255712958896 0 -0.004183239765354594 -0.086086222414804445 0 -0.0042203168360363998 -0.085870687219948186 0 -0.0043479554686021065 -0.086182687368853275 0 -0.0043049753805688446 -0.086151255712958896 0 -0.0036008313368273465 -0.085767434315767513 0 -0.0042203168360363998 -0.085870687219948186 0 -0.00404805684111827 -0.085094034687640929 0 -0.00404805684111827 -0.085094034687640929 0 -0.004930803997536262 -0.085546820147982261 0 -0.0047397349799480687 -0.083711080282311334 0 -0.00404805684111827 -0.085094034687640929 0 -0.0037211116765643883 -0.084181855058715449 0 -0.0047397349799480687 -0.083711080282311334 0 -0.012545648736606628 -0.094328273810424412 0 -0.010293777461480051 -0.096010114531886043 0 -0.0096446509437813875 -0.096850101904137689 0 -0.010064939839936291 -0.09299543775274674 0 -0.010293777461480051 -0.096010114531886043 0 -0.0096446509437813875 -0.096850101904137689 0 -0.0090716492893654875 -0.091743904985289032 0 -0.0092557738894795318 -0.09345782259230323 0 -0.010544344646940068 -0.083843077834518276 0 -0.0083791146786752983 -0.084083049222945294 0 -0.012545648736606628 -0.094328273810424412 0 -0.010474736298915304 -0.092752873618885581 0 -0.010293777461480051 -0.096010114531886043 0 -0.0078619812244437766 -0.087950836663598583 0 -0.0083791146786752983 -0.084083049222945294 0 -0.0036008313368273465 -0.085767434315767513 0 -0.0037211116765643883 -0.084181855058715449 0 -0.0030604757781815747 -0.083544146277586495 0 -0.0036008313368273465 -0.085767434315767513 0 -0.00404805684111827 -0.085094034687640929 0 -0.0037211116765643883 -0.084181855058715449 0 -0.010391056344604053 -0.092552150707997174 0 -0.010064939839936291 -0.09299543775274674 0 -0.010293777461480051 -0.096010114531886043 0 -0.0023611965380611328 -0.088679548406706832 0 -0.0027271687184749322 -0.087207421658870507 0 -0.0014407601641243494 -0.087635342084027165 0 -0.0034734753821193971 -0.085690284507817391 0 -0.0036995534181990565 -0.08598914071776502 0 -0.004930803997536262 -0.085546820147982261 0 -0.0066393166812885821 -0.08517586610279225 0 -0.0043213938747149834 -0.08693854597191332 0 -0.0023611965380611328 -0.088679548406706832 0 -0.0027271687184749322 -0.087207421658870507 0 -0.0043213938747149834 -0.08693854597191332 0 -0.004930803997536262 -0.085546820147982261 0 -0.0066393166812885821 -0.08517586610279225 0 -0.0061882995379023533 -0.083700757844883136 0 -0.004930803997536262 -0.085546820147982261 0 -0.0061882995379023533 -0.083700757844883136 0 -0.0047397349799480687 -0.083711080282311334 0 -0.0066393166812885821 -0.08517586610279225 0 -0.0061882995379023533 -0.083700757844883136 0 -0.0084319504972518427 -0.083133119965336302 0 -0.0034734753821193971 -0.085690284507817391 0 -0.0026776911044387093 -0.084510426715347309 0 -0.0061882995379023533 -0.083700757844883136 0 -0.0057123689419458093 -0.081983962483605718 0 -0.0084319504972518427 -0.083133119965336302 0 -0.0061882995379023533 -0.083700757844883136 0 -0.0057123689419458093 -0.081983962483605718 0 -0.0047397349799480687 -0.083711080282311334 0 -0.0057123689419458093 -0.081983962483605718 0 -0.0047397349799480687 -0.083711080282311334 0 -0.0043768837718747653 -0.082361848255141479 0 -0.0057123689419458093 -0.081983962483605718 0 -0.0044199089276610228 -0.080944749186168563 0 -0.0052766162058212381 -0.07999621283841768 0 -0.0057123689419458093 -0.081983962483605718 0 -0.0070476085277608588 -0.080477979493602719 0 -0.0052766162058212381 -0.07999621283841768 0 -0.0057123689419458093 -0.081983962483605718 0 -0.0043768837718747653 -0.082361848255141479 0 -0.0044199089276610228 -0.080944749186168563 0 -0.0057123689419458093 -0.081983962483605718 0 -0.0070476085277608588 -0.080477979493602719 0 -0.0084319504972518427 -0.083133119965336302 0 -0.0063204081518580327 -0.074950161099062829 0 -0.0050271125181249269 -0.075635674906780553 0 -0.004217129895132757 -0.074637948165372295 0 -0.0029840390983256748 -0.08352969650672426 0 -0.0032156969836781429 -0.083312148766808244 0 -0.0032154701778468707 -0.080893846333998598 0 -0.0037211116765643883 -0.084181855058715449 0 -0.0030604757781815747 -0.083544146277586495 0 -0.0032156969836781429 -0.083312148766808244 0 -0.0083791146786752983 -0.084083049222945294 0 -0.0083363051138012952 -0.084102859368190966 0 -0.0037211116765643883 -0.084181855058715449 0 -0.0039475463257620316 -0.083244858754621773 0 -0.0047397349799480687 -0.083711080282311334 0 -0.0037211116765643883 -0.084181855058715449 0 -0.0032156969836781429 -0.083312148766808244 0 -0.0039475463257620316 -0.083244858754621773 0 -0.0039475463257620316 -0.083244858754621773 0 -0.0047397349799480687 -0.083711080282311334 0 -0.0043768837718747653 -0.082361848255141479 0 -0.0032156969836781429 -0.083312148766808244 0 -0.0039475463257620316 -0.083244858754621773 0 -0.003800008510702297 -0.082649680413622195 0 -0.0032156969836781429 -0.083312148766808244 0 -0.003800008510702297 -0.082649680413622195 0 -0.0037273416688288633 -0.081859110984339831 0 -0.0039475463257620316 -0.083244858754621773 0 -0.003800008510702297 -0.082649680413622195 0 -0.0043768837718747653 -0.082361848255141479 0 -0.0032156969836781429 -0.083312148766808244 0 -0.0037273416688288633 -0.081859110984339831 0 -0.0032154701778468707 -0.080893846333998598 0 -0.003800008510702297 -0.082649680413622195 0 -0.0037273416688288633 -0.081859110984339831 0 -0.0043768837718747653 -0.082361848255141479 0 -0.0037273416688288633 -0.081859110984339831 0 -0.0043768837718747653 -0.082361848255141479 0 -0.0044199089276610228 -0.080944749186168563 0 -0.0037273416688288633 -0.081859110984339831 0 -0.0044199089276610228 -0.080944749186168563 0 -0.0032154701778468707 -0.080893846333998598 0 -0.0083791146786752983 -0.084083049222945294 0 -0.006686531857097059 -0.080347831007533482 0 -0.0050271125181249269 -0.075635674906780553 0 -0.004217129895132757 -0.074637948165372295 0 -0.0040430607550198958 -0.0769825947681336 0 -0.0050271125181249269 -0.075635674906780553 0 -0.0040430607550198958 -0.0769825947681336 0 -0.0051335548549984915 -0.076741665512071053 0 -0.0040430607550198958 -0.0769825947681336 0 -0.0051335548549984915 -0.076741665512071053 0 -0.0046662612166002973 -0.077664059042044001 0 -0.0051335548549984915 -0.076741665512071053 0 -0.0046662612166002973 -0.077664059042044001 0 -0.0052420699461273043 -0.07758046797084843 0 -0.0040430607550198958 -0.0769825947681336 0 -0.0046662612166002973 -0.077664059042044001 0 -0.0040224304857472901 -0.078485413217152161 0 -0.0046662612166002973 -0.077664059042044001 0 -0.0046305577037565803 -0.078183815120196315 0 -0.0049779636946209703 -0.077987552843355998 0 -0.0032154701778468707 -0.080893846333998598 0 -0.0043832659845440868 -0.079656358467037114 0 -0.0040224304857472901 -0.078485413217152161 0 -0.006686531857097059 -0.080347831007533482 0 -0.0061891998295700787 -0.079564184670501747 0 -0.0043832659845440868 -0.079656358467037114 0 -0.004740165012664283 -0.078422679624542982 0 -0.0052766162058212381 -0.07999621283841768 0 -0.0044199089276610228 -0.080944749186168563 0 -0.0032154701778468707 -0.080893846333998598 0 -0.0043832659845440868 -0.079656358467037114 0 -0.0044199089276610228 -0.080944749186168563 0 -0.0043832659845440868 -0.079656358467037114 0 -0.0052766162058212381 -0.07999621283841768 0 -0.004740165012664283 -0.078422679624542982 0 -0.0056086563916879634 -0.078042714412084602 0 -0.0042338813147996552 -0.078230001767786453 0 -0.0043832659845440868 -0.079656358467037114 0 -0.0040224304857472901 -0.078485413217152161 0 -0.004740165012664283 -0.078422679624542982 0 -0.004740165012664283 -0.078422679624542982 0 -0.0042046625814374048 -0.07835977042071704 0 -0.0042338813147996552 -0.078230001767786453 0 -0.0040224304857472901 -0.078485413217152161 0 -0.004740165012664283 -0.078422679624542982 0 -0.0042046625814374048 -0.07835977042071704 0 -0.0042046625814374048 -0.07835977042071704 0 -0.0044270480348707212 -0.078461725023933157 0 -0.0042338813147996552 -0.078230001767786453 0 -0.0040224304857472901 -0.078485413217152161 0 -0.0042046625814374048 -0.07835977042071704 0 -0.0044270480348707212 -0.078461725023933157 0 -0.0040224304857472901 -0.078485413217152161 0 -0.0044270480348707212 -0.078461725023933157 0 -0.0046305577037565803 -0.078183815120196315 0 -0.0044270480348707212 -0.078461725023933157 0 -0.0047839135243633079 -0.078339281770635663 0 -0.0046305577037565803 -0.078183815120196315 0 -0.0044270480348707212 -0.078461725023933157 0 -0.0047839135243633079 -0.078339281770635663 0 -0.0046634675002668116 -0.078542664851250069 0 -0.0047839135243633079 -0.078339281770635663 0 -0.0046305577037565803 -0.078183815120196315 0 -0.0049779636946209703 -0.077987552843355998 0 -0.0046662612166002973 -0.077664059042044001 0 -0.0040224304857472901 -0.078485413217152161 0 -0.0046305577037565803 -0.078183815120196315 0 -0.0070476085277608588 -0.080477979493602719 0 -0.0060832945335795108 -0.07905348201113617 0 -0.0073976461426031497 -0.078151426061554591 0 -0.0070476085277608588 -0.080477979493602719 0 -0.0052766162058212381 -0.07999621283841768 0 -0.0060832945335795108 -0.07905348201113617 0 -0.004740165012664283 -0.078422679624542982 0 -0.0060832945335795108 -0.07905348201113617 0 -0.0056086563916879634 -0.078042714412084602 0 -0.004740165012664283 -0.078422679624542982 0 -0.0052766162058212381 -0.07999621283841768 0 -0.0060832945335795108 -0.07905348201113617 0 -0.0060832945335795108 -0.07905348201113617 0 -0.0056086563916879634 -0.078042714412084602 0 -0.0073976461426031497 -0.078151426061554591 0 -0.0044989961628807574 -0.077204913859589205 0 -0.0073976461426031497 -0.078151426061554591 0 -0.0062056919561634749 -0.076187048838655791 0 -0.006815380707708962 -0.073371820087628645 0 -0.0071963994129791388 -0.074200115268962641 0 -0.0073976461426031497 -0.078151426061554591 0 -0.0062056919561634749 -0.076187048838655791 0 -0.0078920391431882043 -0.075049893529630068 0 -0.0062056919561634749 -0.076187048838655791 0 -0.0061654102156675772 -0.074540875596855849 0 -0.0078920391431882043 -0.075049893529630068 0 -0.0062056919561634749 -0.076187048838655791 0 -0.0046546976847451262 -0.075245831127745924 0 -0.0061654102156675772 -0.074540875596855849 0 -0.006815380707708962 -0.073371820087628645 0 -0.0072495482478327012 -0.071062244062061658 0 -0.0044989961628807574 -0.077204913859589205 0 -0.0062056919561634749 -0.076187048838655791 0 -0.0046546976847451262 -0.075245831127745924 0 -0.0044989961628807574 -0.077204913859589205 0 -0.0046546976847451262 -0.075245831127745924 0 -0.0028301211192966812 -0.07577217301087992 0 -0.0046546976847451262 -0.075245831127745924 0 -0.0034586926386674785 -0.074870684806902163 0 -0.0028301211192966812 -0.07577217301087992 0 -0.0046546976847451262 -0.075245831127745924 0 -0.0034586926386674785 -0.074870684806902163 0 -0.003617553486904668 -0.073930643993105158 0 -0.0034586926386674785 -0.074870684806902163 0 -0.003617553486904668 -0.073930643993105158 0 -0.0027322542755731688 -0.074532653824472259 0 -0.0037747416742132155 -0.072345428930526007 0 -0.003617553486904668 -0.073930643993105158 0 -0.0051465021464638574 -0.073199572438847851 0 -0.0037747416742132155 -0.072345428930526007 0 -0.003617553486904668 -0.073930643993105158 0 -0.0025270764458702644 -0.073553212967729945 0 -0.0046546976847451262 -0.075245831127745924 0 -0.003617553486904668 -0.073930643993105158 0 -0.0051465021464638574 -0.073199572438847851 0 -0.0046546976847451262 -0.075245831127745924 0 -0.0051465021464638574 -0.073199572438847851 0 -0.0061654102156675772 -0.074540875596855849 0 -0.0051465021464638574 -0.073199572438847851 0 -0.0061654102156675772 -0.074540875596855849 0 -0.0069137164849349892 -0.073036953075763092 0 -0.0061654102156675772 -0.074540875596855849 0 -0.0069137164849349892 -0.073036953075763092 0 -0.0078920391431882043 -0.075049893529630068 0 -0.0044270480348707212 -0.078461725023933157 0 -0.0046130911294726381 -0.078735853919237805 0 -0.0042338813147996552 -0.078230001767786453 0 4.4688563126111147e-05 -0.075102184127473215 0 0.00039946868351009026 -0.075520832015909242 0 -0.0019553584753250115 -0.076287475059486201 0 -0.011519457673743239 -0.067232365522350887 0 -0.0072495482478327012 -0.071062244062061658 0 -0.016843593227384553 -0.065397189415952517 0 -0.010576997941427406 -0.064005463033019391 0 -0.012013805706477001 -0.071078126436213987 0 -0.009663920704772214 -0.067567872773037996 0 -0.011552922075067518 -0.066351735631463141 0 -0.011552922075067518 -0.066351735631463141 0 -0.012703729553047544 -0.066621338038562586 0 -0.010576997941427406 -0.064005463033019391 0 -0.012013805706477001 -0.071078126436213987 0 -0.00815081001628651 -0.069903712539953339 0 -0.011519457673743239 -0.067232365522350887 0 -0.012703729553047544 -0.066621338038562586 0 -0.009663920704772214 -0.067567872773037996 0 -0.011519457673743239 -0.067232365522350887 0 -0.0046130911294726381 -0.078735853919237805 0 -0.0046634675002668116 -0.078542664851250069 0 -0.004835533927744576 -0.07861040363435802 0 -0.0044270480348707212 -0.078461725023933157 0 -0.0046130911294726381 -0.078735853919237805 0 -0.0046634675002668116 -0.078542664851250069 0 -0.0044989961628807574 -0.077204913859589205 0 -0.0019553584753250115 -0.076287475059486201 0 -0.0028301211192966812 -0.07577217301087992 0 4.4688563126111147e-05 -0.075102184127473215 0 -0.0019553584753250115 -0.076287475059486201 0 -0.0028301211192966812 -0.07577217301087992 0 0.00038554122966189008 -0.075025483544345253 0 -0.0028301211192966812 -0.07577217301087992 0 -0.0014317767692573779 -0.074406389398505871 0 -0.009663920704772214 -0.067567872773037996 0 -0.0058680855611479314 -0.068719433033681998 0 -0.0034586926386674785 -0.074870684806902163 0 -0.0028301211192966812 -0.07577217301087992 0 -0.0027322542755731688 -0.074532653824472259 0 -0.0028301211192966812 -0.07577217301087992 0 -0.0014317767692573779 -0.074406389398505871 0 -0.0027322542755731688 -0.074532653824472259 0 -0.003617553486904668 -0.073930643993105158 0 -0.0027322542755731688 -0.074532653824472259 0 -0.0025270764458702644 -0.073553212967729945 0 -0.0014317767692573779 -0.074406389398505871 0 -0.0027322542755731688 -0.074532653824472259 0 -0.0025270764458702644 -0.073553212967729945 0 -0.0017464980575187924 -0.072499736547011182 0 -0.0037747416742132155 -0.072345428930526007 0 -0.0025270764458702644 -0.073553212967729945 0 -0.0017464980575187924 -0.072499736547011182 0 -0.0014317767692573779 -0.074406389398505871 0 -0.0025270764458702644 -0.073553212967729945 0 -0.0017464980575187924 -0.072499736547011182 0 0.00038554122966189008 -0.075025483544345253 0 -0.0014317767692573779 -0.074406389398505871 0 -0.0051555221190544244 -0.070523443642106026 0 -0.009663920704772214 -0.067567872773037996 0 -0.0028348584002774375 -0.069379432428970531 0 -0.0034380539011074785 -0.069554143945816577 0 -0.0026287643075576668 -0.070498486787230835 0 -0.0067816751778370932 -0.055627383539244249 0 -0.0078193020197030397 -0.055491313875647139 0 -0.0073614013307942063 -0.0566704193465421 0 -0.007483108610336668 -0.063125297394991481 0 -0.011552922075067518 -0.066351735631463141 0 -0.0028348584002774375 -0.069379432428970531 0 -0.0026287643075576668 -0.070498486787230835 0 -0.0024347585885793675 -0.07045334048396347 0 -0.0067816751778370932 -0.055627383539244249 0 -0.0073614013307942063 -0.0566704193465421 0 -0.0060957560855815123 -0.056374895916796598 0 -0.011552922075067518 -0.066351735631463141 0 -0.019194441579920195 -0.059708650840161963 0 -0.013806190077889373 -0.062756100144161484 0 -0.018016575920885528 -0.063232297798352932 0 -0.01820944133394322 -0.063712588240901952 0 -0.0057692562322154261 -0.055549920595941153 0 -0.0067816751778370932 -0.055627383539244249 0 -0.0060957560855815123 -0.056374895916796598 0 -0.018428470092287895 -0.054567846846308686 0 -0.019194441579920195 -0.059708650840161963 0 -0.018324163907514034 -0.056901637033922009 0 -0.017690727108280121 -0.059871866272068482 0 -0.016967438813633787 -0.058579647393222162 0 -0.018324163907514034 -0.056901637033922009 0 -0.01968127440829737 -0.06031739900124327 0 -0.017690727108280121 -0.059871866272068482 0 -0.018428470092287895 -0.054567846846308686 0 -0.023479479921479137 -0.056460744048736147 0 -0.01977579679551834 -0.060812289019595844 0 -0.019194441579920195 -0.059708650840161963 0 -0.019194441579920195 -0.059708650840161963 0 -0.023805119754520841 -0.058397977429674598 0 -0.01977579679551834 -0.060812289019595844 0 -0.024220717422840776 -0.059259457767761259 0 -0.020234468290784891 -0.059287349518602574 0 -0.022723451863996758 -0.059310151813393081 0 -0.02306031291727809 -0.05990633033670497 0 -0.019903701725054186 -0.058462447019870162 0 -0.020234468290784891 -0.059287349518602574 0 -0.022723451863996758 -0.059310151813393081 0 -0.024220717422840776 -0.059259457767761259 0 -0.023805119754520841 -0.058397977429674598 0 -0.01977579679551834 -0.060812289019595844 0 -0.020918727466717996 -0.065549716842832409 0 -0.023246663966685552 -0.059459372710362508 0 -0.023082427737326709 -0.062051637731407205 0 -0.025320461640156874 -0.064699085771665665 0 -0.046244457909286281 -0.056815030782424912 0 -0.046925626418465614 -0.05799384268488441 0 -0.046120600161254938 -0.057983896199312809 0 -0.024220717422840776 -0.059259457767761259 0 -0.025350958075616256 -0.062505212069079871 0 -0.023246663966685552 -0.059459372710362508 0 -0.02130745178106646 -0.058864178562883243 0 -0.023082427737326709 -0.062051637731407205 0 -0.046925626418465614 -0.05799384268488441 0 -0.046163818017686244 -0.058763386672512866 0 -0.046120600161254938 -0.057983896199312809 0 -0.01977579679551834 -0.060812289019595844 0 -0.012703729553047544 -0.066621338038562586 0 -0.013806190077889373 -0.062756100144161484 0 -0.018016575920885528 -0.063232297798352932 0 -0.014093039438134147 -0.06206002448741603 0 -0.018729894247245124 -0.062563740589483566 0 -0.021244357608122905 -0.063338351719286132 0 -0.020900697272279604 -0.064182221974632664 0 -0.018729894247245124 -0.062563740589483566 0 -0.020900697272279604 -0.064182221974632664 0 -0.019861401476523488 -0.065411136015137247 0 -0.016023694630304189 -0.066598849514042782 0 -0.015104436787739792 -0.066319187104642602 0 -0.014023086838842944 -0.068955783533383136 0 -0.012703729553047544 -0.066621338038562586 0 -0.014691210130188977 -0.067164524725051064 0 -0.011519457673743239 -0.067232365522350887 0 -0.014691210130188977 -0.067164524725051064 0 -0.014691210130188977 -0.067164524725051064 0 -0.020918727466717996 -0.065549716842832409 0 -0.014691210130188977 -0.067164524725051064 0 -0.019960451486351109 -0.066714472852198808 0 -0.0047839135243633079 -0.078339281770635663 0 -0.0046634675002668116 -0.078542664851250069 0 -0.004835533927744576 -0.07861040363435802 0 -0.0047839135243633079 -0.078339281770635663 0 -0.004835533927744576 -0.07861040363435802 0 -0.005242063057830721 -0.078134174044519167 0 -0.0047839135243633079 -0.078339281770635663 0 -0.005242063057830721 -0.078134174044519167 0 -0.0049779636946209703 -0.077987552843355998 0 -0.020656104638424572 -0.066140316333414079 0 -0.019960451486351109 -0.066714472852198808 0 -0.020218899926616848 -0.06914842222004576 0 -0.021269685037817093 -0.066592839667677761 0 -0.017075319194156578 -0.06355187048297764 0 -0.019960451486351109 -0.066714472852198808 0 -0.020918727466717996 -0.065549716842832409 0 -0.021269685037817093 -0.066592839667677761 0 -0.017075319194156578 -0.06355187048297764 0 -0.019105397811843346 -0.061164133199474884 0 -0.020656104638424572 -0.066140316333414079 0 -0.023475024631605605 -0.064612964218274282 0 -0.016854663113824189 -0.065983056101522969 0 -0.017263459772512622 -0.065024957566323011 0 -0.017394319093654194 -0.065361322676019656 0 -0.023475024631605605 -0.064612964218274282 0 -0.020918727466717996 -0.065549716842832409 0 -0.025350958075616256 -0.062505212069079871 0 -0.023475024631605605 -0.064612964218274282 0 -0.023082427737326709 -0.062051637731407205 0 -0.02486150735789755 -0.065239343584832868 0 -0.025320461640156874 -0.064699085771665665 0 -0.046925626418465614 -0.05799384268488441 0 -0.047580029190463155 -0.059167914458321237 0 -0.046773189242256846 -0.059056532830910516 0 -0.046925626418465614 -0.05799384268488441 0 -0.046773189242256846 -0.059056532830910516 0 -0.046163818017686244 -0.058763386672512866 0 -0.046773189242256846 -0.059056532830910516 0 -0.046163818017686244 -0.058763386672512866 0 -0.045999033563882283 -0.059367615357391788 0 -0.046773189242256846 -0.059056532830910516 0 -0.046498368624385437 -0.059755797929546592 0 -0.045999033563882283 -0.059367615357391788 0 -0.047580029190463155 -0.059167914458321237 0 -0.046773189242256846 -0.059056532830910516 0 -0.046498368624385437 -0.059755797929546592 0 -0.047294490559085481 -0.061791936297089345 0 -0.047125763497390463 -0.061513962724895628 0 -0.046275486392449508 -0.062564861342576328 0 -0.023475024631605605 -0.064612964218274282 0 -0.038644750144351619 -0.059643941763883969 0 -0.047580029190463155 -0.059167914458321237 0 -0.046498368624385437 -0.059755797929546592 0 -0.046204668015184858 -0.060960612728464189 0 -0.046943736240529624 -0.062998104694647991 0 -0.047294490559085481 -0.061791936297089345 0 -0.046275486392449508 -0.062564861342576328 0 -0.02460947294247905 -0.068452851092957095 0 -0.020656104638424572 -0.066140316333414079 0 -0.0075725803001810621 -0.076664967424739106 0 -0.0065359934589417669 -0.07911270751259139 0 -0.0059492160255226259 -0.078105874026751773 0 -0.018444414211204043 -0.068670010792239153 0 -0.019447460388878072 -0.067787916038800106 0 -0.005242063057830721 -0.078134174044519167 0 -0.0052420699461273043 -0.07758046797084843 0 -0.0049779636946209703 -0.077987552843355998 0 -0.0046662612166002973 -0.077664059042044001 0 -0.0052420699461273043 -0.07758046797084843 0 -0.0049779636946209703 -0.077987552843355998 0 -0.019960451486351109 -0.066714472852198808 0 -0.019447460388878072 -0.067787916038800106 0 -0.020656104638424572 -0.066140316333414079 0 -0.019447460388878072 -0.067787916038800106 0 -0.018883098527756867 -0.066369283229445672 0 -0.019043106025753605 -0.065979186551458638 0 -0.019697479553574589 -0.067816349622411343 0 -0.044399876031328535 -0.061004347534448146 0 -0.045064377888037625 -0.060217285161648329 0 -0.044172195488340373 -0.059238382771218283 0 -0.044399876031328535 -0.061004347534448146 0 -0.043066841061934542 -0.059631069519730094 0 -0.043027133650598445 -0.062107072137436541 0 -0.044399876031328535 -0.061004347534448146 0 -0.044172195488340373 -0.059238382771218283 0 -0.043066841061934542 -0.059631069519730094 0 -0.044399876031328535 -0.061004347534448146 0 -0.046204668015184858 -0.060960612728464189 0 -0.045064377888037625 -0.060217285161648329 0 -0.046204668015184858 -0.060960612728464189 0 -0.045830334136835793 -0.060117327944321848 0 -0.045064377888037625 -0.060217285161648329 0 -0.046498368624385437 -0.059755797929546592 0 -0.045830334136835793 -0.060117327944321848 0 -0.045999033563882283 -0.059367615357391788 0 -0.046498368624385437 -0.059755797929546592 0 -0.046204668015184858 -0.060960612728464189 0 -0.045830334136835793 -0.060117327944321848 0 -0.045830334136835793 -0.060117327944321848 0 -0.045064377888037625 -0.060217285161648329 0 -0.045191390835981046 -0.059369588681773514 0 -0.045191390835981046 -0.059369588681773514 0 -0.045999033563882283 -0.059367615357391788 0 -0.045621163270175374 -0.058904003992692987 0 -0.045830334136835793 -0.060117327944321848 0 -0.045191390835981046 -0.059369588681773514 0 -0.045999033563882283 -0.059367615357391788 0 -0.046163818017686244 -0.058763386672512866 0 -0.045999033563882283 -0.059367615357391788 0 -0.045621163270175374 -0.058904003992692987 0 -0.046163818017686244 -0.058763386672512866 0 -0.045621163270175374 -0.058904003992692987 0 -0.045627083365984533 -0.058405153504521821 0 -0.045191390835981046 -0.059369588681773514 0 -0.0451168991717322 -0.058604990761913188 0 -0.044674619806187622 -0.058856741492834867 0 -0.045191390835981046 -0.059369588681773514 0 -0.045621163270175374 -0.058904003992692987 0 -0.0451168991717322 -0.058604990761913188 0 -0.045621163270175374 -0.058904003992692987 0 -0.0451168991717322 -0.058604990761913188 0 -0.045627083365984533 -0.058405153504521821 0 -0.0451168991717322 -0.058604990761913188 0 -0.044789310485603855 -0.058425496469164138 0 -0.044674619806187622 -0.058856741492834867 0 -0.036899415869451203 -0.055505858543440471 0 -0.03945839176267598 -0.057046469319595373 0 -0.044674619806187622 -0.058856741492834867 0 -0.044172195488340373 -0.059238382771218283 0 -0.044362088878059473 -0.058122409037771106 0 -0.044166533806788998 -0.057710799620821061 0 -0.043242053683708724 -0.057872768713236773 0 -0.043284396175503115 -0.059220287103625931 0 -0.044172195488340373 -0.059238382771218283 0 -0.044362088878059473 -0.058122409037771106 0 -0.043066841061934542 -0.059631069519730094 0 -0.044789310485603855 -0.058425496469164138 0 -0.044674619806187622 -0.058856741492834867 0 -0.044362088878059473 -0.058122409037771106 0 -0.045064377888037625 -0.060217285161648329 0 -0.045191390835981046 -0.059369588681773514 0 -0.044172195488340373 -0.059238382771218283 0 -0.045191390835981046 -0.059369588681773514 0 -0.044674619806187622 -0.058856741492834867 0 -0.044172195488340373 -0.059238382771218283 0 -0.044088961379564834 -0.057565897684768483 0 -0.044141105427654405 -0.057438897780319777 0 -0.044119056619722943 -0.057278264431863089 0 -0.044166533806788998 -0.057710799620821061 0 -0.044088961379564834 -0.057565897684768483 0 -0.043242053683708724 -0.057872768713236773 0 -0.044088961379564834 -0.057565897684768483 0 -0.043342881407897937 -0.05740840621798475 0 -0.043242053683708724 -0.057872768713236773 0 -0.044789310485603855 -0.058425496469164138 0 -0.044362088878059473 -0.058122409037771106 0 -0.045033423210762848 -0.058058849752661873 0 -0.044166533806788998 -0.057710799620821061 0 -0.044088961379564834 -0.057565897684768483 0 -0.044141105427654405 -0.057438897780319777 0 -0.044088961379564834 -0.057565897684768483 0 -0.043854469575288942 -0.057179038417601261 0 -0.044184149195138259 -0.05689757164171743 0 -0.044088961379564834 -0.057565897684768483 0 -0.043854469575288942 -0.057179038417601261 0 -0.043342881407897937 -0.05740840621798475 0 -0.043854469575288942 -0.057179038417601261 0 -0.043915499050637768 -0.056916738742478525 0 -0.044184149195138259 -0.05689757164171743 0 -0.043854469575288942 -0.057179038417601261 0 -0.043490974062628286 -0.056935907050385766 0 -0.043342881407897937 -0.05740840621798475 0 -0.043854469575288942 -0.057179038417601261 0 -0.043915499050637768 -0.056916738742478525 0 -0.043490974062628286 -0.056935907050385766 0 -0.044166533806788998 -0.057710799620821061 0 -0.044141105427654405 -0.057438897780319777 0 -0.044223649226946465 -0.057268633855450002 0 -0.036899415869451203 -0.055505858543440471 0 -0.02667864224611427 -0.05722346847717568 0 -0.044362088878059473 -0.058122409037771106 0 -0.045257547085486211 -0.057602729131322784 0 -0.045618405162636461 -0.056547868475128424 0 -0.046163818017686244 -0.058763386672512866 0 -0.046120600161254938 -0.057983896199312809 0 -0.045627083365984533 -0.058405153504521821 0 -0.046120600161254938 -0.057983896199312809 0 -0.045627083365984533 -0.058405153504521821 0 -0.045580647426558193 -0.057864587680089154 0 -0.044362088878059473 -0.058122409037771106 0 -0.045033423210762848 -0.058058849752661873 0 -0.045257547085486211 -0.057602729131322784 0 -0.045580647426558193 -0.057864587680089154 0 -0.045033423210762848 -0.058058849752661873 0 -0.045257547085486211 -0.057602729131322784 0 -0.0451168991717322 -0.058604990761913188 0 -0.045627083365984533 -0.058405153504521821 0 -0.045033423210762848 -0.058058849752661873 0 -0.045627083365984533 -0.058405153504521821 0 -0.045580647426558193 -0.057864587680089154 0 -0.045033423210762848 -0.058058849752661873 0 -0.0451168991717322 -0.058604990761913188 0 -0.044789310485603855 -0.058425496469164138 0 -0.045033423210762848 -0.058058849752661873 0 -0.046244457909286281 -0.056815030782424912 0 -0.046120600161254938 -0.057983896199312809 0 -0.045746523043532217 -0.057356737536129666 0 -0.045257547085486211 -0.057602729131322784 0 -0.045746523043532217 -0.057356737536129666 0 -0.045618405162636461 -0.056547868475128424 0 -0.045580647426558193 -0.057864587680089154 0 -0.045257547085486211 -0.057602729131322784 0 -0.045746523043532217 -0.057356737536129666 0 -0.046120600161254938 -0.057983896199312809 0 -0.045580647426558193 -0.057864587680089154 0 -0.045746523043532217 -0.057356737536129666 0 -0.046244457909286281 -0.056815030782424912 0 -0.045746523043532217 -0.057356737536129666 0 -0.045618405162636461 -0.056547868475128424 0 -0.023699462672163187 -0.057005337651832202 0 -0.023970151657937411 -0.057483707561486491 0 -0.025677420287608107 -0.057855391799858748 0 -0.024220717422840776 -0.059259457767761259 0 -0.02667864224611427 -0.05722346847717568 0 -0.023805119754520841 -0.058397977429674598 0 -0.02667864224611427 -0.05722346847717568 0 -0.023172044674383042 -0.060700013400421235 0 -0.020274773120374991 -0.060054543940498466 0 -0.021773258714370074 -0.05820512111191406 0 -0.044141105427654405 -0.057438897780319777 0 -0.044223649226946465 -0.057268633855450002 0 -0.04415433362186149 -0.057332795686515982 0 -0.044141105427654405 -0.057438897780319777 0 -0.04415433362186149 -0.057332795686515982 0 -0.044119056619722943 -0.057278264431863089 0 -0.044223649226946465 -0.057268633855450002 0 -0.044161003398340504 -0.057292645710953327 0 -0.04415433362186149 -0.057332795686515982 0 -0.02667864224611427 -0.05722346847717568 0 -0.027498442563153411 -0.057299972820711823 0 -0.044161003398340504 -0.057292645710953327 0 -0.04415433362186149 -0.057332795686515982 0 -0.044119056619722943 -0.057278264431863089 0 -0.02667864224611427 -0.05722346847717568 0 -0.028674349438434537 -0.054297811328187534 0 -0.024658664236578087 -0.056256129565854039 0 -0.023796925599333701 -0.056062677787379403 0 -0.024952123806012395 -0.055892074225474549 0 -0.024312724891665728 -0.054754728019591865 0 -0.023796925599333701 -0.056062677787379403 0 -0.024952123806012395 -0.055892074225474549 0 -0.044208835525521656 -0.057299411621640789 0 -0.044161003398340504 -0.057292645710953327 0 -0.044119056619722943 -0.057278264431863089 0 -0.02667864224611427 -0.05722346847717568 0 -0.023479479921479137 -0.056460744048736147 0 -0.023805119754520841 -0.058397977429674598 0 -0.023479479921479137 -0.056460744048736147 0 -0.044088961379564834 -0.057565897684768483 0 -0.044568665703010844 -0.056300417725073361 0 -0.044184149195138259 -0.05689757164171743 0 -0.031031131861261604 -0.053902311058246777 0 -0.028674349438434537 -0.054297811328187534 0 -0.043846136322378923 -0.056649440010027127 0 -0.043994379561859608 -0.056425881266452427 0 -0.043448800769471822 -0.056419922245488738 0 -0.043846136322378923 -0.056649440010027127 0 -0.043994379561859608 -0.056425881266452427 0 -0.044069554881182638 -0.056595596054703011 0 -0.043846136322378923 -0.056649440010027127 0 -0.044053131009914821 -0.056765488113798314 0 -0.044069554881182638 -0.056595596054703011 0 -0.043846136322378923 -0.056649440010027127 0 -0.043448800769471822 -0.056419922245488738 0 -0.043490974062628286 -0.056935907050385766 0 -0.043846136322378923 -0.056649440010027127 0 -0.043915499050637768 -0.056916738742478525 0 -0.043490974062628286 -0.056935907050385766 0 -0.043846136322378923 -0.056649440010027127 0 -0.043915499050637768 -0.056916738742478525 0 -0.044053131009914821 -0.056765488113798314 0 -0.044184149195138259 -0.05689757164171743 0 -0.044184788954884251 -0.056679636943142431 0 -0.044364242257361054 -0.05647437844333679 0 -0.044568665703010844 -0.056300417725073361 0 -0.044184149195138259 -0.05689757164171743 0 -0.044364242257361054 -0.05647437844333679 0 -0.043915499050637768 -0.056916738742478525 0 -0.044184149195138259 -0.05689757164171743 0 -0.044053131009914821 -0.056765488113798314 0 -0.044184149195138259 -0.05689757164171743 0 -0.044184788954884251 -0.056679636943142431 0 -0.044053131009914821 -0.056765488113798314 0 -0.044184788954884251 -0.056679636943142431 0 -0.044053131009914821 -0.056765488113798314 0 -0.044069554881182638 -0.056595596054703011 0 -0.044184788954884251 -0.056679636943142431 0 -0.044069554881182638 -0.056595596054703011 0 -0.044197052951773994 -0.056560001198222652 0 -0.044184788954884251 -0.056679636943142431 0 -0.044364242257361054 -0.05647437844333679 0 -0.044197052951773994 -0.056560001198222652 0 -0.044364242257361054 -0.05647437844333679 0 -0.044197052951773994 -0.056560001198222652 0 -0.044186022923331576 -0.056391328312560114 0 -0.043994379561859608 -0.056425881266452427 0 -0.044197052951773994 -0.056560001198222652 0 -0.044186022923331576 -0.056391328312560114 0 -0.043994379561859608 -0.056425881266452427 0 -0.044069554881182638 -0.056595596054703011 0 -0.044197052951773994 -0.056560001198222652 0 -0.023391195677602075 -0.050673357358931512 0 -0.023720108637179094 -0.052661994400435778 0 -0.022509945137805545 -0.052392786490973717 0 -0.043994379561859608 -0.056425881266452427 0 -0.044186022923331576 -0.056391328312560114 0 -0.044138943665235277 -0.05620849677019444 0 -0.044364242257361054 -0.05647437844333679 0 -0.044186022923331576 -0.056391328312560114 0 -0.044138943665235277 -0.05620849677019444 0 -0.028674349438434537 -0.054297811328187534 0 -0.030954876043328101 -0.053201818860644207 0 -0.044568665703010844 -0.056300417725073361 0 -0.044364242257361054 -0.05647437844333679 0 -0.044138943665235277 -0.05620849677019444 0 -0.030954876043328101 -0.053201818860644207 0 -0.033806925541753387 -0.053840766855769252 0 -0.04313908983677664 -0.055498299341209173 0 -0.043989951026876847 -0.056184494386984862 0 -0.043238796506328399 -0.056023608562740565 0 -0.044138943665235277 -0.05620849677019444 0 -0.043238796506328399 -0.056023608562740565 0 -0.043448800769471822 -0.056419922245488738 0 -0.043994379561859608 -0.056425881266452427 0 -0.044138943665235277 -0.05620849677019444 0 -0.043448800769471822 -0.056419922245488738 0 -0.043238796506328399 -0.056023608562740565 0 -0.043448800769471822 -0.056419922245488738 0 -0.042535901661015646 -0.05706128588935247 0 -0.034665045668942109 -0.050905685409737104 0 -0.03632112837660216 -0.052777946508061474 0 -0.042706139864123839 -0.054861481702192461 0 -0.043612622929273197 -0.054966946405557042 0 -0.042535901661015646 -0.05706128588935247 0 -0.04313908983677664 -0.055498299341209173 0 -0.043238796506328399 -0.056023608562740565 0 -0.042535901661015646 -0.05706128588935247 0 -0.043448800769471822 -0.056419922245488738 0 -0.043490974062628286 -0.056935907050385766 0 -0.042535901661015646 -0.05706128588935247 0 -0.043342881407897937 -0.05740840621798475 0 -0.042535901661015646 -0.05706128588935247 0 -0.043242053683708724 -0.057872768713236773 0 -0.043490974062628286 -0.056935907050385766 0 -0.043342881407897937 -0.05740840621798475 0 -0.042535901661015646 -0.05706128588935247 0 -0.042535901661015646 -0.05706128588935247 0 -0.043242053683708724 -0.057872768713236773 0 -0.041874508009572826 -0.05825923621614798 0 -0.042535901661015646 -0.05706128588935247 0 -0.040965910014278892 -0.056810994306315608 0 -0.041874508009572826 -0.05825923621614798 0 -0.042535901661015646 -0.05706128588935247 0 -0.041736666630455763 -0.055983585569261196 0 -0.040965910014278892 -0.056810994306315608 0 -0.042706139864123839 -0.054861481702192461 0 -0.042535901661015646 -0.05706128588935247 0 -0.041736666630455763 -0.055983585569261196 0 -0.04088673189507637 -0.055229477603434128 0 -0.041736666630455763 -0.055983585569261196 0 -0.040965910014278892 -0.056810994306315608 0 -0.04088673189507637 -0.055229477603434128 0 -0.039988392115424251 -0.056392622836403124 0 -0.040965910014278892 -0.056810994306315608 0 -0.039988392115424251 -0.056392622836403124 0 -0.039980709182556952 -0.057628062472356141 0 -0.040965910014278892 -0.056810994306315608 0 -0.039980709182556952 -0.057628062472356141 0 -0.040965910014278892 -0.056810994306315608 0 -0.040473136886754815 -0.058681028686189352 0 -0.040965910014278892 -0.056810994306315608 0 -0.040473136886754815 -0.058681028686189352 0 -0.041874508009572826 -0.05825923621614798 0 -0.039980709182556952 -0.057628062472356141 0 -0.040473136886754815 -0.058681028686189352 0 -0.039467830115405701 -0.058985386258194848 0 -0.040473136886754815 -0.058681028686189352 0 -0.039467830115405701 -0.058985386258194848 0 -0.040031428402178965 -0.060774237449685013 0 -0.039467830115405701 -0.058985386258194848 0 -0.038575309462862452 -0.06102198612384116 0 -0.040031428402178965 -0.060774237449685013 0 -0.040473136886754815 -0.058681028686189352 0 -0.041439922745926526 -0.059589770467966534 0 -0.040031428402178965 -0.060774237449685013 0 -0.041439922745926526 -0.059589770467966534 0 -0.041772933737029221 -0.061123512893041708 0 -0.040031428402178965 -0.060774237449685013 0 -0.041439922745926526 -0.059589770467966534 0 -0.043284396175503115 -0.059220287103625931 0 -0.041772933737029221 -0.061123512893041708 0 -0.03945839176267598 -0.057046469319595373 0 -0.039766779031684976 -0.058016000687172727 0 -0.043066841061934542 -0.059631069519730094 0 -0.043027133650598445 -0.062107072137436541 0 -0.041772933737029221 -0.061123512893041708 0 -0.043242053683708724 -0.057872768713236773 0 -0.043284396175503115 -0.059220287103625931 0 -0.041874508009572826 -0.05825923621614798 0 -0.041439922745926526 -0.059589770467966534 0 -0.043284396175503115 -0.059220287103625931 0 -0.041874508009572826 -0.05825923621614798 0 -0.040473136886754815 -0.058681028686189352 0 -0.041439922745926526 -0.059589770467966534 0 -0.041874508009572826 -0.05825923621614798 0 -0.039715086104471581 -0.056079825491733487 0 -0.040097316403712065 -0.054858328966830724 0 -0.039899962503908148 -0.055991782233343355 0 -0.040173869667352813 -0.05417383409545052 0 -0.039715086104471581 -0.056079825491733487 0 -0.040097316403712065 -0.054858328966830724 0 -0.04025596864919076 -0.0541258007916047 0 -0.040173869667352813 -0.05417383409545052 0 -0.040097316403712065 -0.054858328966830724 0 -0.04021332431944831 -0.054746966926825159 0 -0.040224734207085222 -0.054463524553865668 0 -0.040097316403712065 -0.054858328966830724 0 -0.04021332431944831 -0.054746966926825159 0 -0.040097316403712065 -0.054858328966830724 0 -0.039899962503908148 -0.055991782233343355 0 -0.04021332431944831 -0.054746966926825159 0 -0.039899962503908148 -0.055991782233343355 0 -0.040256495883395742 -0.055497288003421845 0 -0.039715086104471581 -0.056079825491733487 0 -0.039899962503908148 -0.055991782233343355 0 -0.03938479604555431 -0.057347131419011897 0 -0.039899962503908148 -0.055991782233343355 0 -0.03938479604555431 -0.057347131419011897 0 -0.039438950714044956 -0.057219435256337388 0 -0.039899962503908148 -0.055991782233343355 0 -0.040256495883395742 -0.055497288003421845 0 -0.039438950714044956 -0.057219435256337388 0 -0.037996254715441748 -0.055531082325120655 0 -0.039113515099385349 -0.055814451451590648 0 -0.039438950714044956 -0.057219435256337388 0 -0.039135012910045487 -0.05486411494318718 0 -0.039394568785058863 -0.055515431413838121 0 -0.039598670584125036 -0.055110065665263552 0 -0.039988392115424251 -0.056392622836403124 0 -0.039113515099385349 -0.055814451451590648 0 -0.039988392115424251 -0.056392622836403124 0 -0.039113515099385349 -0.055814451451590648 0 -0.039438950714044956 -0.057219435256337388 0 -0.039988392115424251 -0.056392622836403124 0 -0.039980709182556952 -0.057628062472356141 0 -0.039438950714044956 -0.057219435256337388 0 -0.039467830115405701 -0.058985386258194848 0 -0.039438950714044956 -0.057219435256337388 0 -0.038884446122180436 -0.058981203936653147 0 -0.039980709182556952 -0.057628062472356141 0 -0.039467830115405701 -0.058985386258194848 0 -0.039438950714044956 -0.057219435256337388 0 -0.039467830115405701 -0.058985386258194848 0 -0.038884446122180436 -0.058981203936653147 0 -0.038575309462862452 -0.06102198612384116 0 -0.038884446122180436 -0.058981203936653147 0 -0.037957900238557316 -0.060903215803977132 0 -0.038575309462862452 -0.06102198612384116 0 -0.03938479604555431 -0.057347131419011897 0 -0.039438950714044956 -0.057219435256337388 0 -0.038884446122180436 -0.058981203936653147 0 -0.03938479604555431 -0.057347131419011897 0 -0.038884446122180436 -0.058981203936653147 0 -0.038854491914848112 -0.058551525764039401 0 -0.039715086104471581 -0.056079825491733487 0 -0.03938479604555431 -0.057347131419011897 0 -0.038854491914848112 -0.058551525764039401 0 -0.038884446122180436 -0.058981203936653147 0 -0.038854491914848112 -0.058551525764039401 0 -0.037957900238557316 -0.060903215803977132 0 -0.039076751551541028 -0.058249054953557408 0 -0.038854491914848112 -0.058551525764039401 0 -0.037686275093489846 -0.060981900779178699 0 -0.039076751551541028 -0.058249054953557408 0 -0.039715086104471581 -0.056079825491733487 0 -0.038854491914848112 -0.058551525764039401 0 -0.037686275093489846 -0.060981900779178699 0 -0.037094871205392121 -0.062499964492854783 0 -0.036388793655718808 -0.063305239418598183 0 -0.037686275093489846 -0.060981900779178699 0 -0.037094871205392121 -0.062499964492854783 0 -0.037957900238557316 -0.060903215803977132 0 -0.038854491914848112 -0.058551525764039401 0 -0.037686275093489846 -0.060981900779178699 0 -0.037957900238557316 -0.060903215803977132 0 -0.037094871205392121 -0.062499964492854783 0 -0.037957900238557316 -0.060903215803977132 0 -0.037215272236258763 -0.063378144517887855 0 -0.037957900238557316 -0.060903215803977132 0 -0.038575309462862452 -0.06102198612384116 0 -0.037215272236258763 -0.063378144517887855 0 -0.038575309462862452 -0.06102198612384116 0 -0.037215272236258763 -0.063378144517887855 0 -0.038709791555324169 -0.062895843104760221 0 -0.037215272236258763 -0.063378144517887855 0 -0.038709791555324169 -0.062895843104760221 0 -0.03723479529374648 -0.065293846913146256 0 -0.037215272236258763 -0.063378144517887855 0 -0.035222351291403803 -0.066839246398140081 0 -0.03723479529374648 -0.065293846913146256 0 -0.035222351291403803 -0.066839246398140081 0 -0.036442414382590591 -0.064524388083096712 0 -0.036330095016333511 -0.065223977880258993 0 -0.037215272236258763 -0.063378144517887855 0 -0.035222351291403803 -0.066839246398140081 0 -0.036442414382590591 -0.064524388083096712 0 -0.037094871205392121 -0.062499964492854783 0 -0.037215272236258763 -0.063378144517887855 0 -0.036442414382590591 -0.064524388083096712 0 -0.037094871205392121 -0.062499964492854783 0 -0.036442414382590591 -0.064524388083096712 0 -0.036388793655718808 -0.063305239418598183 0 -0.036442414382590591 -0.064524388083096712 0 -0.036330095016333511 -0.065223977880258993 0 -0.036388793655718808 -0.063305239418598183 0 -0.034091557314585547 -0.065196744561601169 0 -0.036330095016333511 -0.065223977880258993 0 -0.036388793655718808 -0.063305239418598183 0 -0.040649593147926703 -0.063278872690675711 0 -0.043027133650598445 -0.062107072137436541 0 -0.042707294411515689 -0.065760288316210794 0 -0.040649593147926703 -0.063278872690675711 0 -0.041772933737029221 -0.061123512893041708 0 -0.040031428402178965 -0.060774237449685013 0 -0.040649593147926703 -0.063278872690675711 0 -0.043027133650598445 -0.062107072137436541 0 -0.041772933737029221 -0.061123512893041708 0 -0.040649593147926703 -0.063278872690675711 0 -0.040031428402178965 -0.060774237449685013 0 -0.038709791555324169 -0.062895843104760221 0 -0.038575309462862452 -0.06102198612384116 0 -0.040031428402178965 -0.060774237449685013 0 -0.038709791555324169 -0.062895843104760221 0 -0.040649593147926703 -0.063278872690675711 0 -0.038709791555324169 -0.062895843104760221 0 -0.038978137396516122 -0.064957032660729358 0 -0.038978137396516122 -0.064957032660729358 0 -0.03723479529374648 -0.065293846913146256 0 -0.036892443120922991 -0.068509195056437128 0 -0.038709791555324169 -0.062895843104760221 0 -0.038978137396516122 -0.064957032660729358 0 -0.03723479529374648 -0.065293846913146256 0 -0.035222351291403803 -0.066839246398140081 0 -0.03723479529374648 -0.065293846913146256 0 -0.036892443120922991 -0.068509195056437128 0 -0.036892443120922991 -0.068509195056437128 0 -0.039909522326678881 -0.067044677697038993 0 -0.037643961906038789 -0.070768541515354277 0 -0.038978137396516122 -0.064957032660729358 0 -0.036892443120922991 -0.068509195056437128 0 -0.039909522326678881 -0.067044677697038993 0 -0.039909522326678881 -0.067044677697038993 0 -0.042003686194981099 -0.068071634246750778 0 -0.040189736953360769 -0.07025143211708193 0 -0.040649593147926703 -0.063278872690675711 0 -0.039909522326678881 -0.067044677697038993 0 -0.042707294411515689 -0.065760288316210794 0 -0.040649593147926703 -0.063278872690675711 0 -0.038978137396516122 -0.064957032660729358 0 -0.039909522326678881 -0.067044677697038993 0 -0.044158383963431296 -0.067635398363770097 0 -0.042707294411515689 -0.065760288316210794 0 -0.042003686194981099 -0.068071634246750778 0 -0.039909522326678881 -0.067044677697038993 0 -0.042707294411515689 -0.065760288316210794 0 -0.042003686194981099 -0.068071634246750778 0 -0.041389263683593094 -0.072507192120684932 0 -0.040189736953360769 -0.07025143211708193 0 -0.043223759272604877 -0.07003029863453461 0 -0.042003686194981099 -0.068071634246750778 0 -0.040189736953360769 -0.07025143211708193 0 -0.043223759272604877 -0.07003029863453461 0 -0.041389263683593094 -0.072507192120684932 0 -0.040801024039825967 -0.076465502301295757 0 -0.045012717030937836 -0.072408026950282048 0 -0.041389263683593094 -0.072507192120684932 0 -0.03709882643542213 -0.07395515623362281 0 -0.040801024039825967 -0.076465502301295757 0 -0.041389263683593094 -0.072507192120684932 0 -0.03709882643542213 -0.07395515623362281 0 -0.040189736953360769 -0.07025143211708193 0 -0.039909522326678881 -0.067044677697038993 0 -0.040189736953360769 -0.07025143211708193 0 -0.037643961906038789 -0.070768541515354277 0 -0.03709882643542213 -0.07395515623362281 0 -0.040189736953360769 -0.07025143211708193 0 -0.037643961906038789 -0.070768541515354277 0 -0.036892443120922991 -0.068509195056437128 0 -0.037643961906038789 -0.070768541515354277 0 -0.034328068795314588 -0.074017142846625805 0 -0.036892443120922991 -0.068509195056437128 0 -0.034328068795314588 -0.074017142846625805 0 -0.033852495822942801 -0.07218556328767578 0 -0.03709882643542213 -0.07395515623362281 0 -0.034328068795314588 -0.074017142846625805 0 -0.033505130607742441 -0.077013126466697085 0 -0.03709882643542213 -0.07395515623362281 0 -0.037643961906038789 -0.070768541515354277 0 -0.034328068795314588 -0.074017142846625805 0 -0.03709882643542213 -0.07395515623362281 0 -0.033505130607742441 -0.077013126466697085 0 -0.03151166362537848 -0.08084445846955865 0 -0.034328068795314588 -0.074017142846625805 0 -0.033505130607742441 -0.077013126466697085 0 -0.032090246739800266 -0.078268243436789328 0 -0.032090246739800266 -0.078268243436789328 0 -0.03151166362537848 -0.08084445846955865 0 -0.029802446112833936 -0.07890062970230402 0 -0.033505130607742441 -0.077013126466697085 0 -0.032090246739800266 -0.078268243436789328 0 -0.03151166362537848 -0.08084445846955865 0 -0.03151166362537848 -0.08084445846955865 0 -0.021753096313699302 -0.082742436476089087 0 -0.026380266839304205 -0.079054304778117382 0 -0.03151166362537848 -0.08084445846955865 0 -0.021753096313699302 -0.082742436476089087 0 -0.024545961647273105 -0.088230954192921429 0 -0.021753096313699302 -0.082742436476089087 0 -0.024545961647273105 -0.088230954192921429 0 -0.020035010370657826 -0.088393088126343472 0 -0.03709882643542213 -0.07395515623362281 0 -0.03151166362537848 -0.08084445846955865 0 -0.040801024039825967 -0.076465502301295757 0 -0.030347682469470876 -0.079606046501557337 0 -0.029209930490975755 -0.079647527035419233 0 -0.032632624588265803 -0.068165591294497244 0 -0.035161700542359266 -0.067114718253393768 0 -0.033742232529024418 -0.070397974842233507 0 -0.034091557314585547 -0.065196744561601169 0 -0.036330095016333511 -0.065223977880258993 0 -0.035161700542359266 -0.067114718253393768 0 -0.036330095016333511 -0.065223977880258993 0 -0.035161700542359266 -0.067114718253393768 0 -0.03694842465008577 -0.066775675120106931 0 -0.034218988099343553 -0.070760318418049986 0 -0.033396417175751675 -0.073225907088549633 0 -0.035161700542359266 -0.067114718253393768 0 -0.03694842465008577 -0.066775675120106931 0 -0.036423360080939264 -0.070889937510990875 0 -0.030491386175032435 -0.073526352441707646 0 -0.033852495822942801 -0.07218556328767578 0 -0.031762027128937824 -0.076707982134889871 0 -0.034843991450233466 -0.069259646879063788 0 -0.034218988099343553 -0.070760318418049986 0 -0.035222351291403803 -0.066839246398140081 0 -0.030491386175032435 -0.073526352441707646 0 -0.033852495822942801 -0.07218556328767578 0 -0.035222351291403803 -0.066839246398140081 0 -0.036330095016333511 -0.065223977880258993 0 -0.03694842465008577 -0.066775675120106931 0 -0.035222351291403803 -0.066839246398140081 0 -0.036892443120922991 -0.068509195056437128 0 -0.033852495822942801 -0.07218556328767578 0 -0.034328068795314588 -0.074017142846625805 0 -0.033852495822942801 -0.07218556328767578 0 -0.031762027128937824 -0.076707982134889871 0 -0.034328068795314588 -0.074017142846625805 0 -0.032090246739800266 -0.078268243436789328 0 -0.031762027128937824 -0.076707982134889871 0 -0.032090246739800266 -0.078268243436789328 0 -0.031701097511643149 -0.07824603100668924 0 -0.031109819556118148 -0.078488630826490907 0 -0.032090246739800266 -0.078268243436789328 0 -0.031762027128937824 -0.076707982134889871 0 -0.031701097511643149 -0.07824603100668924 0 -0.031762027128937824 -0.076707982134889871 0 -0.032047269576840863 -0.077730861158679485 0 -0.031701097511643149 -0.07824603100668924 0 -0.030491386175032435 -0.073526352441707646 0 -0.031762027128937824 -0.076707982134889871 0 -0.031096759429956943 -0.076975507606854607 0 -0.031762027128937824 -0.076707982134889871 0 -0.031096759429956943 -0.076975507606854607 0 -0.032047269576840863 -0.077730861158679485 0 -0.03157516794044108 -0.073679771366520749 0 -0.036423360080939264 -0.070889937510990875 0 -0.03270333206526619 -0.076927912581923552 0 -0.033396417175751675 -0.073225907088549633 0 -0.032810811692260522 -0.074702533767460597 0 -0.031096759429956943 -0.076975507606854607 0 -0.03270333206526619 -0.076927912581923552 0 -0.032047269576840863 -0.077730861158679485 0 -0.035161700542359266 -0.067114718253393768 0 -0.036423360080939264 -0.070889937510990875 0 -0.033742232529024418 -0.070397974842233507 0 -0.03157516794044108 -0.073679771366520749 0 -0.036423360080939264 -0.070889937510990875 0 -0.033742232529024418 -0.070397974842233507 0 -0.034793332418353022 -0.078743608668601528 0 -0.033405987197815241 -0.078445461266056227 0 -0.036330312203879708 -0.077178699726582797 0 -0.039154772944822988 -0.071002470629519143 0 -0.037829612023133181 -0.071436215521811813 0 -0.03270333206526619 -0.076927912581923552 0 -0.032887692579950188 -0.077711078723081056 0 -0.032047269576840863 -0.077730861158679485 0 -0.032108106551177788 -0.078781697904758155 0 -0.03270333206526619 -0.076927912581923552 0 -0.032887692579950188 -0.077711078723081056 0 -0.032108106551177788 -0.078781697904758155 0 -0.033405987197815241 -0.078445461266056227 0 -0.032887692579950188 -0.077711078723081056 0 -0.033405987197815241 -0.078445461266056227 0 -0.032887692579950188 -0.077711078723081056 0 -0.032344899644019764 -0.078230951934246437 0 -0.032887692579950188 -0.077711078723081056 0 -0.032047269576840863 -0.077730861158679485 0 -0.032344899644019764 -0.078230951934246437 0 -0.033405987197815241 -0.078445461266056227 0 -0.032344899644019764 -0.078230951934246437 0 -0.033622377006005982 -0.077540098278339631 0 -0.032344899644019764 -0.078230951934246437 0 -0.030666268830483769 -0.078191332123757701 0 -0.031557370109783267 -0.077235527525090886 0 -0.032344899644019764 -0.078230951934246437 0 -0.031701097511643149 -0.07824603100668924 0 -0.030666268830483769 -0.078191332123757701 0 -0.032047269576840863 -0.077730861158679485 0 -0.032344899644019764 -0.078230951934246437 0 -0.031701097511643149 -0.07824603100668924 0 -0.031701097511643149 -0.07824603100668924 0 -0.030666268830483769 -0.078191332123757701 0 -0.031109819556118148 -0.078488630826490907 0 -0.030666268830483769 -0.078191332123757701 0 -0.029329492006281703 -0.076944037692462747 0 -0.031557370109783267 -0.077235527525090886 0 -0.029329492006281703 -0.076944037692462747 0 -0.029697582590690653 -0.074999387259066214 0 -0.031557370109783267 -0.077235527525090886 0 -0.029697582590690653 -0.074999387259066214 0 -0.031557370109783267 -0.077235527525090886 0 -0.034188930001407165 -0.074999861719236588 0 -0.031557370109783267 -0.077235527525090886 0 -0.033622377006005982 -0.077540098278339631 0 -0.034188930001407165 -0.074999861719236588 0 -0.032344899644019764 -0.078230951934246437 0 -0.031557370109783267 -0.077235527525090886 0 -0.033622377006005982 -0.077540098278339631 0 -0.038682059776633929 -0.074999317223375522 0 -0.034188930001407165 -0.074999861719236588 0 -0.036330312203879708 -0.077178699726582797 0 -0.033622377006005982 -0.077540098278339631 0 -0.034188930001407165 -0.074999861719236588 0 -0.036330312203879708 -0.077178699726582797 0 -0.033405987197815241 -0.078445461266056227 0 -0.033622377006005982 -0.077540098278339631 0 -0.036330312203879708 -0.077178699726582797 0 -0.026473779449413253 -0.077907018036682679 0 -0.026380266839304205 -0.079054304778117382 0 -0.029802446112833936 -0.07890062970230402 0 -0.026473779449413253 -0.077907018036682679 0 -0.023689558658635066 -0.077909044166333777 0 -0.023811131663843989 -0.07667908478638473 0 -0.026473779449413253 -0.077907018036682679 0 -0.023689558658635066 -0.077909044166333777 0 -0.026380266839304205 -0.079054304778117382 0 -0.023689558658635066 -0.077909044166333777 0 -0.020420041882886087 -0.076763783142199241 0 -0.021155666026036413 -0.078929115556235843 0 -0.023689558658635066 -0.077909044166333777 0 -0.026380266839304205 -0.079054304778117382 0 -0.021155666026036413 -0.078929115556235843 0 -0.021753096313699302 -0.082742436476089087 0 -0.026380266839304205 -0.079054304778117382 0 -0.021155666026036413 -0.078929115556235843 0 -0.03151166362537848 -0.08084445846955865 0 -0.026380266839304205 -0.079054304778117382 0 -0.029802446112833936 -0.07890062970230402 0 -0.032090246739800266 -0.078268243436789328 0 -0.029802446112833936 -0.07890062970230402 0 -0.031109819556118148 -0.078488630826490907 0 -0.030666268830483769 -0.078191332123757701 0 -0.029802446112833936 -0.07890062970230402 0 -0.031109819556118148 -0.078488630826490907 0 -0.030666268830483769 -0.078191332123757701 0 -0.029802446112833936 -0.07890062970230402 0 -0.027803770508433686 -0.077406691580599679 0 -0.026473779449413253 -0.077907018036682679 0 -0.029802446112833936 -0.07890062970230402 0 -0.026748653506423654 -0.076943865251803939 0 -0.026900280617615312 -0.077899441740014022 0 -0.026331771909651493 -0.076845983429356376 0 -0.026473779449413253 -0.077907018036682679 0 -0.026748653506423654 -0.076943865251803939 0 -0.023811131663843989 -0.07667908478638473 0 -0.030666268830483769 -0.078191332123757701 0 -0.029329492006281703 -0.076944037692462747 0 -0.027803770508433686 -0.077406691580599679 0 -0.029329492006281703 -0.076944037692462747 0 -0.027803770508433686 -0.077406691580599679 0 -0.025207736885193219 -0.074999890518014853 0 -0.029329492006281703 -0.076944037692462747 0 -0.029697582590690653 -0.074999387259066214 0 -0.025207736885193219 -0.074999890518014853 0 -0.026331771909651493 -0.076845983429356376 0 -0.025205945670183725 -0.075001689597141125 0 -0.026748653506423654 -0.076943865251803939 0 -0.025203399158188027 -0.074999539036481072 0 -0.023811131663843989 -0.07667908478638473 0 -0.025203399158188027 -0.074999539036481072 0 -0.021610328550379861 -0.074998960820584118 0 -0.023811131663843989 -0.07667908478638473 0 -0.023689558658635066 -0.077909044166333777 0 -0.023811131663843989 -0.07667908478638473 0 -0.020420041882886087 -0.076763783142199241 0 -0.021610328550379861 -0.074998960820584118 0 -0.020420041882886087 -0.076763783142199241 0 -0.018013592852264448 -0.074999160648543575 0 -0.021610328550379861 -0.074998960820584118 0 -0.023811131663843989 -0.07667908478638473 0 -0.020420041882886087 -0.076763783142199241 0 -0.020420041882886087 -0.076763783142199241 0 -0.018013592852264448 -0.074999160648543575 0 -0.017001134134905286 -0.076364319476170589 0 -0.017001134134905286 -0.076364319476170589 0 -0.014417146672192748 -0.074999236667507935 0 -0.014462051045827587 -0.077054194206363419 0 -0.018013592852264448 -0.074999160648543575 0 -0.017001134134905286 -0.076364319476170589 0 -0.014417146672192748 -0.074999236667507935 0 -0.017001134134905286 -0.076364319476170589 0 -0.014462051045827587 -0.077054194206363419 0 -0.017756276135111087 -0.078302955528586238 0 -0.020420041882886087 -0.076763783142199241 0 -0.017001134134905286 -0.076364319476170589 0 -0.017756276135111087 -0.078302955528586238 0 -0.010820554437646113 -0.075002325391023 0 -0.01038808670745316 -0.078030908291086568 0 -0.014417146672192748 -0.074999236667507935 0 -0.010823641253370103 -0.074999505812455597 0 -0.014462051045827587 -0.077054194206363419 0 -0.010823641253370103 -0.074999505812455597 0 -0.014462051045827587 -0.077054194206363419 0 -0.011750192461236774 -0.077748916039795724 0 -0.01038808670745316 -0.078030908291086568 0 -0.0097631188987369576 -0.081466758826941793 0 -0.011750192461236774 -0.077748916039795724 0 -0.015051463287342984 -0.080378132582712036 0 -0.011555052035722178 -0.081132564194791229 0 -0.014462051045827587 -0.077054194206363419 0 -0.011750192461236774 -0.077748916039795724 0 -0.015051463287342984 -0.080378132582712036 0 -0.015051463287342984 -0.080378132582712036 0 -0.011555052035722178 -0.081132564194791229 0 -0.01389679097647172 -0.083762276943169012 0 -0.021155666026036413 -0.078929115556235843 0 -0.017756276135111087 -0.078302955528586238 0 -0.018428560831781952 -0.080607933128425777 0 -0.020420041882886087 -0.076763783142199241 0 -0.021155666026036413 -0.078929115556235843 0 -0.017756276135111087 -0.078302955528586238 0 -0.015051463287342984 -0.080378132582712036 0 -0.017756276135111087 -0.078302955528586238 0 -0.018428560831781952 -0.080607933128425777 0 -0.014462051045827587 -0.077054194206363419 0 -0.015051463287342984 -0.080378132582712036 0 -0.017756276135111087 -0.078302955528586238 0 -0.015051463287342984 -0.080378132582712036 0 -0.018428560831781952 -0.080607933128425777 0 -0.017207935276546623 -0.083231920639141449 0 -0.021753096313699302 -0.082742436476089087 0 -0.021155666026036413 -0.078929115556235843 0 -0.018428560831781952 -0.080607933128425777 0 -0.021753096313699302 -0.082742436476089087 0 -0.018428560831781952 -0.080607933128425777 0 -0.017207935276546623 -0.083231920639141449 0 -0.021753096313699302 -0.082742436476089087 0 -0.01828836463473511 -0.08541337958398687 0 -0.017207935276546623 -0.083231920639141449 0 -0.021753096313699302 -0.082742436476089087 0 -0.020146807172484855 -0.086305480717231986 0 -0.01828836463473511 -0.08541337958398687 0 -0.021195445731802525 -0.084354213003728029 0 -0.021125362279689159 -0.084561662253780881 0 -0.020146807172484855 -0.086305480717231986 0 -0.01828836463473511 -0.08541337958398687 0 -0.018700551731986141 -0.08710171969497521 0 -0.024545961647273105 -0.088230954192921429 0 -0.02043244550548811 -0.089139053726512263 0 -0.020035010370657826 -0.088393088126343472 0 -0.01828836463473511 -0.08541337958398687 0 -0.017207935276546623 -0.083231920639141449 0 -0.015765495561601065 -0.086356813771580332 0 -0.01828836463473511 -0.08541337958398687 0 -0.015765495561601065 -0.086356813771580332 0 -0.017555657690935832 -0.087386176780890057 0 -0.01828836463473511 -0.08541337958398687 0 -0.018700551731986141 -0.08710171969497521 0 -0.017555657690935832 -0.087386176780890057 0 -0.015051463287342984 -0.080378132582712036 0 -0.017207935276546623 -0.083231920639141449 0 -0.01389679097647172 -0.083762276943169012 0 -0.017207935276546623 -0.083231920639141449 0 -0.01389679097647172 -0.083762276943169012 0 -0.015765495561601065 -0.086356813771580332 0 -0.011555052035722178 -0.081132564194791229 0 -0.01389679097647172 -0.083762276943169012 0 -0.011035323104072625 -0.085179073781052952 0 -0.0097631188987369576 -0.081466758826941793 0 -0.0090404772498658328 -0.084937603681640217 0 -0.01389679097647172 -0.083762276943169012 0 -0.012996375065075534 -0.086743981671224032 0 -0.011035323104072625 -0.085179073781052952 0 -0.01389679097647172 -0.083762276943169012 0 -0.012996375065075534 -0.086743981671224032 0 -0.015765495561601065 -0.086356813771580332 0 -0.015765495561601065 -0.086356813771580332 0 -0.013763658892283065 -0.089032903881398284 0 -0.016142405527236024 -0.089240340350574626 0 -0.012996375065075534 -0.086743981671224032 0 -0.015765495561601065 -0.086356813771580332 0 -0.013763658892283065 -0.089032903881398284 0 -0.012996375065075534 -0.086743981671224032 0 -0.010569369725151823 -0.089363973459084256 0 -0.011035323104072625 -0.085179073781052952 0 -0.012996375065075534 -0.086743981671224032 0 -0.013763658892283065 -0.089032903881398284 0 -0.010569369725151823 -0.089363973459084256 0 -0.013763658892283065 -0.089032903881398284 0 -0.012644444010270057 -0.091555922738360898 0 -0.010569369725151823 -0.089363973459084256 0 -0.01557135769821766 -0.091831628314317251 0 -0.013763658892283065 -0.089032903881398284 0 -0.016142405527236024 -0.089240340350574626 0 -0.01557135769821766 -0.091831628314317251 0 -0.013763658892283065 -0.089032903881398284 0 -0.012644444010270057 -0.091555922738360898 0 -0.01557135769821766 -0.091831628314317251 0 -0.0187766091986219 -0.089239564570903429 0 -0.016142405527236024 -0.089240340350574626 0 -0.014666344368959685 -0.082675905349687093 0 -0.022627225258796582 -0.080426765676939752 0 -0.0086517338375581322 -0.070753896344798561 0 -0.010385570524526152 -0.070205219589385678 0 -0.010917010445145661 -0.068866943357361932 0 -0.026074551204107174 -0.075443965624194489 0 -0.022627225258796582 -0.080426765676939752 0 -0.045845284954424928 -0.069664041611802535 0 -0.043223759272604877 -0.07003029863453461 0 -0.045012717030937836 -0.072408026950282048 0 -0.044158383963431296 -0.067635398363770097 0 -0.045845284954424928 -0.069664041611802535 0 -0.043223759272604877 -0.07003029863453461 0 -0.041389263683593094 -0.072507192120684932 0 -0.043223759272604877 -0.07003029863453461 0 -0.045012717030937836 -0.072408026950282048 0 -0.026074551204107174 -0.075443965624194489 0 -0.024007846305689723 -0.079997124183528473 0 -0.025739698332388102 -0.075991061378999372 0 -0.024237477798945466 -0.080247305736367541 0 -0.023447666017062895 -0.080960246585121881 0 -0.020146807172484855 -0.086305480717231986 0 -0.0187766091986219 -0.089239564570903429 0 -0.018700551731986141 -0.08710171969497521 0 -0.020035010370657826 -0.088393088126343472 0 -0.018392225434175961 -0.093340839780917104 0 -0.018982894439861529 -0.092797020117989321 0 -0.021125362279689159 -0.084561662253780881 0 -0.022627225258796582 -0.080426765676939752 0 -0.024545961647273105 -0.088230954192921429 0 -0.02043244550548811 -0.089139053726512263 0 -0.018696739172236933 -0.09320738319050452 0 -0.029209930490975755 -0.079647527035419233 0 -0.024007846305689723 -0.079997124183528473 0 -0.02043244550548811 -0.089139053726512263 0 -0.020035010370657826 -0.088393088126343472 0 -0.018982894439861529 -0.092797020117989321 0 -0.022627225258796582 -0.080426765676939752 0 -0.024007846305689723 -0.079997124183528473 0 -0.022718290076951853 -0.08317158233688611 0 -0.024007846305689723 -0.079997124183528473 0 -0.0187766091986219 -0.089239564570903429 0 -0.017555657690935832 -0.087386176780890057 0 -0.016142405527236024 -0.089240340350574626 0 -0.0187766091986219 -0.089239564570903429 0 -0.018700551731986141 -0.08710171969497521 0 -0.017555657690935832 -0.087386176780890057 0 -0.015765495561601065 -0.086356813771580332 0 -0.017555657690935832 -0.087386176780890057 0 -0.016142405527236024 -0.089240340350574626 0 -0.0031914219961516029 -0.08598068549550647 0 -0.0041487425799612062 -0.086167625201723094 0 -0.0045118610948268866 -0.086419936095383926 0 -0.0031914219961516029 -0.08598068549550647 0 -0.0041487425799612062 -0.086167625201723094 0 -0.0042210613603682725 -0.085659695374758538 0 -0.0025719460732639386 -0.0853683062717778 0 -0.0035569325352010008 -0.086190508439488847 0 -0.0026216645768338226 -0.085245820487530932 0 -0.0018507865584071418 -0.085921079461732219 0 -0.0029441511317546353 -0.086320989600456297 0 -0.0026216645768338226 -0.085245820487530932 0 -0.0018507865584071418 -0.085921079461732219 0 -0.001044400487866237 -0.085321009097739778 0 -0.0018507865584071418 -0.085921079461732219 0 -0.0016934102254791772 -0.086749050194591407 0 -0.0029441511317546353 -0.086320989600456297 0 -0.0016934102254791772 -0.086749050194591407 0 -0.0027271687184749322 -0.087207421658870507 0 -0.0014407601641243494 -0.087635342084027165 0 -0.0016934102254791772 -0.086749050194591407 0 -0.0027271687184749322 -0.087207421658870507 0 -0.0029441511317546353 -0.086320989600456297 0 -0.0036071313461344739 -0.086837803893692167 0 -0.0029441511317546353 -0.086320989600456297 0 -0.0042730608814788391 -0.086983459523991488 0 -0.0026216645768338226 -0.085245820487530932 0 -0.0029441511317546353 -0.086320989600456297 0 -0.0042730608814788391 -0.086983459523991488 0 -0.0027271687184749322 -0.087207421658870507 0 -0.0036071313461344739 -0.086837803893692167 0 -0.0043213938747149834 -0.08693854597191332 0 -0.0027271687184749322 -0.087207421658870507 0 -0.0036071313461344739 -0.086837803893692167 0 -0.0029441511317546353 -0.086320989600456297 0 -0.0041487425799612062 -0.086167625201723094 0 -0.0045118610948268866 -0.086419936095383926 0 -0.0044118708397036816 -0.086331579026141927 0 -0.0036071313461344739 -0.086837803893692167 0 -0.0042730608814788391 -0.086983459523991488 0 -0.0043213938747149834 -0.08693854597191332 0 -0.0042203168360363998 -0.085870687219948186 0 -0.0045118610948268866 -0.086419936095383926 0 -0.0043479554686021065 -0.086182687368853275 0 -0.0045118610948268866 -0.086419936095383926 0 -0.004412824997215339 -0.086311064678026114 0 -0.0043479554686021065 -0.086182687368853275 0 -0.0045118610948268866 -0.086419936095383926 0 -0.004412824997215339 -0.086311064678026114 0 -0.0044118708397036816 -0.086331579026141927 0 -0.004412824997215339 -0.086311064678026114 0 -0.0043868267865248434 -0.086274406322916664 0 -0.0044118708397036816 -0.086331579026141927 0 -0.004412824997215339 -0.086311064678026114 0 -0.0043868267865248434 -0.086274406322916664 0 -0.0043479554686021065 -0.086182687368853275 0 -0.0043868267865248434 -0.086274406322916664 0 -0.0043479554686021065 -0.086182687368853275 0 -0.0043049753805688446 -0.086151255712958896 0 -0.0043049753805688446 -0.086151255712958896 0 -0.004425476601501035 -0.086239915719694984 0 -0.004183239765354594 -0.086086222414804445 0 -0.0043868267865248434 -0.086274406322916664 0 -0.0043049753805688446 -0.086151255712958896 0 -0.004425476601501035 -0.086239915719694984 0 -0.0043868267865248434 -0.086274406322916664 0 -0.004425476601501035 -0.086239915719694984 0 -0.0044444532206091777 -0.086279978562923659 0 -0.004425476601501035 -0.086239915719694984 0 -0.0044444532206091777 -0.086279978562923659 0 -0.0045999863820541456 -0.086219454677480226 0 -0.0041487425799612062 -0.086167625201723094 0 -0.0044444532206091777 -0.086279978562923659 0 -0.0044118708397036816 -0.086331579026141927 0 -0.0043868267865248434 -0.086274406322916664 0 -0.0044444532206091777 -0.086279978562923659 0 -0.0044118708397036816 -0.086331579026141927 0 -0.0090716492893654875 -0.091743904985289032 0 -0.0083398963675748103 -0.087960469882387579 0 -0.0036008313368273465 -0.085767434315767513 0 -0.004183239765354594 -0.086086222414804445 0 -0.0048591307194445349 -0.08629773331716048 0 -0.010474736298915304 -0.092752873618885581 0 -0.012644444010270057 -0.091555922738360898 0 -0.010569369725151823 -0.089363973459084256 0 -0.0078619812244437766 -0.087950836663598583 0 -0.0083398963675748103 -0.087960469882387579 0 -0.004425476601501035 -0.086239915719694984 0 -0.004183239765354594 -0.086086222414804445 0 -0.0048591307194445349 -0.08629773331716048 0 -0.004425476601501035 -0.086239915719694984 0 -0.0048591307194445349 -0.08629773331716048 0 -0.0045999863820541456 -0.086219454677480226 0 -0.0048591307194445349 -0.08629773331716048 0 -0.0049660724706262847 -0.086019643987515881 0 -0.0058758356516907589 -0.08563197171444796 0 -0.0083398963675748103 -0.087960469882387579 0 -0.0078506317947566427 -0.086404456315637757 0 -0.0063191800033424138 -0.088131096113464785 0 -0.0069818473068996769 -0.085173686994485076 0 -0.0065850082204093711 -0.086221618223658258 0 -0.0083398963675748103 -0.087960469882387579 0 -0.0090404772498658328 -0.084937603681640217 0 -0.0048591307194445349 -0.08629773331716048 0 -0.0049660724706262847 -0.086019643987515881 0 -0.0045999863820541456 -0.086219454677480226 0 -0.0049660724706262847 -0.086019643987515881 0 -0.0050127712804230408 -0.085598824292480474 0 -0.0058758356516907589 -0.08563197171444796 0 -0.0041487425799612062 -0.086167625201723094 0 -0.0044444532206091777 -0.086279978562923659 0 -0.0045443770248187326 -0.086058947546634942 0 -0.0049660724706262847 -0.086019643987515881 0 -0.0045443770248187326 -0.086058947546634942 0 -0.0045999863820541456 -0.086219454677480226 0 -0.0044444532206091777 -0.086279978562923659 0 -0.0045443770248187326 -0.086058947546634942 0 -0.0045999863820541456 -0.086219454677480226 0 -0.0049660724706262847 -0.086019643987515881 0 -0.0045443770248187326 -0.086058947546634942 0 -0.0050127712804230408 -0.085598824292480474 0 -0.0041487425799612062 -0.086167625201723094 0 -0.0045443770248187326 -0.086058947546634942 0 -0.0042210613603682725 -0.085659695374758538 0 -0.0045443770248187326 -0.086058947546634942 0 -0.0042210613603682725 -0.085659695374758538 0 -0.0050127712804230408 -0.085598824292480474 0 -0.0042210613603682725 -0.085659695374758538 0 -0.0050127712804230408 -0.085598824292480474 0 -0.0049182418909275837 -0.084801868980215148 0 -0.0050127712804230408 -0.085598824292480474 0 -0.0049182418909275837 -0.084801868980215148 0 -0.005721032912601144 -0.084988795899560696 0 -0.0042210613603682725 -0.085659695374758538 0 -0.0049182418909275837 -0.084801868980215148 0 -0.0037287473407853927 -0.084850744198292305 0 -0.0058758356516907589 -0.08563197171444796 0 -0.005721032912601144 -0.084988795899560696 0 -0.0069506015711704111 -0.084310455273071891 0 -0.0078506317947566427 -0.086404456315637757 0 -0.0077431755995673712 -0.085739400917243538 0 -0.0069818473068996769 -0.085173686994485076 0 -0.0065850082204093711 -0.086221618223658258 0 -0.0069506015711704111 -0.084310455273071891 0 -0.0050127712804230408 -0.085598824292480474 0 -0.0058758356516907589 -0.08563197171444796 0 -0.005721032912601144 -0.084988795899560696 0 -0.0049182418909275837 -0.084801868980215148 0 -0.005721032912601144 -0.084988795899560696 0 -0.0060108761788409907 -0.084202721014811105 0 -0.0082228733128911127 -0.082224442077022092 0 -0.0069506015711704111 -0.084310455273071891 0 -0.0065405053533494489 -0.083255460889735719 0 -0.0082228733128911127 -0.082224442077022092 0 -0.0069818473068996769 -0.085173686994485076 0 -0.0069506015711704111 -0.084310455273071891 0 -0.0069506015711704111 -0.084310455273071891 0 -0.0060108761788409907 -0.084202721014811105 0 -0.0065405053533494489 -0.083255460889735719 0 -0.005721032912601144 -0.084988795899560696 0 -0.0069506015711704111 -0.084310455273071891 0 -0.0060108761788409907 -0.084202721014811105 0 -0.0060108761788409907 -0.084202721014811105 0 -0.0065405053533494489 -0.083255460889735719 0 -0.0055087466465529823 -0.083450065796805251 0 -0.0049182418909275837 -0.084801868980215148 0 -0.0044079162769694782 -0.083867177677313429 0 -0.0037287473407853927 -0.084850744198292305 0 -0.0049182418909275837 -0.084801868980215148 0 -0.0055087466465529823 -0.083450065796805251 0 -0.0044079162769694782 -0.083867177677313429 0 -0.0049182418909275837 -0.084801868980215148 0 -0.0060108761788409907 -0.084202721014811105 0 -0.0055087466465529823 -0.083450065796805251 0 -0.0055087466465529823 -0.083450065796805251 0 -0.0044079162769694782 -0.083867177677313429 0 -0.0044747081719090764 -0.082238973838382481 0 -0.0044079162769694782 -0.083867177677313429 0 -0.0031828711004356449 -0.08368862038560361 0 -0.0044747081719090764 -0.082238973838382481 0 -0.0031828711004356449 -0.08368862038560361 0 -0.0027295272878560643 -0.08454503788092449 0 -0.0022800999279810946 -0.083691165870239087 0 -0.0031828711004356449 -0.08368862038560361 0 -0.0027295272878560643 -0.08454503788092449 0 -0.0037287473407853927 -0.084850744198292305 0 -0.0044079162769694782 -0.083867177677313429 0 -0.0031828711004356449 -0.08368862038560361 0 -0.0037287473407853927 -0.084850744198292305 0 -0.0031914219961516029 -0.08598068549550647 0 -0.0027295272878560643 -0.08454503788092449 0 -0.0037287473407853927 -0.084850744198292305 0 -0.0031914219961516029 -0.08598068549550647 0 -0.0042210613603682725 -0.085659695374758538 0 -0.0037287473407853927 -0.084850744198292305 0 -0.0026216645768338226 -0.085245820487530932 0 -0.0011370731482733306 -0.084740038574316945 0 -0.001044400487866237 -0.085321009097739778 0 -0.0025719460732639386 -0.0853683062717778 0 -0.00099840021802239916 -0.083672722383728415 0 -0.0026216645768338226 -0.085245820487530932 0 -0.0013351988525059403 -0.084515905323915452 0 -0.0011370731482733306 -0.084740038574316945 0 -0.0031914219961516029 -0.08598068549550647 0 -0.0027295272878560643 -0.08454503788092449 0 -0.0012794455448173936 -0.084173685846845939 0 -0.0026216645768338226 -0.085245820487530932 0 -0.0013351988525059403 -0.084515905323915452 0 -0.0010238817188309879 -0.084143359962925574 0 -0.0012794455448173936 -0.084173685846845939 0 -0.0022800999279810946 -0.083691165870239087 0 -0.0019385311270869693 -0.082005477883393629 0 -0.0027295272878560643 -0.08454503788092449 0 -0.0012794455448173936 -0.084173685846845939 0 -0.0022800999279810946 -0.083691165870239087 0 -0.0031828711004356449 -0.08368862038560361 0 -0.0022800999279810946 -0.083691165870239087 0 -0.0019385311270869693 -0.082005477883393629 0 -0.0012794455448173936 -0.084173685846845939 0 -0.0019385311270869693 -0.082005477883393629 0 0.00082554636589244723 -0.081515984793064225 0 -0.0031828711004356449 -0.08368862038560361 0 -0.0019385311270869693 -0.082005477883393629 0 -0.0044747081719090764 -0.082238973838382481 0 -0.0019385311270869693 -0.082005477883393629 0 -0.0044747081719090764 -0.082238973838382481 0 -0.0037804177676366156 -0.079355363294386194 0 -0.0019385311270869693 -0.082005477883393629 0 -0.0005987522378577884 -0.078647256390408801 0 -0.0037804177676366156 -0.079355363294386194 0 -0.0019385311270869693 -0.082005477883393629 0 -0.0005987522378577884 -0.078647256390408801 0 0.00082554636589244723 -0.081515984793064225 0 -0.0082228733128911127 -0.082224442077022092 0 -0.0061476427048517916 -0.082137492900831735 0 -0.0065030211444484553 -0.080285571396077296 0 -0.0082228733128911127 -0.082224442077022092 0 -0.0065405053533494489 -0.083255460889735719 0 -0.0061476427048517916 -0.082137492900831735 0 -0.0065405053533494489 -0.083255460889735719 0 -0.0055087466465529823 -0.083450065796805251 0 -0.0061476427048517916 -0.082137492900831735 0 -0.0061476427048517916 -0.082137492900831735 0 -0.0044747081719090764 -0.082238973838382481 0 -0.0065030211444484553 -0.080285571396077296 0 -0.0055087466465529823 -0.083450065796805251 0 -0.0061476427048517916 -0.082137492900831735 0 -0.0044747081719090764 -0.082238973838382481 0 -0.0044747081719090764 -0.082238973838382481 0 -0.0065030211444484553 -0.080285571396077296 0 -0.0037804177676366156 -0.079355363294386194 0 -0.0095684350091134567 -0.078837470230304643 0 -0.0082228733128911127 -0.082224442077022092 0 -0.0065030211444484553 -0.080285571396077296 0 -0.0095684350091134567 -0.078837470230304643 0 -0.0065030211444484553 -0.080285571396077296 0 -0.0062839258226465768 -0.077776225991562392 0 -0.0065030211444484553 -0.080285571396077296 0 -0.0062839258226465768 -0.077776225991562392 0 -0.0037804177676366156 -0.079355363294386194 0 -0.0062839258226465768 -0.077776225991562392 0 -0.0068172703627373422 -0.074999806588709056 0 -0.0028143538106420482 -0.075000087785880576 0 -0.010819953446910028 -0.075000097126583343 0 -0.0095684350091134567 -0.078837470230304643 0 -0.0062839258226465768 -0.077776225991562392 0 -0.010819953446910028 -0.075000097126583343 0 -0.0062839258226465768 -0.077776225991562392 0 -0.0068172703627373422 -0.074999806588709056 0 -0.0062839258226465768 -0.077776225991562392 0 -0.0037804177676366156 -0.079355363294386194 0 -0.0028143538106420482 -0.075000087785880576 0 -0.0005987522378577884 -0.078647256390408801 0 -0.0037804177676366156 -0.079355363294386194 0 -0.0028143538106420482 -0.075000087785880576 0 -0.0005987522378577884 -0.078647256390408801 0 -0.0028143538106420482 -0.075000087785880576 0 0.0011885326751167559 -0.074999848541607378 0 -0.0005987522378577884 -0.078647256390408801 0 0.0011885326751167559 -0.074999848541607378 0 0.0030094966794194265 -0.078403203421364115 0 0.0031277148376516362 -0.078073779142571909 0 0.0051899101550929375 -0.075002636447911303 0 0.0011885326751167559 -0.074999848541607378 0 0.0030094966794194265 -0.078403203421364115 0 0.0051918336214610379 -0.074999984321581156 0 0.0034779426378027637 -0.077982418946236975 0 0.00519248596285836 -0.074999771927317258 0 0.0063444362019490557 -0.077131548364928693 0 0.00519248596285836 -0.074999771927317258 0 0.0078436888132442338 -0.074999860737560251 0 0.0063444362019490557 -0.077131548364928693 0 0.0078436888132442338 -0.074999860737560251 0 0.0088919440169465593 -0.077118389521586256 0 0.010494664648194789 -0.074999899367539161 0 0.0078436888132442338 -0.074999860737560251 0 0.0088919440169465593 -0.077118389521586256 0 0.0063444362019490557 -0.077131548364928693 0 0.0088919440169465593 -0.077118389521586256 0 0.0074477859338108049 -0.078804278293865687 0 0.0063444362019490557 -0.077131548364928693 0 0.0088919440169465593 -0.077118389521586256 0 0.0074477859338108049 -0.078804278293865687 0 0.009410353222937106 -0.079810317554013063 0 0.0034779426378027637 -0.077982418946236975 0 0.0063444362019490557 -0.077131548364928693 0 0.0050718821106535087 -0.079889224577033846 0 0.0074477859338108049 -0.078804278293865687 0 0.0063444362019490557 -0.077131548364928693 0 0.0050718821106535087 -0.079889224577033846 0 0.0050718821106535087 -0.079889224577033846 0 0.0073563567224933773 -0.080572329805924381 0 0.006006872532652756 -0.082065078783109757 0 0.0074477859338108049 -0.078804278293865687 0 0.0050718821106535087 -0.079889224577033846 0 0.0073563567224933773 -0.080572329805924381 0 0.0073563567224933773 -0.080572329805924381 0 0.0089336769440709705 -0.082033575729714786 0 0.009410353222937106 -0.079810317554013063 0 0.0074477859338108049 -0.078804278293865687 0 0.0073563567224933773 -0.080572329805924381 0 0.009410353222937106 -0.079810317554013063 0 0.0073563567224933773 -0.080572329805924381 0 0.0089336769440709705 -0.082033575729714786 0 0.006006872532652756 -0.082065078783109757 0 0.0089336769440709705 -0.082033575729714786 0 0.006006872532652756 -0.082065078783109757 0 0.0076540993762388865 -0.084400811106625048 0 0.0050718821106535087 -0.079889224577033846 0 0.006006872532652756 -0.082065078783109757 0 0.0036908248062938729 -0.082298654884213784 0 0.006006872532652756 -0.082065078783109757 0 0.0036908248062938729 -0.082298654884213784 0 0.0046890021166976284 -0.083461304674217376 0 0.0050718821106535087 -0.079889224577033846 0 0.0036908248062938729 -0.082298654884213784 0 0.001424414265155125 -0.080972602029092136 0 -0.00099840021802239916 -0.083672722383728415 0 0.0010162955574930363 -0.081066560917905289 0 0.0036908248062938729 -0.082298654884213784 0 0.001424414265155125 -0.080972602029092136 0 0.0016582260087694711 -0.083225901062162808 0 -0.0010238817188309879 -0.084143359962925574 0 0.001424414265155125 -0.080972602029092136 0 0.0016582260087694711 -0.083225901062162808 0 -0.0005987522378577884 -0.078647256390408801 0 0.0030094966794194265 -0.078403203421364115 0 0.00082554636589244723 -0.081515984793064225 0 0.0031277148376516362 -0.078073779142571909 0 0.0010162955574930363 -0.081066560917905289 0 0.0034779426378027637 -0.077982418946236975 0 0.0050718821106535087 -0.079889224577033846 0 0.001424414265155125 -0.080972602029092136 0 0.015099268103186847 -0.078242326344808752 0 0.017497505310788222 -0.080565092968233332 0 0.018897915861107298 -0.078422102834358187 0 0.017150763014871707 -0.075000157569307668 0 0.015099268103186847 -0.078242326344808752 0 0.018897915861107298 -0.078422102834358187 0 0.017158037845372533 -0.075000392559597104 0 0.022136085513520198 -0.076679629246164047 0 0.015016091511391697 -0.075003206146975893 0 0.015783148104068893 -0.077988671708303481 0 0.015014267653029011 -0.074999976579821007 0 0.014808726723654714 -0.078437119853076706 0 0.013007459114879487 -0.076773069385899242 0 0.017150763014871707 -0.075000157569307668 0 0.015015309634103689 -0.074999769613821779 0 0.015099268103186847 -0.078242326344808752 0 0.014808726723654714 -0.078437119853076706 0 0.013007459114879487 -0.076773069385899242 0 0.011678718850568976 -0.078581507471981296 0 0.014808726723654714 -0.078437119853076706 0 0.011678718850568976 -0.078581507471981296 0 0.013448083312360247 -0.080027352471854774 0 0.015014267653029011 -0.074999976579821007 0 0.013007459114879487 -0.076773069385899242 0 0.010495790549608166 -0.07499997613642749 0 0.010497952959323355 -0.07500251578726333 0 0.01231620345568831 -0.077873051893472753 0 0.013007459114879487 -0.076773069385899242 0 0.010495790549608166 -0.07499997613642749 0 0.011678718850568976 -0.078581507471981296 0 0.0088919440169465593 -0.077118389521586256 0 0.010494664648194789 -0.074999899367539161 0 0.01098538733643638 -0.078213540578798729 0 0.0088919440169465593 -0.077118389521586256 0 0.01098538733643638 -0.078213540578798729 0 0.009410353222937106 -0.079810317554013063 0 0.01098538733643638 -0.078213540578798729 0 0.009410353222937106 -0.079810317554013063 0 0.011807914744299547 -0.081406474702733891 0 0.0089336769440709705 -0.082033575729714786 0 0.009410353222937106 -0.079810317554013063 0 0.011807914744299547 -0.081406474702733891 0 0.0089336769440709705 -0.082033575729714786 0 0.011807914744299547 -0.081406474702733891 0 0.0111188012484829 -0.083819842726985685 0 0.012766582326963444 -0.081935593547593527 0 0.014646640968772521 -0.081671418948561891 0 0.014549768107550159 -0.084757176743400733 0 0.014622192516689614 -0.080187518701922117 0 0.017796117585286483 -0.079905293267322972 0 0.01231620345568831 -0.077873051893472753 0 0.014622192516689614 -0.080187518701922117 0 0.011678718850568976 -0.078581507471981296 0 0.012766582326963444 -0.081935593547593527 0 0.013448083312360247 -0.080027352471854774 0 0.012766582326963444 -0.081935593547593527 0 0.013448083312360247 -0.080027352471854774 0 0.014646640968772521 -0.081671418948561891 0 0.015099268103186847 -0.078242326344808752 0 0.015083302956963087 -0.081317071789993992 0 0.017497505310788222 -0.080565092968233332 0 0.015783148104068893 -0.077988671708303481 0 0.016976836944536628 -0.080234016897542601 0 0.014808726723654714 -0.078437119853076706 0 0.013448083312360247 -0.080027352471854774 0 0.014646640968772521 -0.081671418948561891 0 0.016976836944536628 -0.080234016897542601 0 0.019288494662737524 -0.079166006700390076 0 0.015083302956963087 -0.081317071789993992 0 0.017804328522848113 -0.083056781607825744 0 0.015011139635608517 -0.084368696149999617 0 0.015083302956963087 -0.081317071789993992 0 0.017804328522848113 -0.083056781607825744 0 0.017497505310788222 -0.080565092968233332 0 0.032042351005769534 -0.074184165681261544 0 0.032048390947986276 -0.073867408703947243 0 0.031664943860564641 -0.074025341629814306 0 0.032042351005769534 -0.074184165681261544 0 0.032456304994507766 -0.073888958183090686 0 0.032048390947986276 -0.073867408703947243 0 0.031985111366093236 -0.074568192143160808 0 0.032042351005769534 -0.074184165681261544 0 0.031667596709395257 -0.074392849861824165 0 0.031985111366093236 -0.074568192143160808 0 0.032042351005769534 -0.074184165681261544 0 0.032427660050653347 -0.074358404675230319 0 0.024329366576774047 -0.077804231870545748 0 0.019288494662737524 -0.079166006700390076 0 0.019288494662737524 -0.079166006700390076 0 0.017796117585286483 -0.079905293267322972 0 0.019212729513885692 -0.080793433287718971 0 0.019261847186569477 -0.079206506293150847 0 0.019662161994944753 -0.080579551405043803 0 0.032042351005769534 -0.074184165681261544 0 0.032427660050653347 -0.074358404675230319 0 0.032456304994507766 -0.073888958183090686 0 0.019288494662737524 -0.079166006700390076 0 0.019866061156356571 -0.079834638173315819 0 0.019866061156356571 -0.079834638173315819 0 0.017796117585286483 -0.079905293267322972 0 0.012825239360247084 -0.085995459182585526 0 0.012021561094644313 -0.084980957509125724 0 0.012408290210056011 -0.084336155524351433 0 0.012825239360247084 -0.085995459182585526 0 0.011625693858043462 -0.085688346376617416 0 0.012021561094644313 -0.084980957509125724 0 0.011625693858043462 -0.085688346376617416 0 0.011270505496317732 -0.084808352460227457 0 0.010795176577031941 -0.085614149524545394 0 0.011625693858043462 -0.085688346376617416 0 0.010795176577031941 -0.085614149524545394 0 0.011201011265965784 -0.08609161949342832 0 0.011625693858043462 -0.085688346376617416 0 0.011270505496317732 -0.084808352460227457 0 0.012021561094644313 -0.084980957509125724 0 0.011270505496317732 -0.084808352460227457 0 0.012021561094644313 -0.084980957509125724 0 0.011724688676794114 -0.084604999193568411 0 0.012021561094644313 -0.084980957509125724 0 0.012227570136601465 -0.084434735998603627 0 0.011724688676794114 -0.084604999193568411 0 0.012483569353900733 -0.084339335998510331 0 0.012227570136601465 -0.084434735998603627 0 0.0111188012484829 -0.083819842726985685 0 0.011807914744299547 -0.081406474702733891 0 0.012483569353900733 -0.084339335998510331 0 0.0111188012484829 -0.083819842726985685 0 0.012766582326963444 -0.081935593547593527 0 0.014549768107550159 -0.084757176743400733 0 0.013740266172269276 -0.085140099567543551 0 0.017796117585286483 -0.079905293267322972 0 0.017738692616611731 -0.079937185391102325 0 0.012021561094644313 -0.084980957509125724 0 0.012408290210056011 -0.084336155524351433 0 0.012227570136601465 -0.084434735998603627 0 0.011270505496317732 -0.084808352460227457 0 0.0111188012484829 -0.083819842726985685 0 0.011724688676794114 -0.084604999193568411 0 0.012227570136601465 -0.084434735998603627 0 0.0111188012484829 -0.083819842726985685 0 0.011724688676794114 -0.084604999193568411 0 0.0111188012484829 -0.083819842726985685 0 0.0099446244343912721 -0.084718559105457031 0 0.010661214573394541 -0.084883540896682402 0 0.0111188012484829 -0.083819842726985685 0 0.0099446244343912721 -0.084718559105457031 0 0.0088348349794253669 -0.084115944047622265 0 0.0089336769440709705 -0.082033575729714786 0 0.0111188012484829 -0.083819842726985685 0 0.0076540993762388865 -0.084400811106625048 0 0.0091919507598039116 -0.083787937801107104 0 0.0075954517429890457 -0.083883459850515249 0 0.011270505496317732 -0.084808352460227457 0 0.0111188012484829 -0.083819842726985685 0 0.010661214573394541 -0.084883540896682402 0 0.0099446244343912721 -0.084718559105457031 0 0.010661214573394541 -0.084883540896682402 0 0.01029108750685395 -0.085471846385037908 0 0.010661214573394541 -0.084883540896682402 0 0.010795176577031941 -0.085614149524545394 0 0.01029108750685395 -0.085471846385037908 0 0.011270505496317732 -0.084808352460227457 0 0.010661214573394541 -0.084883540896682402 0 0.010795176577031941 -0.085614149524545394 0 0.010795176577031941 -0.085614149524545394 0 0.01029108750685395 -0.085471846385037908 0 0.010366413212683792 -0.086118829679066949 0 0.0099446244343912721 -0.084718559105457031 0 0.01029108750685395 -0.085471846385037908 0 0.0096848202217881228 -0.086023571454863335 0 0.01029108750685395 -0.085471846385037908 0 0.010366413212683792 -0.086118829679066949 0 0.0096848202217881228 -0.086023571454863335 0 0.010366413212683792 -0.086118829679066949 0 0.010540004750794318 -0.087377027215729958 0 0.0096848202217881228 -0.086023571454863335 0 0.010795176577031941 -0.085614149524545394 0 0.010809086677918731 -0.08649495876805427 0 0.011201011265965784 -0.08609161949342832 0 0.010366413212683792 -0.086118829679066949 0 0.010809086677918731 -0.08649495876805427 0 0.010540004750794318 -0.087377027215729958 0 0.010795176577031941 -0.085614149524545394 0 0.010366413212683792 -0.086118829679066949 0 0.010809086677918731 -0.08649495876805427 0 0.010809086677918731 -0.08649495876805427 0 0.010540004750794318 -0.087377027215729958 0 0.01106948499324064 -0.086913424443967616 0 0.010540004750794318 -0.087377027215729958 0 0.01106948499324064 -0.086913424443967616 0 0.011359484841258705 -0.087218925335498576 0 0.0030398037068099255 -0.086110414436441088 0 0.0031336306265504188 -0.086618662360170059 0 0.002449735394532606 -0.0866414023618991 0 0.0031336306265504188 -0.086618662360170059 0 0.0031125483643069151 -0.087021810917740111 0 0.002449735394532606 -0.0866414023618991 0 0.0031125483643069151 -0.087021810917740111 0 0.0039069557541564293 -0.086703971115936473 0 0.0035755327495701934 -0.087319684395809907 0 0.0031336306265504188 -0.086618662360170059 0 0.0031125483643069151 -0.087021810917740111 0 0.0039069557541564293 -0.086703971115936473 0 0.0095563357694848083 -0.081334804412618034 0 0.011033933743647568 -0.081318701219461442 0 0.0030398037068099255 -0.086110414436441088 0 0.0031336306265504188 -0.086618662360170059 0 0.0039069557541564293 -0.086703971115936473 0 0.0033975947535073506 -0.086156171388383912 0 0.0030398037068099255 -0.086110414436441088 0 0.0041540134486445016 -0.08669621071252355 0 0.01175577318058457 -0.087788408770843637 0 0.012107154581657446 -0.087189740778327682 0 0.011359484841258705 -0.087218925335498576 0 0.010540004750794318 -0.087377027215729958 0 0.01175577318058457 -0.087788408770843637 0 0.011359484841258705 -0.087218925335498576 0 0.0097641160401734615 -0.083572726572164496 0 0.015935265016200666 -0.081372328449969777 0 0.010540004750794318 -0.087377027215729958 0 0.01175577318058457 -0.087788408770843637 0 0.012532600127875593 -0.088803930706050443 0 0.0033975947535073506 -0.086156171388383912 0 0.0041540134486445016 -0.08669621071252355 0 0.0053049640769740137 -0.087273697873336734 0 0.011033933743647568 -0.081318701219461442 0 0.015935265016200666 -0.081372328449969777 0 0.01175577318058457 -0.087788408770843637 0 0.012370414445287243 -0.088090750801715897 0 0.012532600127875593 -0.088803930706050443 0 0.012370414445287243 -0.088090750801715897 0 0.012107154581657446 -0.087189740778327682 0 0.012763680139601882 -0.087470654721363589 0 0.01175577318058457 -0.087788408770843637 0 0.012370414445287243 -0.088090750801715897 0 0.012107154581657446 -0.087189740778327682 0 0.012107154581657446 -0.087189740778327682 0 0.011359484841258705 -0.087218925335498576 0 0.011569946448182851 -0.086562522617360013 0 0.01106948499324064 -0.086913424443967616 0 0.011359484841258705 -0.087218925335498576 0 0.011569946448182851 -0.086562522617360013 0 0.010809086677918731 -0.08649495876805427 0 0.011201011265965784 -0.08609161949342832 0 0.011569946448182851 -0.086562522617360013 0 0.010809086677918731 -0.08649495876805427 0 0.01106948499324064 -0.086913424443967616 0 0.011569946448182851 -0.086562522617360013 0 0.011625693858043462 -0.085688346376617416 0 0.011201011265965784 -0.08609161949342832 0 0.011569946448182851 -0.086562522617360013 0 0.012825239360247084 -0.085995459182585526 0 0.012107154581657446 -0.087189740778327682 0 0.011569946448182851 -0.086562522617360013 0 0.012825239360247084 -0.085995459182585526 0 0.011625693858043462 -0.085688346376617416 0 0.011569946448182851 -0.086562522617360013 0 0.021707231970830593 -0.080046656444440201 0 0.021566504477359756 -0.079556991924804962 0 0.021720196666646475 -0.079659106129269686 0 0.019866061156356571 -0.079834638173315819 0 0.022736331940364944 -0.078519105113547413 0 0.012825239360247084 -0.085995459182585526 0 0.012107154581657446 -0.087189740778327682 0 0.012763680139601882 -0.087470654721363589 0 0.019866061156356571 -0.079834638173315819 0 0.018760071550651507 -0.081580477535317331 0 0.032456304994507766 -0.073888958183090686 0 0.03234478666692648 -0.073419142495836823 0 0.032124684261382978 -0.073601891091573474 0 0.018760071550651507 -0.081580477535317331 0 0.018066629432370546 -0.081089258242186588 0 0.021566504477359756 -0.079556991924804962 0 0.021720196666646475 -0.079659106129269686 0 0.021734660203042221 -0.079264044562233446 0 0.012370414445287243 -0.088090750801715897 0 0.012763680139601882 -0.087470654721363589 0 0.012728147109405603 -0.088948239000787521 0 0.012370414445287243 -0.088090750801715897 0 0.012532600127875593 -0.088803930706050443 0 0.012728147109405603 -0.088948239000787521 0 0.032014871897240976 -0.073264172944034409 0 0.032124684261382978 -0.073601891091573474 0 0.031752858427458251 -0.073565329219498307 0 0.03234478666692648 -0.073419142495836823 0 0.032014871897240976 -0.073264172944034409 0 0.032233101809833818 -0.072943744017610668 0 0.03234478666692648 -0.073419142495836823 0 0.032014871897240976 -0.073264172944034409 0 0.032124684261382978 -0.073601891091573474 0 0.032456304994507766 -0.073888958183090686 0 0.032124684261382978 -0.073601891091573474 0 0.032048390947986276 -0.073867408703947243 0 0.032124684261382978 -0.073601891091573474 0 0.032048390947986276 -0.073867408703947243 0 0.031752858427458251 -0.073565329219498307 0 -0.00020731342311288212 -0.08452844927582813 0 -0.00073918612091797297 -0.084265751581913503 0 0.00025468838124709345 -0.08404273710784417 0 -0.00020731342311288212 -0.08452844927582813 0 0.00048603660086980283 -0.084809135286064319 0 0.00025468838124709345 -0.08404273710784417 0 0.00048603660086980283 -0.084809135286064319 0 -0.00016835095563724016 -0.085041108889953171 0 0.00070473590738551965 -0.085571118588623457 0 -0.00020731342311288212 -0.08452844927582813 0 0.00048603660086980283 -0.084809135286064319 0 -0.00016835095563724016 -0.085041108889953171 0 -0.00020731342311288212 -0.08452844927582813 0 -0.00016835095563724016 -0.085041108889953171 0 -0.00063900666312754486 -0.084709680440369417 0 -0.00016835095563724016 -0.085041108889953171 0 -0.00063900666312754486 -0.084709680440369417 0 -0.001044400487866237 -0.085321009097739778 0 -0.0013351988525059403 -0.084515905323915452 0 -0.0011370731482733306 -0.084740038574316945 0 -0.00073918612091797297 -0.084265751581913503 0 -0.0011370731482733306 -0.084740038574316945 0 -0.00063900666312754486 -0.084709680440369417 0 -0.001044400487866237 -0.085321009097739778 0 -0.0011370731482733306 -0.084740038574316945 0 -0.00063900666312754486 -0.084709680440369417 0 -0.00073918612091797297 -0.084265751581913503 0 -0.00020731342311288212 -0.08452844927582813 0 -0.00063900666312754486 -0.084709680440369417 0 -0.00073918612091797297 -0.084265751581913503 0 0.0012558566350058412 -0.085057242619029264 0 0.0016582260087694711 -0.083225901062162808 0 0.0032297793839105482 -0.084413253500886118 0 0.001203933742605876 -0.084311221737837949 0 0.001959907366481912 -0.084221775312569164 0 -0.0013351988525059403 -0.084515905323915452 0 -0.0010238817188309879 -0.084143359962925574 0 0.0012558566350058412 -0.085057242619029264 0 -0.0010238817188309879 -0.084143359962925574 0 0.0012558566350058412 -0.085057242619029264 0 0.0016582260087694711 -0.083225901062162808 0 0.001959907366481912 -0.084221775312569164 0 0.0040532362136443045 -0.083937312836617914 0 0.0012558566350058412 -0.085057242619029264 0 0.0032297793839105482 -0.084413253500886118 0 0.0038966228633444807 -0.084932970026714114 0 0.0036908248062938729 -0.082298654884213784 0 0.0016582260087694711 -0.083225901062162808 0 0.0032297793839105482 -0.084413253500886118 0 0.0032297793839105482 -0.084413253500886118 0 0.0038647040044599602 -0.084882075632577589 0 0.0046890021166976284 -0.083461304674217376 0 0.0040439123813994313 -0.08394137823950884 0 0.0040532362136443045 -0.083937312836617914 0 0.0036908248062938729 -0.082298654884213784 0 0.0032297793839105482 -0.084413253500886118 0 0.0046890021166976284 -0.083461304674217376 0 0.0038647040044599602 -0.084882075632577589 0 0.0046890021166976284 -0.083461304674217376 0 0.0076540993762388865 -0.084400811106625048 0 0.0040532362136443045 -0.083937312836617914 0 0.0075954517429890457 -0.083883459850515249 0 0.006006872532652756 -0.082065078783109757 0 0.0046890021166976284 -0.083461304674217376 0 0.0076540993762388865 -0.084400811106625048 0 0.0099446244343912721 -0.084718559105457031 0 0.0088348349794253669 -0.084115944047622265 0 0.0085024053639123996 -0.0858860789066382 0 0.0099446244343912721 -0.084718559105457031 0 0.0085024053639123996 -0.0858860789066382 0 0.0096848202217881228 -0.086023571454863335 0 0.0064865904092185241 -0.084381753584737998 0 0.0088348349794253669 -0.084115944047622265 0 0.0085024053639123996 -0.0858860789066382 0 0.0040532362136443045 -0.083937312836617914 0 0.0063309207950798122 -0.084114185466433775 0 0.00048603660086980283 -0.084809135286064319 0 0.00025468838124709345 -0.08404273710784417 0 0.0017615577323151306 -0.08504985177753667 0 0.00048603660086980283 -0.084809135286064319 0 0.0017615577323151306 -0.08504985177753667 0 0.00070473590738551965 -0.085571118588623457 0 0.0017615577323151306 -0.08504985177753667 0 0.00070473590738551965 -0.085571118588623457 0 0.0016909675673141508 -0.086153537484601569 0 0.00070473590738551965 -0.085571118588623457 0 0.0016909675673141508 -0.086153537484601569 0 0.00066914159045015041 -0.086541386036596349 0 0.010540004750794318 -0.087377027215729958 0 0.0085024053639123996 -0.0858860789066382 0 0.0096848202217881228 -0.086023571454863335 0 0.0033975947535073506 -0.086156171388383912 0 0.0030398037068099255 -0.086110414436441088 0 0.0017615577323151306 -0.08504985177753667 0 0.0030398037068099255 -0.086110414436441088 0 0.0017615577323151306 -0.08504985177753667 0 0.0016909675673141508 -0.086153537484601569 0 0.0097641160401734615 -0.083572726572164496 0 0.0063309207950798122 -0.084114185466433775 0 0.0016909675673141508 -0.086153537484601569 0 0.002449735394532606 -0.0866414023618991 0 0.0015937870912712713 -0.08723297767714748 0 0.0030398037068099255 -0.086110414436441088 0 0.0016909675673141508 -0.086153537484601569 0 0.002449735394532606 -0.0866414023618991 0 0.002449735394532606 -0.0866414023618991 0 0.0015937870912712713 -0.08723297767714748 0 0.0024941934698888301 -0.08743759920407497 0 0.0031125483643069151 -0.087021810917740111 0 0.002449735394532606 -0.0866414023618991 0 0.0024941934698888301 -0.08743759920407497 0 0.0016909675673141508 -0.086153537484601569 0 0.00066914159045015041 -0.086541386036596349 0 0.0015937870912712713 -0.08723297767714748 0 0.00066914159045015041 -0.086541386036596349 0 0.0015937870912712713 -0.08723297767714748 0 0.00052288861414155358 -0.087672087790962389 0 0.00066914159045015041 -0.086541386036596349 0 -0.00045528622015526924 -0.086961708538218496 0 0.00052288861414155358 -0.087672087790962389 0 0.00066914159045015041 -0.086541386036596349 0 -0.00045528622015526924 -0.086961708538218496 0 -0.00016854974380880295 -0.085870453222404997 0 0.00070473590738551965 -0.085571118588623457 0 0.00066914159045015041 -0.086541386036596349 0 -0.00016854974380880295 -0.085870453222404997 0 -0.00016835095563724016 -0.085041108889953171 0 0.00070473590738551965 -0.085571118588623457 0 -0.00016854974380880295 -0.085870453222404997 0 -0.00016835095563724016 -0.085041108889953171 0 -0.00016854974380880295 -0.085870453222404997 0 -0.001044400487866237 -0.085321009097739778 0 -0.00016854974380880295 -0.085870453222404997 0 -0.001044400487866237 -0.085321009097739778 0 -0.001020411138492887 -0.086092900314733378 0 -0.0018507865584071418 -0.085921079461732219 0 -0.001044400487866237 -0.085321009097739778 0 -0.001020411138492887 -0.086092900314733378 0 -0.0016934102254791772 -0.086749050194591407 0 -0.00045528622015526924 -0.086961708538218496 0 -0.001020411138492887 -0.086092900314733378 0 -0.0016934102254791772 -0.086749050194591407 0 -0.00045528622015526924 -0.086961708538218496 0 -0.0014407601641243494 -0.087635342084027165 0 -0.00045528622015526924 -0.086961708538218496 0 -0.00016854974380880295 -0.085870453222404997 0 -0.001020411138492887 -0.086092900314733378 0 -0.0018507865584071418 -0.085921079461732219 0 -0.0016934102254791772 -0.086749050194591407 0 -0.001020411138492887 -0.086092900314733378 0 -0.0023611965380611328 -0.088679548406706832 0 -0.0014407601641243494 -0.087635342084027165 0 -0.00064579980112291883 -0.088502222174907372 0 -0.00045528622015526924 -0.086961708538218496 0 -0.0014407601641243494 -0.087635342084027165 0 -0.00064579980112291883 -0.088502222174907372 0 0.00052288861414155358 -0.087672087790962389 0 -0.00064579980112291883 -0.088502222174907372 0 0.00063432899036997275 -0.088773418456544156 0 -0.00045528622015526924 -0.086961708538218496 0 0.00052288861414155358 -0.087672087790962389 0 -0.00064579980112291883 -0.088502222174907372 0 -0.00064579980112291883 -0.088502222174907372 0 1.4997817078325356e-05 -0.089668897742995163 0 0.00063432899036997275 -0.088773418456544156 0 -0.00064579980112291883 -0.088502222174907372 0 -0.0010349080990133968 -0.089897750437063426 0 1.4997817078325356e-05 -0.089668897742995163 0 -0.0023611965380611328 -0.088679548406706832 0 -0.00064579980112291883 -0.088502222174907372 0 -0.0010349080990133968 -0.089897750437063426 0 -0.0010349080990133968 -0.089897750437063426 0 1.4997817078325356e-05 -0.089668897742995163 0 0.00016303545218998591 -0.091145054020879121 0 1.4997817078325356e-05 -0.089668897742995163 0 0.00016303545218998591 -0.091145054020879121 0 0.0009577893419928157 -0.089968635042840847 0 1.4997817078325356e-05 -0.089668897742995163 0 0.0009577893419928157 -0.089968635042840847 0 0.00063432899036997275 -0.088773418456544156 0 -0.0070476085277608588 -0.080477979493602719 0 -0.0084319504972518427 -0.083133119965336302 0 -0.0086857182918179659 -0.080991643896471593 0 -0.0084319504972518427 -0.083133119965336302 0 -0.010369527527377451 -0.080974133381060034 0 -0.0086857182918179659 -0.080991643896471593 0 -0.0026776911044387093 -0.084510426715347309 0 -0.00084164830964455486 -0.081662663501494537 0 0.0020856387275508927 -0.090710664192066318 0 0.0034082777512342531 -0.090698754553830571 0 0.0022553513412553088 -0.091650608594902747 0 0.0020856387275508927 -0.090710664192066318 0 0.0013021355482086296 -0.091300224831809426 0 0.0022553513412553088 -0.091650608594902747 0 0.00016303545218998591 -0.091145054020879121 0 0.0009577893419928157 -0.089968635042840847 0 0.0013021355482086296 -0.091300224831809426 0 0.0020856387275508927 -0.090710664192066318 0 0.0009577893419928157 -0.089968635042840847 0 0.0013021355482086296 -0.091300224831809426 0 0.0009577893419928157 -0.089968635042840847 0 0.0019392544893830099 -0.089755808447679303 0 0.0017863247923824818 -0.088809591281451897 0 0.0020856387275508927 -0.090710664192066318 0 0.0009577893419928157 -0.089968635042840847 0 0.0019392544893830099 -0.089755808447679303 0 0.0020856387275508927 -0.090710664192066318 0 0.0019392544893830099 -0.089755808447679303 0 0.0028629853154260999 -0.089890302183112281 0 0.0019392544893830099 -0.089755808447679303 0 0.0028087797224657924 -0.088994795313223532 0 0.0028629853154260999 -0.089890302183112281 0 0.0019392544893830099 -0.089755808447679303 0 0.0017863247923824818 -0.088809591281451897 0 0.0028087797224657924 -0.088994795313223532 0 0.0017863247923824818 -0.088809591281451897 0 0.0025744764396148714 -0.08827349507711435 0 0.0019830426310344746 -0.087971032511993327 0 0.0017863247923824818 -0.088809591281451897 0 0.0013183461823505676 -0.08808257004638792 0 0.0019830426310344746 -0.087971032511993327 0 0.0017863247923824818 -0.088809591281451897 0 0.0025744764396148714 -0.08827349507711435 0 0.0028087797224657924 -0.088994795313223532 0 0.0017863247923824818 -0.088809591281451897 0 0.00063432899036997275 -0.088773418456544156 0 0.0013183461823505676 -0.08808257004638792 0 0.0009577893419928157 -0.089968635042840847 0 0.0017863247923824818 -0.088809591281451897 0 0.00063432899036997275 -0.088773418456544156 0 0.0015937870912712713 -0.08723297767714748 0 0.00052288861414155358 -0.087672087790962389 0 0.0013183461823505676 -0.08808257004638792 0 0.00052288861414155358 -0.087672087790962389 0 0.00063432899036997275 -0.088773418456544156 0 0.0013183461823505676 -0.08808257004638792 0 0.0015937870912712713 -0.08723297767714748 0 0.0013183461823505676 -0.08808257004638792 0 0.0019830426310344746 -0.087971032511993327 0 0.0025744764396148714 -0.08827349507711435 0 0.0019830426310344746 -0.087971032511993327 0 0.0024941934698888301 -0.08743759920407497 0 0.0015937870912712713 -0.08723297767714748 0 0.0019830426310344746 -0.087971032511993327 0 0.0024941934698888301 -0.08743759920407497 0 0.0031125483643069151 -0.087021810917740111 0 0.0024941934698888301 -0.08743759920407497 0 0.0032028970917313973 -0.087680793928286649 0 0.0025744764396148714 -0.08827349507711435 0 0.0024941934698888301 -0.08743759920407497 0 0.0032028970917313973 -0.087680793928286649 0 0.0025744764396148714 -0.08827349507711435 0 0.0032028970917313973 -0.087680793928286649 0 0.0033417833139363527 -0.088310713393434354 0 0.0032028970917313973 -0.087680793928286649 0 0.0040785884998563995 -0.087873304170340824 0 0.0033417833139363527 -0.088310713393434354 0 0.0032028970917313973 -0.087680793928286649 0 0.0035755327495701934 -0.087319684395809907 0 0.0040785884998563995 -0.087873304170340824 0 0.0031125483643069151 -0.087021810917740111 0 0.0032028970917313973 -0.087680793928286649 0 0.0035755327495701934 -0.087319684395809907 0 0.0039069557541564293 -0.086703971115936473 0 0.0035755327495701934 -0.087319684395809907 0 0.0040785884998563995 -0.087873304170340824 0 0.0040785884998563995 -0.087873304170340824 0 0.0049374892611751516 -0.087388112652133282 0 0.0048554770028670534 -0.089318474698059869 0 0.0039069557541564293 -0.086703971115936473 0 0.0040785884998563995 -0.087873304170340824 0 0.0047900510224038462 -0.087278615283516395 0 0.0040785884998563995 -0.087873304170340824 0 0.0047900510224038462 -0.087278615283516395 0 0.0049374892611751516 -0.087388112652133282 0 0.0040785884998563995 -0.087873304170340824 0 0.003660938213313186 -0.089174315280538444 0 0.0048554770028670534 -0.089318474698059869 0 0.0040785884998563995 -0.087873304170340824 0 0.003660938213313186 -0.089174315280538444 0 0.0033417833139363527 -0.088310713393434354 0 0.003660938213313186 -0.089174315280538444 0 0.0028087797224657924 -0.088994795313223532 0 0.0033417833139363527 -0.088310713393434354 0 0.0025744764396148714 -0.08827349507711435 0 0.0028087797224657924 -0.088994795313223532 0 0.0033417833139363527 -0.088310713393434354 0 0.032233101809833818 -0.072943744017610668 0 0.031785823155748259 -0.07274714068420772 0 0.031853169024047466 -0.073016823282177859 0 0.032014871897240976 -0.073264172944034409 0 0.032233101809833818 -0.072943744017610668 0 0.031853169024047466 -0.073016823282177859 0 0.033342656321348689 -0.073673042117792895 0 0.034330159688158772 -0.074331033978818892 0 0.034426563159813281 -0.072073153509313162 0 0.021566504477359756 -0.079556991924804962 0 0.021430482302012232 -0.079064766038634243 0 0.021734660203042221 -0.079264044562233446 0 0.022736331940364944 -0.078519105113547413 0 0.02418046325937508 -0.079376975720387308 0 0.02418046325937508 -0.079376975720387308 0 0.018066629432370546 -0.081089258242186588 0 0.015935265016200666 -0.081372328449969777 0 0.018066629432370546 -0.081089258242186588 0 0.033342656321348689 -0.073673042117792895 0 0.033940398732322019 -0.072142469156375358 0 0.034426563159813281 -0.072073153509313162 0 0.033342656321348689 -0.073673042117792895 0 0.033162124936573584 -0.072656799336075162 0 0.033940398732322019 -0.072142469156375358 0 0.018066629432370546 -0.081089258242186588 0 0.019075649729230437 -0.080573938177087537 0 0.033162124936573584 -0.072656799336075162 0 0.032779280068080639 -0.07198063059458143 0 0.033940398732322019 -0.072142469156375358 0 0.033239585953391312 -0.073593406415467952 0 0.032530555189344106 -0.072909014038527509 0 0.031722102105948599 -0.072513171557846895 0 0.032233101809833818 -0.072943744017610668 0 0.031785823155748259 -0.07274714068420772 0 0.031722102105948599 -0.072513171557846895 0 0.02418046325937508 -0.079376975720387308 0 0.027440037726172425 -0.078259616210394609 0 0.033342656321348689 -0.073673042117792895 0 0.033162124936573584 -0.072656799336075162 0 0.032530555189344106 -0.072909014038527509 0 0.02418046325937508 -0.079376975720387308 0 0.025305180002801166 -0.07915089759585428 0 0.033162124936573584 -0.072656799336075162 0 0.032530555189344106 -0.072909014038527509 0 0.032779280068080639 -0.07198063059458143 0 0.032530555189344106 -0.072909014038527509 0 0.032779280068080639 -0.07198063059458143 0 0.032071081033717801 -0.07225134561955017 0 0.03307002748281096 -0.071317688304124605 0 0.033058394199401542 -0.07054666399073288 0 0.032104520642170863 -0.071694825831886952 0 0.033057719967430468 -0.071884365335172049 0 0.033589086758044208 -0.071509559985576551 0 0.033940398732322019 -0.072142469156375358 0 0.03307002748281096 -0.071317688304124605 0 0.033057719967430468 -0.071884365335172049 0 0.032104520642170863 -0.071694825831886952 0 0.035819659580094157 -0.068109799589025868 0 0.035308758213927434 -0.068432792418460453 0 0.03307002748281096 -0.071317688304124605 0 0.033589086758044208 -0.071509559985576551 0 0.033505500499006198 -0.07095478024556362 0 0.03307002748281096 -0.071317688304124605 0 0.033057719967430468 -0.071884365335172049 0 0.033589086758044208 -0.071509559985576551 0 0.033589086758044208 -0.071509559985576551 0 0.034062677265669666 -0.071110380118406133 0 0.033505500499006198 -0.07095478024556362 0 0.033589086758044208 -0.071509559985576551 0 0.034000569789703936 -0.071704185755151098 0 0.034062677265669666 -0.071110380118406133 0 0.033589086758044208 -0.071509559985576551 0 0.033940398732322019 -0.072142469156375358 0 0.034000569789703936 -0.071704185755151098 0 0.033940398732322019 -0.072142469156375358 0 0.034000569789703936 -0.071704185755151098 0 0.034426563159813281 -0.072073153509313162 0 0.034000569789703936 -0.071704185755151098 0 0.034426563159813281 -0.072073153509313162 0 0.034062677265669666 -0.071110380118406133 0 0.019075649729230437 -0.080573938177087537 0 0.019648824174097013 -0.07931253954320816 0 0.034426563159813281 -0.072073153509313162 0 0.034062677265669666 -0.071110380118406133 0 0.034419816373082453 -0.070196700760890282 0 0.034062677265669666 -0.071110380118406133 0 0.03377781033769317 -0.070482580886458424 0 0.034419816373082453 -0.070196700760890282 0 0.034062677265669666 -0.071110380118406133 0 0.03377781033769317 -0.070482580886458424 0 0.033505500499006198 -0.07095478024556362 0 0.03307002748281096 -0.071317688304124605 0 0.033505500499006198 -0.07095478024556362 0 0.033058394199401542 -0.07054666399073288 0 0.03377781033769317 -0.070482580886458424 0 0.033505500499006198 -0.07095478024556362 0 0.033058394199401542 -0.07054666399073288 0 0.03377781033769317 -0.070482580886458424 0 0.033058394199401542 -0.07054666399073288 0 0.033692032864450293 -0.069793795832286121 0 0.003660938213313186 -0.089174315280538444 0 0.0028629853154260999 -0.089890302183112281 0 0.0034082777512342531 -0.090698754553830571 0 0.003660938213313186 -0.089174315280538444 0 0.0028087797224657924 -0.088994795313223532 0 0.0028629853154260999 -0.089890302183112281 0 0.003660938213313186 -0.089174315280538444 0 0.0048554770028670534 -0.089318474698059869 0 0.0034082777512342531 -0.090698754553830571 0 0.0048554770028670534 -0.089318474698059869 0 0.0034082777512342531 -0.090698754553830571 0 0.0047839775069810709 -0.091202935735033588 0 0.0020856387275508927 -0.090710664192066318 0 0.0028629853154260999 -0.089890302183112281 0 0.0034082777512342531 -0.090698754553830571 0 0.0034082777512342531 -0.090698754553830571 0 0.0030339525787490308 -0.092745968889036759 0 0.0047839775069810709 -0.091202935735033588 0 0.0034082777512342531 -0.090698754553830571 0 0.0030339525787490308 -0.092745968889036759 0 0.0022553513412553088 -0.091650608594902747 0 0.0047427570473088116 -0.093057220728551521 0 0.0030339525787490308 -0.092745968889036759 0 0.0047839775069810709 -0.091202935735033588 0 0.020463192515718005 -0.070237135549604396 0 0.010005703252798754 -0.073909432502962391 0 0.013699732616398555 -0.066261768645430055 0 0.013474271178068374 -0.066171484337493272 0 0.013581690430600375 -0.066273211904103443 0 0.033692032864450293 -0.069793795832286121 0 0.03304360709948391 -0.069066337769469049 0 0.032277353691373717 -0.069617037452874161 0 0.033058394199401542 -0.07054666399073288 0 0.033692032864450293 -0.069793795832286121 0 0.03216043512990336 -0.069710231526320582 0 0.03594297147017482 -0.065877481347241459 0 0.041621189534851166 -0.06481424105531218 0 0.033692032864450293 -0.069793795832286121 0 0.034419816373082453 -0.070196700760890282 0 0.033755031887093424 -0.069037959299127233 0 0.020463192515718005 -0.070237135549604396 0 0.019648824174097013 -0.07931253954320816 0 0.03377781033769317 -0.070482580886458424 0 0.033692032864450293 -0.069793795832286121 0 0.034419816373082453 -0.070196700760890282 0 0.0344249687179689 -0.06856590552194089 0 0.034419816373082453 -0.070196700760890282 0 0.033755031887093424 -0.069037959299127233 0 0.0344249687179689 -0.06856590552194089 0 0.033755031887093424 -0.069037959299127233 0 0.033341710610903817 -0.068334534326750185 0 0.033692032864450293 -0.069793795832286121 0 0.033755031887093424 -0.069037959299127233 0 0.03304360709948391 -0.069066337769469049 0 0.033755031887093424 -0.069037959299127233 0 0.03304360709948391 -0.069066337769469049 0 0.033341710610903817 -0.068334534326750185 0 0.033232340940982957 -0.058775443188848489 0 0.032951345597376176 -0.057226104183368258 0 0.031537544347636039 -0.058391506610317646 0 0.03304360709948391 -0.069066337769469049 0 0.033341710610903817 -0.068334534326750185 0 0.032294456973481447 -0.068093134247799503 0 0.03492931444503812 -0.059164635473049274 0 0.033232340940982957 -0.058775443188848489 0 0.035013940498086683 -0.057032411470739362 0 0.020463192515718005 -0.070237135549604396 0 0.032686367705338074 -0.064207059479256381 0 0.032951345597376176 -0.057226104183368258 0 0.035013940498086683 -0.057032411470739362 0 0.033191538710735428 -0.05551000744202346 0 0.033232340940982957 -0.058775443188848489 0 0.032951345597376176 -0.057226104183368258 0 0.035013940498086683 -0.057032411470739362 0 0.013474271178068374 -0.066171484337493272 0 0.013506185883828141 -0.066348739081163274 0 0.013223758670174968 -0.066341462151805655 0 0.013496870666148511 -0.066452547581362931 0 0.013506185883828141 -0.066348739081163274 0 0.013223758670174968 -0.066341462151805655 0 0.013496870666148511 -0.066452547581362931 0 0.013435098289153019 -0.066562554043424871 0 0.013223758670174968 -0.066341462151805655 0 0.013627892236173946 -0.06626647591226606 0 0.013648377929272761 -0.066261695911375679 0 0.013651558064803221 -0.066247095661791766 0 0.013627892236173946 -0.06626647591226606 0 0.013648377929272761 -0.066261695911375679 0 0.013581690430600375 -0.066273211904103443 0 0.011016230741005641 -0.064535498626243387 0 0.011050917486734244 -0.064638811881618186 0 0.013474271178068374 -0.066171484337493272 0 0.013581690430600375 -0.066273211904103443 0 0.013506185883828141 -0.066348739081163274 0 0.011016230741005641 -0.064535498626243387 0 0.011118045492299706 -0.064658734616376473 0 0.013505827597897948 -0.066459103382396204 0 0.013581690430600375 -0.066273211904103443 0 0.013506185883828141 -0.066348739081163274 0 0.020463192515718005 -0.070237135549604396 0 0.022498585632332421 -0.062132125380433376 0 0.013699732616398555 -0.066261768645430055 0 0.013641363650929422 -0.066268193057479122 0 0.013633357922772619 -0.066239346724293713 0 0.013699732616398555 -0.066261768645430055 0 0.013581690430600375 -0.066273211904103443 0 0.013641363650929422 -0.066268193057479122 0 0.013627892236173946 -0.06626647591226606 0 0.013641363650929422 -0.066268193057479122 0 0.013651558064803221 -0.066247095661791766 0 0.013627892236173946 -0.06626647591226606 0 0.013581690430600375 -0.066273211904103443 0 0.013641363650929422 -0.066268193057479122 0 0.013651558064803221 -0.066247095661791766 0 0.013633357922772619 -0.066239346724293713 0 0.013678178437418686 -0.066173296658412234 0 0.013641363650929422 -0.066268193057479122 0 0.013651558064803221 -0.066247095661791766 0 0.013633357922772619 -0.066239346724293713 0 0.0075881755052209926 -0.062519401573639666 0 0.0072114418266996626 -0.062053548351896796 0 0.0087704455095828481 -0.060214616879417426 0 0.013651558064803221 -0.066247095661791766 0 0.013674028292180798 -0.066232581993782264 0 0.013678178437418686 -0.066173296658412234 0 0.011875063220076167 -0.06328644897856063 0 0.017385384589741541 -0.059841541386278937 0 0.013648377929272761 -0.066261695911375679 0 0.013651558064803221 -0.066247095661791766 0 0.013674028292180798 -0.066232581993782264 0 0.012618619753730104 -0.065169206188234352 0 0.013026988528846791 -0.064387439517514369 0 0.012660612553959841 -0.063934422351011475 0 0.011016230741005641 -0.064535498626243387 0 0.011875063220076167 -0.06328644897856063 0 0.011016230741005641 -0.064535498626243387 0 0.0098567339677084302 -0.064955220164347668 0 0.0098567339677084302 -0.064955220164347668 0 0.011875063220076167 -0.06328644897856063 0 -0.016146158913870313 -0.074180216922555955 0 -0.01378546653554453 -0.073991469310134853 0 -0.014733908642903727 -0.071408591121065748 0 0.0098567339677084302 -0.064955220164347668 0 0.0029190762064085518 -0.066056018368925648 0 -0.016146158913870313 -0.074180216922555955 0 -0.01378546653554453 -0.073991469310134853 0 -0.014415527768353691 -0.076348576962674455 0 0.0098567339677084302 -0.064955220164347668 0 0.0045441414060299647 -0.069203313555998583 0 -0.01378546653554453 -0.073991469310134853 0 -0.014415527768353691 -0.076348576962674455 0 -0.011774058002956417 -0.075366734219681195 0 -0.014415527768353691 -0.076348576962674455 0 -0.011774058002956417 -0.075366734219681195 0 -0.011725144455545811 -0.077250651913164395 0 -0.01378546653554453 -0.073991469310134853 0 -0.011774058002956417 -0.075366734219681195 0 -0.011849390176084152 -0.072646873120131697 0 -0.01378546653554453 -0.073991469310134853 0 -0.011849390176084152 -0.072646873120131697 0 -0.014733908642903727 -0.071408591121065748 0 -0.011849390176084152 -0.072646873120131697 0 -0.009976452619901351 -0.074385826730728785 0 -0.0089445527983781949 -0.072111921675813748 0 -0.011774058002956417 -0.075366734219681195 0 -0.011849390176084152 -0.072646873120131697 0 -0.009976452619901351 -0.074385826730728785 0 -0.0069137164849349892 -0.073036953075763092 0 -0.0078920391431882043 -0.075049893529630068 0 -0.0089445527983781949 -0.072111921675813748 0 -0.009976452619901351 -0.074385826730728785 0 -0.0078920391431882043 -0.075049893529630068 0 -0.0089445527983781949 -0.072111921675813748 0 -0.009976452619901351 -0.074385826730728785 0 -0.0078920391431882043 -0.075049893529630068 0 -0.0098065384335024562 -0.077042503093808362 0 -0.0073976461426031497 -0.078151426061554591 0 -0.0078920391431882043 -0.075049893529630068 0 -0.0098065384335024562 -0.077042503093808362 0 -0.011774058002956417 -0.075366734219681195 0 -0.009976452619901351 -0.074385826730728785 0 -0.0098065384335024562 -0.077042503093808362 0 -0.011774058002956417 -0.075366734219681195 0 -0.0098065384335024562 -0.077042503093808362 0 -0.011725144455545811 -0.077250651913164395 0 -0.0098065384335024562 -0.077042503093808362 0 -0.011316678743764108 -0.078768512009585498 0 -0.011725144455545811 -0.077250651913164395 0 -0.0098065384335024562 -0.077042503093808362 0 -0.011316678743764108 -0.078768512009585498 0 -0.009038321170886765 -0.079447728845993451 0 -0.0073976461426031497 -0.078151426061554591 0 -0.0098065384335024562 -0.077042503093808362 0 -0.009038321170886765 -0.079447728845993451 0 -0.0070476085277608588 -0.080477979493602719 0 -0.0073976461426031497 -0.078151426061554591 0 -0.009038321170886765 -0.079447728845993451 0 -0.0070476085277608588 -0.080477979493602719 0 -0.0086857182918179659 -0.080991643896471593 0 -0.009038321170886765 -0.079447728845993451 0 -0.010369527527377451 -0.080974133381060034 0 -0.0086857182918179659 -0.080991643896471593 0 -0.009038321170886765 -0.079447728845993451 0 -0.010369527527377451 -0.080974133381060034 0 -0.011316678743764108 -0.078768512009585498 0 -0.009038321170886765 -0.079447728845993451 0 0.00016303545218998591 -0.091145054020879121 0 0.0013021355482086296 -0.091300224831809426 0 0.0013032291696307417 -0.092421136981915286 0 -0.010369527527377451 -0.080974133381060034 0 -0.011316678743764108 -0.078768512009585498 0 -0.012490378313664513 -0.078520190092390224 0 -0.00084164830964455486 -0.081662663501494537 0 0.0024862995978138531 -0.074407108447082163 0 0.0013021355482086296 -0.091300224831809426 0 0.0022553513412553088 -0.091650608594902747 0 0.0013032291696307417 -0.092421136981915286 0 0.013474271178068374 -0.066171484337493272 0 0.013223758670174968 -0.066341462151805655 0 0.0129568824926864 -0.066079013145448395 0 0.010005703252798754 -0.073909432502962391 0 0.0024862995978138531 -0.074407108447082163 0 0.0045441414060299647 -0.069203313555998583 0 0.0024862995978138531 -0.074407108447082163 0 0.0030339525787490308 -0.092745968889036759 0 0.0022553513412553088 -0.091650608594902747 0 0.0013032291696307417 -0.092421136981915286 0 -0.014415527768353691 -0.076348576962674455 0 -0.011725144455545811 -0.077250651913164395 0 -0.012660633475932841 -0.07850055115356093 0 -0.011316678743764108 -0.078768512009585498 0 -0.011725144455545811 -0.077250651913164395 0 -0.012660633475932841 -0.07850055115356093 0 0.00055712150400852019 -0.07428209007104844 0 0.0024862995978138531 -0.074407108447082163 0 0.053160845663911376 -0.062758444545433514 0 0.052846553865800332 -0.0624756808319245 0 0.052822130075665275 -0.063040530967101743 0 0.053160845663911376 -0.062758444545433514 0 0.053464205496060714 -0.062928494651007805 0 0.052822130075665275 -0.063040530967101743 0 0.053160845663911376 -0.062758444545433514 0 0.052846553865800332 -0.0624756808319245 0 0.053468131386218996 -0.062595132933762024 0 0.052462643337650577 -0.062671382469166273 0 0.052846553865800332 -0.0624756808319245 0 0.052178214347905989 -0.062355904015056897 0 0.052462643337650577 -0.062671382469166273 0 0.052822130075665275 -0.063040530967101743 0 0.05200379229454416 -0.062811224298335702 0 0.052462643337650577 -0.062671382469166273 0 0.052846553865800332 -0.0624756808319245 0 0.052822130075665275 -0.063040530967101743 0 0.051244721925975734 -0.062118023663215977 0 0.051932623448414088 -0.062749073255035481 0 0.050506770850185824 -0.062694656398631671 0 0.051997233400170963 -0.063088252395600716 0 0.050758042144349605 -0.063336056079032199 0 0.051244721925975734 -0.062118023663215977 0 0.05215488753358076 -0.062091715872165214 0 0.051932623448414088 -0.062749073255035481 0 0.051997233400170963 -0.063088252395600716 0 0.052530289526044986 -0.063023318570205489 0 0.052844476110130344 -0.062287445212911047 0 0.05347414410452124 -0.061834827801527562 0 0.052391071158056662 -0.061433557871897478 0 0.051932623448414088 -0.062749073255035481 0 0.052844476110130344 -0.062287445212911047 0 0.053468131386218996 -0.062595132933762024 0 0.05215488753358076 -0.062091715872165214 0 0.051932623448414088 -0.062749073255035481 0 0.052844476110130344 -0.062287445212911047 0 0.05215488753358076 -0.062091715872165214 0 0.052844476110130344 -0.062287445212911047 0 0.052227864008921404 -0.061478036978167165 0 0.051518424457417694 -0.063236622881050863 0 0.051473915356589912 -0.063568497928313372 0 0.05347414410452124 -0.061834827801527562 0 0.05429570115479284 -0.062161970583590263 0 0.053468131386218996 -0.062595132933762024 0 0.052844476110130344 -0.062287445212911047 0 0.05347414410452124 -0.061834827801527562 0 0.053468131386218996 -0.062595132933762024 0 0.053425144904233578 -0.063039057631498488 0 0.05857099925296104 -0.061893298195917192 0 0.05429570115479284 -0.062161970583590263 0 0.054115337276723331 -0.062833004352476962 0 0.053468131386218996 -0.062595132933762024 0 0.054115337276723331 -0.062833004352476962 0 0.053468131386218996 -0.062595132933762024 0 0.053464205496060714 -0.062928494651007805 0 0.054115337276723331 -0.062833004352476962 0 0.053464205496060714 -0.062928494651007805 0 0.053700323714214009 -0.063313646519192288 0 0.053160845663911376 -0.062758444545433514 0 0.053468131386218996 -0.062595132933762024 0 0.053464205496060714 -0.062928494651007805 0 0.053464205496060714 -0.062928494651007805 0 0.053700323714214009 -0.063313646519192288 0 0.052822130075665275 -0.063040530967101743 0 0.072103257038616669 -0.036275379470877715 0 0.072337195200199295 -0.036603479059975151 0 0.072651642062140268 -0.036421378394856471 0 0.054115337276723331 -0.062833004352476962 0 0.053700323714214009 -0.063313646519192288 0 0.054805048449557921 -0.063521919709718308 0 0.063987526122449706 -0.049037186256122842 0 0.070240016062318292 -0.048371296901953222 0 0.072103257038616669 -0.036275379470877715 0 0.072337195200199295 -0.036603479059975151 0 0.072073933909787669 -0.036776679523501568 0 0.072103257038616669 -0.036275379470877715 0 0.071676543908292159 -0.036566809572747092 0 0.072073933909787669 -0.036776679523501568 0 0.063987526122449706 -0.049037186256122842 0 0.06210346314793571 -0.049790117494688042 0 0.072103257038616669 -0.036275379470877715 0 0.071676543908292159 -0.036566809572747092 0 0.071537165594410146 -0.036074851421408753 0 0.071537165594410146 -0.036074851421408753 0 0.071151483842314997 -0.036509623988535189 0 0.070708702689013914 -0.036240046318345973 0 0.071676543908292159 -0.036566809572747092 0 0.071537165594410146 -0.036074851421408753 0 0.071151483842314997 -0.036509623988535189 0 0.06210346314793571 -0.049790117494688042 0 0.060417389687228318 -0.050770737078329242 0 0.071676543908292159 -0.036566809572747092 0 0.071151483842314997 -0.036509623988535189 0 0.071310807889565772 -0.036814591985927403 0 0.071151483842314997 -0.036509623988535189 0 0.070923381986181436 -0.036721043902204771 0 0.071310807889565772 -0.036814591985927403 0 0.070849007317766763 -0.036527739823041062 0 0.07068974877954004 -0.036608600196841742 0 0.070708702689013914 -0.036240046318345973 0 0.071151483842314997 -0.036509623988535189 0 0.070923381986181436 -0.036721043902204771 0 0.070849007317766763 -0.036527739823041062 0 0.070923381986181436 -0.036721043902204771 0 0.070849007317766763 -0.036527739823041062 0 0.07068974877954004 -0.036608600196841742 0 0.07068974877954004 -0.036608600196841742 0 0.070416272104448882 -0.036631589463794231 0 0.070708702689013914 -0.036240046318345973 0 0.071151483842314997 -0.036509623988535189 0 0.070849007317766763 -0.036527739823041062 0 0.070708702689013914 -0.036240046318345973 0 0.068626138096659434 -0.038651231430663562 0 0.069395746246454879 -0.036537880776017169 0 0.068527168204824213 -0.036935941527467167 0 0.068626138096659434 -0.038651231430663562 0 0.068527168204824213 -0.036935941527467167 0 0.067847970550091258 -0.037580759616431814 0 0.06629585679015311 -0.036802581245921416 0 0.068378696986522422 -0.035897030328958607 0 0.069395746246454879 -0.036537880776017169 0 0.067929533686795024 -0.03589610940096849 0 0.070209001039970159 -0.03552914586042194 0 0.068626138096659434 -0.038651231430663562 0 0.069395746246454879 -0.036537880776017169 0 0.070708702689013914 -0.036240046318345973 0 0.069395746246454879 -0.036537880776017169 0 0.068527168204824213 -0.036935941527467167 0 0.067929533686795024 -0.03589610940096849 0 0.069395746246454879 -0.036537880776017169 0 0.070708702689013914 -0.036240046318345973 0 0.070209001039970159 -0.03552914586042194 0 0.071537165594410146 -0.036074851421408753 0 0.070708702689013914 -0.036240046318345973 0 0.070209001039970159 -0.03552914586042194 0 0.032951345597376176 -0.057226104183368258 0 0.031544091541338096 -0.056573761825297386 0 0.031537544347636039 -0.058391506610317646 0 0.046272644710152806 -0.052479491679841922 0 0.04395331193618715 -0.058283492881963196 0 0.0501546376807325 -0.05020198234162053 0 0.047728634099778185 -0.050485973479129635 0 0.050105371601420076 -0.058599555046134927 0 0.067169259967331488 -0.037312758494119073 0 0.066474032341714562 -0.038785282725159832 0 0.066864641971046371 -0.036689381766973443 0 0.054595287805026066 -0.046762281142341038 0 0.051840012314803847 -0.054866598529608845 0 0.068626138096659434 -0.038651231430663562 0 0.066474032341714562 -0.038785282725159832 0 0.067847970550091258 -0.037580759616431814 0 0.067169259967331488 -0.037312758494119073 0 0.066474032341714562 -0.038785282725159832 0 0.067847970550091258 -0.037580759616431814 0 0.067929533686795024 -0.03589610940096849 0 0.066864641971046371 -0.036689381766973443 0 0.067152150513551986 -0.034875072404033612 0 0.047728634099778185 -0.050485973479129635 0 0.046655681163455344 -0.057851808963984008 0 0.050105371601420076 -0.058599555046134927 0 0.051840012314803847 -0.054866598529608845 0 0.057464911465061483 -0.052784673036140817 0 0.05114290225570936 -0.062563558619763635 0 0.051043263798598214 -0.062554173885066844 0 0.051115991338968589 -0.062372227389452105 0 0.068527168204824213 -0.036935941527467167 0 0.067734562794446618 -0.036819214754979922 0 0.067929533686795024 -0.03589610940096849 0 0.067169259967331488 -0.037312758494119073 0 0.067734562794446618 -0.036819214754979922 0 0.066864641971046371 -0.036689381766973443 0 0.068527168204824213 -0.036935941527467167 0 0.067847970550091258 -0.037580759616431814 0 0.067734562794446618 -0.036819214754979922 0 0.067169259967331488 -0.037312758494119073 0 0.067847970550091258 -0.037580759616431814 0 0.067734562794446618 -0.036819214754979922 0 0.067734562794446618 -0.036819214754979922 0 0.067929533686795024 -0.03589610940096849 0 0.066864641971046371 -0.036689381766973443 0 0.032686367705338074 -0.064207059479256381 0 0.04395331193618715 -0.058283492881963196 0 0.051840012314803847 -0.054866598529608845 0 0.04395331193618715 -0.058283492881963196 0 0.04395331193618715 -0.058283492881963196 0 0.041621189534851166 -0.06481424105531218 0 0.03304360709948391 -0.069066337769469049 0 0.032294456973481447 -0.068093134247799503 0 0.032277353691373717 -0.069617037452874161 0 0.051043263798598214 -0.062554173885066844 0 0.051115991338968589 -0.062372227389452105 0 0.050996987046589219 -0.062197013795176982 0 0.05114290225570936 -0.062563558619763635 0 0.051115991338968589 -0.062372227389452105 0 0.05117402498410821 -0.062377854547862467 0 0.057464911465061483 -0.052784673036140817 0 0.056932250875809047 -0.054696016895833137 0 0.051115991338968589 -0.062372227389452105 0 0.051201681176621813 -0.062387551822831441 0 0.051269040133110441 -0.062263067669581056 0 0.057243786396132534 -0.052867920144545562 0 0.057464911465061483 -0.052784673036140817 0 0.051200552742999485 -0.062589464327113181 0 0.051269040133110441 -0.062263067669581056 0 0.051550737497227744 -0.062472472639925641 0 0.041621189534851166 -0.06481424105531218 0 0.048347042218632244 -0.063880796237175866 0 0.051269040133110441 -0.062263067669581056 0 0.050996987046589219 -0.062197013795176982 0 0.051491369350675165 -0.062249505689243118 0 0.047668401182494935 -0.062548903941291922 0 0.049107345833125995 -0.062639367155058356 0 0.048415249921978806 -0.06196234748741862 0 0.051269040133110441 -0.062263067669581056 0 0.051550737497227744 -0.062472472639925641 0 0.051491369350675165 -0.062249505689243118 0 0.049107345833125995 -0.062639367155058356 0 0.049122769399593751 -0.061770148953788587 0 0.048415249921978806 -0.06196234748741862 0 0.051115991338968589 -0.062372227389452105 0 0.051269040133110441 -0.062263067669581056 0 0.050996987046589219 -0.062197013795176982 0 0.047668401182494935 -0.062548903941291922 0 0.047677006348621251 -0.06151222036699569 0 0.048415249921978806 -0.06196234748741862 0 0.041621189534851166 -0.06481424105531218 0 0.040593095010541917 -0.065892479712688606 0 0.052462643337650577 -0.062671382469166273 0 0.05200379229454416 -0.062811224298335702 0 0.052178214347905989 -0.062355904015056897 0 0.05200379229454416 -0.062811224298335702 0 0.051827554806173161 -0.062466053099455729 0 0.052178214347905989 -0.062355904015056897 0 0.067929533686795024 -0.03589610940096849 0 0.067152150513551986 -0.034875072404033612 0 0.070209001039970159 -0.03552914586042194 0 0.057464911465061483 -0.052784673036140817 0 0.060417389687228318 -0.050770737078329242 0 0.051200552742999485 -0.062589464327113181 0 0.05200379229454416 -0.062811224298335702 0 0.051550737497227744 -0.062472472639925641 0 0.051550737497227744 -0.062472472639925641 0 0.051827554806173161 -0.062466053099455729 0 0.051491369350675165 -0.062249505689243118 0 0.05200379229454416 -0.062811224298335702 0 0.051550737497227744 -0.062472472639925641 0 0.051827554806173161 -0.062466053099455729 0 0.048347042218632244 -0.063880796237175866 0 0.050758042144349605 -0.063336056079032199 0 0.049107345833125995 -0.062639367155058356 0 0.049680309486985888 -0.062218738024257293 0 0.050506770850185824 -0.062694656398631671 0 0.051827554806173161 -0.062466053099455729 0 0.051491369350675165 -0.062249505689243118 0 0.052178214347905989 -0.062355904015056897 0 0.049107345833125995 -0.062639367155058356 0 0.049680309486985888 -0.062218738024257293 0 0.049122769399593751 -0.061770148953788587 0 0.050506770850185824 -0.062694656398631671 0 0.050713589955874876 -0.06177380828192499 0 0.04997008456256475 -0.061758333054331836 0 0.049680309486985888 -0.062218738024257293 0 0.050506770850185824 -0.062694656398631671 0 0.04997008456256475 -0.061758333054331836 0 0.051244721925975734 -0.062118023663215977 0 0.050506770850185824 -0.062694656398631671 0 0.050713589955874876 -0.06177380828192499 0 0.050701579465891135 -0.0610932231015913 0 0.04997008456256475 -0.061758333054331836 0 0.049194170220730728 -0.06076499602360054 0 0.050713589955874876 -0.06177380828192499 0 0.050701579465891135 -0.0610932231015913 0 0.04997008456256475 -0.061758333054331836 0 0.04997008456256475 -0.061758333054331836 0 0.049122769399593751 -0.061770148953788587 0 0.049194170220730728 -0.06076499602360054 0 0.049680309486985888 -0.062218738024257293 0 0.04997008456256475 -0.061758333054331836 0 0.049122769399593751 -0.061770148953788587 0 0.050701579465891135 -0.0610932231015913 0 0.050346300938679978 -0.060303552520091425 0 0.051352077109503992 -0.060459948464210718 0 0.050701579465891135 -0.0610932231015913 0 0.049596250963106103 -0.060932451284703447 0 0.050346300938679978 -0.060303552520091425 0 0.048505456457931515 -0.064254424986948319 0 0.046805078976999183 -0.064867085956113693 0 0.033058394199401542 -0.07054666399073288 0 0.03216043512990336 -0.069710231526320582 0 0.03217773141325557 -0.070594726233573768 0 0.047677006348621251 -0.06151222036699569 0 0.048417140061630226 -0.061298737944025274 0 0.047674597991904932 -0.060480683193388951 0 0.033058394199401542 -0.07054666399073288 0 0.03217773141325557 -0.070594726233573768 0 0.032313290587100002 -0.071442076366198842 0 0.03581063440350063 -0.069830597543717676 0 0.038441566116681598 -0.067263565111362292 0 0.049122769399593751 -0.061770148953788587 0 0.049194170220730728 -0.06076499602360054 0 0.048417140061630226 -0.061298737944025274 0 0.047677006348621251 -0.06151222036699569 0 0.048417140061630226 -0.061298737944025274 0 0.048415249921978806 -0.06196234748741862 0 0.049122769399593751 -0.061770148953788587 0 0.048417140061630226 -0.061298737944025274 0 0.048415249921978806 -0.06196234748741862 0 0.049596250963106103 -0.060932451284703447 0 0.048486770085095381 -0.060582939075655262 0 0.048484537220784746 -0.060744764803355895 0 0.049194170220730728 -0.06076499602360054 0 0.048417140061630226 -0.061298737944025274 0 0.047674597991904932 -0.060480683193388951 0 0.046805078976999183 -0.064867085956113693 0 0.039721571508127711 -0.066811327969568624 0 0.040593095010541917 -0.065892479712688606 0 0.039721571508127711 -0.066811327969568624 0 0.03217773141325557 -0.070594726233573768 0 0.032192087993712704 -0.071417423701465241 0 0.032313290587100002 -0.071442076366198842 0 0.032779280068080639 -0.07198063059458143 0 0.031750850959939396 -0.071829782999026204 0 0.032071081033717801 -0.07225134561955017 0 0.035819659580094157 -0.068109799589025868 0 0.038441566116681598 -0.067263565111362292 0 0.039399043242390484 -0.069102656587977249 0 0.039427766145545141 -0.063732161027221068 0 0.04316967277277458 -0.064461749957170869 0 0.03924576886941699 -0.066937321799864613 0 0.038441566116681598 -0.067263565111362292 0 0.03924576886941699 -0.066937321799864613 0 0.039721571508127711 -0.066811327969568624 0 0.039721571508127711 -0.066811327969568624 0 0.038441566116681598 -0.067263565111362292 0 0.031593349302115749 -0.072037238098435069 0 0.031750850959939396 -0.071829782999026204 0 0.032071081033717801 -0.07225134561955017 0 0.049596250963106103 -0.060932451284703447 0 0.048486770085095381 -0.060582939075655262 0 0.04936532635591348 -0.059539026695541793 0 0.032530555189344106 -0.072909014038527509 0 0.032071081033717801 -0.07225134561955017 0 0.031722102105948599 -0.072513171557846895 0 0.03924576886941699 -0.066937321799864613 0 0.039023874377882378 -0.067536390839557287 0 0.031785823155748259 -0.07274714068420772 0 0.031722102105948599 -0.072513171557846895 0 0.031648602772418759 -0.072558419344730216 0 0.031593349302115749 -0.072037238098435069 0 0.031722102105948599 -0.072513171557846895 0 0.031648602772418759 -0.072558419344730216 0 0.031593349302115749 -0.072037238098435069 0 0.032071081033717801 -0.07225134561955017 0 0.031722102105948599 -0.072513171557846895 0 0.031785823155748259 -0.07274714068420772 0 0.031648602772418759 -0.072558419344730216 0 0.031617034120204668 -0.072916877380015302 0 0.031648602772418759 -0.072558419344730216 0 0.031259388253619312 -0.07291443279099441 0 0.031617034120204668 -0.072916877380015302 0 0.03924576886941699 -0.066937321799864613 0 0.041412553252275962 -0.06760650220993869 0 0.031648567268639273 -0.072356756991394947 0 0.031648602772418759 -0.072558419344730216 0 0.031259388253619312 -0.07291443279099441 0 0.031259388253619312 -0.07291443279099441 0 0.031617034120204668 -0.072916877380015302 0 0.031611190852992271 -0.073210865102974212 0 0.032014871897240976 -0.073264172944034409 0 0.031853169024047466 -0.073016823282177859 0 0.031611190852992271 -0.073210865102974212 0 0.031617034120204668 -0.072916877380015302 0 0.031853169024047466 -0.073016823282177859 0 0.031611190852992271 -0.073210865102974212 0 0.031785823155748259 -0.07274714068420772 0 0.031617034120204668 -0.072916877380015302 0 0.031853169024047466 -0.073016823282177859 0 0.049596250963106103 -0.060932451284703447 0 0.04936532635591348 -0.059539026695541793 0 0.050346300938679978 -0.060303552520091425 0 0.050346300938679978 -0.060303552520091425 0 0.050740263301456291 -0.059506602433506819 0 0.051352077109503992 -0.060459948464210718 0 0.04936532635591348 -0.059539026695541793 0 0.050346300938679978 -0.060303552520091425 0 0.050740263301456291 -0.059506602433506819 0 0.04936532635591348 -0.059539026695541793 0 0.050740263301456291 -0.059506602433506819 0 0.050193244326902961 -0.058559246726897329 0 0.046192745793923538 -0.072077964491378432 0 0.046273024277882574 -0.072016211843788716 0 0.046199028190700805 -0.071972836953641775 0 0.046192745793923538 -0.072077964491378432 0 0.046273024277882574 -0.072016211843788716 0 0.046348999989916886 -0.072152067916725682 0 0.046273024277882574 -0.072016211843788716 0 0.046540920726784937 -0.072144693740505056 0 0.046348999989916886 -0.072152067916725682 0 0.046406273076841996 -0.07213932289186481 0 0.046503575071218842 -0.072223774556452527 0 0.046331360453054748 -0.072029230391148488 0 0.046346312914748257 -0.072160866180834782 0 0.046409519589201108 -0.072032311208920799 0 0.046273024277882574 -0.072016211843788716 0 0.046331360453054748 -0.072029230391148488 0 0.046346312914748257 -0.072160866180834782 0 0.046434889899893958 -0.072232441575290116 0 0.04634828102495267 -0.07230903748986281 0 0.04651335018898875 -0.072325648842431187 0 0.046540920726784937 -0.072144693740505056 0 0.046434889899893958 -0.072232441575290116 0 0.046348999989916886 -0.072152067916725682 0 0.046540920726784937 -0.072144693740505056 0 0.046434889899893958 -0.072232441575290116 0 0.04651335018898875 -0.072325648842431187 0 0.046192745793923538 -0.072077964491378432 0 0.046348999989916886 -0.072152067916725682 0 0.04634828102495267 -0.07230903748986281 0 0.046510366539176631 -0.067373215813735898 0 0.049102145497794188 -0.065942938079212185 0 0.046434889899893958 -0.072232441575290116 0 0.046348999989916886 -0.072152067916725682 0 0.04634828102495267 -0.07230903748986281 0 0.050701579465891135 -0.0610932231015913 0 0.051352077109503992 -0.060459948464210718 0 0.051483448931100642 -0.061296993135332052 0 0.049102145497794188 -0.065942938079212185 0 0.051473915356589912 -0.063568497928313372 0 0.04634828102495267 -0.07230903748986281 0 0.04651335018898875 -0.072325648842431187 0 0.046505956616192529 -0.072479657229483324 0 0.04651335018898875 -0.072325648842431187 0 0.046505956616192529 -0.072479657229483324 0 0.046712672921242281 -0.072420423352425475 0 0.051473915356589912 -0.063568497928313372 0 0.051420598033133307 -0.063425521762493706 0 0.05215488753358076 -0.062091715872165214 0 0.052227864008921404 -0.061478036978167165 0 0.051483448931100642 -0.061296993135332052 0 0.051244721925975734 -0.062118023663215977 0 0.05215488753358076 -0.062091715872165214 0 0.051483448931100642 -0.061296993135332052 0 0.051352077109503992 -0.060459948464210718 0 0.052008231209899509 -0.06148291447680574 0 0.051483448931100642 -0.061296993135332052 0 0.051244721925975734 -0.062118023663215977 0 0.050713589955874876 -0.06177380828192499 0 0.051483448931100642 -0.061296993135332052 0 0.050713589955874876 -0.06177380828192499 0 0.050701579465891135 -0.0610932231015913 0 0.051483448931100642 -0.061296993135332052 0 0.05857099925296104 -0.061893298195917192 0 0.053532046167192704 -0.06638267417150219 0 0.047046718137298014 -0.073077062682197366 0 0.046756082652600013 -0.072711197587789086 0 0.04717323086523062 -0.072785017991549156 0 0.046704487699228671 -0.072526243639198101 0 0.046952406059119732 -0.07256212972847037 0 0.046712672921242281 -0.072420423352425475 0 0.053425144904233578 -0.063039057631498488 0 0.051473915356589912 -0.063568497928313372 0 0.046704487699228671 -0.072526243639198101 0 0.046505956616192529 -0.072479657229483324 0 0.046712672921242281 -0.072420423352425475 0 0.052037900710185749 -0.067585629027393623 0 0.053532046167192704 -0.06638267417150219 0 0.04651335018898875 -0.072325648842431187 0 0.046756082652600013 -0.072711197587789086 0 0.046855819107921366 -0.072418107554382438 0 0.046710723666206259 -0.072404969050956836 0 0.046877944555543921 -0.072544748579194449 0 0.046756082652600013 -0.072711197587789086 0 0.046855819107921366 -0.072418107554382438 0 0.04717323086523062 -0.072785017991549156 0 0.046523507214668483 -0.072416661374817504 0 0.046706841045717026 -0.072221866624429421 0 0.046995807563527288 -0.072485224647864679 0 0.046523507214668483 -0.072416661374817504 0 0.04717323086523062 -0.072785017991549156 0 0.046995807563527288 -0.072485224647864679 0 0.046523507214668483 -0.072416661374817504 0 0.046706841045717026 -0.072221866624429421 0 0.046484971994780626 -0.072189130200104937 0 0.046706841045717026 -0.072221866624429421 0 0.046484971994780626 -0.072189130200104937 0 0.046562397451507836 -0.072134571389628921 0 0.046706841045717026 -0.072221866624429421 0 0.046562397451507836 -0.072134571389628921 0 0.04675788389667327 -0.072033510440628223 0 0.046503575071218842 -0.072223774556452527 0 0.046710723666206259 -0.072404969050956836 0 0.046346312914748257 -0.072160866180834782 0 0.046523507214668483 -0.072416661374817504 0 0.046484971994780626 -0.072189130200104937 0 0.046540920726784937 -0.072144693740505056 0 0.04651335018898875 -0.072325648842431187 0 0.046855819107921366 -0.072418107554382438 0 0.046484971994780626 -0.072189130200104937 0 0.046409519589201108 -0.072032311208920799 0 0.046562397451507836 -0.072134571389628921 0 0.046346312914748257 -0.072160866180834782 0 0.046484971994780626 -0.072189130200104937 0 0.046409519589201108 -0.072032311208920799 0 0.046307551317164776 -0.072540953373337505 0 0.046357830587039628 -0.072472315312189312 0 0.046970388216312789 -0.072708986967289099 0 0.046562397451507836 -0.072134571389628921 0 0.046465482420307923 -0.072876498093196629 0 0.046562397451507836 -0.072134571389628921 0 0.046465482420307923 -0.072876498093196629 0 0.046355938427316716 -0.072337868759569449 0 0.046465482420307923 -0.072876498093196629 0 0.04571898235440354 -0.073382049161336199 0 0.046355938427316716 -0.072337868759569449 0 0.04571898235440354 -0.073382049161336199 0 0.046576743506222228 -0.074222857889647345 0 0.044203704319361624 -0.076294028269219841 0 0.04571898235440354 -0.073382049161336199 0 0.044203704319361624 -0.076294028269219841 0 0.045073355125938158 -0.07485873644607012 0 0.046465482420307923 -0.072876498093196629 0 0.04571898235440354 -0.073382049161336199 0 0.046576743506222228 -0.074222857889647345 0 0.046576743506222228 -0.074222857889647345 0 0.047149581484932077 -0.074008633857156156 0 0.047211669239856181 -0.074804307255311148 0 0.046576743506222228 -0.074222857889647345 0 0.046895613949182784 -0.073289559302935334 0 0.047149581484932077 -0.074008633857156156 0 0.046465482420307923 -0.072876498093196629 0 0.046576743506222228 -0.074222857889647345 0 0.046895613949182784 -0.073289559302935334 0 0.046970388216312789 -0.072708986967289099 0 0.046465482420307923 -0.072876498093196629 0 0.046895613949182784 -0.073289559302935334 0 0.046307551317164776 -0.072540953373337505 0 0.045790797175952247 -0.072545220066995431 0 0.046331360453054748 -0.072029230391148488 0 0.046409519589201108 -0.072032311208920799 0 0.046294753896214028 -0.071951136958571707 0 0.046970388216312789 -0.072708986967289099 0 0.047368932438492918 -0.073316768887931705 0 0.047396742089526385 -0.073360180739288114 0 0.046970388216312789 -0.072708986967289099 0 0.046895613949182784 -0.073289559302935334 0 0.047368932438492918 -0.073316768887931705 0 0.047368932438492918 -0.073316768887931705 0 0.047396742089526385 -0.073360180739288114 0 0.047290180020286954 -0.073133325382347708 0 0.046294753896214028 -0.071951136958571707 0 0.046209181715037594 -0.071942975266717904 0 0.046151909826318685 -0.071860759736196891 0 0.045790797175952247 -0.072545220066995431 0 0.043472313332239075 -0.071831797223372573 0 0.046256207570317925 -0.071970380473727516 0 0.046209181715037594 -0.071942975266717904 0 0.046199028190700805 -0.071972836953641775 0 0.046256207570317925 -0.071970380473727516 0 0.046294753896214028 -0.071951136958571707 0 0.046209181715037594 -0.071942975266717904 0 0.046273024277882574 -0.072016211843788716 0 0.046256207570317925 -0.071970380473727516 0 0.046199028190700805 -0.071972836953641775 0 0.046273024277882574 -0.072016211843788716 0 0.046331360453054748 -0.072029230391148488 0 0.046294753896214028 -0.071951136958571707 0 0.046273024277882574 -0.072016211843788716 0 0.046256207570317925 -0.071970380473727516 0 0.046294753896214028 -0.071951136958571707 0 0.047396742089526385 -0.073360180739288114 0 0.046712581238860164 -0.073022329540108316 0 0.046315541962363503 -0.073148960445127961 0 0.046712581238860164 -0.073022329540108316 0 0.047077247274626741 -0.073003803247519317 0 0.046851013342297264 -0.072854933155154442 0 0.047396742089526385 -0.073360180739288114 0 0.046712581238860164 -0.073022329540108316 0 0.047077247274626741 -0.073003803247519317 0 0.047396742089526385 -0.073360180739288114 0 0.047077247274626741 -0.073003803247519317 0 0.047290180020286954 -0.073133325382347708 0 0.047077247274626741 -0.073003803247519317 0 0.047197719572216183 -0.072870636710910278 0 0.047290180020286954 -0.073133325382347708 0 0.047077247274626741 -0.073003803247519317 0 0.046986629404241337 -0.072660323765002005 0 0.047197719572216183 -0.072870636710910278 0 0.046986629404241337 -0.072660323765002005 0 0.047197719572216183 -0.072870636710910278 0 0.047418566517640447 -0.072662794261470168 0 0.047077247274626741 -0.073003803247519317 0 0.046986629404241337 -0.072660323765002005 0 0.046851013342297264 -0.072854933155154442 0 0.046986629404241337 -0.072660323765002005 0 0.046851013342297264 -0.072854933155154442 0 0.046620130361944255 -0.072730585925953467 0 0.046712581238860164 -0.073022329540108316 0 0.046851013342297264 -0.072854933155154442 0 0.046620130361944255 -0.072730585925953467 0 0.044182054130732513 -0.074441751888949442 0 0.043677747263679706 -0.074943788816078827 0 0.047368932438492918 -0.073316768887931705 0 0.047149581484932077 -0.074008633857156156 0 0.047674474810174436 -0.074410864019149425 0 0.047368932438492918 -0.073316768887931705 0 0.047290180020286954 -0.073133325382347708 0 0.047418566517640447 -0.072662794261470168 0 0.046895613949182784 -0.073289559302935334 0 0.047368932438492918 -0.073316768887931705 0 0.047149581484932077 -0.074008633857156156 0 0.047197719572216183 -0.072870636710910278 0 0.047290180020286954 -0.073133325382347708 0 0.047418566517640447 -0.072662794261470168 0 0.047211669239856181 -0.074804307255311148 0 0.047674474810174436 -0.074410864019149425 0 0.047841531972490588 -0.075474852195613784 0 0.043677747263679706 -0.074943788816078827 0 0.042021087238622565 -0.076930773598768376 0 0.047149581484932077 -0.074008633857156156 0 0.047211669239856181 -0.074804307255311148 0 0.047674474810174436 -0.074410864019149425 0 0.044117528422786073 -0.077105840199899051 0 0.042021087238622565 -0.076930773598768376 0 0.047418566517640447 -0.072662794261470168 0 0.046972394335025043 -0.072204009030914118 0 0.047270510633365848 -0.071739387430911974 0 0.046986629404241337 -0.072660323765002005 0 0.046972394335025043 -0.072204009030914118 0 0.046539144492240822 -0.072278731563292523 0 0.046986629404241337 -0.072660323765002005 0 0.046620130361944255 -0.072730585925953467 0 0.046539144492240822 -0.072278731563292523 0 0.046986629404241337 -0.072660323765002005 0 0.047418566517640447 -0.072662794261470168 0 0.046972394335025043 -0.072204009030914118 0 0.046972394335025043 -0.072204009030914118 0 0.046612879349329145 -0.07176790196920825 0 0.046539144492240822 -0.072278731563292523 0 0.042021087238622565 -0.076930773598768376 0 0.038827745702305634 -0.076511744401017684 0 0.046612879349329145 -0.07176790196920825 0 0.047270510633365848 -0.071739387430911974 0 0.046447158547519019 -0.070912521613445217 0 0.046972394335025043 -0.072204009030914118 0 0.046612879349329145 -0.07176790196920825 0 0.047270510633365848 -0.071739387430911974 0 0.049934462978127578 -0.078000320491160915 0 0.047526241448028604 -0.078842651060858873 0 0.050464789953605468 -0.081245511262795625 0 0.048238801718525411 -0.076160411276787687 0 0.049934462978127578 -0.078000320491160915 0 0.047526241448028604 -0.078842651060858873 0 0.038358536742506333 -0.078565364842352645 0 0.04148935390769689 -0.077341626045966103 0 0.044203704319361624 -0.076294028269219841 0 0.041000133972518789 -0.078487146084475254 0 0.041456984624572354 -0.077928004845816565 0 0.04148935390769689 -0.077341626045966103 0 0.044203704319361624 -0.076294028269219841 0 0.043685899772534655 -0.076541069758828156 0 0.04148935390769689 -0.077341626045966103 0 0.041282643169910836 -0.07707381520542983 0 0.043685899772534655 -0.076541069758828156 0 0.047526241448028604 -0.078842651060858873 0 0.044203704319361624 -0.076294028269219841 0 0.046646838403362062 -0.07638813733325954 0 0.048238801718525411 -0.076160411276787687 0 0.047526241448028604 -0.078842651060858873 0 0.046646838403362062 -0.07638813733325954 0 0.046576743506222228 -0.074222857889647345 0 0.044203704319361624 -0.076294028269219841 0 0.046646838403362062 -0.07638813733325954 0 0.044459591630981184 -0.07684494976579391 0 0.044117528422786073 -0.077105840199899051 0 0.046576743506222228 -0.074222857889647345 0 0.048238801718525411 -0.076160411276787687 0 0.046646838403362062 -0.07638813733325954 0 0.031752858427458251 -0.073565329219498307 0 0.031492895746346325 -0.073725084805571342 0 0.031664943860564641 -0.074025341629814306 0 0.032048390947986276 -0.073867408703947243 0 0.031752858427458251 -0.073565329219498307 0 0.031664943860564641 -0.074025341629814306 0 0.031752858427458251 -0.073565329219498307 0 0.031611190852992271 -0.073210865102974212 0 0.031370636290524445 -0.073418970209525342 0 0.032014871897240976 -0.073264172944034409 0 0.031752858427458251 -0.073565329219498307 0 0.031611190852992271 -0.073210865102974212 0 0.031259388253619312 -0.07291443279099441 0 0.031611190852992271 -0.073210865102974212 0 0.031370636290524445 -0.073418970209525342 0 0.031752858427458251 -0.073565329219498307 0 0.031370636290524445 -0.073418970209525342 0 0.031492895746346325 -0.073725084805571342 0 0.031370636290524445 -0.073418970209525342 0 0.031492895746346325 -0.073725084805571342 0 0.031234716824356801 -0.073657394478443189 0 0.031492895746346325 -0.073725084805571342 0 0.031234716824356801 -0.073657394478443189 0 0.031243928547870232 -0.073892271178743862 0 0.031052147446240512 -0.073783344381318755 0 0.031234716824356801 -0.073657394478443189 0 0.030877337272488412 -0.073433771788403282 0 0.040117575356520316 -0.071967158879235299 0 0.043355810719432841 -0.070798122830994265 0 0.031052147446240512 -0.073783344381318755 0 0.031234716824356801 -0.073657394478443189 0 0.031243928547870232 -0.073892271178743862 0 0.040117575356520316 -0.071967158879235299 0 0.039046382516703122 -0.071682245569392303 0 0.031370636290524445 -0.073418970209525342 0 0.031234716824356801 -0.073657394478443189 0 0.030877337272488412 -0.073433771788403282 0 0.041412553252275962 -0.06760650220993869 0 0.043355810719432841 -0.070798122830994265 0 0.031259388253619312 -0.07291443279099441 0 0.031370636290524445 -0.073418970209525342 0 0.030877337272488412 -0.073433771788403282 0 0.046192745793923538 -0.072077964491378432 0 0.0461023502764236 -0.071917371439654348 0 0.046199028190700805 -0.071972836953641775 0 0.046510366539176631 -0.067373215813735898 0 0.043355810719432841 -0.070798122830994265 0 0.0461023502764236 -0.071917371439654348 0 0.046158771784864466 -0.071914361744827154 0 0.046151909826318685 -0.071860759736196891 0 0.046209181715037594 -0.071942975266717904 0 0.046158771784864466 -0.071914361744827154 0 0.046151909826318685 -0.071860759736196891 0 0.0461023502764236 -0.071917371439654348 0 0.046199028190700805 -0.071972836953641775 0 0.046158771784864466 -0.071914361744827154 0 0.046209181715037594 -0.071942975266717904 0 0.046199028190700805 -0.071972836953641775 0 0.046158771784864466 -0.071914361744827154 0 0.041782837411415044 -0.07224995100914415 0 0.041953322135279962 -0.072562471931222047 0 0.042083238293399473 -0.072403126969411577 0 0.046712581238860164 -0.073022329540108316 0 0.04650212899586887 -0.073058777793949176 0 0.046315541962363503 -0.073148960445127961 0 0.046712581238860164 -0.073022329540108316 0 0.04650212899586887 -0.073058777793949176 0 0.046461838711188426 -0.07290499280401315 0 0.04650212899586887 -0.073058777793949176 0 0.046315541962363503 -0.073148960445127961 0 0.046461838711188426 -0.07290499280401315 0 0.043355810719432841 -0.070798122830994265 0 0.043472313332239075 -0.071831797223372573 0 0.04556278770585085 -0.072811413060993591 0 0.046315541962363503 -0.073148960445127961 0 0.046140105540596187 -0.072680980327994096 0 0.040117575356520316 -0.071967158879235299 0 0.043472313332239075 -0.071831797223372573 0 0.046140105540596187 -0.072680980327994096 0 0.046620130361944255 -0.072730585925953467 0 0.046461838711188426 -0.07290499280401315 0 0.046315541962363503 -0.073148960445127961 0 0.046140105540596187 -0.072680980327994096 0 0.046461838711188426 -0.07290499280401315 0 0.046712581238860164 -0.073022329540108316 0 0.046620130361944255 -0.072730585925953467 0 0.046461838711188426 -0.07290499280401315 0 0.046612879349329145 -0.07176790196920825 0 0.046539144492240822 -0.072278731563292523 0 0.045775809230186371 -0.071923717157996558 0 0.046140105540596187 -0.072680980327994096 0 0.046539144492240822 -0.072278731563292523 0 0.045775809230186371 -0.071923717157996558 0 0.046140105540596187 -0.072680980327994096 0 0.046620130361944255 -0.072730585925953467 0 0.046539144492240822 -0.072278731563292523 0 0.045775809230186371 -0.071923717157996558 0 0.045483724404992099 -0.071052283675071728 0 0.046447158547519019 -0.070912521613445217 0 0.046612879349329145 -0.07176790196920825 0 0.045775809230186371 -0.071923717157996558 0 0.046447158547519019 -0.070912521613445217 0 0.045775809230186371 -0.071923717157996558 0 0.044943725194010298 -0.071760684158925392 0 0.045483724404992099 -0.071052283675071728 0 0.031067627308060515 -0.073789936440163101 0 0.031243928547870232 -0.073892271178743862 0 0.031294423138855387 -0.074284253575080228 0 0.040117575356520316 -0.071967158879235299 0 0.035506272182052899 -0.074055716101065761 0 0.04556278770585085 -0.072811413060993591 0 0.045775809230186371 -0.071923717157996558 0 0.044943725194010298 -0.071760684158925392 0 0.04556278770585085 -0.072811413060993591 0 0.046140105540596187 -0.072680980327994096 0 0.045775809230186371 -0.071923717157996558 0 0.031423711785066873 -0.073982044648457645 0 0.031294423138855387 -0.074284253575080228 0 0.031664943860564641 -0.074025341629814306 0 0.031243928547870232 -0.073892271178743862 0 0.031423711785066873 -0.073982044648457645 0 0.031294423138855387 -0.074284253575080228 0 0.031492895746346325 -0.073725084805571342 0 0.031243928547870232 -0.073892271178743862 0 0.031423711785066873 -0.073982044648457645 0 0.031492895746346325 -0.073725084805571342 0 0.031423711785066873 -0.073982044648457645 0 0.031664943860564641 -0.074025341629814306 0 0.031294423138855387 -0.074284253575080228 0 0.031667596709395257 -0.074392849861824165 0 0.031537473530121707 -0.074782762177040524 0 0.031294423138855387 -0.074284253575080228 0 0.031667596709395257 -0.074392849861824165 0 0.031664943860564641 -0.074025341629814306 0 0.032042351005769534 -0.074184165681261544 0 0.031667596709395257 -0.074392849861824165 0 0.031664943860564641 -0.074025341629814306 0 0.017497505310788222 -0.080565092968233332 0 0.020635071377611548 -0.081725892856748264 0 0.018897915861107298 -0.078422102834358187 0 0.028923924440455381 -0.076021011871089755 0 0.022136085513520198 -0.076679629246164047 0 0.021256926301802159 -0.082676133017458187 0 0.021429399323205218 -0.079464871673753018 0 0.019195877530477152 -0.078823637877655395 0 0.031985111366093236 -0.074568192143160808 0 0.031667596709395257 -0.074392849861824165 0 0.031537473530121707 -0.074782762177040524 0 0.017804328522848113 -0.083056781607825744 0 0.017497505310788222 -0.080565092968233332 0 0.020635071377611548 -0.081725892856748264 0 0.024329366576774047 -0.077804231870545748 0 0.028923924440455381 -0.076021011871089755 0 0.044943725194010298 -0.071760684158925392 0 0.0443289243219138 -0.070688036697700934 0 0.045483724404992099 -0.071052283675071728 0 0.035506272182052899 -0.074055716101065761 0 0.028923924440455381 -0.076021011871089755 0 0.028923924440455381 -0.076021011871089755 0 0.03361475472325362 -0.076874663432380155 0 0.021256926301802159 -0.082676133017458187 0 0.025364212338008087 -0.080730112913138669 0 0.021429399323205218 -0.079464871673753018 0 0.0443289243219138 -0.070688036697700934 0 0.045610040155202099 -0.070084080177594182 0 0.045483724404992099 -0.071052283675071728 0 0.045610040155202099 -0.070084080177594182 0 0.045483724404992099 -0.071052283675071728 0 0.046447158547519019 -0.070912521613445217 0 0.03361475472325362 -0.076874663432380155 0 0.038827745702305634 -0.076511744401017684 0 0.026971851401104252 -0.080473078421769317 0 0.028405996336698134 -0.079791346105301406 0 0.031126351244222854 -0.083884654948623669 0 0.03698951669687827 -0.077312057637696607 0 0.036295544632760364 -0.07522120192286999 0 0.038207564843630845 -0.076786294142292016 0 0.035372283995830416 -0.075659533396480308 0 0.03698951669687827 -0.077312057637696607 0 0.036295544632760364 -0.07522120192286999 0 0.03361475472325362 -0.076874663432380155 0 0.031972921474515983 -0.07799243663189534 0 0.031972921474515983 -0.07799243663189534 0 0.031603538576315454 -0.078170315173767518 0 0.027033853553707392 -0.080337529827848725 0 0.026305843758855862 -0.07731857636539699 0 0.028156176587895276 -0.078041405687036047 0 0.027033853553707392 -0.080337529827848725 0 0.028405996336698134 -0.079791346105301406 0 0.028156176587895276 -0.078041405687036047 0 0.026305843758855862 -0.07731857636539699 0 0.028156176587895276 -0.078041405687036047 0 0.02753412918679762 -0.076252671818334297 0 0.02753412918679762 -0.076252671818334297 0 0.024738409075640871 -0.074999820574059184 0 0.028840623938238181 -0.074999193139969653 0 0.026305843758855862 -0.07731857636539699 0 0.02753412918679762 -0.076252671818334297 0 0.024738409075640871 -0.074999820574059184 0 0.028156176587895276 -0.078041405687036047 0 0.02753412918679762 -0.076252671818334297 0 0.029940634989760306 -0.076614300307777564 0 0.026305843758855862 -0.07731857636539699 0 0.024738409075640871 -0.074999820574059184 0 0.023658416878979561 -0.077443210249731373 0 0.027033853553707392 -0.080337529827848725 0 0.026305843758855862 -0.07731857636539699 0 0.023658416878979561 -0.077443210249731373 0 0.025471412638278967 -0.080857654272495763 0 0.027055903784861071 -0.08010646924836827 0 0.023798079415812235 -0.07747079892837333 0 0.025471412638278967 -0.080857654272495763 0 0.023798079415812235 -0.07747079892837333 0 0.023119498868527103 -0.078449783620515676 0 0.031972921474515983 -0.07799243663189534 0 0.025323328457487127 -0.076403077697408242 0 0.03361475472325362 -0.076874663432380155 0 0.030936227572944834 -0.076072191457742744 0 0.025364212338008087 -0.080730112913138669 0 0.021429399323205218 -0.079464871673753018 0 0.023119498868527103 -0.078449783620515676 0 0.023798079415812235 -0.07747079892837333 0 0.023119498868527103 -0.078449783620515676 0 0.020998215716902534 -0.077318954181400251 0 0.021429399323205218 -0.079464871673753018 0 0.023119498868527103 -0.078449783620515676 0 0.020998215716902534 -0.077318954181400251 0 0.023798079415812235 -0.07747079892837333 0 0.020638995604704072 -0.074999941631434322 0 0.020998215716902534 -0.077318954181400251 0 0.024738409075640871 -0.074999820574059184 0 0.023658416878979561 -0.077443210249731373 0 0.020638922510598935 -0.075000067956103547 0 0.025323328457487127 -0.076403077697408242 0 0.020644091525386422 -0.075000076560260989 0 0.017151412001182673 -0.075000017071709238 0 0.020638995604704072 -0.074999941631434322 0 0.020998215716902534 -0.077318954181400251 0 0.017151412001182673 -0.075000017071709238 0 0.020998215716902534 -0.077318954181400251 0 0.019195877530477152 -0.078823637877655395 0 0.021429399323205218 -0.079464871673753018 0 0.020998215716902534 -0.077318954181400251 0 0.019195877530477152 -0.078823637877655395 0 0.036503142333918687 -0.076779860288334875 0 0.038087908717637065 -0.077399174632453938 0 0.034501004809517066 -0.07706503188200875 0 0.036503142333918687 -0.076779860288334875 0 0.039435770127225524 -0.076773466464157572 0 0.038087908717637065 -0.077399174632453938 0 0.039435770127225524 -0.076773466464157572 0 0.041282643169910836 -0.07707381520542983 0 0.038087908717637065 -0.077399174632453938 0 0.04148935390769689 -0.077341626045966103 0 0.041282643169910836 -0.07707381520542983 0 0.038087908717637065 -0.077399174632453938 0 0.039435770127225524 -0.076773466464157572 0 0.041282643169910836 -0.07707381520542983 0 0.042017208088041318 -0.076799461720086892 0 0.038358536742506333 -0.078565364842352645 0 0.04148935390769689 -0.077341626045966103 0 0.038087908717637065 -0.077399174632453938 0 0.038358536742506333 -0.078565364842352645 0 0.038087908717637065 -0.077399174632453938 0 0.034011753822572481 -0.078154386292272726 0 0.041000133972518789 -0.078487146084475254 0 0.037914803915345206 -0.078035965574187641 0 0.038604497959002962 -0.078956598289767255 0 0.03698951669687827 -0.077312057637696607 0 0.038207564843630845 -0.076786294142292016 0 0.042021087238622565 -0.076930773598768376 0 0.037914803915345206 -0.078035965574187641 0 0.031972921474515983 -0.07799243663189534 0 0.037914803915345206 -0.078035965574187641 0 0.037914803915345206 -0.078035965574187641 0 0.035888490284230357 -0.07743642156213143 0 0.028405996336698134 -0.079791346105301406 0 0.031126351244222854 -0.083884654948623669 0 0.030472949016277964 -0.08029596705673446 0 0.034011753822572481 -0.078154386292272726 0 0.032627789714103281 -0.077150994852515475 0 0.034501004809517066 -0.07706503188200875 0 0.038087908717637065 -0.077399174632453938 0 0.034011753822572481 -0.078154386292272726 0 0.034501004809517066 -0.07706503188200875 0 0.036503142333918687 -0.076779860288334875 0 0.034501004809517066 -0.07706503188200875 0 0.034067130374278096 -0.076301371731710366 0 0.034501004809517066 -0.07706503188200875 0 0.032539269557349572 -0.076671151622376588 0 0.034067130374278096 -0.076301371731710366 0 0.032539269557349572 -0.076671151622376588 0 0.034067130374278096 -0.076301371731710366 0 0.031747028117167272 -0.075937796810219588 0 0.032627789714103281 -0.077150994852515475 0 0.032539269557349572 -0.076671151622376588 0 0.029940634989760306 -0.076614300307777564 0 0.028156176587895276 -0.078041405687036047 0 0.030472949016277964 -0.08029596705673446 0 0.029940634989760306 -0.076614300307777564 0 0.035888490284230357 -0.07743642156213143 0 0.035127609015438731 -0.076791276704086309 0 0.028405996336698134 -0.079791346105301406 0 0.028156176587895276 -0.078041405687036047 0 0.030472949016277964 -0.08029596705673446 0 0.032627789714103281 -0.077150994852515475 0 0.034501004809517066 -0.07706503188200875 0 0.032539269557349572 -0.076671151622376588 0 0.032539269557349572 -0.076671151622376588 0 0.029940634989760306 -0.076614300307777564 0 0.031747028117167272 -0.075937796810219588 0 0.02753412918679762 -0.076252671818334297 0 0.029940634989760306 -0.076614300307777564 0 0.028840623938238181 -0.074999193139969653 0 0.029940634989760306 -0.076614300307777564 0 0.028840623938238181 -0.074999193139969653 0 0.031747028117167272 -0.075937796810219588 0 0.028840623938238181 -0.074999193139969653 0 0.031747028117167272 -0.075937796810219588 0 0.032940637412767197 -0.074998847432009755 0 0.034067130374278096 -0.076301371731710366 0 0.031747028117167272 -0.075937796810219588 0 0.032940637412767197 -0.074998847432009755 0 0.032940637412767197 -0.074998847432009755 0 0.036895008704450484 -0.076092708364609365 0 0.037040041676901246 -0.07499925585094272 0 0.034067130374278096 -0.076301371731710366 0 0.032940637412767197 -0.074998847432009755 0 0.036895008704450484 -0.076092708364609365 0 0.036503142333918687 -0.076779860288334875 0 0.039435770127225524 -0.076773466464157572 0 0.036895008704450484 -0.076092708364609365 0 0.036503142333918687 -0.076779860288334875 0 0.034067130374278096 -0.076301371731710366 0 0.036895008704450484 -0.076092708364609365 0 0.039435770127225524 -0.076773466464157572 0 0.036895008704450484 -0.076092708364609365 0 0.040469337638658502 -0.076158762977886985 0 0.036895008704450484 -0.076092708364609365 0 0.037040041676901246 -0.07499925585094272 0 0.040469337638658502 -0.076158762977886985 0 0.037040041676901246 -0.07499925585094272 0 0.041137874331814844 -0.074996905461698779 0 0.040469337638658502 -0.076158762977886985 0 0.041137874331814844 -0.074996905461698779 0 0.042532060701357309 -0.075708996405971812 0 0.040469337638658502 -0.076158762977886985 0 0.042532060701357309 -0.075708996405971812 0 0.040469337638658502 -0.076158762977886985 0 0.043008520059959227 -0.076450287222032842 0 0.039435770127225524 -0.076773466464157572 0 0.040469337638658502 -0.076158762977886985 0 0.042017208088041318 -0.076799461720086892 0 0.040469337638658502 -0.076158762977886985 0 0.043008520059959227 -0.076450287222032842 0 0.042017208088041318 -0.076799461720086892 0 0.043008520059959227 -0.076450287222032842 0 0.043714267211359403 -0.076694475121331124 0 0.042017208088041318 -0.076799461720086892 0 0.041282643169910836 -0.07707381520542983 0 0.042017208088041318 -0.076799461720086892 0 0.043685899772534655 -0.076541069758828156 0 0.043714267211359403 -0.076694475121331124 0 0.042017208088041318 -0.076799461720086892 0 0.043685899772534655 -0.076541069758828156 0 0.044480774076820405 -0.076772965452630959 0 0.046346220438891937 -0.076893533182237142 0 0.045427727318837915 -0.076982319755005246 0 0.046346220438891937 -0.076893533182237142 0 0.046097615927114685 -0.077390329656297649 0 0.045427727318837915 -0.076982319755005246 0 0.043008520059959227 -0.076450287222032842 0 0.043714267211359403 -0.076694475121331124 0 0.044480774076820405 -0.076772965452630959 0 0.043714267211359403 -0.076694475121331124 0 0.044480774076820405 -0.076772965452630959 0 0.045342417900928113 -0.076292946499292774 0 0.042532060701357309 -0.075708996405971812 0 0.043008520059959227 -0.076450287222032842 0 0.044322721250317727 -0.075983057640577639 0 0.043008520059959227 -0.076450287222032842 0 0.044480774076820405 -0.076772965452630959 0 0.044322721250317727 -0.075983057640577639 0 0.044480774076820405 -0.076772965452630959 0 0.044322721250317727 -0.075983057640577639 0 0.046346220438891937 -0.076893533182237142 0 0.044322721250317727 -0.075983057640577639 0 0.046256687850225908 -0.075024322717657313 0 0.046346220438891937 -0.076893533182237142 0 0.043984233010263371 -0.075904920116479715 0 0.046266483476670638 -0.076603845309124188 0 0.041137202717572333 -0.075000048274249512 0 0.044500946593424316 -0.076708343269945412 0 0.046074514623545226 -0.074999406876181049 0 0.044322721250317727 -0.075983057640577639 0 0.043843723896023715 -0.074761739917696635 0 0.046256687850225908 -0.075024322717657313 0 0.042532060701357309 -0.075708996405971812 0 0.044322721250317727 -0.075983057640577639 0 0.043843723896023715 -0.074761739917696635 0 0.041137874331814844 -0.074996905461698779 0 0.042532060701357309 -0.075708996405971812 0 0.043843723896023715 -0.074761739917696635 0 0.041141127199698237 -0.075000371729640192 0 0.043984233010263371 -0.075904920116479715 0 0.044500946593424316 -0.076708343269945412 0 0.046074514623545226 -0.074999406876181049 0 0.047861303436020478 -0.077643741871259775 0 0.046074514623545226 -0.074999406876181049 0 0.050179083978637351 -0.077033271393855587 0 0.052853256198094035 -0.074998589786083925 0 0.046074514623545226 -0.074999406876181049 0 0.050179083978637351 -0.077033271393855587 0 0.047861303436020478 -0.077643741871259775 0 0.050179083978637351 -0.077033271393855587 0 0.052853256198094035 -0.074998589786083925 0 0.054241500042276618 -0.078583100199285383 0 0.052853256198094035 -0.074998589786083925 0 0.054241500042276618 -0.078583100199285383 0 0.05890029134535181 -0.077868190783821706 0 0.055131252119551395 -0.073594778999357791 0 0.056766802058987174 -0.077576943724323874 0 0.059415351219685456 -0.075406785874163246 0 0.055131252119551395 -0.073594778999357791 0 0.052444457056902594 -0.076769014605449895 0 0.050173792314750658 -0.076930098109296949 0 0.050179083978637351 -0.077033271393855587 0 0.054241500042276618 -0.078583100199285383 0 0.050173792314750658 -0.076930098109296949 0 0.055984857034931439 -0.076159833292904558 0 0.054019303844802233 -0.076485346138191718 0 0.052444457056902594 -0.076769014605449895 0 0.056766802058987174 -0.077576943724323874 0 0.052587138307609894 -0.078766606070559866 0 0.051064629315992011 -0.077466325382664458 0 0.052444457056902594 -0.076769014605449895 0 0.050599472305837848 -0.077046097409547515 0 0.052444457056902594 -0.076769014605449895 0 0.050173792314750658 -0.076930098109296949 0 0.050599472305837848 -0.077046097409547515 0 0.051064629315992011 -0.077466325382664458 0 0.052444457056902594 -0.076769014605449895 0 0.052587138307609894 -0.078766606070559866 0 0.051064629315992011 -0.077466325382664458 0 0.049508645108404845 -0.077908869951823445 0 0.052587138307609894 -0.078766606070559866 0 0.055131252119551395 -0.073594778999357791 0 0.052444457056902594 -0.076769014605449895 0 0.056766802058987174 -0.077576943724323874 0 0.046256687850225908 -0.075024322717657313 0 0.047780319141736985 -0.076484452202467232 0 0.046346220438891937 -0.076893533182237142 0 0.046256687850225908 -0.075024322717657313 0 0.047780319141736985 -0.076484452202467232 0 0.049959304205585565 -0.076886139811405046 0 0.046266483476670638 -0.076603845309124188 0 0.047446396835765056 -0.077016338667624945 0 0.047780319141736985 -0.076484452202467232 0 0.048959845247865119 -0.076876676736948285 0 0.047553882999645226 -0.07717162015995023 0 0.050179083978637351 -0.077033271393855587 0 0.050173792314750658 -0.076930098109296949 0 0.049959304205585565 -0.076886139811405046 0 0.050179083978637351 -0.077033271393855587 0 0.047861303436020478 -0.077643741871259775 0 0.049959304205585565 -0.076886139811405046 0 0.050173792314750658 -0.076930098109296949 0 0.049786262642545674 -0.076937771699779611 0 0.050599472305837848 -0.077046097409547515 0 0.050173792314750658 -0.076930098109296949 0 0.049959304205585565 -0.076886139811405046 0 0.049786262642545674 -0.076937771699779611 0 0.047780319141736985 -0.076484452202467232 0 0.049959304205585565 -0.076886139811405046 0 0.048959845247865119 -0.076876676736948285 0 0.049786262642545674 -0.076937771699779611 0 0.048959845247865119 -0.076876676736948285 0 0.049561773264663544 -0.077029501563694133 0 0.049959304205585565 -0.076886139811405046 0 0.049786262642545674 -0.076937771699779611 0 0.048959845247865119 -0.076876676736948285 0 0.048959845247865119 -0.076876676736948285 0 0.048894611383636259 -0.077236054920091265 0 0.047553882999645226 -0.07717162015995023 0 0.048959845247865119 -0.076876676736948285 0 0.048894611383636259 -0.077236054920091265 0 0.049561773264663544 -0.077029501563694133 0 0.049786262642545674 -0.076937771699779611 0 0.050599472305837848 -0.077046097409547515 0 0.049561773264663544 -0.077029501563694133 0 0.050599472305837848 -0.077046097409547515 0 0.049561773264663544 -0.077029501563694133 0 0.049840088307650042 -0.07729135783155143 0 0.048894611383636259 -0.077236054920091265 0 0.049561773264663544 -0.077029501563694133 0 0.049840088307650042 -0.07729135783155143 0 0.051064629315992011 -0.077466325382664458 0 0.050599472305837848 -0.077046097409547515 0 0.049840088307650042 -0.07729135783155143 0 0.051064629315992011 -0.077466325382664458 0 0.049840088307650042 -0.07729135783155143 0 0.049508645108404845 -0.077908869951823445 0 0.048894611383636259 -0.077236054920091265 0 0.049840088307650042 -0.07729135783155143 0 0.049508645108404845 -0.077908869951823445 0 0.048894611383636259 -0.077236054920091265 0 0.049508645108404845 -0.077908869951823445 0 0.047690592200024542 -0.077740785574830495 0 0.048894611383636259 -0.077236054920091265 0 0.047690592200024542 -0.077740785574830495 0 0.047553882999645226 -0.07717162015995023 0 0.047690592200024542 -0.077740785574830495 0 0.047553882999645226 -0.07717162015995023 0 0.046097615927114685 -0.077390329656297649 0 0.047780319141736985 -0.076484452202467232 0 0.047553882999645226 -0.07717162015995023 0 0.046346220438891937 -0.076893533182237142 0 0.047553882999645226 -0.07717162015995023 0 0.046346220438891937 -0.076893533182237142 0 0.046097615927114685 -0.077390329656297649 0 0.047690592200024542 -0.077740785574830495 0 0.048673946119706088 -0.07901478667004222 0 0.045164424531441177 -0.07742751833930972 0 0.047690592200024542 -0.077740785574830495 0 0.046097615927114685 -0.077390329656297649 0 0.045164424531441177 -0.07742751833930972 0 0.049508645108404845 -0.077908869951823445 0 0.047690592200024542 -0.077740785574830495 0 0.048673946119706088 -0.07901478667004222 0 0.049508645108404845 -0.077908869951823445 0 0.048673946119706088 -0.07901478667004222 0 0.052587138307609894 -0.078766606070559866 0 0.040651339610465492 -0.076240254565961452 0 0.045164424531441177 -0.07742751833930972 0 0.041518693025307661 -0.073300961909819815 0 0.050015670428203485 -0.073686484978763497 0 0.048407377146021446 -0.074258956236037607 0 0.048673946119706088 -0.07901478667004222 0 0.049608461874383426 -0.081960984477346163 0 0.045164424531441177 -0.07742751833930972 0 0.048673946119706088 -0.07901478667004222 0 0.049608461874383426 -0.081960984477346163 0 0.052443919673983368 -0.081102914065873791 0 0.052587138307609894 -0.078766606070559866 0 0.052443919673983368 -0.081102914065873791 0 0.057436341841724997 -0.080954647712739067 0 0.056766802058987174 -0.077576943724323874 0 0.052587138307609894 -0.078766606070559866 0 0.057436341841724997 -0.080954647712739067 0 0.048673946119706088 -0.07901478667004222 0 0.052587138307609894 -0.078766606070559866 0 0.052443919673983368 -0.081102914065873791 0 0.049608461874383426 -0.081960984477346163 0 0.052443919673983368 -0.081102914065873791 0 0.054158742331571814 -0.08382875490952435 0 0.050015670428203485 -0.073686484978763497 0 0.058341678501751378 -0.072024013292045927 0 0.070297588044588549 -0.069082196017703296 0 0.069586634734774847 -0.070072166760296747 0 0.069111278561454187 -0.068792102547592979 0 0.058341678501751378 -0.072024013292045927 0 0.061342695793341867 -0.073211392834199043 0 0.052443919673983368 -0.081102914065873791 0 0.054158742331571814 -0.08382875490952435 0 0.057436341841724997 -0.080954647712739067 0 0.068057571689533539 -0.068546856763969446 0 0.068066161389396238 -0.068537835833235639 0 0.068060790103447455 -0.068566814810467377 0 0.058341678501751378 -0.072024013292045927 0 0.065335061259269286 -0.071510570890921957 0 0.068066161389396238 -0.068537835833235639 0 0.068076814687841061 -0.068512189665203421 0 0.068060790103447455 -0.068566814810467377 0 0.036427213209717042 -0.075149502741285318 0 0.03952648060339637 -0.071156404916234678 0 0.041518693025307661 -0.073300961909819815 0 0.068057571689533539 -0.068546856763969446 0 0.068066161389396238 -0.068537835833235639 0 0.068047296480788055 -0.068533798169628415 0 0.058341678501751378 -0.072024013292045927 0 0.056438490477349071 -0.070119232256360797 0 0.040651339610465492 -0.076240254565961452 0 0.036427213209717042 -0.075149502741285318 0 0.041518693025307661 -0.073300961909819815 0 0.056438490477349071 -0.070119232256360797 0 0.065832572498909683 -0.06841272720232501 0 0.063861885957105208 -0.063486883444875464 0 0.060993112131735465 -0.062610651748195703 0 0.061336587676070427 -0.065878506118282609 0 0.068066161389396238 -0.068537835833235639 0 0.068047296480788055 -0.068533798169628415 0 0.068076814687841061 -0.068512189665203421 0 0.061721452210143558 -0.061626155196847943 0 0.063861885957105208 -0.063486883444875464 0 0.068805137257805168 -0.061156323895242268 0 0.056438490477349071 -0.070119232256360797 0 0.056513711836622453 -0.070017036024387969 0 0.061721452210143558 -0.061626155196847943 0 0.063861885957105208 -0.063486883444875464 0 0.060993112131735465 -0.062610651748195703 0 0.045164424531441177 -0.07742751833930972 0 0.044345843207883817 -0.072461920770158172 0 0.041518693025307661 -0.073300961909819815 0 0.03952648060339637 -0.071156404916234678 0 0.044345843207883817 -0.072461920770158172 0 0.041518693025307661 -0.073300961909819815 0 0.056438490477349071 -0.070119232256360797 0 0.051846773899038072 -0.069547417742918796 0 0.060993112131735465 -0.062610651748195703 0 0.056311780503245527 -0.06592780622668476 0 0.061336587676070427 -0.065878506118282609 0 0.061489324178640926 -0.061901646545118573 0 0.053582942286935831 -0.065181768361436548 0 0.060993112131735465 -0.062610651748195703 0 0.053582942286935831 -0.065181768361436548 0 0.060993112131735465 -0.062610651748195703 0 0.056311780503245527 -0.06592780622668476 0 0.053582942286935831 -0.065181768361436548 0 0.056311780503245527 -0.06592780622668476 0 0.050919664325422491 -0.068529496001286092 0 0.045164424531441177 -0.07742751833930972 0 0.044345843207883817 -0.072461920770158172 0 0.047307987999095566 -0.07203439231837537 0 0.053582942286935831 -0.065181768361436548 0 0.050919664325422491 -0.068529496001286092 0 0.047307987999095566 -0.07203439231837537 0 0.051846773899038072 -0.069547417742918796 0 0.050999651364102963 -0.069886386127352387 0 0.047307987999095566 -0.07203439231837537 0 0.047881301294879268 -0.070953933552627566 0 0.046330102876579106 -0.072902044864678439 0 0.047881301294879268 -0.070953933552627566 0 0.046849523320713689 -0.07179581346965995 0 0.048584702442591339 -0.070667653100920505 0 0.050919664325422491 -0.068529496001286092 0 0.047307987999095566 -0.07203439231837537 0 0.047881301294879268 -0.070953933552627566 0 0.050919664325422491 -0.068529496001286092 0 0.047881301294879268 -0.070953933552627566 0 0.048584702442591339 -0.070667653100920505 0 0.047881301294879268 -0.070953933552627566 0 0.046849523320713689 -0.07179581346965995 0 0.046330102876579106 -0.072902044864678439 0 0.04571898235440354 -0.073382049161336199 0 0.046849523320713689 -0.07179581346965995 0 0.046330102876579106 -0.072902044864678439 0 0.04571898235440354 -0.073382049161336199 0 0.046849523320713689 -0.07179581346965995 0 0.046355938427316716 -0.072337868759569449 0 0.04571898235440354 -0.073382049161336199 0 0.046330102876579106 -0.072902044864678439 0 0.045073355125938158 -0.07485873644607012 0 0.047307987999095566 -0.07203439231837537 0 0.046330102876579106 -0.072902044864678439 0 0.04555254899464313 -0.074825389784498833 0 0.046330102876579106 -0.072902044864678439 0 0.04555254899464313 -0.074825389784498833 0 0.045073355125938158 -0.07485873644607012 0 0.044203704319361624 -0.076294028269219841 0 0.045073355125938158 -0.07485873644607012 0 0.043685899772534655 -0.076541069758828156 0 0.04555254899464313 -0.074825389784498833 0 0.045073355125938158 -0.07485873644607012 0 0.043685899772534655 -0.076541069758828156 0 0.04555254899464313 -0.074825389784498833 0 0.043685899772534655 -0.076541069758828156 0 0.045342417900928113 -0.076292946499292774 0 0.043714267211359403 -0.076694475121331124 0 0.043685899772534655 -0.076541069758828156 0 0.045342417900928113 -0.076292946499292774 0 0.044480774076820405 -0.076772965452630959 0 0.045342417900928113 -0.076292946499292774 0 0.045427727318837915 -0.076982319755005246 0 0.046097615927114685 -0.077390329656297649 0 0.045164424531441177 -0.07742751833930972 0 0.045690354616799968 -0.076425080872219067 0 0.045342417900928113 -0.076292946499292774 0 0.045427727318837915 -0.076982319755005246 0 0.045690354616799968 -0.076425080872219067 0 0.046097615927114685 -0.077390329656297649 0 0.045427727318837915 -0.076982319755005246 0 0.045690354616799968 -0.076425080872219067 0 0.045164424531441177 -0.07742751833930972 0 0.047307987999095566 -0.07203439231837537 0 0.045690354616799968 -0.076425080872219067 0 0.047307987999095566 -0.07203439231837537 0 0.04555254899464313 -0.074825389784498833 0 0.045342417900928113 -0.076292946499292774 0 0.047307987999095566 -0.07203439231837537 0 0.045342417900928113 -0.076292946499292774 0 0.045690354616799968 -0.076425080872219067 0 0.074995012948252879 -0.074996609870640177 0 0.06900696716160902 -0.075217998294962077 0 0.062188103118062721 -0.074994873237106643 0 0.074995012948252879 -0.074996609870640177 0 0.074913828386362152 -0.072378880375923493 0 0.074995712939246506 -0.060028702010557766 0 0.076600523628328976 -0.067112667553819269 0 0.074913828386362152 -0.072378880375923493 0 0.074995712939246506 -0.060028702010557766 0 0.076600523628328976 -0.067112667553819269 0 0.076250154602154646 -0.069431602964228178 0 0.074913828386362152 -0.072378880375923493 0 0.074995012948252879 -0.074996609870640177 0 0.074913828386362152 -0.072378880375923493 0 0.06900696716160902 -0.075217998294962077 0 0.070497679662052629 -0.076207083560821565 0 0.074913828386362152 -0.072378880375923493 0 0.06900696716160902 -0.075217998294962077 0 0.072264828717361146 -0.072024162655694529 0 0.072912416452529868 -0.072063690581891632 0 0.06900696716160902 -0.075217998294962077 0 0.066165023764896982 -0.075743261957019734 0 0.065453494633978065 -0.07573820232087225 0 0.072264828717361146 -0.072024162655694529 0 0.07115376501304399 -0.071665176782936504 0 0.070497679662052629 -0.076207083560821565 0 0.06900696716160902 -0.075217998294962077 0 0.066165023764896982 -0.075743261957019734 0 0.076600523628328976 -0.067112667553819269 0 0.076250154602154646 -0.069431602964228178 0 0.074538766889058541 -0.066850602448941907 0 0.076600523628328976 -0.067112667553819269 0 0.074538766889058541 -0.066850602448941907 0 0.073838124785228526 -0.068253874253971114 0 0.074538766889058541 -0.066850602448941907 0 0.070709213463035603 -0.069510291473376437 0 0.073838124785228526 -0.068253874253971114 0 0.07115376501304399 -0.071665176782936504 0 0.070519023140759099 -0.071455563884996229 0 0.074538766889058541 -0.066850602448941907 0 0.067903173749574178 -0.070286502037214829 0 0.070709213463035603 -0.069510291473376437 0 0.066165023764896982 -0.075743261957019734 0 0.067903173749574178 -0.070286502037214829 0 0.066166223377532002 -0.074243178301869078 0 0.067903173749574178 -0.070286502037214829 0 0.066836171154961502 -0.072542875900497683 0 0.066166223377532002 -0.074243178301869078 0 0.067903173749574178 -0.070286502037214829 0 0.066836171154961502 -0.072542875900497683 0 0.067724758334357399 -0.070974656161496993 0 0.067903173749574178 -0.070286502037214829 0 0.067724758334357399 -0.070974656161496993 0 0.068652062727472499 -0.070191530091338272 0 0.066836171154961502 -0.072542875900497683 0 0.066166223377532002 -0.074243178301869078 0 0.06562746611519131 -0.074139914007255003 0 0.066166223377532002 -0.074243178301869078 0 0.064485494578052402 -0.076013844720258433 0 0.06562746611519131 -0.074139914007255003 0 0.066166223377532002 -0.074243178301869078 0 0.065453494633978065 -0.07573820232087225 0 0.064485494578052402 -0.076013844720258433 0 0.066165023764896982 -0.075743261957019734 0 0.066166223377532002 -0.074243178301869078 0 0.065453494633978065 -0.07573820232087225 0 0.062188103118062721 -0.074994873237106643 0 0.064485494578052402 -0.076013844720258433 0 0.05890029134535181 -0.077868190783821706 0 0.06900696716160902 -0.075217998294962077 0 0.065453494633978065 -0.07573820232087225 0 0.062188103118062721 -0.074994873237106643 0 0.065453494633978065 -0.07573820232087225 0 0.062188103118062721 -0.074994873237106643 0 0.064485494578052402 -0.076013844720258433 0 0.052853256198094035 -0.074998589786083925 0 0.062188103118062721 -0.074994873237106643 0 0.05890029134535181 -0.077868190783821706 0 0.061190793357865904 -0.075509736638129266 0 0.05946014954493186 -0.075673048492835959 0 0.055131252119551395 -0.073594778999357791 0 0.059415351219685456 -0.075406785874163246 0 0.063167779962411907 -0.072670833535781881 0 0.059415351219685456 -0.075406785874163246 0 0.063167779962411907 -0.072670833535781881 0 0.061851992793455643 -0.077774296716243516 0 0.055984857034931439 -0.076159833292904558 0 0.05946014954493186 -0.075673048492835959 0 0.064485494578052402 -0.076013844720258433 0 0.063167779962411907 -0.072670833535781881 0 0.06562746611519131 -0.074139914007255003 0 0.063167779962411907 -0.072670833535781881 0 0.06562746611519131 -0.074139914007255003 0 0.061851992793455643 -0.077774296716243516 0 0.064038713747036735 -0.073056285941706309 0 0.063361224007125808 -0.073168012917422975 0 0.066836171154961502 -0.072542875900497683 0 0.067724758334357399 -0.070974656161496993 0 0.068954375329298781 -0.07132189279555233 0 0.066836171154961502 -0.072542875900497683 0 0.06562746611519131 -0.074139914007255003 0 0.068954375329298781 -0.07132189279555233 0 0.056766802058987174 -0.077576943724323874 0 0.061851992793455643 -0.077774296716243516 0 0.057436341841724997 -0.080954647712739067 0 0.056766802058987174 -0.077576943724323874 0 0.059415351219685456 -0.075406785874163246 0 0.061851992793455643 -0.077774296716243516 0 0.068954375329298781 -0.07132189279555233 0 0.069586634734774847 -0.070072166760296747 0 0.068495044768938265 -0.070076327863448334 0 0.063361224007125808 -0.073168012917422975 0 0.061342695793341867 -0.073211392834199043 0 0.067724758334357399 -0.070974656161496993 0 0.068954375329298781 -0.07132189279555233 0 0.068495044768938265 -0.070076327863448334 0 0.067724758334357399 -0.070974656161496993 0 0.068495044768938265 -0.070076327863448334 0 0.067751279343383486 -0.069341828509637174 0 0.068552979842572914 -0.069356284229722676 0 0.067940089742146506 -0.068657826525767476 0 0.067751279343383486 -0.069341828509637174 0 0.068495044768938265 -0.070076327863448334 0 0.068552979842572914 -0.069356284229722676 0 0.067751279343383486 -0.069341828509637174 0 0.069586634734774847 -0.070072166760296747 0 0.068552979842572914 -0.069356284229722676 0 0.069111278561454187 -0.068792102547592979 0 0.069586634734774847 -0.070072166760296747 0 0.068495044768938265 -0.070076327863448334 0 0.068552979842572914 -0.069356284229722676 0 0.068805137257805168 -0.061156323895242268 0 0.074445206598148475 -0.06186120246439953 0 0.073968290569700001 -0.062138735707836963 0 0.068076814687841061 -0.068512189665203421 0 0.068040040295203968 -0.068523401515569834 0 0.068048833377645487 -0.068433674955758556 0 0.065832572498909683 -0.06841272720232501 0 0.070593922099794926 -0.067268674221445987 0 0.068076814687841061 -0.068512189665203421 0 0.068060790103447455 -0.068566814810467377 0 0.068040040295203968 -0.068523401515569834 0 0.072056117101727893 -0.067636635314358082 0 0.070593922099794926 -0.067268674221445987 0 0.068040040295203968 -0.068523401515569834 0 0.067940089742146506 -0.068657826525767476 0 0.067786596787058312 -0.068361380479684694 0 0.072529327077123132 -0.066546398731576847 0 0.072583869902674666 -0.067002969742397681 0 0.071955484406245052 -0.066827684502913903 0 0.068040040295203968 -0.068523401515569834 0 0.067786596787058312 -0.068361380479684694 0 0.068048833377645487 -0.068433674955758556 0 0.068060790103447455 -0.068566814810467377 0 0.068040040295203968 -0.068523401515569834 0 0.067940089742146506 -0.068657826525767476 0 0.068552979842572914 -0.069356284229722676 0 0.069111278561454187 -0.068792102547592979 0 0.067940089742146506 -0.068657826525767476 0 0.065335061259269286 -0.071510570890921957 0 0.066547521697885817 -0.071170863431317621 0 0.072056117101727893 -0.067636635314358082 0 0.070197858361080376 -0.069546306698265045 0 0.067940089742146506 -0.068657826525767476 0 0.067786596787058312 -0.068361380479684694 0 0.067751279343383486 -0.069341828509637174 0 0.069830595387358377 -0.071389759229160327 0 0.068974913446109704 -0.072930567140726821 0 0.068770766568902506 -0.070312719638185042 0 0.072056117101727893 -0.067636635314358082 0 0.073543169103153533 -0.066444737901815668 0 0.07782562042852538 -0.066193371024623054 0 0.076711984025255295 -0.06573874571553591 0 0.07771173644590218 -0.065059262997917144 0 0.07782562042852538 -0.066193371024623054 0 0.076711984025255295 -0.06573874571553591 0 0.076749019861087911 -0.06686884603631256 0 0.076711984025255295 -0.06573874571553591 0 0.076749019861087911 -0.06686884603631256 0 0.076324885602396447 -0.065989986079830837 0 0.072056117101727893 -0.067636635314358082 0 0.073233514995308321 -0.068136131651677631 0 0.069830595387358377 -0.071389759229160327 0 0.068974913446109704 -0.072930567140726821 0 0.071500226526256025 -0.071896914962503097 0 0.069830595387358377 -0.071389759229160327 0 0.071500226526256025 -0.071896914962503097 0 0.070550374921471676 -0.070436951180204169 0 0.071500226526256025 -0.071896914962503097 0 0.070550374921471676 -0.070436951180204169 0 0.072672483675447985 -0.069222715990088501 0 0.070550374921471676 -0.070436951180204169 0 0.070155908278033738 -0.069914725873881797 0 0.072672483675447985 -0.069222715990088501 0 0.069830595387358377 -0.071389759229160327 0 0.070550374921471676 -0.070436951180204169 0 0.068770766568902506 -0.070312719638185042 0 0.070550374921471676 -0.070436951180204169 0 0.068770766568902506 -0.070312719638185042 0 0.070155908278033738 -0.069914725873881797 0 0.067724758334357399 -0.070974656161496993 0 0.068770766568902506 -0.070312719638185042 0 0.068652062727472499 -0.070191530091338272 0 0.069624979678506824 -0.07000656588197765 0 0.070197858361080376 -0.069546306698265045 0 0.068770766568902506 -0.070312719638185042 0 0.068652062727472499 -0.070191530091338272 0 0.070155908278033738 -0.069914725873881797 0 0.070709213463035603 -0.069510291473376437 0 0.070155908278033738 -0.069914725873881797 0 0.073838124785228526 -0.068253874253971114 0 0.067903173749574178 -0.070286502037214829 0 0.068652062727472499 -0.070191530091338272 0 0.070709213463035603 -0.069510291473376437 0 0.068652062727472499 -0.070191530091338272 0 0.070709213463035603 -0.069510291473376437 0 0.070155908278033738 -0.069914725873881797 0 0.070155908278033738 -0.069914725873881797 0 0.073838124785228526 -0.068253874253971114 0 0.072672483675447985 -0.069222715990088501 0 0.076600523628328976 -0.067112667553819269 0 0.075571084115853032 -0.06715583427244412 0 0.076746687953719223 -0.065791551667939513 0 0.076600523628328976 -0.067112667553819269 0 0.073838124785228526 -0.068253874253971114 0 0.075571084115853032 -0.06715583427244412 0 0.073838124785228526 -0.068253874253971114 0 0.075571084115853032 -0.06715583427244412 0 0.074863021930002313 -0.067578436396019487 0 0.074863021930002313 -0.067578436396019487 0 0.076746687953719223 -0.065791551667939513 0 0.075189407705134603 -0.067997697142143126 0 0.075571084115853032 -0.06715583427244412 0 0.074863021930002313 -0.067578436396019487 0 0.076746687953719223 -0.065791551667939513 0 0.076746687953719223 -0.065791551667939513 0 0.075189407705134603 -0.067997697142143126 0 0.074490804705826072 -0.067737548372391307 0 0.073838124785228526 -0.068253874253971114 0 0.074863021930002313 -0.067578436396019487 0 0.072672483675447985 -0.069222715990088501 0 0.074863021930002313 -0.067578436396019487 0 0.075189407705134603 -0.067997697142143126 0 0.072672483675447985 -0.069222715990088501 0 0.071500226526256025 -0.071896914962503097 0 0.075189407705134603 -0.067997697142143126 0 0.072672483675447985 -0.069222715990088501 0 0.076749019861087911 -0.06686884603631256 0 0.075922336572071938 -0.066869329275513367 0 0.076324885602396447 -0.065989986079830837 0 0.076749019861087911 -0.06686884603631256 0 0.075189407705134603 -0.067997697142143126 0 0.075922336572071938 -0.066869329275513367 0 0.073233514995308321 -0.068136131651677631 0 0.07373718061610296 -0.068129064379948936 0 0.075922336572071938 -0.066869329275513367 0 0.076324885602396447 -0.065989986079830837 0 0.076275673622958576 -0.065557822359073176 0 0.076324885602396447 -0.065989986079830837 0 0.076275673622958576 -0.065557822359073176 0 0.075937852832583072 -0.06531430125473188 0 0.076711984025255295 -0.06573874571553591 0 0.076324885602396447 -0.065989986079830837 0 0.075937852832583072 -0.06531430125473188 0 0.076275673622958576 -0.065557822359073176 0 0.074490804705826072 -0.067737548372391307 0 0.073183482475382741 -0.062364450039600998 0 0.075922336572071938 -0.066869329275513367 0 0.076275673622958576 -0.065557822359073176 0 0.074490804705826072 -0.067737548372391307 0 0.07645304950633762 -0.061798441338766795 0 0.076388313232149355 -0.058722200862551713 0 0.075189407705134603 -0.067997697142143126 0 0.075922336572071938 -0.066869329275513367 0 0.074490804705826072 -0.067737548372391307 0 0.076497942514543657 -0.062984364332969764 0 0.07645304950633762 -0.061798441338766795 0 0.076746687953719223 -0.065791551667939513 0 0.078575882254937321 -0.059959244200160078 0 0.074995712939246506 -0.060028702010557766 0 0.078575882254937321 -0.059959244200160078 0 0.074995712939246506 -0.060028702010557766 0 0.078795825075999595 -0.055959189702914011 0 0.076600523628328976 -0.067112667553819269 0 0.076746687953719223 -0.065791551667939513 0 0.074995712939246506 -0.060028702010557766 0 0.074995712939246506 -0.060028702010557766 0 0.074999282227448144 -0.048817941816812579 0 0.076930279717948594 -0.051841782056579577 0 0.074999282227448144 -0.048817941816812579 0 0.076930279717948594 -0.051841782056579577 0 0.076369584404635857 -0.046906691652811361 0 0.076930279717948594 -0.051841782056579577 0 0.076994567082304427 -0.04928276940965267 0 0.076369584404635857 -0.046906691652811361 0 0.076930279717948594 -0.051841782056579577 0 0.078539516638503518 -0.052233918898107655 0 0.076994567082304427 -0.04928276940965267 0 0.074995712939246506 -0.060028702010557766 0 0.076930279717948594 -0.051841782056579577 0 0.078795825075999595 -0.055959189702914011 0 0.076930279717948594 -0.051841782056579577 0 0.078539516638503518 -0.052233918898107655 0 0.078795825075999595 -0.055959189702914011 0 0.074203180006200201 -0.05436611490348723 0 0.073183482475382741 -0.062364450039600998 0 0.079137690613326345 -0.055843539338486271 0 0.074203180006200201 -0.05436611490348723 0 0.079137690613326345 -0.055843539338486271 0 0.077129994931813703 -0.051735496519389815 0 0.076275673622958576 -0.065557822359073176 0 0.073183482475382741 -0.062364450039600998 0 0.079137690613326345 -0.055843539338486271 0 0.076430327001232021 -0.055152691485846526 0 0.076388313232149355 -0.058722200862551713 0 0.075711085699225952 -0.064733525867391992 0 0.075937852832583072 -0.06531430125473188 0 0.074565482031315494 -0.064421867782710251 0 0.076128186020401556 -0.061847003263482019 0 0.076194260929269314 -0.059327703718825245 0 0.076711984025255295 -0.06573874571553591 0 0.075711085699225952 -0.064733525867391992 0 0.075937852832583072 -0.06531430125473188 0 0.076275673622958576 -0.065557822359073176 0 0.075937852832583072 -0.06531430125473188 0 0.074565482031315494 -0.064421867782710251 0 0.075711085699225952 -0.064733525867391992 0 0.074565482031315494 -0.064421867782710251 0 0.075537324610112228 -0.06336901188320028 0 0.072700302421720944 -0.060561411236349325 0 0.075810946329601628 -0.061063728461010235 0 0.075537324610112228 -0.06336901188320028 0 0.079137690613326345 -0.055843539338486271 0 0.077129994931813703 -0.051735496519389815 0 0.07841765804475169 -0.048704408329209893 0 0.074565482031315494 -0.064421867782710251 0 0.072700302421720944 -0.060561411236349325 0 0.075537324610112228 -0.06336901188320028 0 0.076194260929269314 -0.059327703718825245 0 0.076078721772700947 -0.055510170632154444 0 0.076430327001232021 -0.055152691485846526 0 0.076488624198891506 -0.053363755486953546 0 0.074203180006200201 -0.05436611490348723 0 0.077129994931813703 -0.051735496519389815 0 0.076994567082304427 -0.04928276940965267 0 0.077129994931813703 -0.051735496519389815 0 0.076994567082304427 -0.04928276940965267 0 0.07841765804475169 -0.048704408329209893 0 0.076994567082304427 -0.04928276940965267 0 0.077456829253779155 -0.048164378395405716 0 0.076369584404635857 -0.046906691652811361 0 0.076994567082304427 -0.04928276940965267 0 0.07841765804475169 -0.048704408329209893 0 0.077456829253779155 -0.048164378395405716 0 0.072700302421720944 -0.060561411236349325 0 0.075471229313268953 -0.058387004183802972 0 0.075871085444913611 -0.054656204350227791 0 0.072700302421720944 -0.060561411236349325 0 0.075810946329601628 -0.061063728461010235 0 0.075471229313268953 -0.058387004183802972 0 0.075810946329601628 -0.061063728461010235 0 0.0773062302299862 -0.061028848875287721 0 0.076679058065336703 -0.057315503756986276 0 0.075810946329601628 -0.061063728461010235 0 0.075471229313268953 -0.058387004183802972 0 0.076679058065336703 -0.057315503756986276 0 0.075471229313268953 -0.058387004183802972 0 0.076679058065336703 -0.057315503756986276 0 0.075871085444913611 -0.054656204350227791 0 0.0773062302299862 -0.061028848875287721 0 0.077840492652396939 -0.058303535577441591 0 0.076679058065336703 -0.057315503756986276 0 0.0773062302299862 -0.061028848875287721 0 0.078485356308152551 -0.061808109464680683 0 0.077840492652396939 -0.058303535577441591 0 0.078485356308152551 -0.061808109464680683 0 0.078925801558693678 -0.058863902139473449 0 0.077840492652396939 -0.058303535577441591 0 0.0773062302299862 -0.061028848875287721 0 0.077232017736881708 -0.063191628676413328 0 0.078485356308152551 -0.061808109464680683 0 0.075810946329601628 -0.061063728461010235 0 0.0773062302299862 -0.061028848875287721 0 0.07692077555843517 -0.063250023620669227 0 0.0773062302299862 -0.061028848875287721 0 0.077232017736881708 -0.063191628676413328 0 0.07692077555843517 -0.063250023620669227 0 0.077232017736881708 -0.063191628676413328 0 0.07692077555843517 -0.063250023620669227 0 0.076445405871932853 -0.063893435414192262 0 0.075810946329601628 -0.061063728461010235 0 0.07692077555843517 -0.063250023620669227 0 0.075537324610112228 -0.06336901188320028 0 0.07692077555843517 -0.063250023620669227 0 0.075537324610112228 -0.06336901188320028 0 0.07632446531990536 -0.064154009730424164 0 0.075711085699225952 -0.064733525867391992 0 0.075537324610112228 -0.06336901188320028 0 0.07632446531990536 -0.064154009730424164 0 0.076711984025255295 -0.06573874571553591 0 0.075711085699225952 -0.064733525867391992 0 0.07771173644590218 -0.065059262997917144 0 0.075711085699225952 -0.064733525867391992 0 0.07632446531990536 -0.064154009730424164 0 0.077031399251925828 -0.065072645192562936 0 0.075007923662482878 -0.066329200268833294 0 0.073543169103153533 -0.066444737901815668 0 0.07692077555843517 -0.063250023620669227 0 0.07632446531990536 -0.064154009730424164 0 0.077031399251925828 -0.065072645192562936 0 0.07692077555843517 -0.063250023620669227 0 0.076713149767890454 -0.063258955404517286 0 0.076445405871932853 -0.063893435414192262 0 0.074383044607669896 -0.064541130565353502 0 0.073543169103153533 -0.066444737901815668 0 0.076713149767890454 -0.063258955404517286 0 0.076445405871932853 -0.063893435414192262 0 0.075579469129072957 -0.063901027895338289 0 0.076445405871932853 -0.063893435414192262 0 0.07566513000797763 -0.064409189971588315 0 0.075579469129072957 -0.063901027895338289 0 0.07566513000797763 -0.064409189971588315 0 0.074232319937858088 -0.065132518560858901 0 0.076193331173054935 -0.064485985483885802 0 0.07566513000797763 -0.064409189971588315 0 0.075579469129072957 -0.063901027895338289 0 0.074232319937858088 -0.065132518560858901 0 0.076713149767890454 -0.063258955404517286 0 0.075579469129072957 -0.063901027895338289 0 0.074652493885731475 -0.063035773844765122 0 0.073543169103153533 -0.066444737901815668 0 0.070593922099794926 -0.067268674221445987 0 0.076713149767890454 -0.063258955404517286 0 0.074652493885731475 -0.063035773844765122 0 0.074317341152406624 -0.062089017548301158 0 0.075579469129072957 -0.063901027895338289 0 0.074652493885731475 -0.063035773844765122 0 0.073634919136368521 -0.064177766697877198 0 0.068805137257805168 -0.061156323895242268 0 0.071091491025740125 -0.063399911269213904 0 0.073968290569700001 -0.062138735707836963 0 0.071091491025740125 -0.063399911269213904 0 0.073968290569700001 -0.062138735707836963 0 0.073179700427935993 -0.06344210735902682 0 0.074652493885731475 -0.063035773844765122 0 0.073968290569700001 -0.062138735707836963 0 0.073179700427935993 -0.06344210735902682 0 0.074652493885731475 -0.063035773844765122 0 0.074317341152406624 -0.062089017548301158 0 0.073968290569700001 -0.062138735707836963 0 0.070593922099794926 -0.067268674221445987 0 0.070622995440398545 -0.067248225893846686 0 0.074652493885731475 -0.063035773844765122 0 0.073179700427935993 -0.06344210735902682 0 0.073634919136368521 -0.064177766697877198 0 0.073179700427935993 -0.06344210735902682 0 0.072316946513202626 -0.064146164499506622 0 0.073634919136368521 -0.064177766697877198 0 0.071091491025740125 -0.063399911269213904 0 0.073179700427935993 -0.06344210735902682 0 0.072316946513202626 -0.064146164499506622 0 0.071091491025740125 -0.063399911269213904 0 0.072316946513202626 -0.064146164499506622 0 0.071434395708569284 -0.06534721748979265 0 0.072316946513202626 -0.064146164499506622 0 0.073634919136368521 -0.064177766697877198 0 0.071434395708569284 -0.06534721748979265 0 0.073634919136368521 -0.064177766697877198 0 0.074232319937858088 -0.065132518560858901 0 0.071434395708569284 -0.06534721748979265 0 0.075579469129072957 -0.063901027895338289 0 0.073634919136368521 -0.064177766697877198 0 0.074232319937858088 -0.065132518560858901 0 0.074232319937858088 -0.065132518560858901 0 0.071521517306487772 -0.066613517187459406 0 0.071434395708569284 -0.06534721748979265 0 0.074232319937858088 -0.065132518560858901 0 0.073245189410184278 -0.067303759970013019 0 0.071521517306487772 -0.066613517187459406 0 0.074232319937858088 -0.065132518560858901 0 0.073245189410184278 -0.067303759970013019 0 0.076193331173054935 -0.064485985483885802 0 0.073245189410184278 -0.067303759970013019 0 0.076193331173054935 -0.064485985483885802 0 0.078485356308152551 -0.061808109464680683 0 0.077232017736881708 -0.063191628676413328 0 0.076193331173054935 -0.064485985483885802 0 0.078485356308152551 -0.061808109464680683 0 0.077232017736881708 -0.063191628676413328 0 0.076445405871932853 -0.063893435414192262 0 0.076193331173054935 -0.064485985483885802 0 0.076445405871932853 -0.063893435414192262 0 0.07566513000797763 -0.064409189971588315 0 0.076193331173054935 -0.064485985483885802 0 0.075451034556199545 -0.06606562495543962 0 0.078485356308152551 -0.061808109464680683 0 0.079386981120229155 -0.061793668336056096 0 0.078485356308152551 -0.061808109464680683 0 0.079386981120229155 -0.061793668336056096 0 0.078925801558693678 -0.058863902139473449 0 0.072147808973373195 -0.066799709441583366 0 0.074319542031266575 -0.066289765625389879 0 0.079386981120229155 -0.061793668336056096 0 0.08440341886996551 -0.057815035740189431 0 0.087102783212796964 -0.060538900141947759 0 0.075451034556199545 -0.06606562495543962 0 0.079386981120229155 -0.061793668336056096 0 0.072162249408816576 -0.070214872200345738 0 0.076537299250262966 -0.064102282722628703 0 0.076853346281752888 -0.064763157172543911 0 0.08440341886996551 -0.057815035740189431 0 0.080676469365017628 -0.056015288158876755 0 0.083283439389876118 -0.053763927849705496 0 0.079386981120229155 -0.061793668336056096 0 0.08440341886996551 -0.057815035740189431 0 0.080676469365017628 -0.056015288158876755 0 0.079386981120229155 -0.061793668336056096 0 0.078925801558693678 -0.058863902139473449 0 0.080676469365017628 -0.056015288158876755 0 0.078925801558693678 -0.058863902139473449 0 0.080676469365017628 -0.056015288158876755 0 0.078660122671019697 -0.055172433872808957 0 0.083341782770056369 -0.050856347980906831 0 0.07876229655919216 -0.048240602105882331 0 0.080676469365017628 -0.056015288158876755 0 0.079083078341538202 -0.05013455782195176 0 0.078660122671019697 -0.055172433872808957 0 0.080676469365017628 -0.056015288158876755 0 0.083283439389876118 -0.053763927849705496 0 0.079083078341538202 -0.05013455782195176 0 0.082269080811701811 -0.048354791122184944 0 0.082775707838999499 -0.043553597789940043 0 0.079543396778213413 -0.04265291414805901 0 0.082269080811701811 -0.048354791122184944 0 0.082775707838999499 -0.043553597789940043 0 0.086082784942259558 -0.046156706389038606 0 0.082775707838999499 -0.043553597789940043 0 0.085941263571376256 -0.040741474009646728 0 0.080251069653998336 -0.039297975993185533 0 0.082775707838999499 -0.043553597789940043 0 0.079543396778213413 -0.04265291414805901 0 0.080251069653998336 -0.039297975993185533 0 0.082269080811701811 -0.048354791122184944 0 0.079543396778213413 -0.04265291414805901 0 0.078324405563905602 -0.045352151611044243 0 0.079543396778213413 -0.04265291414805901 0 0.077558239322133099 -0.042356478767345482 0 0.078545543414996963 -0.038530862542784823 0 0.079543396778213413 -0.04265291414805901 0 0.078324405563905602 -0.045352151611044243 0 0.077558239322133099 -0.042356478767345482 0 0.077558239322133099 -0.042356478767345482 0 0.075786684199492513 -0.044970776698382744 0 0.075609561309978451 -0.041847703291936537 0 0.079083078341538202 -0.05013455782195176 0 0.075786684199492513 -0.044970776698382744 0 0.076913638221656325 -0.049120549352110687 0 0.07876229655919216 -0.048240602105882331 0 0.076505122121074978 -0.046908223920099509 0 0.078324405563905602 -0.045352151611044243 0 0.077558239322133099 -0.042356478767345482 0 0.075786684199492513 -0.044970776698382744 0 0.075786684199492513 -0.044970776698382744 0 0.076913638221656325 -0.049120549352110687 0 0.075828968214070369 -0.047398182429740351 0 0.076913638221656325 -0.049120549352110687 0 0.076462407458763912 -0.050235071415522636 0 0.075828968214070369 -0.047398182429740351 0 0.076462407458763912 -0.050235071415522636 0 0.076260304729238115 -0.049220263901881771 0 0.075828968214070369 -0.047398182429740351 0 0.076462407458763912 -0.050235071415522636 0 0.076199727321267563 -0.050939097536517063 0 0.076736656254074165 -0.052927409955614929 0 0.076462407458763912 -0.050235071415522636 0 0.076199727321267563 -0.050939097536517063 0 0.076260304729238115 -0.049220263901881771 0 0.076462407458763912 -0.050235071415522636 0 0.077483185467990726 -0.052049831420561 0 0.076736656254074165 -0.052927409955614929 0 0.076913638221656325 -0.049120549352110687 0 0.076462407458763912 -0.050235071415522636 0 0.077483185467990726 -0.052049831420561 0 0.079083078341538202 -0.05013455782195176 0 0.076913638221656325 -0.049120549352110687 0 0.077483185467990726 -0.052049831420561 0 0.079083078341538202 -0.05013455782195176 0 0.077483185467990726 -0.052049831420561 0 0.078660122671019697 -0.055172433872808957 0 0.077483185467990726 -0.052049831420561 0 0.077355631922415666 -0.055394951331465082 0 0.078660122671019697 -0.055172433872808957 0 0.077355631922415666 -0.055394951331465082 0 0.078660122671019697 -0.055172433872808957 0 0.077840492652396939 -0.058303535577441591 0 0.078925801558693678 -0.058863902139473449 0 0.078660122671019697 -0.055172433872808957 0 0.077840492652396939 -0.058303535577441591 0 0.077355631922415666 -0.055394951331465082 0 0.077840492652396939 -0.058303535577441591 0 0.076679058065336703 -0.057315503756986276 0 0.077355631922415666 -0.055394951331465082 0 0.076679058065336703 -0.057315503756986276 0 0.076736656254074165 -0.052927409955614929 0 0.076679058065336703 -0.057315503756986276 0 0.075871085444913611 -0.054656204350227791 0 0.076736656254074165 -0.052927409955614929 0 0.076199727321267563 -0.050939097536517063 0 0.075871085444913611 -0.054656204350227791 0 0.076736656254074165 -0.052927409955614929 0 0.077483185467990726 -0.052049831420561 0 0.077355631922415666 -0.055394951331465082 0 0.076736656254074165 -0.052927409955614929 0 0.07841765804475169 -0.048704408329209893 0 0.077456829253779155 -0.048164378395405716 0 0.075643654279780745 -0.049760269093635734 0 0.076078721772700947 -0.055510170632154444 0 0.076066309589511688 -0.053326566174023253 0 0.072700302421720944 -0.060561411236349325 0 0.075871085444913611 -0.054656204350227791 0 0.075643654279780745 -0.049760269093635734 0 0.077456829253779155 -0.048164378395405716 0 0.076901304279462721 -0.048222632122194894 0 0.075643654279780745 -0.049760269093635734 0 0.076199727321267563 -0.050939097536517063 0 0.075871085444913611 -0.054656204350227791 0 0.075643654279780745 -0.049760269093635734 0 0.077456829253779155 -0.048164378395405716 0 0.076995107025661563 -0.046992773402603105 0 0.076369584404635857 -0.046906691652811361 0 0.077456829253779155 -0.048164378395405716 0 0.076995107025661563 -0.046992773402603105 0 0.076901304279462721 -0.048222632122194894 0 0.076885180053705773 -0.047535419043497937 0 0.077434282319030559 -0.045134824218598574 0 0.076664844063996998 -0.044223633625288181 0 0.076995107025661563 -0.046992773402603105 0 0.076885180053705773 -0.047535419043497937 0 0.076664844063996998 -0.044223633625288181 0 0.076995107025661563 -0.046992773402603105 0 0.076901304279462721 -0.048222632122194894 0 0.076885180053705773 -0.047535419043497937 0 0.076885180053705773 -0.047535419043497937 0 0.076260304729238115 -0.049220263901881771 0 0.077434282319030559 -0.045134824218598574 0 0.076901304279462721 -0.048222632122194894 0 0.076885180053705773 -0.047535419043497937 0 0.075643654279780745 -0.049760269093635734 0 0.076885180053705773 -0.047535419043497937 0 0.075643654279780745 -0.049760269093635734 0 0.076260304729238115 -0.049220263901881771 0 0.076199727321267563 -0.050939097536517063 0 0.075643654279780745 -0.049760269093635734 0 0.076260304729238115 -0.049220263901881771 0 0.076827792662128525 -0.044458679850335463 0 0.076663876873185571 -0.042065481698580022 0 0.075786684199492513 -0.044970776698382744 0 0.075828968214070369 -0.047398182429740351 0 0.073627827355607162 -0.043905888005277879 0 0.076260304729238115 -0.049220263901881771 0 0.079875334596701944 -0.041389217738216487 0 0.077434282319030559 -0.045134824218598574 0 0.076260304729238115 -0.049220263901881771 0 0.075828968214070369 -0.047398182429740351 0 0.073627827355607162 -0.043905888005277879 0 0.075786684199492513 -0.044970776698382744 0 0.073627827355607162 -0.043905888005277879 0 0.075609561309978451 -0.041847703291936537 0 0.079875334596701944 -0.041389217738216487 0 0.077524837551819353 -0.041470075251818825 0 0.078777501011558948 -0.035981207144811407 0 0.079875334596701944 -0.041389217738216487 0 0.077524837551819353 -0.041470075251818825 0 0.077434282319030559 -0.045134824218598574 0 0.077524837551819353 -0.041470075251818825 0 0.077434282319030559 -0.045134824218598574 0 0.076664844063996998 -0.044223633625288181 0 0.076664844063996998 -0.044223633625288181 0 0.076626635247688563 -0.039086237811560558 0 0.074996318894912123 -0.040510619456307066 0 0.077524837551819353 -0.041470075251818825 0 0.076664844063996998 -0.044223633625288181 0 0.076626635247688563 -0.039086237811560558 0 0.074999282227448144 -0.048817941816812579 0 0.074996318894912123 -0.040510619456307066 0 0.076369584404635857 -0.046906691652811361 0 0.076664844063996998 -0.044223633625288181 0 0.074996318894912123 -0.040510619456307066 0 0.076369584404635857 -0.046906691652811361 0 0.076995107025661563 -0.046992773402603105 0 0.076664844063996998 -0.044223633625288181 0 0.076369584404635857 -0.046906691652811361 0 0.048366397218586904 -0.07279158558703995 0 0.04783458221882976 -0.072583104939808643 0 0.047990525505095041 -0.072109001503568873 0 0.072761377053615961 -0.062673387694720348 0 0.071250534590986445 -0.062615365074168663 0 0.072761377053615961 -0.062673387694720348 0 0.076006518294102682 -0.065202815012203319 0 0.04856562863377293 -0.073607195401911213 0 0.053886351277810003 -0.073746727453403091 0 0.051243844863211464 -0.072437536972807456 0 0.10601280778945903 -0.063596736244023344 0 0.098709793236085155 -0.062018963518703292 0 0.10317181924064844 -0.059857290235681475 0 0.098709793236085155 -0.062018963518703292 0 0.10317181924064844 -0.059857290235681475 0 0.10090246079084275 -0.056067011799756511 0 0.10398290625270186 -0.056964230042903068 0 0.10317181924064844 -0.059857290235681475 0 0.10090246079084275 -0.056067011799756511 0 0.10398290625270186 -0.056964230042903068 0 0.10317181924064844 -0.059857290235681475 0 0.10709688699944898 -0.057701276156375193 0 0.10601280778945903 -0.063596736244023344 0 0.10317181924064844 -0.059857290235681475 0 0.10709688699944898 -0.057701276156375193 0 0.072761377053615961 -0.062673387694720348 0 0.074979253625351058 -0.063007943286668144 0 0.047900830100466522 -0.072588238345908759 0 0.047714739640054571 -0.072902910449577557 0 0.047709128504130796 -0.072721636290359562 0 0.047714739640054571 -0.072902910449577557 0 0.047615062969246211 -0.072930388199005977 0 0.047615734413315923 -0.072837243480551817 0 0.047615062969246211 -0.072930388199005977 0 0.047451008463328927 -0.072834711543848421 0 0.047340551473955439 -0.072995462041389819 0 0.047615062969246211 -0.072930388199005977 0 0.047451008463328927 -0.072834711543848421 0 0.047615734413315923 -0.072837243480551817 0 0.047451008463328927 -0.072834711543848421 0 0.047564402282467652 -0.072748881842814667 0 0.047615734413315923 -0.072837243480551817 0 0.047451008463328927 -0.072834711543848421 0 0.047564402282467652 -0.072748881842814667 0 0.047333894436463304 -0.072691453442876322 0 0.047564402282467652 -0.072748881842814667 0 0.047615734413315923 -0.072837243480551817 0 0.047709128504130796 -0.072721636290359562 0 0.047714739640054571 -0.072902910449577557 0 0.047615734413315923 -0.072837243480551817 0 0.047709128504130796 -0.072721636290359562 0 0.047046718137298014 -0.073077062682197366 0 0.04717323086523062 -0.072785017991549156 0 0.047340551473955439 -0.072995462041389819 0 0.047451008463328927 -0.072834711543848421 0 0.04717323086523062 -0.072785017991549156 0 0.047340551473955439 -0.072995462041389819 0 0.047451008463328927 -0.072834711543848421 0 0.04717323086523062 -0.072785017991549156 0 0.047333894436463304 -0.072691453442876322 0 0.04717323086523062 -0.072785017991549156 0 0.047333894436463304 -0.072691453442876322 0 0.046995807563527288 -0.072485224647864679 0 0.047333894436463304 -0.072691453442876322 0 0.046995807563527288 -0.072485224647864679 0 0.047312937908853638 -0.072515860472269905 0 0.046995807563527288 -0.072485224647864679 0 0.047312937908853638 -0.072515860472269905 0 0.047063715565501436 -0.072271656810583812 0 0.047709128504130796 -0.072721636290359562 0 0.047579523247418931 -0.072638675200195402 0 0.04783458221882976 -0.072583104939808643 0 0.047900830100466522 -0.072588238345908759 0 0.047709128504130796 -0.072721636290359562 0 0.04783458221882976 -0.072583104939808643 0 0.047564402282467652 -0.072748881842814667 0 0.047709128504130796 -0.072721636290359562 0 0.047579523247418931 -0.072638675200195402 0 0.047564402282467652 -0.072748881842814667 0 0.047333894436463304 -0.072691453442876322 0 0.047579523247418931 -0.072638675200195402 0 0.047333894436463304 -0.072691453442876322 0 0.047579523247418931 -0.072638675200195402 0 0.047312937908853638 -0.072515860472269905 0 0.047513111190099377 -0.072331996020211078 0 0.047312937908853638 -0.072515860472269905 0 0.047063715565501436 -0.072271656810583812 0 0.047579523247418931 -0.072638675200195402 0 0.047513111190099377 -0.072331996020211078 0 0.047312937908853638 -0.072515860472269905 0 0.047579523247418931 -0.072638675200195402 0 0.047513111190099377 -0.072331996020211078 0 0.04783458221882976 -0.072583104939808643 0 0.047513111190099377 -0.072331996020211078 0 0.04783458221882976 -0.072583104939808643 0 0.047990525505095041 -0.072109001503568873 0 0.047513111190099377 -0.072331996020211078 0 0.047990525505095041 -0.072109001503568873 0 0.047446819762467465 -0.07175592919433206 0 0.047513111190099377 -0.072331996020211078 0 0.047446819762467465 -0.07175592919433206 0 0.047063715565501436 -0.072271656810583812 0 0.047990525505095041 -0.072109001503568873 0 0.047446819762467465 -0.07175592919433206 0 0.048846235097492925 -0.071481681242940562 0 0.046706841045717026 -0.072221866624429421 0 0.046995807563527288 -0.072485224647864679 0 0.047063715565501436 -0.072271656810583812 0 0.047446819762467465 -0.07175592919433206 0 0.047063715565501436 -0.072271656810583812 0 0.04675788389667327 -0.072033510440628223 0 0.046706841045717026 -0.072221866624429421 0 0.047063715565501436 -0.072271656810583812 0 0.04675788389667327 -0.072033510440628223 0 0.046849523320713689 -0.07179581346965995 0 0.046355938427316716 -0.072337868759569449 0 0.04675788389667327 -0.072033510440628223 0 0.046562397451507836 -0.072134571389628921 0 0.046355938427316716 -0.072337868759569449 0 0.04675788389667327 -0.072033510440628223 0 0.046849523320713689 -0.07179581346965995 0 0.047446819762467465 -0.07175592919433206 0 0.04675788389667327 -0.072033510440628223 0 0.046849523320713689 -0.07179581346965995 0 0.047446819762467465 -0.07175592919433206 0 0.048584702442591339 -0.070667653100920505 0 0.048584702442591339 -0.070667653100920505 0 0.048846235097492925 -0.071481681242940562 0 0.050992032008278107 -0.070137174362993326 0 0.047446819762467465 -0.07175592919433206 0 0.048584702442591339 -0.070667653100920505 0 0.048846235097492925 -0.071481681242940562 0 0.072761377053615961 -0.062673387694720348 0 0.06982689388127826 -0.066644940846848133 0 0.048366397218586904 -0.07279158558703995 0 0.047990525505095041 -0.072109001503568873 0 0.048846235097492925 -0.071481681242940562 0 0.04856562863377293 -0.073607195401911213 0 0.051243844863211464 -0.072437536972807456 0 0.048846235097492925 -0.071481681242940562 0 0.051243844863211464 -0.072437536972807456 0 0.050992032008278107 -0.070137174362993326 0 0.056616454503344738 -0.06825953691574127 0 0.051243844863211464 -0.072437536972807456 0 0.048846235097492925 -0.071481681242940562 0 0.050992032008278107 -0.070137174362993326 0 0.050919664325422491 -0.068529496001286092 0 0.048584702442591339 -0.070667653100920505 0 0.050992032008278107 -0.070137174362993326 0 0.050919664325422491 -0.068529496001286092 0 0.050992032008278107 -0.070137174362993326 0 0.056616454503344738 -0.06825953691574127 0 0.056311780503245527 -0.06592780622668476 0 0.050919664325422491 -0.068529496001286092 0 0.056616454503344738 -0.06825953691574127 0 0.056311780503245527 -0.06592780622668476 0 0.056616454503344738 -0.06825953691574127 0 0.061336587676070427 -0.065878506118282609 0 0.062806484747191416 -0.066092898537652905 0 0.066594699446974118 -0.066645636019107155 0 0.056616454503344738 -0.06825953691574127 0 0.0656196064812887 -0.066790079126309965 0 0.059824041017309433 -0.070018820485572564 0 0.056616454503344738 -0.06825953691574127 0 0.061336587676070427 -0.065878506118282609 0 0.065193402359982819 -0.06904624465223938 0 0.053886351277810003 -0.073746727453403091 0 0.051243844863211464 -0.072437536972807456 0 0.056616454503344738 -0.06825953691574127 0 0.053886351277810003 -0.073746727453403091 0 0.056616454503344738 -0.06825953691574127 0 0.059824041017309433 -0.070018820485572564 0 0.063861885957105208 -0.063486883444875464 0 0.068805137257805168 -0.061156323895242268 0 0.067046121265930819 -0.064833123278105698 0 0.071091491025740125 -0.063399911269213904 0 0.067046121265930819 -0.064833123278105698 0 0.071434395708569284 -0.06534721748979265 0 0.068805137257805168 -0.061156323895242268 0 0.071091491025740125 -0.063399911269213904 0 0.067046121265930819 -0.064833123278105698 0 0.061336587676070427 -0.065878506118282609 0 0.067046121265930819 -0.064833123278105698 0 0.065193402359982819 -0.06904624465223938 0 0.063861885957105208 -0.063486883444875464 0 0.061336587676070427 -0.065878506118282609 0 0.067046121265930819 -0.064833123278105698 0 0.067046121265930819 -0.064833123278105698 0 0.065193402359982819 -0.06904624465223938 0 0.071434395708569284 -0.06534721748979265 0 0.065193402359982819 -0.06904624465223938 0 0.071521517306487772 -0.066613517187459406 0 0.071434395708569284 -0.06534721748979265 0 0.075451034556199545 -0.06606562495543962 0 0.06719458215566132 -0.069620678252183835 0 0.072162249408816576 -0.070214872200345738 0 0.072147808973373195 -0.066799709441583366 0 0.066594699446974118 -0.066645636019107155 0 0.073245189410184278 -0.067303759970013019 0 0.065193402359982819 -0.06904624465223938 0 0.071521517306487772 -0.066613517187459406 0 0.075451034556199545 -0.06606562495543962 0 0.0656196064812887 -0.066790079126309965 0 0.06719458215566132 -0.069620678252183835 0 0.0656196064812887 -0.066790079126309965 0 0.06719458215566132 -0.069620678252183835 0 0.059824041017309433 -0.070018820485572564 0 0.06719458215566132 -0.069620678252183835 0 0.072162249408816576 -0.070214872200345738 0 0.061727874388242378 -0.073349502230456387 0 0.076853346281752888 -0.064763157172543911 0 0.07651632976411113 -0.065428059866780602 0 0.089930635343062365 -0.058861932679496964 0 0.087102783212796964 -0.060538900141947759 0 0.092083557528822926 -0.060546302007571294 0 0.076006518294102682 -0.065202815012203319 0 0.07651632976411113 -0.065428059866780602 0 0.053886351277810003 -0.073746727453403091 0 0.059824041017309433 -0.070018820485572564 0 0.061727874388242378 -0.073349502230456387 0 0.06719458215566132 -0.069620678252183835 0 0.059824041017309433 -0.070018820485572564 0 0.061727874388242378 -0.073349502230456387 0 0.089930635343062365 -0.058861932679496964 0 0.092083557528822926 -0.060546302007571294 0 0.094495191677634371 -0.056604868266516284 0 0.098709793236085155 -0.062018963518703292 0 0.092083557528822926 -0.060546302007571294 0 0.094495191677634371 -0.056604868266516284 0 0.098709793236085155 -0.062018963518703292 0 0.094495191677634371 -0.056604868266516284 0 0.10090246079084275 -0.056067011799756511 0 0.094495191677634371 -0.056604868266516284 0 0.097970783573757964 -0.05218211971266741 0 0.10090246079084275 -0.056067011799756511 0 0.094495191677634371 -0.056604868266516284 0 0.093364436929758404 -0.050601622137954036 0 0.097970783573757964 -0.05218211971266741 0 0.094495191677634371 -0.056604868266516284 0 0.093364436929758404 -0.050601622137954036 0 0.087427816036199923 -0.051983304698155326 0 0.091899311211634846 -0.055040135075526055 0 0.088627038186352383 -0.053543240568882877 0 0.093364436929758404 -0.050601622137954036 0 0.089518783965779405 -0.047819795597529087 0 0.091997674776052155 -0.045375014123052317 0 0.093364436929758404 -0.050601622137954036 0 0.097970783573757964 -0.05218211971266741 0 0.097719784076379962 -0.047542519604964757 0 0.093364436929758404 -0.050601622137954036 0 0.097719784076379962 -0.047542519604964757 0 0.091997674776052155 -0.045375014123052317 0 0.08440341886996551 -0.057815035740189431 0 0.083283439389876118 -0.053763927849705496 0 0.089196972343563177 -0.056064362239028928 0 0.08440341886996551 -0.057815035740189431 0 0.087102783212796964 -0.060538900141947759 0 0.089196972343563177 -0.056064362239028928 0 0.089930635343062365 -0.058861932679496964 0 0.087102783212796964 -0.060538900141947759 0 0.089196972343563177 -0.056064362239028928 0 0.089930635343062365 -0.058861932679496964 0 0.094495191677634371 -0.056604868266516284 0 0.089196972343563177 -0.056064362239028928 0 0.087427816036199923 -0.051983304698155326 0 0.089518783965779405 -0.047819795597529087 0 0.086082784942259558 -0.046156706389038606 0 0.093364436929758404 -0.050601622137954036 0 0.087427816036199923 -0.051983304698155326 0 0.089518783965779405 -0.047819795597529087 0 0.082269080811701811 -0.048354791122184944 0 0.087427816036199923 -0.051983304698155326 0 0.086082784942259558 -0.046156706389038606 0 0.083341782770056369 -0.050856347980906831 0 0.088627038186352383 -0.053543240568882877 0 0.089518783965779405 -0.047819795597529087 0 0.086082784942259558 -0.046156706389038606 0 0.089025336977159628 -0.044468502603191691 0 0.089518783965779405 -0.047819795597529087 0 0.089025336977159628 -0.044468502603191691 0 0.091997674776052155 -0.045375014123052317 0 0.089025336977159628 -0.044468502603191691 0 0.091214197100300001 -0.04256236762682894 0 0.085941263571376256 -0.040741474009646728 0 0.082795360009664046 -0.040497576979110689 0 0.081583286242661521 -0.039680381055406611 0 0.082775707838999499 -0.043553597789940043 0 0.086082784942259558 -0.046156706389038606 0 0.085941263571376256 -0.040741474009646728 0 0.086082784942259558 -0.046156706389038606 0 0.089025336977159628 -0.044468502603191691 0 0.085941263571376256 -0.040741474009646728 0 0.091782464109946338 -0.052921126390222263 0 0.091588869679970736 -0.051689382940212615 0 0.093367109774989507 -0.045427128907258273 0 0.091997674776052155 -0.045375014123052317 0 0.09372596447534641 -0.044211898237164184 0 0.089025336977159628 -0.044468502603191691 0 0.091997674776052155 -0.045375014123052317 0 0.091214197100300001 -0.04256236762682894 0 0.091997674776052155 -0.045375014123052317 0 0.091214197100300001 -0.04256236762682894 0 0.09372596447534641 -0.044211898237164184 0 0.076314153954002303 -0.036010033762180003 0 0.074853750164332919 -0.035708794644185679 0 0.075545343014406116 -0.036621960366063917 0 0.082795360009664046 -0.040497576979110689 0 0.082963592383825266 -0.041957415282208803 0 0.09372596447534641 -0.044211898237164184 0 0.094030617062843727 -0.044983179555366778 0 0.0939497684254927 -0.045037931897093091 0 0.074853750164332919 -0.035708794644185679 0 0.07373633369515957 -0.035594365168740726 0 0.07408400485706447 -0.036177672638050294 0 0.082963592383825266 -0.041957415282208803 0 0.080804373428467288 -0.044426222482699639 0 0.07373633369515957 -0.035594365168740726 0 0.073381487839528525 -0.036190236865364919 0 0.07408400485706447 -0.036177672638050294 0 0.094030617062843727 -0.044983179555366778 0 0.094003611690156336 -0.045083203624770064 0 0.093956626984885133 -0.045122927286065158 0 0.094030617062843727 -0.044983179555366778 0 0.094003611690156336 -0.045083203624770064 0 0.0939497684254927 -0.045037931897093091 0 0.093989308926051479 -0.045172637370788221 0 0.0939497684254927 -0.045037931897093091 0 0.093906748998229886 -0.045310104634336913 0 0.094003611690156336 -0.045083203624770064 0 0.093989308926051479 -0.045172637370788221 0 0.0939497684254927 -0.045037931897093091 0 0.094003611690156336 -0.045083203624770064 0 0.093989308926051479 -0.045172637370788221 0 0.093995635739249919 -0.045162926286354287 0 0.093367109774989507 -0.045427128907258273 0 0.09372596447534641 -0.044211898237164184 0 0.0939497684254927 -0.045037931897093091 0 0.093367109774989507 -0.045427128907258273 0 0.0939497684254927 -0.045037931897093091 0 0.093906748998229886 -0.045310104634336913 0 0.091782464109946338 -0.052921126390222263 0 0.089362141054558961 -0.055965583893241806 0 0.097970783573757964 -0.05218211971266741 0 0.097719784076379962 -0.047542519604964757 0 0.10300154471891398 -0.049737839655674757 0 0.10300154471891398 -0.049737839655674757 0 0.10477600089322642 -0.054220832282468774 0 0.10815907650110064 -0.051755639442764893 0 0.093989308926051479 -0.045172637370788221 0 0.093906748998229886 -0.045310104634336913 0 0.094023510641677244 -0.045258418831527182 0 0.089362141054558961 -0.055965583893241806 0 0.076693256851474878 -0.05944209814411195 0 0.093989308926051479 -0.045172637370788221 0 0.094023510641677244 -0.045258418831527182 0 0.093995635739249919 -0.045162926286354287 0 0.10709688699944898 -0.057701276156375193 0 0.10477600089322642 -0.054220832282468774 0 0.10815907650110064 -0.051755639442764893 0 0.10398290625270186 -0.056964230042903068 0 0.10709688699944898 -0.057701276156375193 0 0.10477600089322642 -0.054220832282468774 0 0.10398290625270186 -0.056964230042903068 0 0.10477600089322642 -0.054220832282468774 0 0.10090246079084275 -0.056067011799756511 0 0.10300154471891398 -0.049737839655674757 0 0.10477600089322642 -0.054220832282468774 0 0.10090246079084275 -0.056067011799756511 0 0.097970783573757964 -0.05218211971266741 0 0.10300154471891398 -0.049737839655674757 0 0.10090246079084275 -0.056067011799756511 0 0.047046718137298014 -0.073077062682197366 0 0.047340551473955439 -0.072995462041389819 0 0.04751305065431187 -0.073265055705044435 0 0.05857099925296104 -0.061893298195917192 0 0.06927754087012597 -0.060065348427502135 0 0.047615062969246211 -0.072930388199005977 0 0.047694321605172417 -0.0729196164926421 0 0.047712220197414806 -0.072932671069881647 0 0.066306360700183573 -0.065031384111907453 0 0.06927754087012597 -0.060065348427502135 0 0.047615062969246211 -0.072930388199005977 0 0.047340551473955439 -0.072995462041389819 0 0.04751305065431187 -0.073265055705044435 0 0.074979253625351058 -0.063007943286668144 0 0.076693256851474878 -0.05944209814411195 0 0.047714739640054571 -0.072902910449577557 0 0.047615062969246211 -0.072930388199005977 0 0.047712220197414806 -0.072932671069881647 0 0.06927754087012597 -0.060065348427502135 0 0.06961319748744231 -0.056916264705634122 0 0.06927754087012597 -0.060065348427502135 0 0.076693256851474878 -0.05944209814411195 0 0.094023510641677244 -0.045258418831527182 0 0.093995635739249919 -0.045162926286354287 0 0.093956626984885133 -0.045122927286065158 0 0.093691242384548679 -0.045827049292411291 0 0.094154295163847934 -0.045566764987489308 0 0.093943122469085372 -0.045241436050454976 0 0.094025498031763396 -0.045975777320420894 0 0.093691242384548679 -0.045827049292411291 0 0.094154295163847934 -0.045566764987489308 0 0.076693256851474878 -0.05944209814411195 0 0.080579700610163285 -0.05146064426455714 0 0.06961319748744231 -0.056916264705634122 0 0.071989477378507402 -0.057116439145912759 0 0.05857099925296104 -0.061893298195917192 0 0.06961319748744231 -0.056916264705634122 0 0.063901309029527814 -0.060109466615232934 0 0.066592431809488734 -0.06108037079233368 0 0.066203420895107334 -0.06258503126375832 0 0.05429570115479284 -0.062161970583590263 0 0.054115337276723331 -0.062833004352476962 0 0.054978143687905622 -0.062874191489625364 0 0.06961319748744231 -0.056916264705634122 0 0.070240016062318292 -0.048371296901953222 0 0.054115337276723331 -0.062833004352476962 0 0.054978143687905622 -0.062874191489625364 0 0.054805048449557921 -0.063521919709718308 0 0.094030617062843727 -0.044983179555366778 0 0.093922044138731633 -0.04519408235578868 0 0.093956626984885133 -0.045122927286065158 0 0.093904100006414276 -0.045249421106543085 0 0.093922044138731633 -0.04519408235578868 0 0.093943122469085372 -0.045241436050454976 0 0.080804373428467288 -0.044426222482699639 0 0.070240016062318292 -0.048371296901953222 0 0.093691242384548679 -0.045827049292411291 0 0.093943122469085372 -0.045241436050454976 0 0.093956626984885133 -0.045122927286065158 0 0.094003611690156336 -0.045083203624770064 0 0.093995635739249919 -0.045162926286354287 0 0.093956626984885133 -0.045122927286065158 0 0.093922044138731633 -0.04519408235578868 0 0.093943122469085372 -0.045241436050454976 0 0.093956626984885133 -0.045122927286065158 0 0.07373633369515957 -0.035594365168740726 0 0.072776802099557836 -0.035482718463019272 0 0.073381487839528525 -0.036190236865364919 0 0.070240016062318292 -0.048371296901953222 0 0.0723953908215519 -0.038674993402822815 0 0.072776802099557836 -0.035482718463019272 0 0.072547008453069162 -0.036446154508382372 0 0.073381487839528525 -0.036190236865364919 0 0.072337195200199295 -0.036603479059975151 0 0.072651642062140268 -0.036421378394856471 0 0.072510065625832482 -0.036928557686652194 0 0.072547008453069162 -0.036446154508382372 0 0.073381487839528525 -0.036190236865364919 0 0.073341212064412117 -0.0367509792082703 0 0.073341212064412117 -0.0367509792082703 0 0.072978759640527455 -0.037191146223063506 0 0.073683698622709973 -0.037213196894163067 0 0.072547008453069162 -0.036446154508382372 0 0.073341212064412117 -0.0367509792082703 0 0.072978759640527455 -0.037191146223063506 0 0.072547008453069162 -0.036446154508382372 0 0.072978759640527455 -0.037191146223063506 0 0.072377697946681849 -0.037365565267734706 0 0.072978759640527455 -0.037191146223063506 0 0.072687244993207709 -0.037602153758772808 0 0.072377697946681849 -0.037365565267734706 0 0.072978759640527455 -0.037191146223063506 0 0.073309168061825983 -0.037487388631110265 0 0.072687244993207709 -0.037602153758772808 0 0.072978759640527455 -0.037191146223063506 0 0.073309168061825983 -0.037487388631110265 0 0.073683698622709973 -0.037213196894163067 0 0.073309168061825983 -0.037487388631110265 0 0.072687244993207709 -0.037602153758772808 0 0.073475291869921869 -0.037807706098073546 0 0.072687244993207709 -0.037602153758772808 0 0.072377697946681849 -0.037365565267734706 0 0.072292312811354578 -0.037660904788455594 0 0.072687244993207709 -0.037602153758772808 0 0.072292312811354578 -0.037660904788455594 0 0.072155556582209693 -0.037712036831146573 0 0.07428186182347056 -0.037902748582204035 0 0.073819628515257182 -0.037583861609760988 0 0.074399689429590951 -0.037345381305327899 0 0.073309168061825983 -0.037487388631110265 0 0.073819628515257182 -0.037583861609760988 0 0.073475291869921869 -0.037807706098073546 0 0.07428186182347056 -0.037902748582204035 0 0.073819628515257182 -0.037583861609760988 0 0.073475291869921869 -0.037807706098073546 0 0.073819628515257182 -0.037583861609760988 0 0.073683698622709973 -0.037213196894163067 0 0.074399689429590951 -0.037345381305327899 0 0.073309168061825983 -0.037487388631110265 0 0.073819628515257182 -0.037583861609760988 0 0.073683698622709973 -0.037213196894163067 0 0.07428186182347056 -0.037902748582204035 0 0.074399689429590951 -0.037345381305327899 0 0.075178098770055754 -0.03776167907414734 0 0.074399689429590951 -0.037345381305327899 0 0.073894268755002351 -0.036713772017779915 0 0.074669605641889208 -0.036668359360135572 0 0.074399689429590951 -0.037345381305327899 0 0.074669605641889208 -0.036668359360135572 0 0.075341045105902574 -0.037301076167503562 0 0.073683698622709973 -0.037213196894163067 0 0.074399689429590951 -0.037345381305327899 0 0.073894268755002351 -0.036713772017779915 0 0.073341212064412117 -0.0367509792082703 0 0.073683698622709973 -0.037213196894163067 0 0.073894268755002351 -0.036713772017779915 0 0.073381487839528525 -0.036190236865364919 0 0.073894268755002351 -0.036713772017779915 0 0.07408400485706447 -0.036177672638050294 0 0.073381487839528525 -0.036190236865364919 0 0.073341212064412117 -0.0367509792082703 0 0.073894268755002351 -0.036713772017779915 0 0.073894268755002351 -0.036713772017779915 0 0.07408400485706447 -0.036177672638050294 0 0.074669605641889208 -0.036668359360135572 0 0.074853750164332919 -0.035708794644185679 0 0.07408400485706447 -0.036177672638050294 0 0.074669605641889208 -0.036668359360135572 0 0.074853750164332919 -0.035708794644185679 0 0.074669605641889208 -0.036668359360135572 0 0.075545343014406116 -0.036621960366063917 0 0.076314153954002303 -0.036010033762180003 0 0.075545343014406116 -0.036621960366063917 0 0.076789869617030437 -0.03741636697449631 0 0.075545343014406116 -0.036621960366063917 0 0.075341045105902574 -0.037301076167503562 0 0.076789869617030437 -0.03741636697449631 0 0.075341045105902574 -0.037301076167503562 0 0.076789869617030437 -0.03741636697449631 0 0.076038913090528279 -0.037774533260126114 0 0.074669605641889208 -0.036668359360135572 0 0.075545343014406116 -0.036621960366063917 0 0.075341045105902574 -0.037301076167503562 0 0.078187651403475403 -0.03686544552871223 0 0.076789869617030437 -0.03741636697449631 0 0.078532577972347875 -0.03806581722064499 0 0.076314153954002303 -0.036010033762180003 0 0.078187651403475403 -0.03686544552871223 0 0.076789869617030437 -0.03741636697449631 0 0.078532577972347875 -0.03806581722064499 0 0.07785699957819002 -0.03861472804819524 0 0.079541515509733887 -0.038413967978366673 0 0.076789869617030437 -0.03741636697449631 0 0.078532577972347875 -0.03806581722064499 0 0.07785699957819002 -0.03861472804819524 0 0.076789869617030437 -0.03741636697449631 0 0.07785699957819002 -0.03861472804819524 0 0.076038913090528279 -0.037774533260126114 0 0.07785699957819002 -0.03861472804819524 0 0.076038913090528279 -0.037774533260126114 0 0.076047512520847516 -0.037963990944222932 0 0.077788176394213052 -0.036636512048766605 0 0.076047512520847516 -0.037963990944222932 0 0.07728369203761988 -0.038297834836342089 0 0.077993264334047727 -0.037760554236737423 0 0.077463061565396688 -0.037896736741661038 0 0.077788176394213052 -0.036636512048766605 0 0.078123362235416521 -0.037244630382095634 0 0.07728369203761988 -0.038297834836342089 0 0.075341045105902574 -0.037301076167503562 0 0.075178098770055754 -0.03776167907414734 0 0.076038913090528279 -0.037774533260126114 0 0.074399689429590951 -0.037345381305327899 0 0.075341045105902574 -0.037301076167503562 0 0.075178098770055754 -0.03776167907414734 0 0.075178098770055754 -0.03776167907414734 0 0.076038913090528279 -0.037774533260126114 0 0.076047512520847516 -0.037963990944222932 0 0.075178098770055754 -0.03776167907414734 0 0.076047512520847516 -0.037963990944222932 0 0.07493836168682444 -0.038208424149422313 0 0.07428186182347056 -0.037902748582204035 0 0.075178098770055754 -0.03776167907414734 0 0.07493836168682444 -0.038208424149422313 0 0.07493836168682444 -0.038208424149422313 0 0.075424982406831778 -0.038537411620464042 0 0.075051568692505677 -0.038648621588943756 0 0.076047512520847516 -0.037963990944222932 0 0.07493836168682444 -0.038208424149422313 0 0.075424982406831778 -0.038537411620464042 0 0.073194455955459911 -0.038621556828086434 0 0.072623366748771997 -0.038650363263178521 0 0.075424982406831778 -0.038537411620464042 0 0.075051568692505677 -0.038648621588943756 0 0.074896077251148621 -0.038245152312596037 0 0.07493836168682444 -0.038208424149422313 0 0.075051568692505677 -0.038648621588943756 0 0.074061366675964579 -0.038229015017566911 0 0.074342935107770583 -0.038941949737251104 0 0.072361374899175143 -0.038983922407505159 0 0.073062044190092768 -0.038412467452515517 0 0.074342935107770583 -0.038941949737251104 0 0.074896077251148621 -0.038245152312596037 0 0.073062044190092768 -0.038412467452515517 0 0.075372200537740658 -0.037518999850447043 0 0.075075522362589214 -0.036772979917198002 0 0.078123362235416521 -0.037244630382095634 0 0.07728369203761988 -0.038297834836342089 0 0.078613838633837224 -0.037221000913127134 0 0.075424982406831778 -0.038537411620464042 0 0.074342935107770583 -0.038941949737251104 0 0.074896077251148621 -0.038245152312596037 0 0.075389599990367748 -0.03774274241236672 0 0.075372200537740658 -0.037518999850447043 0 0.076047512520847516 -0.037963990944222932 0 0.075424982406831778 -0.038537411620464042 0 0.07728369203761988 -0.038297834836342089 0 0.070507317147880805 -0.038908159466582104 0 0.070594628481611327 -0.038738494945254241 0 0.070532622047465701 -0.038671409273173703 0 0.072623366748771997 -0.038650363263178521 0 0.071938469331527102 -0.038728453915878633 0 0.070507317147880805 -0.038908159466582104 0 0.070594628481611327 -0.038738494945254241 0 0.07069623711288596 -0.038601589758868758 0 0.070594628481611327 -0.038738494945254241 0 0.070646637096879919 -0.038715121898012184 0 0.070532622047465701 -0.038671409273173703 0 0.070507317147880805 -0.038908159466582104 0 0.070532622047465701 -0.038671409273173703 0 0.070469881218628239 -0.038557596321036086 0 0.070532622047465701 -0.038671409273173703 0 0.070469881218628239 -0.038557596321036086 0 0.070599140848260938 -0.038793148856658716 0 0.071626610942136071 -0.036355054838944731 0 0.071515980482803956 -0.034954249702109412 0 0.070469881218628239 -0.038557596321036086 0 0.068693446064359689 -0.036831111493424828 0 0.070266698389290533 -0.036247776728068018 0 0.070693577907614311 -0.038763353255699858 0 0.070688721646905955 -0.038800841957110338 0 0.070599140848260938 -0.038793148856658716 0 0.070646637096879919 -0.038715121898012184 0 0.070532622047465701 -0.038671409273173703 0 0.070599140848260938 -0.038793148856658716 0 0.070646637096879919 -0.038715121898012184 0 0.070693577907614311 -0.038763353255699858 0 0.070599140848260938 -0.038793148856658716 0 0.071509195443286072 -0.039183785580942952 0 0.071504065749531096 -0.03812391223588301 0 0.073636487316182955 -0.038635816790745334 0 0.073194455955459911 -0.038621556828086434 0 0.07346495188756319 -0.038576375875002629 0 0.071509195443286072 -0.039183785580942952 0 0.070469881218628239 -0.038557596321036086 0 0.071504065749531096 -0.03812391223588301 0 0.071509195443286072 -0.039183785580942952 0 0.070507317147880805 -0.038908159466582104 0 0.070469881218628239 -0.038557596321036086 0 0.071504065749531096 -0.03812391223588301 0 0.072090842097427152 -0.037074499691304615 0 0.070266698389290533 -0.036247776728068018 0 0.070469881218628239 -0.038557596321036086 0 0.071504065749531096 -0.03812391223588301 0 0.070266698389290533 -0.036247776728068018 0 0.071504065749531096 -0.03812391223588301 0 0.073636487316182955 -0.038635816790745334 0 0.072090842097427152 -0.037074499691304615 0 0.073636487316182955 -0.038635816790745334 0 0.073766697178827778 -0.038036383380736054 0 0.073358246568528435 -0.037026395095310957 0 0.073636487316182955 -0.038635816790745334 0 0.073358246568528435 -0.037026395095310957 0 0.072090842097427152 -0.037074499691304615 0 0.073636487316182955 -0.038635816790745334 0 0.073575495703855756 -0.038308106688125135 0 0.07345848874701108 -0.038116119379826612 0 0.073636487316182955 -0.038635816790745334 0 0.073766697178827778 -0.038036383380736054 0 0.073575495703855756 -0.038308106688125135 0 0.073740610205364446 -0.038071893819030478 0 0.073766697178827778 -0.038036383380736054 0 0.073575495703855756 -0.038308106688125135 0 0.073740610205364446 -0.038071893819030478 0 0.073766697178827778 -0.038036383380736054 0 0.074316237197318405 -0.037043732643834704 0 0.06854463172218668 -0.035211949794880071 0 0.068336926831294401 -0.035415040890496338 0 0.066320935744243525 -0.033335761299818308 0 0.073740610205364446 -0.038071893819030478 0 0.073366142791159633 -0.038452369082344458 0 0.074316237197318405 -0.037043732643834704 0 0.070737241421397715 -0.036002270333613785 0 0.070091893286350043 -0.034651909749759881 0 0.069184955237024087 -0.034421135360724421 0 0.070006667253600705 -0.033647715566051728 0 0.06854463172218668 -0.035211949794880071 0 0.070987619602705235 -0.033871262248959519 0 0.071321028181075621 -0.03575485972460557 0 0.06854463172218668 -0.035211949794880071 0 0.071706137147241486 -0.037689893804641786 0 0.071321028181075621 -0.03575485972460557 0 0.06854463172218668 -0.035211949794880071 0 0.068336926831294401 -0.035415040890496338 0 0.071706137147241486 -0.037689893804641786 0 0.070737241421397715 -0.036002270333613785 0 0.071072342999082327 -0.036584008743722557 0 0.073366142791159633 -0.038452369082344458 0 0.073575495703855756 -0.038308106688125135 0 0.071706137147241486 -0.037689893804641786 0 0.073740610205364446 -0.038071893819030478 0 0.073366142791159633 -0.038452369082344458 0 0.073575495703855756 -0.038308106688125135 0 0.073575495703855756 -0.038308106688125135 0 0.071706137147241486 -0.037689893804641786 0 0.07345848874701108 -0.038116119379826612 0 0.071706137147241486 -0.037689893804641786 0 0.072615029948670029 -0.037736326260993366 0 0.07345848874701108 -0.038116119379826612 0 0.071706137147241486 -0.037689893804641786 0 0.072615029948670029 -0.037736326260993366 0 0.072155556582209693 -0.037712036831146573 0 0.072687244993207709 -0.037602153758772808 0 0.072615029948670029 -0.037736326260993366 0 0.072155556582209693 -0.037712036831146573 0 0.072687244993207709 -0.037602153758772808 0 0.072615029948670029 -0.037736326260993366 0 0.073475291869921869 -0.037807706098073546 0 0.072615029948670029 -0.037736326260993366 0 0.073475291869921869 -0.037807706098073546 0 0.07345848874701108 -0.038116119379826612 0 0.073475291869921869 -0.037807706098073546 0 0.074061366675964579 -0.038229015017566911 0 0.07345848874701108 -0.038116119379826612 0 0.07428186182347056 -0.037902748582204035 0 0.07493836168682444 -0.038208424149422313 0 0.074061366675964579 -0.038229015017566911 0 0.07428186182347056 -0.037902748582204035 0 0.073475291869921869 -0.037807706098073546 0 0.074061366675964579 -0.038229015017566911 0 0.073636487316182955 -0.038635816790745334 0 0.074061366675964579 -0.038229015017566911 0 0.07345848874701108 -0.038116119379826612 0 0.075051568692505677 -0.038648621588943756 0 0.073636487316182955 -0.038635816790745334 0 0.074061366675964579 -0.038229015017566911 0 0.074996318894912123 -0.040510619456307066 0 0.07499876464507467 -0.029767882782668856 0 0.076611888020255356 -0.034764282217664998 0 0.075000879166182324 -0.029762253719781313 0 0.076102205098161846 -0.030567619921458962 0 0.075000038639993577 -0.029759422576072038 0 0.077795647749732147 -0.028790859873349044 0 0.076465365285772594 -0.027736132387547997 0 0.076271069710646872 -0.032196951363161183 0 0.076611888020255356 -0.034764282217664998 0 0.076583824312314017 -0.034094277203397381 0 0.07499876464507467 -0.029767882782668856 0 0.076271069710646872 -0.032196951363161183 0 0.076611888020255356 -0.034764282217664998 0 0.076626635247688563 -0.039086237811560558 0 0.074996318894912123 -0.040510619456307066 0 0.076611888020255356 -0.034764282217664998 0 0.076626635247688563 -0.039086237811560558 0 0.076611888020255356 -0.034764282217664998 0 0.078777501011558948 -0.035981207144811407 0 0.076611888020255356 -0.034764282217664998 0 0.078777501011558948 -0.035981207144811407 0 0.076583824312314017 -0.034094277203397381 0 0.076437504603677167 -0.038689854606694649 0 0.076309940775763072 -0.036993639821357581 0 0.077524837551819353 -0.041470075251818825 0 0.076626635247688563 -0.039086237811560558 0 0.078777501011558948 -0.035981207144811407 0 0.073627827355607162 -0.043905888005277879 0 0.075609561309978451 -0.041847703291936537 0 0.074215704386196985 -0.038372138288657459 0 0.076663876873185571 -0.042065481698580022 0 0.076437504603677167 -0.038689854606694649 0 0.075609561309978451 -0.041847703291936537 0 0.074215704386196985 -0.038372138288657459 0 0.076746658394975228 -0.039996469176148478 0 0.074215704386196985 -0.038372138288657459 0 0.076316259751941132 -0.035757674877208684 0 0.076954595254587477 -0.037671162625145409 0 0.074215704386196985 -0.038372138288657459 0 0.076954595254587477 -0.037671162625145409 0 0.076746658394975228 -0.039996469176148478 0 0.076759765605733637 -0.035623989773382186 0 0.076316259751941132 -0.035757674877208684 0 0.077110421040141569 -0.036269490911089129 0 0.076759765605733637 -0.035623989773382186 0 0.07660753355929277 -0.035091683951740442 0 0.077006735596574116 -0.035459751957031251 0 0.076759765605733637 -0.035623989773382186 0 0.076316259751941132 -0.035757674877208684 0 0.07660753355929277 -0.035091683951740442 0 0.076316259751941132 -0.035757674877208684 0 0.07660753355929277 -0.035091683951740442 0 0.076507129302139695 -0.034657753042359685 0 0.076316259751941132 -0.035757674877208684 0 0.076583824312314017 -0.034094277203397381 0 0.076507129302139695 -0.034657753042359685 0 0.074215704386196985 -0.038372138288657459 0 0.076316259751941132 -0.035757674877208684 0 0.076583824312314017 -0.034094277203397381 0 0.076271069710646872 -0.032196951363161183 0 0.076583824312314017 -0.034094277203397381 0 0.076510899709603328 -0.034231103297051459 0 0.076102205098161846 -0.030567619921458962 0 0.077194666084590871 -0.031364917265275759 0 0.077795647749732147 -0.028790859873349044 0 0.07959615516471584 -0.027934051761651733 0 0.080050864756345652 -0.028116536684811313 0 0.076583824312314017 -0.034094277203397381 0 0.076510899709603328 -0.034231103297051459 0 0.076507129302139695 -0.034657753042359685 0 0.07959615516471584 -0.027934051761651733 0 0.080050864756345652 -0.028116536684811313 0 0.080063588454957174 -0.027517539553217809 0 0.080050864756345652 -0.028116536684811313 0 0.080063588454957174 -0.027517539553217809 0 0.08085826783533541 -0.027485864755476326 0 0.076510899709603328 -0.034231103297051459 0 0.076718270734765517 -0.034813509159709245 0 0.077001682629881552 -0.035098076898978821 0 0.077194666084590871 -0.031364917265275759 0 0.076939078839597483 -0.03238713898328905 0 0.080050864756345652 -0.028116536684811313 0 0.08085826783533541 -0.027485864755476326 0 0.082602166971899885 -0.027698991111332345 0 0.076914415568997696 -0.035091138135777009 0 0.076718270734765517 -0.034813509159709245 0 0.076981850614365521 -0.035091032055416228 0 0.076718270734765517 -0.034813509159709245 0 0.076981850614365521 -0.035091032055416228 0 0.077001682629881552 -0.035098076898978821 0 0.076914415568997696 -0.035091138135777009 0 0.076824335233592805 -0.035095084395927352 0 0.076718270734765517 -0.034813509159709245 0 0.076824335233592805 -0.035095084395927352 0 0.07660753355929277 -0.035091683951740442 0 0.076718270734765517 -0.034813509159709245 0 0.076824335233592805 -0.035095084395927352 0 0.07660753355929277 -0.035091683951740442 0 0.077006735596574116 -0.035459751957031251 0 0.076914415568997696 -0.035091138135777009 0 0.076824335233592805 -0.035095084395927352 0 0.077051403399463814 -0.035275700426878789 0 0.07660753355929277 -0.035091683951740442 0 0.076507129302139695 -0.034657753042359685 0 0.076718270734765517 -0.034813509159709245 0 0.076510899709603328 -0.034231103297051459 0 0.076507129302139695 -0.034657753042359685 0 0.076718270734765517 -0.034813509159709245 0 0.077083862214475579 -0.03502969075764429 0 0.077710289315486403 -0.035631073209837841 0 0.078417662032944799 -0.035971110448529652 0 0.076939078839597483 -0.03238713898328905 0 0.074880589416932597 -0.035294442687299254 0 0.077519689522283775 -0.035651950284507725 0 0.077710289315486403 -0.035631073209837841 0 0.077880998081573199 -0.035930757126696418 0 0.077519689522283775 -0.035651950284507725 0 0.077880998081573199 -0.035930757126696418 0 0.077483156152585095 -0.035886304067087087 0 0.077519689522283775 -0.035651950284507725 0 0.077258613669955803 -0.035506250334423207 0 0.077483156152585095 -0.035886304067087087 0 0.077006735596574116 -0.035459751957031251 0 0.077258613669955803 -0.035506250334423207 0 0.077483156152585095 -0.035886304067087087 0 0.076824335233592805 -0.035095084395927352 0 0.077006735596574116 -0.035459751957031251 0 0.077051403399463814 -0.035275700426878789 0 0.077006735596574116 -0.035459751957031251 0 0.077051403399463814 -0.035275700426878789 0 0.077258613669955803 -0.035506250334423207 0 0.077051403399463814 -0.035275700426878789 0 0.077258613669955803 -0.035506250334423207 0 0.077238794310623124 -0.035277653458974816 0 0.077519689522283775 -0.035651950284507725 0 0.077258613669955803 -0.035506250334423207 0 0.077238794310623124 -0.035277653458974816 0 0.077238794310623124 -0.035277653458974816 0 0.077083862214475579 -0.03502969075764429 0 0.077710289315486403 -0.035631073209837841 0 0.076914415568997696 -0.035091138135777009 0 0.077051403399463814 -0.035275700426878789 0 0.077051911052550007 -0.03518959955358935 0 0.076914415568997696 -0.035091138135777009 0 0.077051911052550007 -0.03518959955358935 0 0.076981850614365521 -0.035091032055416228 0 0.077051403399463814 -0.035275700426878789 0 0.077238794310623124 -0.035277653458974816 0 0.077051911052550007 -0.03518959955358935 0 0.077238794310623124 -0.035277653458974816 0 0.077092563498599997 -0.035152891036649245 0 0.077083862214475579 -0.03502969075764429 0 0.077051911052550007 -0.03518959955358935 0 0.077092563498599997 -0.035152891036649245 0 0.076981850614365521 -0.035091032055416228 0 0.077238794310623124 -0.035277653458974816 0 0.077051911052550007 -0.03518959955358935 0 0.077092563498599997 -0.035152891036649245 0 0.076932575529819941 -0.032402766642493586 0 0.076939078839597483 -0.03238713898328905 0 0.077092563498599997 -0.035152891036649245 0 0.076981850614365521 -0.035091032055416228 0 0.077083862214475579 -0.03502969075764429 0 0.077519689522283775 -0.035651950284507725 0 0.077238794310623124 -0.035277653458974816 0 0.077710289315486403 -0.035631073209837841 0 0.077710289315486403 -0.035631073209837841 0 0.078094802024644611 -0.035939194333542417 0 0.078417662032944799 -0.035971110448529652 0 0.077710289315486403 -0.035631073209837841 0 0.078094802024644611 -0.035939194333542417 0 0.077880998081573199 -0.035930757126696418 0 0.078310380196312618 -0.036182466560313764 0 0.078490473744941044 -0.036331484582838559 0 0.078417662032944799 -0.035971110448529652 0 0.078094802024644611 -0.035939194333542417 0 0.078310380196312618 -0.036182466560313764 0 0.078417662032944799 -0.035971110448529652 0 0.078310380196312618 -0.036182466560313764 0 0.078170758400366483 -0.036340256174396374 0 0.078616839038646677 -0.036568319626984973 0 0.077880998081573199 -0.035930757126696418 0 0.078170758400366483 -0.036340256174396374 0 0.077483156152585095 -0.035886304067087087 0 0.078094802024644611 -0.035939194333542417 0 0.078310380196312618 -0.036182466560313764 0 0.077880998081573199 -0.035930757126696418 0 0.078310380196312618 -0.036182466560313764 0 0.077880998081573199 -0.035930757126696418 0 0.078170758400366483 -0.036340256174396374 0 0.078170758400366483 -0.036340256174396374 0 0.078206770139517753 -0.036945004110374172 0 0.077483156152585095 -0.035886304067087087 0 0.078170758400366483 -0.036340256174396374 0 0.078206770139517753 -0.036945004110374172 0 0.078616839038646677 -0.036568319626984973 0 0.078206770139517753 -0.036945004110374172 0 0.077483156152585095 -0.035886304067087087 0 0.077110421040141569 -0.036269490911089129 0 0.078206770139517753 -0.036945004110374172 0 0.077110421040141569 -0.036269490911089129 0 0.076954595254587477 -0.037671162625145409 0 0.076759765605733637 -0.035623989773382186 0 0.077006735596574116 -0.035459751957031251 0 0.077110421040141569 -0.036269490911089129 0 0.077006735596574116 -0.035459751957031251 0 0.077483156152585095 -0.035886304067087087 0 0.077110421040141569 -0.036269490911089129 0 0.076316259751941132 -0.035757674877208684 0 0.077110421040141569 -0.036269490911089129 0 0.076954595254587477 -0.037671162625145409 0 0.076954595254587477 -0.037671162625145409 0 0.076746658394975228 -0.039996469176148478 0 0.078545543414996963 -0.038530862542784823 0 0.077558239322133099 -0.042356478767345482 0 0.075609561309978451 -0.041847703291936537 0 0.076746658394975228 -0.039996469176148478 0 0.077558239322133099 -0.042356478767345482 0 0.076746658394975228 -0.039996469176148478 0 0.078545543414996963 -0.038530862542784823 0 0.078206770139517753 -0.036945004110374172 0 0.076954595254587477 -0.037671162625145409 0 0.078545543414996963 -0.038530862542784823 0 0.078545543414996963 -0.038530862542784823 0 0.080251069653998336 -0.039297975993185533 0 0.079541515509733887 -0.038413967978366673 0 0.078206770139517753 -0.036945004110374172 0 0.078545543414996963 -0.038530862542784823 0 0.078955031167172188 -0.036831506038287366 0 0.078343377047277521 -0.038004170116642297 0 0.078470905652192002 -0.037784776134422708 0 0.079543396778213413 -0.04265291414805901 0 0.078545543414996963 -0.038530862542784823 0 0.080251069653998336 -0.039297975993185533 0 0.081583286242661521 -0.039680381055406611 0 0.080716296457407591 -0.039425847994554605 0 0.078187651403475403 -0.03686544552871223 0 0.078532577972347875 -0.03806581722064499 0 0.080251069653998336 -0.039297975993185533 0 0.078532577972347875 -0.03806581722064499 0 0.080251069653998336 -0.039297975993185533 0 0.079541515509733887 -0.038413967978366673 0 0.077788176394213052 -0.036636512048766605 0 0.078955031167172188 -0.036831506038287366 0 0.078596280038837354 -0.036828421208782304 0 0.077993264334047727 -0.037760554236737423 0 0.078470905652192002 -0.037784776134422708 0 0.078206770139517753 -0.036945004110374172 0 0.078955031167172188 -0.036831506038287366 0 0.078616839038646677 -0.036568319626984973 0 0.078955031167172188 -0.036831506038287366 0 0.078616839038646677 -0.036568319626984973 0 0.078596280038837354 -0.036828421208782304 0 0.078616839038646677 -0.036568319626984973 0 0.078588741699819498 -0.036607357245823549 0 0.078596280038837354 -0.036828421208782304 0 0.078310380196312618 -0.036182466560313764 0 0.078616839038646677 -0.036568319626984973 0 0.078490473744941044 -0.036331484582838559 0 0.078616839038646677 -0.036568319626984973 0 0.078490473744941044 -0.036331484582838559 0 0.078588741699819498 -0.036607357245823549 0 0.078490473744941044 -0.036331484582838559 0 0.078588741699819498 -0.036607357245823549 0 0.078417662032944799 -0.035971110448529652 0 0.077788176394213052 -0.036636512048766605 0 0.078123362235416521 -0.037244630382095634 0 0.078596280038837354 -0.036828421208782304 0 0.078123362235416521 -0.037244630382095634 0 0.078596280038837354 -0.036828421208782304 0 0.078613838633837224 -0.037221000913127134 0 0.078588741699819498 -0.036607357245823549 0 0.078596280038837354 -0.036828421208782304 0 0.078613838633837224 -0.037221000913127134 0 0.071938469331527102 -0.038728453915878633 0 0.071549078073335187 -0.038809970213438204 0 0.072361374899175143 -0.038983922407505159 0 0.073062044190092768 -0.038412467452515517 0 0.071167686878433417 -0.03875150115153355 0 0.07069623711288596 -0.038601589758868758 0 0.071167686878433417 -0.03875150115153355 0 0.070900811563723326 -0.03868008708988542 0 0.078588741699819498 -0.036607357245823549 0 0.078613838633837224 -0.037221000913127134 0 0.078417662032944799 -0.035971110448529652 0 0.075075522362589214 -0.036772979917198002 0 0.074880589416932597 -0.035294442687299254 0 0.072361374899175143 -0.038983922407505159 0 0.071167686878433417 -0.03875150115153355 0 0.070652354816865673 -0.038870717823343545 0 0.071167686878433417 -0.03875150115153355 0 0.070900811563723326 -0.03868008708988542 0 0.070904710742285715 -0.038653049541199573 0 0.071167686878433417 -0.03875150115153355 0 0.070904710742285715 -0.038653049541199573 0 0.070860783246016454 -0.038747831847513473 0 0.070900811563723326 -0.03868008708988542 0 0.070904710742285715 -0.038653049541199573 0 0.070849487127288363 -0.038680530461548221 0 0.070904710742285715 -0.038653049541199573 0 0.070849487127288363 -0.038680530461548221 0 0.07085416694667207 -0.038677454708141622 0 0.070900811563723326 -0.03868008708988542 0 0.070849487127288363 -0.038680530461548221 0 0.070749509829513529 -0.038709662549749044 0 0.07069623711288596 -0.038601589758868758 0 0.070900811563723326 -0.03868008708988542 0 0.070749509829513529 -0.038709662549749044 0 0.070594628481611327 -0.038738494945254241 0 0.07069623711288596 -0.038601589758868758 0 0.070749509829513529 -0.038709662549749044 0 0.070594628481611327 -0.038738494945254241 0 0.070646637096879919 -0.038715121898012184 0 0.070749509829513529 -0.038709662549749044 0 0.070646637096879919 -0.038715121898012184 0 0.070749509829513529 -0.038709662549749044 0 0.070771956539189926 -0.038713308881651566 0 0.070646637096879919 -0.038715121898012184 0 0.070771956539189926 -0.038713308881651566 0 0.070693577907614311 -0.038763353255699858 0 0.070849487127288363 -0.038680530461548221 0 0.070749509829513529 -0.038709662549749044 0 0.070771956539189926 -0.038713308881651566 0 0.070771956539189926 -0.038713308881651566 0 0.070693577907614311 -0.038763353255699858 0 0.070769182755051757 -0.038784553740492854 0 0.070693577907614311 -0.038763353255699858 0 0.070769182755051757 -0.038784553740492854 0 0.070688721646905955 -0.038800841957110338 0 0.070771956539189926 -0.038713308881651566 0 0.07085416694667207 -0.038677454708141622 0 0.070769182755051757 -0.038784553740492854 0 0.075664234218480578 -0.018572469052845909 0 0.07578447642594012 -0.020109846206773259 0 0.074873130435566482 -0.01981159261384061 0 0.073912880214322255 -0.029179562592834888 0 0.072360245558461017 -0.029068743240162679 0 0.070849487127288363 -0.038680530461548221 0 0.070771956539189926 -0.038713308881651566 0 0.07085416694667207 -0.038677454708141622 0 0.075664234218480578 -0.018572469052845909 0 0.076595940266938334 -0.019489359615911347 0 0.07578447642594012 -0.020109846206773259 0 0.076595940266938334 -0.019489359615911347 0 0.077144984796931854 -0.018247535218282283 0 0.077899425743949549 -0.019113164187192014 0 0.075664234218480578 -0.018572469052845909 0 0.076595940266938334 -0.019489359615911347 0 0.077144984796931854 -0.018247535218282283 0 0.075664234218480578 -0.018572469052845909 0 0.077144984796931854 -0.018247535218282283 0 0.076421406302117426 -0.017379220348949394 0 0.07649074138972943 -0.024864756275135163 0 0.075715065921795735 -0.029861547497194919 0 0.082485180071434086 -0.023079898899615252 0 0.08414171013005986 -0.025112068649423804 0 0.082064360455028421 -0.024739897245758421 0 0.08414171013005986 -0.025112068649423804 0 0.08246186904346893 -0.026096173338505696 0 0.082064360455028421 -0.024739897245758421 0 0.070904710742285715 -0.038653049541199573 0 0.07085416694667207 -0.038677454708141622 0 0.07081615875765318 -0.038658231319635902 0 0.073912880214322255 -0.029179562592834888 0 0.075715065921795735 -0.029861547497194919 0 0.07085416694667207 -0.038677454708141622 0 0.070799364373254833 -0.038647524278017036 0 0.07081615875765318 -0.038658231319635902 0 0.075715065921795735 -0.029861547497194919 0 0.075792107156008898 -0.031096986753305658 0 0.070601595959477181 -0.038801072160789873 0 0.070716294009768518 -0.038755646949862679 0 0.070652354816865673 -0.038870717823343545 0 0.070799364373254833 -0.038647524278017036 0 0.07081615875765318 -0.038658231319635902 0 0.070716294009768518 -0.038755646949862679 0 0.070904710742285715 -0.038653049541199573 0 0.07081615875765318 -0.038658231319635902 0 0.070716294009768518 -0.038755646949862679 0 0.070904710742285715 -0.038653049541199573 0 0.070716294009768518 -0.038755646949862679 0 0.070860783246016454 -0.038747831847513473 0 0.071167686878433417 -0.03875150115153355 0 0.070860783246016454 -0.038747831847513473 0 0.070652354816865673 -0.038870717823343545 0 0.070716294009768518 -0.038755646949862679 0 0.070860783246016454 -0.038747831847513473 0 0.070652354816865673 -0.038870717823343545 0 0.076939078839597483 -0.03238713898328905 0 0.075715065921795735 -0.029861547497194919 0 0.070601595959477181 -0.038801072160789873 0 0.070674766402661918 -0.038679129176916502 0 0.070716294009768518 -0.038755646949862679 0 0.082602166971899885 -0.027698991111332345 0 0.08414171013005986 -0.025112068649423804 0 0.08246186904346893 -0.026096173338505696 0 0.082602166971899885 -0.027698991111332345 0 0.08246186904346893 -0.026096173338505696 0 0.081986445072281922 -0.02675765301945069 0 0.080727391292954753 -0.026322575248337102 0 0.081552114010666407 -0.026029179126723929 0 0.081324984753670435 -0.027006880769015428 0 0.080727391292954753 -0.026322575248337102 0 0.080058471577643245 -0.026214889158045703 0 0.080646485113238936 -0.02539728554239536 0 0.080727391292954753 -0.026322575248337102 0 0.081552114010666407 -0.026029179126723929 0 0.080646485113238936 -0.02539728554239536 0 0.08246186904346893 -0.026096173338505696 0 0.081552114010666407 -0.026029179126723929 0 0.082064360455028421 -0.024739897245758421 0 0.08246186904346893 -0.026096173338505696 0 0.081552114010666407 -0.026029179126723929 0 0.081986445072281922 -0.02675765301945069 0 0.082602166971899885 -0.027698991111332345 0 0.081986445072281922 -0.02675765301945069 0 0.081324984753670435 -0.027006880769015428 0 0.08085826783533541 -0.027485864755476326 0 0.082602166971899885 -0.027698991111332345 0 0.081324984753670435 -0.027006880769015428 0 0.081552114010666407 -0.026029179126723929 0 0.081986445072281922 -0.02675765301945069 0 0.081324984753670435 -0.027006880769015428 0 0.08085826783533541 -0.027485864755476326 0 0.081324984753670435 -0.027006880769015428 0 0.080318716561808737 -0.027009649133977718 0 0.080727391292954753 -0.026322575248337102 0 0.081324984753670435 -0.027006880769015428 0 0.080318716561808737 -0.027009649133977718 0 0.07959615516471584 -0.027934051761651733 0 0.080063588454957174 -0.027517539553217809 0 0.079404847698336292 -0.026600991503490524 0 0.080063588454957174 -0.027517539553217809 0 0.08085826783533541 -0.027485864755476326 0 0.080318716561808737 -0.027009649133977718 0 0.07959615516471584 -0.027934051761651733 0 0.079404847698336292 -0.026600991503490524 0 0.077234617685387891 -0.025513373244643266 0 0.080063588454957174 -0.027517539553217809 0 0.080318716561808737 -0.027009649133977718 0 0.079404847698336292 -0.026600991503490524 0 0.080318716561808737 -0.027009649133977718 0 0.079404847698336292 -0.026600991503490524 0 0.080058471577643245 -0.026214889158045703 0 0.080727391292954753 -0.026322575248337102 0 0.080318716561808737 -0.027009649133977718 0 0.080058471577643245 -0.026214889158045703 0 0.079404847698336292 -0.026600991503490524 0 0.080058471577643245 -0.026214889158045703 0 0.079108670555469898 -0.025382029764039131 0 0.080058471577643245 -0.026214889158045703 0 0.079108670555469898 -0.025382029764039131 0 0.080646485113238936 -0.02539728554239536 0 0.079108670555469898 -0.025382029764039131 0 0.08057661727661776 -0.023704462474060592 0 0.078965824042894706 -0.022617934523735568 0 0.079108670555469898 -0.025382029764039131 0 0.08057661727661776 -0.023704462474060592 0 0.080646485113238936 -0.02539728554239536 0 0.082485180071434086 -0.023079898899615252 0 0.08057661727661776 -0.023704462474060592 0 0.082064360455028421 -0.024739897245758421 0 0.08057661727661776 -0.023704462474060592 0 0.080646485113238936 -0.02539728554239536 0 0.082064360455028421 -0.024739897245758421 0 0.081552114010666407 -0.026029179126723929 0 0.080646485113238936 -0.02539728554239536 0 0.082064360455028421 -0.024739897245758421 0 0.082485180071434086 -0.023079898899615252 0 0.08057661727661776 -0.023704462474060592 0 0.080640267516423531 -0.021143546821948578 0 0.07649074138972943 -0.024864756275135163 0 0.077083824919111726 -0.022791505649261874 0 0.077899425743949549 -0.019113164187192014 0 0.078765444369140819 -0.020036731493764223 0 0.077405437497864743 -0.019881636662944225 0 0.076595940266938334 -0.019489359615911347 0 0.077899425743949549 -0.019113164187192014 0 0.077405437497864743 -0.019881636662944225 0 0.077083824919111726 -0.022791505649261874 0 0.077258607885332675 -0.022209701635787123 0 0.080640267516423531 -0.021143546821948578 0 0.07890140771431052 -0.021058139636432084 0 0.078765444369140819 -0.020036731493764223 0 0.080640267516423531 -0.021143546821948578 0 0.07890140771431052 -0.021058139636432084 0 0.078965824042894706 -0.022617934523735568 0 0.08057661727661776 -0.023704462474060592 0 0.080640267516423531 -0.021143546821948578 0 0.078965824042894706 -0.022617934523735568 0 0.078965824042894706 -0.022617934523735568 0 0.077079423235230274 -0.023393035302093714 0 0.077538807167275681 -0.021278195909234986 0 0.07890140771431052 -0.021058139636432084 0 0.078965824042894706 -0.022617934523735568 0 0.077538807167275681 -0.021278195909234986 0 0.07890140771431052 -0.021058139636432084 0 0.077538807167275681 -0.021278195909234986 0 0.077843975114630856 -0.019679411375812042 0 0.077538807167275681 -0.021278195909234986 0 0.075001317417036611 -0.02037602173605451 0 0.077843975114630856 -0.019679411375812042 0 0.075002174665332016 -0.020372130154931483 0 0.077058616126018192 -0.019060549472424942 0 0.077079423235230274 -0.023393035302093714 0 0.077538807167275681 -0.021278195909234986 0 0.075001317417036611 -0.02037602173605451 0 0.077079423235230274 -0.023393035302093714 0 0.075001317417036611 -0.02037602173605451 0 0.074998885128581078 -0.023320730920702679 0 0.077079423235230274 -0.023393035302093714 0 0.074998885128581078 -0.023320730920702679 0 0.077234617685387891 -0.025513373244643266 0 0.075000028267953336 -0.023322769328898589 0 0.077631497193219365 -0.026080405506618446 0 0.074999845300430426 -0.026541445051694673 0 0.07500206375587716 -0.023324695090301422 0 0.077157187463703272 -0.02540121078305143 0 0.079108670555469898 -0.025382029764039131 0 0.077079423235230274 -0.023393035302093714 0 0.077234617685387891 -0.025513373244643266 0 0.079108670555469898 -0.025382029764039131 0 0.078965824042894706 -0.022617934523735568 0 0.077079423235230274 -0.023393035302093714 0 0.07832139518389801 -0.026509644025596954 0 0.077157187463703272 -0.02540121078305143 0 0.079404847698336292 -0.026600991503490524 0 0.079108670555469898 -0.025382029764039131 0 0.077234617685387891 -0.025513373244643266 0 0.077795647749732147 -0.028790859873349044 0 0.07959615516471584 -0.027934051761651733 0 0.077631497193219365 -0.026080405506618446 0 0.077795647749732147 -0.028790859873349044 0 0.077631497193219365 -0.026080405506618446 0 0.076465365285772594 -0.027736132387547997 0 0.075000038639993577 -0.029759422576072038 0 0.076465365285772594 -0.027736132387547997 0 0.074999845300430426 -0.026541445051694673 0 0.077631497193219365 -0.026080405506618446 0 0.076465365285772594 -0.027736132387547997 0 0.074999845300430426 -0.026541445051694673 0 0.077139710783206805 -0.011264243537001286 0 0.075000137381722246 -0.010657535661833665 0 0.077870142844441381 -0.0094030376397998341 0 0.075002965203524896 -0.010655662953647784 0 0.077760977100304149 -0.00924001640903966 0 0.077139710783206805 -0.011264243537001286 0 0.079159634051184785 -0.0093064526247484576 0 0.077870142844441381 -0.0094030376397998341 0 0.077133428415821118 -0.011500175459748609 0 0.079292202767998102 -0.01115694039685698 0 0.079159634051184785 -0.0093064526247484576 0 0.077133428415821118 -0.011500175459748609 0 0.079292202767998102 -0.01115694039685698 0 0.078568554624515494 -0.012595734331577273 0 0.076740741502284965 -0.011821621424526502 0 0.077657245757938295 -0.010827208097037347 0 0.077133428415821118 -0.011500175459748609 0 0.078568554624515494 -0.012595734331577273 0 0.077659666691747314 -0.014244013655382682 0 0.078568554624515494 -0.012595734331577273 0 0.077659666691747314 -0.014244013655382682 0 0.080356393233852852 -0.014958950427522814 0 0.077133428415821118 -0.011500175459748609 0 0.074999992577772734 -0.013718642494686311 0 0.077659666691747314 -0.014244013655382682 0 0.076740741502284965 -0.011821621424526502 0 0.075002035823865831 -0.013716057517596393 0 0.077139710783206805 -0.011264243537001286 0 0.075000137381722246 -0.010657535661833665 0 0.074999904931753777 -0.013717912449003548 0 0.07499991255108876 -0.017045399916189568 0 0.07777298609541744 -0.017621786478408109 0 0.077659666691747314 -0.014244013655382682 0 0.074999992577772734 -0.013718642494686311 0 0.07499991255108876 -0.017045399916189568 0 0.077659666691747314 -0.014244013655382682 0 0.075000017168213806 -0.02037295955526117 0 0.07499991255108876 -0.017045399916189568 0 0.07777298609541744 -0.017621786478408109 0 0.07777298609541744 -0.017621786478408109 0 0.077659666691747314 -0.014244013655382682 0 0.080356393233852852 -0.014958950427522814 0 0.077058616126018192 -0.019060549472424942 0 0.078548937547071873 -0.018085728950005778 0 0.078892075026866473 -0.020968787853020129 0 0.078765444369140819 -0.020036731493764223 0 0.077668660687728278 -0.020618130106214258 0 0.077843975114630856 -0.019679411375812042 0 0.078892075026866473 -0.020968787853020129 0 0.078765444369140819 -0.020036731493764223 0 0.07890140771431052 -0.021058139636432084 0 0.077843975114630856 -0.019679411375812042 0 0.078765444369140819 -0.020036731493764223 0 0.078765444369140819 -0.020036731493764223 0 0.077405437497864743 -0.019881636662944225 0 0.077668660687728278 -0.020618130106214258 0 0.078892075026866473 -0.020968787853020129 0 0.077668660687728278 -0.020618130106214258 0 0.077371706288718242 -0.023479298054399397 0 0.078548937547071873 -0.018085728950005778 0 0.079070583558172716 -0.017527396083069836 0 0.078568554624515494 -0.012595734331577273 0 0.080356393233852852 -0.014958950427522814 0 0.080328508317421998 -0.012212660133459795 0 0.080356393233852852 -0.014958950427522814 0 0.082753456993356289 -0.012508497986519346 0 0.080328508317421998 -0.012212660133459795 0 0.079292202767998102 -0.01115694039685698 0 0.078568554624515494 -0.012595734331577273 0 0.080328508317421998 -0.012212660133459795 0 0.079292202767998102 -0.01115694039685698 0 0.080328508317421998 -0.012212660133459795 0 0.081333382226191242 -0.010268491516739215 0 0.079292202767998102 -0.01115694039685698 0 0.081333382226191242 -0.010268491516739215 0 0.079159634051184785 -0.0093064526247484576 0 0.082753456993356289 -0.012508497986519346 0 0.080328508317421998 -0.012212660133459795 0 0.081333382226191242 -0.010268491516739215 0 0.082753456993356289 -0.012508497986519346 0 0.081333382226191242 -0.010268491516739215 0 0.085085240638561432 -0.010242057359284564 0 0.077371706288718242 -0.023479298054399397 0 0.075172722550702634 -0.025868086166534233 0 0.074395683631939241 -0.023434763004119893 0 0.079070583558172716 -0.017527396083069836 0 0.078661833546281854 -0.017013565085424467 0 0.075172722550702634 -0.025868086166534233 0 0.074395683631939241 -0.023434763004119893 0 0.073260385870170974 -0.025187164999225291 0 0.077371706288718242 -0.023479298054399397 0 0.074395683631939241 -0.023434763004119893 0 0.075376567786431842 -0.021032496799289195 0 0.076459265988819913 -0.023180495296123711 0 0.075645206428215747 -0.023724892682741961 0 0.077668660687728278 -0.020618130106214258 0 0.077371706288718242 -0.023479298054399397 0 0.075376567786431842 -0.021032496799289195 0 0.077405437497864743 -0.019881636662944225 0 0.077668660687728278 -0.020618130106214258 0 0.076527472798141705 -0.020819480354429633 0 0.076595940266938334 -0.019489359615911347 0 0.077405437497864743 -0.019881636662944225 0 0.076527472798141705 -0.020819480354429633 0 0.076595940266938334 -0.019489359615911347 0 0.076527472798141705 -0.020819480354429633 0 0.07578447642594012 -0.020109846206773259 0 0.075645206428215747 -0.023724892682741961 0 0.073753836791830271 -0.025431408207898298 0 0.076527472798141705 -0.020819480354429633 0 0.07578447642594012 -0.020109846206773259 0 0.075344700821582719 -0.021009104543330635 0 0.074395683631939241 -0.023434763004119893 0 0.075376567786431842 -0.021032496799289195 0 0.073005911449672445 -0.021449231470599874 0 0.075344700821582719 -0.021009104543330635 0 0.074692098510146798 -0.020666114252453367 0 0.074074448679664048 -0.021098202610264471 0 0.073005911449672445 -0.021449231470599874 0 0.070325613853685562 -0.021629606701946906 0 0.07204736442647236 -0.02373397970370426 0 0.073753836791830271 -0.025431408207898298 0 0.070471797818926596 -0.028918488595541112 0 0.07578447642594012 -0.020109846206773259 0 0.075344700821582719 -0.021009104543330635 0 0.074692098510146798 -0.020666114252453367 0 0.07578447642594012 -0.020109846206773259 0 0.074692098510146798 -0.020666114252453367 0 0.074873130435566482 -0.01981159261384061 0 0.070769182755051757 -0.038784553740492854 0 0.070688721646905955 -0.038800841957110338 0 0.070693361882815345 -0.038870372934607197 0 0.074692098510146798 -0.020666114252453367 0 0.074873130435566482 -0.01981159261384061 0 0.074074448679664048 -0.021098202610264471 0 0.072360245558461017 -0.029068743240162679 0 0.070471797818926596 -0.028918488595541112 0 0.070688721646905955 -0.038800841957110338 0 0.070693361882815345 -0.038870372934607197 0 0.070599140848260938 -0.038793148856658716 0 0.067265405634582248 -0.035092355712892938 0 0.067350073088229045 -0.034957199488848414 0 0.068345145506547564 -0.03565681302516794 0 0.070474108796068011 -0.02184728391970488 0 0.070349952710919761 -0.022030184469288071 0 0.070531770569414051 -0.022928988942364316 0 0.070471797818926596 -0.028918488595541112 0 0.07001022140063981 -0.029362084494811928 0 0.070349952710919761 -0.022030184469288071 0 0.070531770569414051 -0.022928988942364316 0 0.068756391865872693 -0.024747752063069953 0 0.070471797818926596 -0.028918488595541112 0 0.069820397986867899 -0.026900038084532389 0 0.070474108796068011 -0.02184728391970488 0 0.070531770569414051 -0.022928988942364316 0 0.07204736442647236 -0.02373397970370426 0 0.070520308562065606 -0.024034912324936108 0 0.070615029938336599 -0.024939200664008555 0 0.068756391865872693 -0.024747752063069953 0 0.070531770569414051 -0.022928988942364316 0 0.070520308562065606 -0.024034912324936108 0 0.068756391865872693 -0.024747752063069953 0 0.07204736442647236 -0.02373397970370426 0 0.071922209604680529 -0.025054018637022172 0 0.070615029938336599 -0.024939200664008555 0 0.070520308562065606 -0.024034912324936108 0 0.07204736442647236 -0.02373397970370426 0 0.070615029938336599 -0.024939200664008555 0 0.070531770569414051 -0.022928988942364316 0 0.070520308562065606 -0.024034912324936108 0 0.07204736442647236 -0.02373397970370426 0 0.074395683631939241 -0.023434763004119893 0 0.073005911449672445 -0.021449231470599874 0 0.07204736442647236 -0.02373397970370426 0 0.074395683631939241 -0.023434763004119893 0 0.07204736442647236 -0.02373397970370426 0 0.073260385870170974 -0.025187164999225291 0 0.07204736442647236 -0.02373397970370426 0 0.071922209604680529 -0.025054018637022172 0 0.073260385870170974 -0.025187164999225291 0 0.071922209604680529 -0.025054018637022172 0 0.073260385870170974 -0.025187164999225291 0 0.071793419547497239 -0.026283996389635036 0 0.075685862079299074 -0.021429027989145498 0 0.076193884516429278 -0.020681855634223881 0 0.070615029938336599 -0.024939200664008555 0 0.071745263317926064 -0.026938427607936938 0 0.069409302843638457 -0.027036501714510552 0 0.071922209604680529 -0.025054018637022172 0 0.070615029938336599 -0.024939200664008555 0 0.071793419547497239 -0.026283996389635036 0 0.069852387538343219 -0.028121621910585665 0 0.070895226920440313 -0.028667412818020696 0 0.069011521966327011 -0.028863397933465366 0 0.069852387538343219 -0.028121621910585665 0 0.071745263317926064 -0.026938427607936938 0 0.070895226920440313 -0.028667412818020696 0 0.069852387538343219 -0.028121621910585665 0 0.071745263317926064 -0.026938427607936938 0 0.069409302843638457 -0.027036501714510552 0 0.073260385870170974 -0.025187164999225291 0 0.071793419547497239 -0.026283996389635036 0 0.072958799527833323 -0.027917090430053207 0 0.071745263317926064 -0.026938427607936938 0 0.072786212532749209 -0.028547114565059824 0 0.070895226920440313 -0.028667412818020696 0 0.076193884516429278 -0.020681855634223881 0 0.076659833498382499 -0.016517915079502291 0 0.076659833498382499 -0.016517915079502291 0 0.072036507626162427 -0.017668797456749884 0 0.076525489691317977 -0.009649518056933773 0 0.075112789175439232 -0.010922855291135285 0 0.076376874123504815 -0.010934150684265068 0 0.070895226920440313 -0.028667412818020696 0 0.070554846684524483 -0.030469763749048882 0 0.069011521966327011 -0.028863397933465366 0 0.072786212532749209 -0.028547114565059824 0 0.070895226920440313 -0.028667412818020696 0 0.070554846684524483 -0.030469763749048882 0 0.075112789175439232 -0.010922855291135285 0 0.074823591877396511 -0.012038303573676754 0 0.075966276167089022 -0.01211294111883944 0 0.074304896305086993 -0.013045064988782672 0 0.074823591877396511 -0.012038303573676754 0 0.075966276167089022 -0.01211294111883944 0 0.072923676508639151 -0.0042255396427621052 0 0.080040800024611031 -0.0054813408684420382 0 0.092698131424074945 0.000180122040579247 0 0.089993340074593156 0.00081389214047320217 0 0.089486316988591247 -0.0016753302060861395 0 0.088019253192220884 9.8631919081392736e-05 0 0.089486316988591247 -0.0016753302060861395 0 0.086857493514156101 -0.0012922747687542948 0 0.089993340074593156 0.00081389214047320217 0 0.088019253192220884 9.8631919081392736e-05 0 0.089486316988591247 -0.0016753302060861395 0 0.075966276167089022 -0.01211294111883944 0 0.076376874123504815 -0.010934150684265068 0 0.077611411487139056 -0.011182738635134771 0 0.075112789175439232 -0.010922855291135285 0 0.075966276167089022 -0.01211294111883944 0 0.076376874123504815 -0.010934150684265068 0 0.080040800024611031 -0.0054813408684420382 0 0.080905167758328608 -0.0083984937507626863 0 0.089486316988591247 -0.0016753302060861395 0 0.086329297169211061 -0.0034989513108338948 0 0.086857493514156101 -0.0012922747687542948 0 0.086329297169211061 -0.0034989513108338948 0 0.086857493514156101 -0.0012922747687542948 0 0.085032773257084915 -0.0016285289176631457 0 0.085450832195797674 0.0011172659462743702 0 0.086857493514156101 -0.0012922747687542948 0 0.085032773257084915 -0.0016285289176631457 0 0.080905167758328608 -0.0083984937507626863 0 0.082211682171448822 -0.0071561254640452234 0 0.086452321505166768 -0.0036555204320577908 0 0.083640519681615566 -0.0053094179232174568 0 0.0834534975972928 -0.0031131427920608854 0 0.086452321505166768 -0.0036555204320577908 0 0.085032773257084915 -0.0016285289176631457 0 0.0834534975972928 -0.0031131427920608854 0 0.080905167758328608 -0.0083984937507626863 0 0.081068874169213642 -0.0072235925616081385 0 0.08551377651656121 -0.0053882689766886344 0 0.084994038112615009 -0.0077170318404497255 0 0.083057477397941143 -0.0067593681338152843 0 0.084994038112615009 -0.0077170318404497255 0 0.083047202645478407 -0.008597313460895567 0 0.083057477397941143 -0.0067593681338152843 0 0.076659833498382499 -0.016517915079502291 0 0.080905167758328608 -0.0083984937507626863 0 0.076525489691317977 -0.009649518056933773 0 0.076376874123504815 -0.010934150684265068 0 0.077611411487139056 -0.011182738635134771 0 0.087382631212832559 -0.0080773494623439437 0 0.08551377651656121 -0.0053882689766886344 0 0.084994038112615009 -0.0077170318404497255 0 0.075172722550702634 -0.025868086166534233 0 0.073260385870170974 -0.025187164999225291 0 0.072958799527833323 -0.027917090430053207 0 0.078661833546281854 -0.017013565085424467 0 0.076659833498382499 -0.016517915079502291 0 0.085085240638561432 -0.010242057359284564 0 0.087382631212832559 -0.0080773494623439437 0 0.084994038112615009 -0.0077170318404497255 0 0.085085240638561432 -0.010242057359284564 0 0.084994038112615009 -0.0077170318404497255 0 0.083047202645478407 -0.008597313460895567 0 0.081333382226191242 -0.010268491516739215 0 0.085085240638561432 -0.010242057359284564 0 0.083047202645478407 -0.008597313460895567 0 0.081333382226191242 -0.010268491516739215 0 0.083047202645478407 -0.008597313460895567 0 0.080529239597793567 -0.0081034466527915069 0 0.081333382226191242 -0.010268491516739215 0 0.080529239597793567 -0.0081034466527915069 0 0.079159634051184785 -0.0093064526247484576 0 0.080844143094554427 -0.0070306810428746565 0 0.081190958402665298 -0.0035610580950377422 0 0.078219045197132395 -0.0047784843319361647 0 0.080368823048062199 -0.007934072312737489 0 0.082211682171448822 -0.0071561254640452234 0 0.083047202645478407 -0.008597313460895567 0 0.080529239597793567 -0.0081034466527915069 0 0.083057477397941143 -0.0067593681338152843 0 0.080844143094554427 -0.0070306810428746565 0 0.083640519681615566 -0.0053094179232174568 0 0.081190958402665298 -0.0035610580950377422 0 0.083640519681615566 -0.0053094179232174568 0 0.0834534975972928 -0.0031131427920608854 0 0.081190958402665298 -0.0035610580950377422 0 0.082160641025036632 -3.4841150225168982e-05 0 0.085032773257084915 -0.0016285289176631457 0 0.0834534975972928 -0.0031131427920608854 0 0.082160641025036632 -3.4841150225168982e-05 0 0.0834534975972928 -0.0031131427920608854 0 0.081190958402665298 -0.0035610580950377422 0 0.082154739267726179 0.00011708337196542098 0 0.079138412759058127 -0.00091635446307763372 0 0.082160641025036632 -3.4841150225168982e-05 0 0.081190958402665298 -0.0035610580950377422 0 0.07876480479147209 -0.0011669855987810165 0 0.081190958402665298 -0.0035610580950377422 0 0.07876480479147209 -0.0011669855987810165 0 0.078219045197132395 -0.0047784843319361647 0 0.07876480479147209 -0.0011669855987810165 0 0.075265533299598245 -0.0022633066793948239 0 0.078219045197132395 -0.0047784843319361647 0 0.075000004211139615 0.0022826879258619707 0 0.076634286741799285 -0.00033502974466382516 0 0.07499997617973278 -0.002030590184977307 0 0.078829721746660683 -0.0009381111235957384 0 0.076634286741799285 -0.00033502974466382516 0 0.075265533299598245 -0.0022633066793948239 0 0.079138412759058127 -0.00091635446307763372 0 0.077433606040562111 -0.001498114463063251 0 0.076634286741799285 -0.00033502974466382516 0 0.075265533299598245 -0.0022633066793948239 0 0.07499997617973278 -0.002030590184977307 0 0.075265533299598245 -0.0022633066793948239 0 0.07499997617973278 -0.002030590184977307 0 0.074999943222115228 -0.006343710903151562 0 0.075265533299598245 -0.0022633066793948239 0 0.074999943222115228 -0.006343710903151562 0 0.078219045197132395 -0.0047784843319361647 0 0.074999943222115228 -0.006343710903151562 0 0.078219045197132395 -0.0047784843319361647 0 0.077966913741033234 -0.0088260024219443747 0 0.080844143094554427 -0.0070306810428746565 0 0.078219045197132395 -0.0047784843319361647 0 0.077966913741033234 -0.0088260024219443747 0 0.080529239597793567 -0.0081034466527915069 0 0.079159634051184785 -0.0093064526247484576 0 0.077870142844441381 -0.0094030376397998341 0 0.080368823048062199 -0.007934072312737489 0 0.077760977100304149 -0.00924001640903966 0 0.074999970865549756 -0.010656880925129581 0 0.074999943222115228 -0.006343710903151562 0 0.077966913741033234 -0.0088260024219443747 0 0.066189734713858819 -0.030269013083059869 0 0.065123504034247451 -0.030070174745039532 0 0.065069146503922107 -0.031564094541342187 0 0.066189734713858819 -0.030269013083059869 0 0.067003379011689526 -0.031555577537089888 0 0.065069146503922107 -0.031564094541342187 0 0.065123504034247451 -0.030070174745039532 0 0.065069146503922107 -0.031564094541342187 0 0.064026653220574783 -0.029997561023157485 0 0.069210409107425305 -0.03282601360471743 0 0.067997492836764428 -0.030604169161600359 0 0.065123504034247451 -0.030070174745039532 0 0.064026653220574783 -0.029997561023157485 0 0.064601730217696829 -0.028913027519003546 0 0.065123504034247451 -0.030070174745039532 0 0.065538538267614105 -0.029645590078085867 0 0.064601730217696829 -0.028913027519003546 0 0.065538538267614105 -0.029645590078085867 0 0.066240031066682858 -0.02932346560885166 0 0.064601730217696829 -0.028913027519003546 0 0.066189734713858819 -0.030269013083059869 0 0.065123504034247451 -0.030070174745039532 0 0.065538538267614105 -0.029645590078085867 0 0.066189734713858819 -0.030269013083059869 0 0.065538538267614105 -0.029645590078085867 0 0.066240031066682858 -0.02932346560885166 0 0.065759786484036645 -0.028703406520536826 0 0.066544899832630885 -0.028978227901859669 0 0.066189734713858819 -0.030269013083059869 0 0.066240031066682858 -0.02932346560885166 0 0.067655174019245728 -0.029558115486848561 0 0.067655174019245728 -0.029558115486848561 0 0.067003379011689526 -0.031555577537089888 0 0.068701060809693973 -0.031697723803973024 0 0.066189734713858819 -0.030269013083059869 0 0.067655174019245728 -0.029558115486848561 0 0.067003379011689526 -0.031555577537089888 0 0.067003379011689526 -0.031555577537089888 0 0.068024422985159094 -0.033118582029813076 0 0.066320935744243525 -0.033335761299818308 0 0.067003379011689526 -0.031555577537089888 0 0.068701060809693973 -0.031697723803973024 0 0.068024422985159094 -0.033118582029813076 0 0.06854463172218668 -0.035211949794880071 0 0.068024422985159094 -0.033118582029813076 0 0.069248477766758618 -0.033484119355854249 0 0.068701060809693973 -0.031697723803973024 0 0.068024422985159094 -0.033118582029813076 0 0.069248477766758618 -0.033484119355854249 0 0.06854463172218668 -0.035211949794880071 0 0.068024422985159094 -0.033118582029813076 0 0.066320935744243525 -0.033335761299818308 0 0.073766697178827778 -0.038036383380736054 0 0.074316237197318405 -0.037043732643834704 0 0.073358246568528435 -0.037026395095310957 0 0.074316237197318405 -0.037043732643834704 0 0.073959744809949268 -0.034698299704350552 0 0.073358246568528435 -0.037026395095310957 0 0.070091893286350043 -0.034651909749759881 0 0.069210409107425305 -0.03282601360471743 0 0.067003379011689526 -0.031555577537089888 0 0.066320935744243525 -0.033335761299818308 0 0.065069146503922107 -0.031564094541342187 0 0.073959744809949268 -0.034698299704350552 0 0.073358246568528435 -0.037026395095310957 0 0.072190588051651572 -0.035431725607010599 0 0.073358246568528435 -0.037026395095310957 0 0.072090842097427152 -0.037074499691304615 0 0.072190588051651572 -0.035431725607010599 0 0.072090842097427152 -0.037074499691304615 0 0.072190588051651572 -0.035431725607010599 0 0.070266698389290533 -0.036247776728068018 0 0.070574718139550324 -0.0343861431668636 0 0.072190588051651572 -0.035431725607010599 0 0.070266698389290533 -0.036247776728068018 0 0.070574718139550324 -0.0343861431668636 0 0.072190588051651572 -0.035431725607010599 0 0.071548525351087466 -0.033254829343347773 0 0.073959744809949268 -0.034698299704350552 0 0.072190588051651572 -0.035431725607010599 0 0.071548525351087466 -0.033254829343347773 0 0.070471797818926596 -0.028918488595541112 0 0.071515980482803956 -0.034954249702109412 0 0.067265405634582248 -0.035092355712892938 0 0.068693446064359689 -0.036831111493424828 0 0.068345145506547564 -0.03565681302516794 0 0.068693446064359689 -0.036831111493424828 0 0.070266698389290533 -0.036247776728068018 0 0.068345145506547564 -0.03565681302516794 0 0.070266698389290533 -0.036247776728068018 0 0.069095159001390016 -0.034736874143771981 0 0.068345145506547564 -0.03565681302516794 0 0.070574718139550324 -0.0343861431668636 0 0.070266698389290533 -0.036247776728068018 0 0.069095159001390016 -0.034736874143771981 0 0.069060648137570485 -0.031996311826192697 0 0.068578062369089754 -0.031493806907509955 0 0.07001022140063981 -0.029362084494811928 0 0.068578062369089754 -0.031493806907509955 0 0.067350073088229045 -0.034957199488848414 0 0.069095159001390016 -0.034736874143771981 0 0.068345145506547564 -0.03565681302516794 0 0.063395854552961706 -0.035304819086480407 0 0.066947718998357941 -0.034877181772897177 0 0.065423403003061181 -0.031917471368636131 0 0.07001022140063981 -0.029362084494811928 0 0.068770091738904332 -0.029014693012993899 0 0.070574718139550324 -0.0343861431668636 0 0.066947718998357941 -0.034877181772897177 0 0.068755299675777828 -0.032834969629645216 0 0.065423403003061181 -0.031917471368636131 0 0.068755299675777828 -0.032834969629645216 0 0.067666222500787812 -0.030840685261713609 0 0.066947718998357941 -0.034877181772897177 0 0.065423403003061181 -0.031917471368636131 0 0.068755299675777828 -0.032834969629645216 0 0.065423403003061181 -0.031917471368636131 0 0.067666222500787812 -0.030840685261713609 0 0.067714830762153663 -0.028197288970987042 0 0.068755299675777828 -0.032834969629645216 0 0.067666222500787812 -0.030840685261713609 0 0.069811206174351256 -0.03108811944418504 0 0.068390633695132472 -0.029533030150615244 0 0.067666222500787812 -0.030840685261713609 0 0.069811206174351256 -0.03108811944418504 0 0.068390633695132472 -0.029533030150615244 0 0.067666222500787812 -0.030840685261713609 0 0.067714830762153663 -0.028197288970987042 0 0.068770091738904332 -0.029014693012993899 0 0.06857094114091046 -0.028736778403511035 0 0.070615029938336599 -0.024939200664008555 0 0.068756391865872693 -0.024747752063069953 0 0.069409302843638457 -0.027036501714510552 0 0.068756391865872693 -0.024747752063069953 0 0.069409302843638457 -0.027036501714510552 0 0.067714830762153663 -0.028197288970987042 0 0.073959744809949268 -0.034698299704350552 0 0.071548525351087466 -0.033254829343347773 0 0.072852457977882271 -0.031593237620090128 0 0.070574718139550324 -0.0343861431668636 0 0.068755299675777828 -0.032834969629645216 0 0.071548525351087466 -0.033254829343347773 0 0.068755299675777828 -0.032834969629645216 0 0.071548525351087466 -0.033254829343347773 0 0.069811206174351256 -0.03108811944418504 0 0.069811206174351256 -0.03108811944418504 0 0.072852457977882271 -0.031593237620090128 0 0.07063550439056715 -0.028004305796817893 0 0.068390633695132472 -0.029533030150615244 0 0.069811206174351256 -0.03108811944418504 0 0.069196918213786568 -0.029160451002993287 0 0.067997492836764428 -0.030604169161600359 0 0.06624848399732805 -0.02784658258888505 0 0.071548525351087466 -0.033254829343347773 0 0.069811206174351256 -0.03108811944418504 0 0.072852457977882271 -0.031593237620090128 0 0.06624848399732805 -0.02784658258888505 0 0.064847508285084607 -0.028178584234222048 0 0.061373944150813146 -0.027884990716358322 0 0.062480469647848431 -0.027285293669340419 0 0.063203955548928728 -0.028354514109410481 0 0.064026653220574783 -0.029997561023157485 0 0.062987344842566434 -0.028519486883465978 0 0.064601730217696829 -0.028913027519003546 0 0.06624848399732805 -0.02784658258888505 0 0.066848834492196196 -0.027230689558704207 0 0.069811206174351256 -0.03108811944418504 0 0.069196918213786568 -0.029160451002993287 0 0.07063550439056715 -0.028004305796817893 0 0.069196918213786568 -0.029160451002993287 0 0.07063550439056715 -0.028004305796817893 0 0.068216362708967485 -0.028199854101088689 0 0.065853952283422848 -0.027457560520323502 0 0.066103040850929454 -0.027800947837574141 0 0.066449267175635054 -0.027599261657195756 0 0.061373944150813146 -0.027884990716358322 0 0.060723006138529413 -0.026977315196162491 0 0.062480469647848431 -0.027285293669340419 0 0.066190158380191169 -0.026450772663186579 0 0.064290926176950466 -0.026421711298560694 0 0.062391974618701752 -0.025868967106609485 0 0.063235090795628418 -0.025384549105866325 0 0.062562792982675988 -0.025198232343682195 0 0.06624848399732805 -0.02784658258888505 0 0.066190158380191169 -0.026450772663186579 0 0.060723006138529413 -0.026977315196162491 0 0.062480469647848431 -0.027285293669340419 0 0.062108825226265332 -0.026155929065971729 0 0.062480469647848431 -0.027285293669340419 0 0.062108825226265332 -0.026155929065971729 0 0.063201408124483979 -0.026488821464048077 0 0.069409302843638457 -0.027036501714510552 0 0.068519835223042849 -0.028046937191287546 0 0.067714830762153663 -0.028197288970987042 0 0.069852387538343219 -0.028121621910585665 0 0.068519835223042849 -0.028046937191287546 0 0.069011521966327011 -0.028863397933465366 0 0.069852387538343219 -0.028121621910585665 0 0.069409302843638457 -0.027036501714510552 0 0.068519835223042849 -0.028046937191287546 0 0.068519835223042849 -0.028046937191287546 0 0.067866840379337073 -0.028052249708659653 0 0.069011521966327011 -0.028863397933465366 0 0.07063550439056715 -0.028004305796817893 0 0.067960390188664913 -0.02774926141429879 0 0.068216362708967485 -0.028199854101088689 0 0.068519835223042849 -0.028046937191287546 0 0.06804250301840839 -0.028090363869965884 0 0.067866840379337073 -0.028052249708659653 0 0.06804250301840839 -0.028090363869965884 0 0.067866840379337073 -0.028052249708659653 0 0.068216362708967485 -0.028199854101088689 0 0.067866840379337073 -0.028052249708659653 0 0.067960390188664913 -0.02774926141429879 0 0.068216362708967485 -0.028199854101088689 0 0.0668576692321948 -0.027228597874751344 0 0.066848834492196196 -0.027230689558704207 0 0.068519835223042849 -0.028046937191287546 0 0.06804250301840839 -0.028090363869965884 0 0.067714830762153663 -0.028197288970987042 0 0.06804250301840839 -0.028090363869965884 0 0.067714830762153663 -0.028197288970987042 0 0.068216362708967485 -0.028199854101088689 0 0.068390633695132472 -0.029533030150615244 0 0.067714830762153663 -0.028197288970987042 0 0.068216362708967485 -0.028199854101088689 0 0.068390633695132472 -0.029533030150615244 0 0.069196918213786568 -0.029160451002993287 0 0.068216362708967485 -0.028199854101088689 0 0.067866840379337073 -0.028052249708659653 0 0.067696449930094174 -0.028123047974318569 0 0.069011521966327011 -0.028863397933465366 0 0.066190158380191169 -0.026450772663186579 0 0.066848834492196196 -0.027230689558704207 0 0.066170548140908003 -0.029159864053665357 0 0.067367044698198153 -0.028464705761897059 0 0.067257938079728435 -0.029248680792434877 0 0.066170548140908003 -0.029159864053665357 0 0.067257938079728435 -0.029248680792434877 0 0.067559980864258531 -0.030039971044665315 0 0.066170548140908003 -0.029159864053665357 0 0.067559980864258531 -0.030039971044665315 0 0.067290666182718339 -0.03070564860114192 0 0.066190158380191169 -0.026450772663186579 0 0.067605369675677873 -0.021970649212173708 0 0.067257938079728435 -0.029248680792434877 0 0.067559980864258531 -0.030039971044665315 0 0.067934276117889061 -0.029330010027981249 0 0.067367044698198153 -0.028464705761897059 0 0.067257938079728435 -0.029248680792434877 0 0.067934276117889061 -0.029330010027981249 0 0.070554846684524483 -0.030469763749048882 0 0.068746798695988376 -0.029920214736691007 0 0.069011521966327011 -0.028863397933465366 0 0.067367044698198153 -0.028464705761897059 0 0.067934276117889061 -0.029330010027981249 0 0.069011521966327011 -0.028863397933465366 0 0.066848834492196196 -0.027230689558704207 0 0.067531440456665578 -0.027503489292184571 0 0.067934276117889061 -0.029330010027981249 0 0.068746798695988376 -0.029920214736691007 0 0.069011521966327011 -0.028863397933465366 0 0.067559980864258531 -0.030039971044665315 0 0.067934276117889061 -0.029330010027981249 0 0.068746798695988376 -0.029920214736691007 0 0.072036507626162427 -0.017668797456749884 0 0.070336529855512378 -0.013654277365825579 0 0.070554846684524483 -0.030469763749048882 0 0.068724252274798406 -0.030911127119986975 0 0.068436350946049024 -0.032301620490585929 0 0.070554846684524483 -0.030469763749048882 0 0.068746798695988376 -0.029920214736691007 0 0.068724252274798406 -0.030911127119986975 0 0.075112789175439232 -0.010922855291135285 0 0.074823591877396511 -0.012038303573676754 0 0.073689636316363993 -0.01220252247746971 0 0.067559980864258531 -0.030039971044665315 0 0.068746798695988376 -0.029920214736691007 0 0.068724252274798406 -0.030911127119986975 0 0.068724252274798406 -0.030911127119986975 0 0.06728876807301945 -0.030721752770586905 0 0.068436350946049024 -0.032301620490585929 0 0.067605369675677873 -0.021970649212173708 0 0.065794099836902292 -0.019280866167245534 0 0.061872522844711779 -0.025148841913714606 0 0.062195254557282371 -0.024302683045081697 0 0.062562792982675988 -0.025198232343682195 0 0.067605369675677873 -0.021970649212173708 0 0.070336529855512378 -0.013654277365825579 0 0.067559980864258531 -0.030039971044665315 0 0.068724252274798406 -0.030911127119986975 0 0.06728876807301945 -0.030721752770586905 0 0.067437773445310378 -0.022548957299861894 0 0.067605369675677873 -0.021970649212173708 0 0.065596650863944644 -0.014040026559609059 0 0.070336529855512378 -0.013654277365825579 0 0.066709200671601673 -0.015518229514575842 0 0.066673395610974809 -0.015769652344087989 0 0.066417545191968561 -0.015802037231959266 0 0.066578870433469536 -0.016034067395087608 0 0.066673395610974809 -0.015769652344087989 0 0.066417545191968561 -0.015802037231959266 0 0.074304896305086993 -0.013045064988782672 0 0.074823591877396511 -0.012038303573676754 0 0.073689636316363993 -0.01220252247746971 0 0.068355005894969567 -0.0079313079668282948 0 0.070193188375463678 -0.0072499243014398874 0 0.068947486367088529 -0.0055365590454322586 0 0.072923676508639151 -0.0042255396427621052 0 0.070336529855512378 -0.013654277365825579 0 0.064290926176950466 -0.026421711298560694 0 0.064329593266437335 -0.025858149552703685 0 0.063235090795628418 -0.025384549105866325 0 0.063530288446533439 -0.024668258232075493 0 0.064099798399922511 -0.024917116978918998 0 0.063235090795628418 -0.025384549105866325 0 0.062901287250235874 -0.024641654718295602 0 0.063530288446533439 -0.024668258232075493 0 0.063235090795628418 -0.025384549105866325 0 0.062562792982675988 -0.025198232343682195 0 0.062901287250235874 -0.024641654718295602 0 0.062195254557282371 -0.024302683045081697 0 0.062562792982675988 -0.025198232343682195 0 0.062901287250235874 -0.024641654718295602 0 0.062391974618701752 -0.025868967106609485 0 0.061872522844711779 -0.025148841913714606 0 0.062562792982675988 -0.025198232343682195 0 0.062195254557282371 -0.024302683045081697 0 0.062901287250235874 -0.024641654718295602 0 0.062704889045973558 -0.024106247751545632 0 0.06252024741677209 -0.023438500252063357 0 0.062195254557282371 -0.024302683045081697 0 0.062704889045973558 -0.024106247751545632 0 0.062901287250235874 -0.024641654718295602 0 0.062704889045973558 -0.024106247751545632 0 0.063242870544715474 -0.024032832087641468 0 0.063242870544715474 -0.024032832087641468 0 0.063530288446533439 -0.024668258232075493 0 0.064303432059274163 -0.024065449051098437 0 0.062901287250235874 -0.024641654718295602 0 0.063242870544715474 -0.024032832087641468 0 0.063530288446533439 -0.024668258232075493 0 0.064303432059274163 -0.024065449051098437 0 0.065010039569450589 -0.024493800611459844 0 0.064099798399922511 -0.024917116978918998 0 0.063530288446533439 -0.024668258232075493 0 0.064303432059274163 -0.024065449051098437 0 0.064099798399922511 -0.024917116978918998 0 0.065405488285274427 -0.023829215119116384 0 0.064303432059274163 -0.024065449051098437 0 0.065010039569450589 -0.024493800611459844 0 0.064611800948261924 -0.02553755413891276 0 0.064329593266437335 -0.025858149552703685 0 0.065010039569450589 -0.024493800611459844 0 0.063541100516412929 -0.025313418479971202 0 0.065681293242182887 -0.026389806468480131 0 0.062108825226265332 -0.026155929065971729 0 0.063541100516412929 -0.025313418479971202 0 0.063201408124483979 -0.026488821464048077 0 0.063541100516412929 -0.025313418479971202 0 0.063201408124483979 -0.026488821464048077 0 0.064264076581252383 -0.027178784841599211 0 0.062480469647848431 -0.027285293669340419 0 0.063201408124483979 -0.026488821464048077 0 0.064264076581252383 -0.027178784841599211 0 0.063541100516412929 -0.025313418479971202 0 0.064264076581252383 -0.027178784841599211 0 0.065681293242182887 -0.026389806468480131 0 0.064264076581252383 -0.027178784841599211 0 0.064813589087931778 -0.028711190820167789 0 0.065681293242182887 -0.026389806468480131 0 0.065759786484036645 -0.028703406520536826 0 0.064847508285084607 -0.028178584234222048 0 0.06516776301099779 -0.027315404957718503 0 0.065611146222147337 -0.025972257737068065 0 0.065082205544760977 -0.028886855914820913 0 0.064813589087931778 -0.028711190820167789 0 0.063203955548928728 -0.028354514109410481 0 0.064264076581252383 -0.027178784841599211 0 0.064813589087931778 -0.028711190820167789 0 0.063203955548928728 -0.028354514109410481 0 0.062480469647848431 -0.027285293669340419 0 0.064264076581252383 -0.027178784841599211 0 0.063203955548928728 -0.028354514109410481 0 0.067655174019245728 -0.029558115486848561 0 0.066493326168899677 -0.027704580014030859 0 0.068372629608407218 -0.027256414915677599 0 0.065082205544760977 -0.028886855914820913 0 0.067655174019245728 -0.029558115486848561 0 0.066493326168899677 -0.027704580014030859 0 0.064813589087931778 -0.028711190820167789 0 0.066493326168899677 -0.027704580014030859 0 0.065608049961568118 -0.02598941518379522 0 0.065082205544760977 -0.028886855914820913 0 0.064813589087931778 -0.028711190820167789 0 0.066493326168899677 -0.027704580014030859 0 0.066493326168899677 -0.027704580014030859 0 0.065608049961568118 -0.02598941518379522 0 0.067196116879739198 -0.026029764776017254 0 0.066493326168899677 -0.027704580014030859 0 0.067196116879739198 -0.026029764776017254 0 0.068372629608407218 -0.027256414915677599 0 0.067196116879739198 -0.026029764776017254 0 0.068288211911557581 -0.024921861465106852 0 0.068372629608407218 -0.027256414915677599 0 0.067196116879739198 -0.026029764776017254 0 0.066297341447827951 -0.023195162837486065 0 0.068288211911557581 -0.024921861465106852 0 0.065010039569450589 -0.024493800611459844 0 0.065681293242182887 -0.026389806468480131 0 0.066318529381663521 -0.024297325548297208 0 0.065608049961568118 -0.02598941518379522 0 0.067196116879739198 -0.026029764776017254 0 0.066297341447827951 -0.023195162837486065 0 0.065611146222147337 -0.025972257737068065 0 0.066323670673705412 -0.023698211052438117 0 0.065405488285274427 -0.023829215119116384 0 0.065010039569450589 -0.024493800611459844 0 0.066318529381663521 -0.024297325548297208 0 0.066297341447827951 -0.023195162837486065 0 0.068410232878849772 -0.023164528847472148 0 0.068288211911557581 -0.024921861465106852 0 0.067909882227973367 -0.021787347019745551 0 0.066297341447827951 -0.023195162837486065 0 0.068410232878849772 -0.023164528847472148 0 0.068410232878849772 -0.023164528847472148 0 0.069531768662713933 -0.022943308403346997 0 0.06964675977570263 -0.02456769697551861 0 0.068818549212895347 -0.021736634785455938 0 0.068410232878849772 -0.023164528847472148 0 0.069531768662713933 -0.022943308403346997 0 0.070339528186648792 -0.021884178561139528 0 0.069531768662713933 -0.022943308403346997 0 0.070855106942584539 -0.023871532161976468 0 0.069531768662713933 -0.022943308403346997 0 0.06964675977570263 -0.02456769697551861 0 0.070855106942584539 -0.023871532161976468 0 0.06964675977570263 -0.02456769697551861 0 0.070803861825703335 -0.02551065223342748 0 0.070855106942584539 -0.023871532161976468 0 0.06964675977570263 -0.02456769697551861 0 0.070803861825703335 -0.02551065223342748 0 0.069959885218712659 -0.026752333195799026 0 0.068410232878849772 -0.023164528847472148 0 0.06964675977570263 -0.02456769697551861 0 0.068288211911557581 -0.024921861465106852 0 0.06964675977570263 -0.02456769697551861 0 0.068288211911557581 -0.024921861465106852 0 0.069959885218712659 -0.026752333195799026 0 0.070339528186648792 -0.021884178561139528 0 0.072517619187144763 -0.023043890203648713 0 0.070855106942584539 -0.023871532161976468 0 0.072517619187144763 -0.023043890203648713 0 0.070855106942584539 -0.023871532161976468 0 0.072376654188724174 -0.025219206288577288 0 0.070803861825703335 -0.02551065223342748 0 0.070855106942584539 -0.023871532161976468 0 0.072376654188724174 -0.025219206288577288 0 0.072376654188724174 -0.025219206288577288 0 0.073948039650284847 -0.026023676831957436 0 0.07437044403489125 -0.024580400770512829 0 0.072517619187144763 -0.023043890203648713 0 0.072376654188724174 -0.025219206288577288 0 0.07437044403489125 -0.024580400770512829 0 0.072139013611232164 -0.027517933454112766 0 0.074684846454742007 -0.02769489796174791 0 0.073948039650284847 -0.026023676831957436 0 0.072376654188724174 -0.025219206288577288 0 0.072139013611232164 -0.027517933454112766 0 0.073948039650284847 -0.026023676831957436 0 0.070803861825703335 -0.02551065223342748 0 0.072376654188724174 -0.025219206288577288 0 0.072139013611232164 -0.027517933454112766 0 0.070803861825703335 -0.02551065223342748 0 0.072139013611232164 -0.027517933454112766 0 0.069959885218712659 -0.026752333195799026 0 0.072139013611232164 -0.027517933454112766 0 0.070187868255582889 -0.028559754694184619 0 0.071741854966208024 -0.029228652676573569 0 0.072139013611232164 -0.027517933454112766 0 0.074121139145141735 -0.029421398058353573 0 0.074684846454742007 -0.02769489796174791 0 0.072139013611232164 -0.027517933454112766 0 0.071741854966208024 -0.029228652676573569 0 0.074121139145141735 -0.029421398058353573 0 0.067655174019245728 -0.029558115486848561 0 0.068372629608407218 -0.027256414915677599 0 0.070187868255582889 -0.028559754694184619 0 0.068288211911557581 -0.024921861465106852 0 0.068372629608407218 -0.027256414915677599 0 0.069959885218712659 -0.026752333195799026 0 0.072139013611232164 -0.027517933454112766 0 0.069959885218712659 -0.026752333195799026 0 0.070187868255582889 -0.028559754694184619 0 0.068372629608407218 -0.027256414915677599 0 0.069959885218712659 -0.026752333195799026 0 0.070187868255582889 -0.028559754694184619 0 0.067655174019245728 -0.029558115486848561 0 0.070187868255582889 -0.028559754694184619 0 0.069937089370686309 -0.0304615851838109 0 0.067655174019245728 -0.029558115486848561 0 0.068701060809693973 -0.031697723803973024 0 0.069937089370686309 -0.0304615851838109 0 0.068701060809693973 -0.031697723803973024 0 0.069937089370686309 -0.0304615851838109 0 0.070498890526348751 -0.032157194261262935 0 0.069937089370686309 -0.0304615851838109 0 0.072126120649856504 -0.030826641579679549 0 0.070498890526348751 -0.032157194261262935 0 0.070187868255582889 -0.028559754694184619 0 0.069937089370686309 -0.0304615851838109 0 0.071741854966208024 -0.029228652676573569 0 0.069937089370686309 -0.0304615851838109 0 0.071741854966208024 -0.029228652676573569 0 0.072126120649856504 -0.030826641579679549 0 0.072633692714942855 -0.031088719626142382 0 0.073422259053025726 -0.030332475420906294 0 0.071741854966208024 -0.029228652676573569 0 0.072126120649856504 -0.030826641579679549 0 0.074121139145141735 -0.029421398058353573 0 0.074256189533404279 -0.031756336956093228 0 0.072990101082900827 -0.031259930893593975 0 0.074121139145141735 -0.029421398058353573 0 0.072633692714942855 -0.031088719626142382 0 0.071325287074216343 -0.032368121585883876 0 0.072990101082900827 -0.031259930893593975 0 0.073296143404416925 -0.032862594669141439 0 0.072021527879671171 -0.032730228145202871 0 0.074256189533404279 -0.031756336956093228 0 0.073296143404416925 -0.032862594669141439 0 0.075131905717731637 -0.033403633127441199 0 0.074256189533404279 -0.031756336956093228 0 0.072990101082900827 -0.031259930893593975 0 0.073296143404416925 -0.032862594669141439 0 0.073296143404416925 -0.032862594669141439 0 0.075131905717731637 -0.033403633127441199 0 0.073766772059415925 -0.034300677636125848 0 0.073296143404416925 -0.032862594669141439 0 0.072468612795189388 -0.034601003503831378 0 0.073766772059415925 -0.034300677636125848 0 0.073296143404416925 -0.032862594669141439 0 0.072021527879671171 -0.032730228145202871 0 0.072468612795189388 -0.034601003503831378 0 0.070987619602705235 -0.033871262248959519 0 0.072021527879671171 -0.032730228145202871 0 0.072468612795189388 -0.034601003503831378 0 0.070006667253600705 -0.033647715566051728 0 0.071325287074216343 -0.032368121585883876 0 0.068701060809693973 -0.031697723803973024 0 0.069248477766758618 -0.033484119355854249 0 0.070498890526348751 -0.032157194261262935 0 0.077141480598801077 -0.032248534936532236 0 0.077323839559113955 -0.033546223259703328 0 0.07643671252084977 -0.033108558012488451 0 0.077141480598801077 -0.032248534936532236 0 0.07855796104578272 -0.032215761993663578 0 0.077323839559113955 -0.033546223259703328 0 0.052912695922480567 -0.023861801407277311 0 0.058414501142846458 -0.023294816097785616 0 0.07806885809193144 -0.032435768000677143 0 0.077939630055811851 -0.032778504046472333 0 0.077323839559113955 -0.033546223259703328 0 0.037195021262693528 -0.027800782417742861 0 0.037876578891177091 -0.026920451622646363 0 0.038962942733855907 -0.028487343707273367 0 0.052912695922480567 -0.023861801407277311 0 0.046003763490559325 -0.021265947816867855 0 0.045422111294344189 -0.018615047995721008 0 0.046146394921085056 -0.017684157268568715 0 0.045701613766133888 -0.017600748742354306 0 0.037195021262693528 -0.027800782417742861 0 0.037183087181392641 -0.0291546735325495 0 0.038962942733855907 -0.028487343707273367 0 0.07806885809193144 -0.032435768000677143 0 0.077939630055811851 -0.032778504046472333 0 0.078073529265175537 -0.033036994041377568 0 0.052912695922480567 -0.023861801407277311 0 0.055334520504797868 -0.029015930948717635 0 0.055721703856075604 -0.029379667534115417 0 0.055334520504797868 -0.029015930948717635 0 0.078116487566877418 -0.033055569648102849 0 0.077323839559113955 -0.033546223259703328 0 0.078147983052073822 -0.034953612289296512 0 0.055606188698342308 -0.032065866133273196 0 0.056333587985562608 -0.033376968780781051 0 0.055599518419719315 -0.033946360893024399 0 0.077939630055811851 -0.032778504046472333 0 0.078116487566877418 -0.033055569648102849 0 0.077323839559113955 -0.033546223259703328 0 0.037183087181392641 -0.0291546735325495 0 0.038962942733855907 -0.028487343707273367 0 0.038717823350860298 -0.03195131173167691 0 0.055334520504797868 -0.029015930948717635 0 0.051218761061682543 -0.031404761838124816 0 0.055334520504797868 -0.029015930948717635 0 0.061447073883817073 -0.033801013386655969 0 0.077323839559113955 -0.033546223259703328 0 0.07643671252084977 -0.033108558012488451 0 0.076721356058619919 -0.03456294464186517 0 0.07643671252084977 -0.033108558012488451 0 0.075131905717731637 -0.033403633127441199 0 0.076721356058619919 -0.03456294464186517 0 0.074256189533404279 -0.031756336956093228 0 0.075131905717731637 -0.033403633127441199 0 0.075888329989691458 -0.03154971982608934 0 0.07643671252084977 -0.033108558012488451 0 0.075131905717731637 -0.033403633127441199 0 0.075888329989691458 -0.03154971982608934 0 0.077141480598801077 -0.032248534936532236 0 0.07643671252084977 -0.033108558012488451 0 0.075888329989691458 -0.03154971982608934 0 0.077141480598801077 -0.032248534936532236 0 0.075888329989691458 -0.03154971982608934 0 0.077296963240548133 -0.030543106020668419 0 0.075888329989691458 -0.03154971982608934 0 0.076047546785309075 -0.029188424768545905 0 0.077296963240548133 -0.030543106020668419 0 0.074256189533404279 -0.031756336956093228 0 0.075888329989691458 -0.03154971982608934 0 0.074121139145141735 -0.029421398058353573 0 0.075888329989691458 -0.03154971982608934 0 0.074121139145141735 -0.029421398058353573 0 0.076047546785309075 -0.029188424768545905 0 0.076047546785309075 -0.029188424768545905 0 0.077296963240548133 -0.030543106020668419 0 0.07738702956278122 -0.028296198294021434 0 0.077296963240548133 -0.030543106020668419 0 0.078736238362713054 -0.02954588508418237 0 0.07738702956278122 -0.028296198294021434 0 0.077141480598801077 -0.032248534936532236 0 0.07855796104578272 -0.032215761993663578 0 0.077296963240548133 -0.030543106020668419 0 0.07855796104578272 -0.032215761993663578 0 0.077296963240548133 -0.030543106020668419 0 0.078736238362713054 -0.02954588508418237 0 0.045422111294344189 -0.018615047995721008 0 0.045701613766133888 -0.017600748742354306 0 0.045440214978048371 -0.014002154090329486 0 0.052912695922480567 -0.023861801407277311 0 0.053624477345561132 -0.020522195999875641 0 0.045701613766133888 -0.017600748742354306 0 0.045440214978048371 -0.014002154090329486 0 0.047810283983785305 -0.015490990585015298 0 0.046139371100357436 -0.017680168625256686 0 0.045701613766133888 -0.017600748742354306 0 0.047810283983785305 -0.015490990585015298 0 0.046003763490559325 -0.021265947816867855 0 0.045995007832100504 -0.021251944522632221 0 0.045440214978048371 -0.014002154090329486 0 0.047474926781425203 -0.01137356676198204 0 0.04754947555743419 -0.013544306643347314 0 0.045440214978048371 -0.014002154090329486 0 0.045481507332594595 -0.0094283868361724373 0 0.047474926781425203 -0.01137356676198204 0 0.078736238362713054 -0.02954588508418237 0 0.07738702956278122 -0.028296198294021434 0 0.078831712535237242 -0.026668691440722467 0 0.053624477345561132 -0.020522195999875641 0 0.047414777066391932 -0.010630018675164407 0 0.07738702956278122 -0.028296198294021434 0 0.076987821792475347 -0.026603344537815408 0 0.076223143755960884 -0.027444006803695149 0 0.07738702956278122 -0.028296198294021434 0 0.076987821792475347 -0.026603344537815408 0 0.078831712535237242 -0.026668691440722467 0 0.076987821792475347 -0.026603344537815408 0 0.078831712535237242 -0.026668691440722467 0 0.076897821755887608 -0.024648085183005673 0 0.027530100309953988 0.014195668213361988 0 0.027292259238355456 0.014900309442750679 0 0.029359288252662631 0.012794434274359834 0 0.04724300345310542 -0.009759818231668568 0 0.047414777066391932 -0.010630018675164407 0 0.027530100309953988 0.014195668213361988 0 0.02683271465152369 0.013181452212408998 0 0.026609678702879242 0.013965677668656197 0 0.027530100309953988 0.014195668213361988 0 0.027506743959730046 0.014278436551067723 0 0.026609678702879242 0.013965677668656197 0 0.047414777066391932 -0.010630018675164407 0 0.03779431899927288 -0.0052160689720172522 0 0.027506743959730046 0.014278436551067723 0 0.026360820703425766 0.015138033374239489 0 0.026609678702879242 0.013965677668656197 0 0.074121139145141735 -0.029421398058353573 0 0.076047546785309075 -0.029188424768545905 0 0.074684846454742007 -0.02769489796174791 0 0.076047546785309075 -0.029188424768545905 0 0.074684846454742007 -0.02769489796174791 0 0.076223143755960884 -0.027444006803695149 0 0.076047546785309075 -0.029188424768545905 0 0.07738702956278122 -0.028296198294021434 0 0.076223143755960884 -0.027444006803695149 0 0.074684846454742007 -0.02769489796174791 0 0.076223143755960884 -0.027444006803695149 0 0.075574235454301267 -0.025924641328419918 0 0.076987821792475347 -0.026603344537815408 0 0.076223143755960884 -0.027444006803695149 0 0.075574235454301267 -0.025924641328419918 0 0.074684846454742007 -0.02769489796174791 0 0.075574235454301267 -0.025924641328419918 0 0.073948039650284847 -0.026023676831957436 0 0.075574235454301267 -0.025924641328419918 0 0.073948039650284847 -0.026023676831957436 0 0.07437044403489125 -0.024580400770512829 0 0.075574235454301267 -0.025924641328419918 0 0.07437044403489125 -0.024580400770512829 0 0.076897821755887608 -0.024648085183005673 0 0.076987821792475347 -0.026603344537815408 0 0.075574235454301267 -0.025924641328419918 0 0.076897821755887608 -0.024648085183005673 0 0.07483660046688205 -0.022534342968914156 0 0.07437044403489125 -0.024580400770512829 0 0.076897821755887608 -0.024648085183005673 0 0.059076090928999278 -0.010772959032714561 0 0.053750041906569936 -0.0093169921038837363 0 0.045303993294243054 0.0049435337050551262 0 0.033282741084759232 0.013101648112042718 0 0.03393975035890788 0.0066906052592147578 0 0.07483660046688205 -0.022534342968914156 0 0.072517619187144763 -0.023043890203648713 0 0.07437044403489125 -0.024580400770512829 0 0.026791244464406616 0.011961132904411614 0 0.029359288252662631 0.012794434274359834 0 0.02756427321339782 0.010102275014803708 0 0.026791244464406616 0.011961132904411614 0 0.027581925715377462 0.013082854297697521 0 0.029359288252662631 0.012794434274359834 0 0.027530100309953988 0.014195668213361988 0 0.02683271465152369 0.013181452212408998 0 0.027581925715377462 0.013082854297697521 0 0.026791244464406616 0.011961132904411614 0 0.02683271465152369 0.013181452212408998 0 0.027581925715377462 0.013082854297697521 0 0.027530100309953988 0.014195668213361988 0 0.027581925715377462 0.013082854297697521 0 0.029359288252662631 0.012794434274359834 0 0.047414777066391932 -0.010630018675164407 0 0.053750041906569936 -0.0093169921038837363 0 0.033282741084759232 0.013101648112042718 0 0.029359288252662631 0.012794434274359834 0 0.02756427321339782 0.010102275014803708 0 0.027292259238355456 0.014900309442750679 0 0.033282741084759232 0.013101648112042718 0 0.029359288252662631 0.012794434274359834 0 0.033282741084759232 0.013101648112042718 0 0.03393975035890788 0.0066906052592147578 0 0.02756427321339782 0.010102275014803708 0 0.026791244464406616 0.011961132904411614 0 0.02756427321339782 0.010102275014803708 0 0.026050262270995987 0.010737624061984564 0 0.026791244464406616 0.011961132904411614 0 0.026050262270995987 0.010737624061984564 0 0.025573811117894748 0.011593053361243161 0 0.026791244464406616 0.011961132904411614 0 0.025792699485616289 0.012521825032185551 0 0.025573811117894748 0.011593053361243161 0 0.026791244464406616 0.011961132904411614 0 0.02683271465152369 0.013181452212408998 0 0.025792699485616289 0.012521825032185551 0 0.025573811117894748 0.011593053361243161 0 0.025105685076911639 0.011597936161405052 0 0.025353645988155475 0.012362293238386396 0 0.025792699485616289 0.012521825032185551 0 0.025573811117894748 0.011593053361243161 0 0.025353645988155475 0.012362293238386396 0 0.025105685076911639 0.011597936161405052 0 0.024975715217924618 0.012001272464741685 0 0.025353645988155475 0.012362293238386396 0 0.025573811117894748 0.011593053361243161 0 0.02530128303477476 0.011038015581877801 0 0.025105685076911639 0.011597936161405052 0 0.026050262270995987 0.010737624061984564 0 0.025573811117894748 0.011593053361243161 0 0.02530128303477476 0.011038015581877801 0 0.02530128303477476 0.011038015581877801 0 0.024757155436291131 0.011248678154119974 0 0.025105685076911639 0.011597936161405052 0 0.024757155436291131 0.011248678154119974 0 0.024485703155271796 0.01129707660798825 0 0.024821814745222392 0.011513894110823547 0 0.024757155436291131 0.011248678154119974 0 0.025105685076911639 0.011597936161405052 0 0.024821814745222392 0.011513894110823547 0 0.024757155436291131 0.011248678154119974 0 0.024485703155271796 0.01129707660798825 0 0.024532182865169675 0.011425424074203824 0 0.024485703155271796 0.01129707660798825 0 0.024532182865169675 0.011425424074203824 0 0.025053755422037263 0.01060577708846875 0 0.024485703155271796 0.01129707660798825 0 0.023341184705927383 0.0096445537887604425 0 0.025053755422037263 0.01060577708846875 0 0.02797974651015275 0.007497134107052046 0 0.028642357655909619 0.0057435942824230792 0 0.024485703155271796 0.01129707660798825 0 0.024975715217924618 0.012001272464741685 0 0.024907211647264286 0.012547961490163215 0 0.024485703155271796 0.01129707660798825 0 0.024821814745222392 0.011513894110823547 0 0.024975715217924618 0.012001272464741685 0 0.025105685076911639 0.011597936161405052 0 0.024821814745222392 0.011513894110823547 0 0.024975715217924618 0.012001272464741685 0 0.024485703155271796 0.01129707660798825 0 0.023341184705927383 0.0096445537887604425 0 0.022305251921008955 0.0093843563430030027 0 0.024975715217924618 0.012001272464741685 0 0.024907211647264286 0.012547961490163215 0 0.025163068584752448 0.012440153169984982 0 0.023341184705927383 0.0096445537887604425 0 0.022305251921008955 0.0093843563430030027 0 0.02341480208343593 0.007030624672065733 0 0.020535782772553898 -0.0014825315890527845 0 0.022101751696872431 0.0049497889144130888 0 0.023341184705927383 0.0096445537887604425 0 0.025005138780817601 0.0075651522053580313 0 0.025053755422037263 0.01060577708846875 0 0.020057051653085679 0.0027908097084650397 0 0.020535782772553898 -0.0014825315890527845 0 0.027137496535995426 0.0054840755377107359 0 0.02341480208343593 0.007030624672065733 0 0.023316692816621128 0.0050703502947165293 0 0.023341184705927383 0.0096445537887604425 0 0.027137496535995426 0.0054840755377107359 0 0.02341480208343593 0.007030624672065733 0 0.022305251921008955 0.0093843563430030027 0 0.02341480208343593 0.007030624672065733 0 0.021521816024937346 0.0049486953447030807 0 0.02341480208343593 0.007030624672065733 0 0.023316692816621128 0.0050703502947165293 0 0.021521816024937346 0.0049486953447030807 0 0.025475330569888897 0.013168415035172297 0 0.025306871594273743 0.012634173410157207 0 0.025604473225380946 0.012686350231531231 0 0.031153469482022158 -0.00068142974211569821 0 0.028100669929061718 0.0077919098391592157 0 0.022305251921008955 0.0093843563430030027 0 0.021521816024937346 0.0049486953447030807 0 0.018781028272839687 0.0051072513873534993 0 0.024920726412968018 0.015726700941561072 0 0.025505752454509367 0.015208282072413325 0 0.025294522159869999 0.014426907714296574 0 0.028642357655909619 0.0057435942824230792 0 0.031153469482022158 -0.00068142974211569821 0 0.024907211647264286 0.012547961490163215 0 0.025475330569888897 0.013168415035172297 0 0.025306871594273743 0.012634173410157207 0 0.024920726412968018 0.015726700941561072 0 0.025505752454509367 0.015208282072413325 0 0.02522823843608649 0.016129062883759482 0 0.047474926781425203 -0.01137356676198204 0 0.04754947555743419 -0.013544306643347314 0 0.049466199326588335 -0.013315508601499311 0 0.03779431899927288 -0.0052160689720172522 0 0.032574799829643432 -0.0058400989823177742 0 0.026360820703425766 0.015138033374239489 0 0.025505752454509367 0.015208282072413325 0 0.02522823843608649 0.016129062883759482 0 0.026360820703425766 0.015138033374239489 0 0.025505752454509367 0.015208282072413325 0 0.025294522159869999 0.014426907714296574 0 0.025792699485616289 0.012521825032185551 0 0.026609678702879242 0.013965677668656197 0 0.025294522159869999 0.014426907714296574 0 0.027408009713057398 0.0096470684813943393 0 0.028100669929061718 0.0077919098391592157 0 0.026360820703425766 0.015138033374239489 0 0.026609678702879242 0.013965677668656197 0 0.025294522159869999 0.014426907714296574 0 0.02683271465152369 0.013181452212408998 0 0.025792699485616289 0.012521825032185551 0 0.026609678702879242 0.013965677668656197 0 0.025792699485616289 0.012521825032185551 0 0.025353645988155475 0.012362293238386396 0 0.025604473225380946 0.012686350231531231 0 0.025163068584752448 0.012440153169984982 0 0.025353645988155475 0.012362293238386396 0 0.025306871594273743 0.012634173410157207 0 0.024975715217924618 0.012001272464741685 0 0.025163068584752448 0.012440153169984982 0 0.025353645988155475 0.012362293238386396 0 0.024907211647264286 0.012547961490163215 0 0.025163068584752448 0.012440153169984982 0 0.025306871594273743 0.012634173410157207 0 0.025353645988155475 0.012362293238386396 0 0.025306871594273743 0.012634173410157207 0 0.025604473225380946 0.012686350231531231 0 0.030587382738546286 0.001592484181732932 0 0.027519003652679851 0.0012519760878312207 0 0.02843521509565558 0.0046309545936155331 0 0.027519003652679851 0.0012519760878312207 0 0.02843521509565558 0.0046309545936155331 0 0.025787502285015432 0.0030012340549357987 0 0.02843521509565558 0.0046309545936155331 0 0.026017084287978203 0.0053290722067339301 0 0.025787502285015432 0.0030012340549357987 0 0.027519003652679851 0.0012519760878312207 0 0.025787502285015432 0.0030012340549357987 0 0.02549899678976511 0.00015543896526792975 0 0.025787502285015432 0.0030012340549357987 0 0.022784087426748503 0.0013498451423930892 0 0.02549899678976511 0.00015543896526792975 0 0.025787502285015432 0.0030012340549357987 0 0.022784087426748503 0.0013498451423930892 0 0.022779113705933912 0.0044214665097914874 0 0.022784087426748503 0.0013498451423930892 0 0.022779113705933912 0.0044214665097914874 0 0.021317733976027091 0.0032135945150212736 0 0.02517000148727612 0.0053749846051538847 0 0.024413524901988979 0.0060871224801950031 0 0.025309075782356961 0.0069901887580583362 0 0.026017084287978203 0.0053290722067339301 0 0.02479938057696135 0.0048170579710390968 0 0.026017084287978203 0.0053290722067339301 0 0.025787502285015432 0.0030012340549357987 0 0.02479938057696135 0.0048170579710390968 0 0.022779113705933912 0.0044214665097914874 0 0.019906295861831961 0.0058667737428024806 0 0.021317733976027091 0.0032135945150212736 0 0.019906295861831961 0.0058667737428024806 0 0.021317733976027091 0.0032135945150212736 0 0.019810603377320678 0.0012298006237212865 0 0.024413524901988979 0.0060871224801950031 0 0.023337275114328974 0.0076054181369022526 0 0.023337275114328974 0.0076054181369022526 0 0.022101751696872431 0.0049497889144130888 0 0.022784087426748503 0.0013498451423930892 0 0.021317733976027091 0.0032135945150212736 0 0.019810603377320678 0.0012298006237212865 0 0.022784087426748503 0.0013498451423930892 0 0.019810603377320678 0.0012298006237212865 0 0.021768397528263973 -0.0010102553179525144 0 0.019802564195121285 -0.0030970642539833726 0 0.019810603377320678 0.0012298006237212865 0 0.021768397528263973 -0.0010102553179525144 0 0.019802564195121285 -0.0030970642539833726 0 0.021768397528263973 -0.0010102553179525144 0 0.023132036306634782 -0.0033138340323292459 0 0.023132036306634782 -0.0033138340323292459 0 0.023827647750668233 -0.0012173274094964199 0 0.025627961671754067 -0.0023822364332724798 0 0.021768397528263973 -0.0010102553179525144 0 0.023132036306634782 -0.0033138340323292459 0 0.023827647750668233 -0.0012173274094964199 0 0.022784087426748503 0.0013498451423930892 0 0.021768397528263973 -0.0010102553179525144 0 0.023827647750668233 -0.0012173274094964199 0 0.022784087426748503 0.0013498451423930892 0 0.023827647750668233 -0.0012173274094964199 0 0.02549899678976511 0.00015543896526792975 0 0.023827647750668233 -0.0012173274094964199 0 0.02549899678976511 0.00015543896526792975 0 0.025627961671754067 -0.0023822364332724798 0 0.02549899678976511 0.00015543896526792975 0 0.025627961671754067 -0.0023822364332724798 0 0.026880346649550912 -0.00087762547483032918 0 0.027519003652679851 0.0012519760878312207 0 0.02549899678976511 0.00015543896526792975 0 0.026880346649550912 -0.00087762547483032918 0 0.023132036306634782 -0.0033138340323292459 0 0.025627961671754067 -0.0023822364332724798 0 0.024922673155429762 -0.0051198269526021726 0 0.025627961671754067 -0.0023822364332724798 0 0.027453427752510657 -0.0020084827058382592 0 0.026880346649550912 -0.00087762547483032918 0 0.025627961671754067 -0.0023822364332724798 0 0.027453427752510657 -0.0020084827058382592 0 0.026842186741666007 -0.0042150578276656404 0 0.027453427752510657 -0.0020084827058382592 0 0.028213471491273335 -0.0010766668557389975 0 0.026880346649550912 -0.00087762547483032918 0 0.030587382738546286 0.001592484181732932 0 0.027519003652679851 0.0012519760878312207 0 0.028213471491273335 -0.0010766668557389975 0 0.028074430468752257 -0.0017512261046141338 0 0.027453427752510657 -0.0020084827058382592 0 0.028213471491273335 -0.0010766668557389975 0 0.027519003652679851 0.0012519760878312207 0 0.028213471491273335 -0.0010766668557389975 0 0.026880346649550912 -0.00087762547483032918 0 0.029034158185696757 -0.005430369819753836 0 0.026861233777563626 -0.0062682332077497903 0 0.027660196006992536 -0.0084504396426996666 0 0.026050705118265283 -0.0057249185359191084 0 0.026241053061320053 -0.0044552529232783789 0 0.029034158185696757 -0.005430369819753836 0 0.027453427752510657 -0.0020084827058382592 0 0.026842186741666007 -0.0042150578276656404 0 0.029034158185696757 -0.005430369819753836 0 0.026861233777563626 -0.0062682332077497903 0 0.026842186741666007 -0.0042150578276656404 0 0.026861233777563626 -0.0062682332077497903 0 0.026842186741666007 -0.0042150578276656404 0 0.024922673155429762 -0.0051198269526021726 0 0.025627961671754067 -0.0023822364332724798 0 0.026842186741666007 -0.0042150578276656404 0 0.024922673155429762 -0.0051198269526021726 0 0.026861233777563626 -0.0062682332077497903 0 0.024321781830634468 -0.0084396368814609758 0 0.027660196006992536 -0.0084504396426996666 0 0.026861233777563626 -0.0062682332077497903 0 0.024922673155429762 -0.0051198269526021726 0 0.024321781830634468 -0.0084396368814609758 0 0.016329826511998245 -0.014286501704279999 0 0.016706107596337984 -0.018442130937735477 0 0.019631678495902985 -0.018443616387884183 0 0.024922673155429762 -0.0051198269526021726 0 0.022152395095735772 -0.0058236229566135294 0 0.024321781830634468 -0.0084396368814609758 0 0.020920805425958609 -0.0082325060132325649 0 0.021777037178734783 -0.013350825461209298 0 0.023132036306634782 -0.0033138340323292459 0 0.024922673155429762 -0.0051198269526021726 0 0.022152395095735772 -0.0058236229566135294 0 0.020535782772553898 -0.0014825315890527845 0 0.020920805425958609 -0.0082325060132325649 0 0.019802564195121285 -0.0030970642539833726 0 0.023132036306634782 -0.0033138340323292459 0 0.022152395095735772 -0.0058236229566135294 0 0.012990680439782545 -0.010100329124960408 0 0.016329826511998245 -0.014286501704279999 0 0.012802381924340077 -0.015090400330285551 0 0.016329826511998245 -0.014286501704279999 0 0.014479869863733038 -0.017656857230414238 0 0.012802381924340077 -0.015090400330285551 0 0.016329826511998245 -0.014286501704279999 0 0.014479869863733038 -0.017656857230414238 0 0.016706107596337984 -0.018442130937735477 0 0.014479869863733038 -0.017656857230414238 0 0.012802381924340077 -0.015090400330285551 0 0.012626310214320318 -0.020291738707725864 0 0.014479869863733038 -0.017656857230414238 0 0.014892002643169474 -0.020470172172283068 0 0.016706107596337984 -0.018442130937735477 0 0.014479869863733038 -0.017656857230414238 0 0.014892002643169474 -0.020470172172283068 0 0.012626310214320318 -0.020291738707725864 0 0.020906715558608752 -0.017871854006076552 0 0.022260116998621089 -0.017825318346964918 0 0.014892002643169474 -0.020470172172283068 0 0.016152109917059881 -0.023756635346318999 0 0.012646859211997595 -0.020289389219514939 0 0.020113833045004144 -0.020635855720748681 0 0.022260116998621089 -0.017825318346964918 0 0.014892002643169474 -0.020470172172283068 0 0.016152109917059881 -0.023756635346318999 0 0.017874111990531585 -0.021185865401646322 0 0.016280475748362964 -0.024194046911251023 0 0.012950292091331582 -0.020949682192939991 0 0.012737869694068491 -0.026640910659048285 0 0.016152109917059881 -0.023756635346318999 0 0.017874111990531585 -0.021185865401646322 0 0.019711736418723938 -0.024054031075936233 0 0.017874111990531585 -0.021185865401646322 0 0.016706107596337984 -0.018442130937735477 0 0.019631678495902985 -0.018443616387884183 0 0.014892002643169474 -0.020470172172283068 0 0.017874111990531585 -0.021185865401646322 0 0.016706107596337984 -0.018442130937735477 0 0.021777037178734783 -0.013350825461209298 0 0.022238154603960326 -0.01806665547530957 0 0.024321781830634468 -0.0084396368814609758 0 0.026412255318362769 -0.01104980281540952 0 0.027660196006992536 -0.0084504396426996666 0 0.017874111990531585 -0.021185865401646322 0 0.019631678495902985 -0.018443616387884183 0 0.022940289044976966 -0.022592851759057165 0 0.017874111990531585 -0.021185865401646322 0 0.019711736418723938 -0.024054031075936233 0 0.022940289044976966 -0.022592851759057165 0 0.019711736418723938 -0.024054031075936233 0 0.022940289044976966 -0.022592851759057165 0 0.021961577492820433 -0.025548379057229849 0 0.029232858579120953 -0.011214801987172899 0 0.026412255318362769 -0.01104980281540952 0 0.027660196006992536 -0.0084504396426996666 0 0.029232858579120953 -0.011214801987172899 0 0.028483032228129364 -0.01366477897432386 0 0.026412255318362769 -0.01104980281540952 0 0.030731293805495562 -0.0065255819458244387 0 0.032071472199490969 -0.011603177192479584 0 0.032803600357226244 -0.014323578063953474 0 0.032628606533630845 -0.015867663378291937 0 0.0317035694658779 -0.013126642912060438 0 0.033339307239716114 -0.01485658258687567 0 0.032803600357226244 -0.014323578063953474 0 0.032628606533630845 -0.015867663378291937 0 0.033339307239716114 -0.01485658258687567 0 0.032803600357226244 -0.014323578063953474 0 0.033545854131415219 -0.01344000399343973 0 0.035716775146379678 -0.013842305119156387 0 0.034580027691871004 -0.015260439440999614 0 0.033545854131415219 -0.01344000399343973 0 0.033339307239716114 -0.01485658258687567 0 0.034580027691871004 -0.015260439440999614 0 0.033545854131415219 -0.01344000399343973 0 0.046003763490559325 -0.021265947816867855 0 0.039472789807504738 -0.013827172510308024 0 0.039472789807504738 -0.013827172510308024 0 0.032574799829643432 -0.0058400989823177742 0 0.033339307239716114 -0.01485658258687567 0 0.034580027691871004 -0.015260439440999614 0 0.033460143756315452 -0.0166638326865204 0 0.047810283983785305 -0.015490990585015298 0 0.04754947555743419 -0.013544306643347314 0 0.049466199326588335 -0.013315508601499311 0 0.045440214978048371 -0.014002154090329486 0 0.047810283983785305 -0.015490990585015298 0 0.04754947555743419 -0.013544306643347314 0 0.031153469482022158 -0.00068142974211569821 0 0.032574799829643432 -0.0058400989823177742 0 0.031153469482022158 -0.00068142974211569821 0 0.030731293805495562 -0.0065255819458244387 0 0.032574799829643432 -0.0058400989823177742 0 0.030731293805495562 -0.0065255819458244387 0 0.033339307239716114 -0.01485658258687567 0 0.033460143756315452 -0.0166638326865204 0 0.032628606533630845 -0.015867663378291937 0 0.029649845349436113 -0.0080992028680166427 0 0.030562675271661083 -0.0069299098958464965 0 0.028655919058835619 -0.0050972444446393461 0 0.021521816024937346 0.0049486953447030807 0 0.018781028272839687 0.0051072513873534993 0 0.01965706300814352 0.0023830441030040475 0 0.021521816024937346 0.0049486953447030807 0 0.01965706300814352 0.0023830441030040475 0 0.023124216972893977 0.0021539274495829598 0 0.023316692816621128 0.0050703502947165293 0 0.021521816024937346 0.0049486953447030807 0 0.023124216972893977 0.0021539274495829598 0 0.020535782772553898 -0.0014825315890527845 0 0.02110418245367526 -0.0081993679285597438 0 0.027137496535995426 0.0054840755377107359 0 0.023124216972893977 0.0021539274495829598 0 0.02702347375790554 0.00052221000341859186 0 0.027137496535995426 0.0054840755377107359 0 0.023316692816621128 0.0050703502947165293 0 0.023124216972893977 0.0021539274495829598 0 0.023124216972893977 0.0021539274495829598 0 0.02702347375790554 0.00052221000341859186 0 0.023059554590286073 -0.00099337434491767991 0 0.02702347375790554 0.00052221000341859186 0 0.023059554590286073 -0.00099337434491767991 0 0.026528443624890916 -0.0044172681555658096 0 0.01965706300814352 0.0023830441030040475 0 0.023124216972893977 0.0021539274495829598 0 0.023059554590286073 -0.00099337434491767991 0 0.030731293805495562 -0.0065255819458244387 0 0.026232288427474465 -0.010447742402946185 0 0.032354611328733927 -0.015253500745383416 0 0.031055564933399334 -0.014024646902414634 0 0.0317035694658779 -0.013126642912060438 0 0.031055564933399334 -0.014024646902414634 0 0.031427586559639509 -0.013016571570647374 0 0.029671570358905813 -0.012754586077465975 0 0.031055564933399334 -0.014024646902414634 0 0.0317035694658779 -0.013126642912060438 0 0.031427586559639509 -0.013016571570647374 0 0.020230344069633078 -0.021703059885654123 0 0.022661879750978702 -0.023368740531672774 0 0.025506089026332241 -0.022574808526071393 0 0.026232288427474465 -0.010447742402946185 0 0.023360898119784611 -0.017665067611681663 0 0.02702347375790554 0.00052221000341859186 0 0.026848658982335048 -0.0047297202240856985 0 0.026528443624890916 -0.0044172681555658096 0 0.02110418245367526 -0.0081993679285597438 0 0.022260116998621089 -0.017825318346964918 0 0.031675049062586121 -0.023500480571523083 0 0.023360898119784611 -0.017665067611681663 0 0.022661879750978702 -0.023368740531672774 0 0.025879480226049561 -0.022935999625378654 0 0.025506089026332241 -0.022574808526071393 0 0.022260116998621089 -0.017825318346964918 0 0.023360898119784611 -0.017665067611681663 0 0.022260116998621089 -0.017825318346964918 0 0.019766197985353371 -0.027749993536820085 0 0.022661879750978702 -0.023368740531672774 0 0.025879480226049561 -0.022935999625378654 0 0.023312155261751594 -0.027010735929571383 0 0.025879480226049561 -0.022935999625378654 0 0.023312155261751594 -0.027010735929571383 0 0.025623474813973788 -0.030048063386573794 0 0.020230344069633078 -0.021703059885654123 0 0.022661879750978702 -0.023368740531672774 0 0.020013031508219072 -0.028019579049154995 0 0.031675049062586121 -0.023500480571523083 0 0.031305613256702995 -0.029684449803961416 0 0.022661879750978702 -0.023368740531672774 0 0.023312155261751594 -0.027010735929571383 0 0.020013031508219072 -0.028019579049154995 0 0.043964534866022177 -0.028100932113041051 0 0.041380350871763692 -0.03014489787095561 0 0.043872628322907663 -0.031845880189135693 0 0.043964534866022177 -0.028100932113041051 0 0.041380350871763692 -0.03014489787095561 0 0.040930129303464936 -0.027487316594908457 0 0.031675049062586121 -0.023500480571523083 0 0.03793038863100686 -0.021962096269729219 0 0.032803600357226244 -0.014323578063953474 0 0.0317035694658779 -0.013126642912060438 0 0.033545854131415219 -0.01344000399343973 0 0.0317035694658779 -0.013126642912060438 0 0.031427586559639509 -0.013016571570647374 0 0.033545854131415219 -0.01344000399343973 0 0.037876578891177091 -0.026920451622646363 0 0.040930129303464936 -0.027487316594908457 0 0.038962942733855907 -0.028487343707273367 0 0.046003763490559325 -0.021265947816867855 0 0.03793038863100686 -0.021962096269729219 0 0.041380350871763692 -0.03014489787095561 0 0.040930129303464936 -0.027487316594908457 0 0.038962942733855907 -0.028487343707273367 0 0.041380350871763692 -0.03014489787095561 0 0.038962942733855907 -0.028487343707273367 0 0.038717823350860298 -0.03195131173167691 0 0.038717823350860298 -0.03195131173167691 0 0.040265878273505265 -0.034790749314538939 0 0.041748195746133865 -0.03322049593733932 0 0.051218761061682543 -0.031404761838124816 0 0.04920207778517996 -0.034298294714022882 0 0.041380350871763692 -0.03014489787095561 0 0.038717823350860298 -0.03195131173167691 0 0.041748195746133865 -0.03322049593733932 0 0.056333587985562608 -0.033376968780781051 0 0.057039034386249084 -0.034670645928859128 0 0.056100783977381816 -0.034767256594282189 0 0.057039034386249084 -0.034670645928859128 0 0.05669432858506597 -0.03559070368777386 0 0.056100783977381816 -0.034767256594282189 0 0.042273705345684615 -0.035450797108749453 0 0.041748195746133865 -0.03322049593733932 0 0.043789327893600551 -0.035644645593711562 0 0.040265878273505265 -0.034790749314538939 0 0.042273705345684615 -0.035450797108749453 0 0.041849579435111618 -0.03764156224579774 0 0.040265878273505265 -0.034790749314538939 0 0.042273705345684615 -0.035450797108749453 0 0.041748195746133865 -0.03322049593733932 0 0.041380350871763692 -0.03014489787095561 0 0.041748195746133865 -0.03322049593733932 0 0.043872628322907663 -0.031845880189135693 0 0.020013031508219072 -0.028019579049154995 0 0.022381158675150722 -0.030689217731553673 0 0.019792137383195661 -0.034359173084495445 0 0.031305613256702995 -0.029684449803961416 0 0.030590803375579845 -0.03506019363912536 0 0.041748195746133865 -0.03322049593733932 0 0.043872628322907663 -0.031845880189135693 0 0.043789327893600551 -0.035644645593711562 0 0.023312155261751594 -0.027010735929571383 0 0.020013031508219072 -0.028019579049154995 0 0.022381158675150722 -0.030689217731553673 0 0.023312155261751594 -0.027010735929571383 0 0.022381158675150722 -0.030689217731553673 0 0.025623474813973788 -0.030048063386573794 0 0.019766197985353371 -0.027749993536820085 0 0.017767426890840977 -0.035091316206804814 0 0.025623474813973788 -0.030048063386573794 0 0.022913134302383984 -0.034060683637290798 0 0.025352738850509062 -0.037183801481009325 0 0.012737869694068491 -0.026640910659048285 0 0.012803553875721786 -0.03186439212177529 0 0.013467678978084475 -0.031235637507508823 0 0.022381158675150722 -0.030689217731553673 0 0.025623474813973788 -0.030048063386573794 0 0.022913134302383984 -0.034060683637290798 0 0.022381158675150722 -0.030689217731553673 0 0.022913134302383984 -0.034060683637290798 0 0.019792137383195661 -0.034359173084495445 0 0.042273705345684615 -0.035450797108749453 0 0.043789327893600551 -0.035644645593711562 0 0.043649166030699169 -0.036145631824702353 0 0.043789327893600551 -0.035644645593711562 0 0.043649166030699169 -0.036145631824702353 0 0.043528437252421469 -0.039992606983258926 0 0.030590803375579845 -0.03506019363912536 0 0.029190885882642209 -0.040592349176415028 0 0.043649166030699169 -0.036145631824702353 0 0.043113651434439078 -0.038330822149009507 0 0.043528437252421469 -0.039992606983258926 0 0.019792137383195661 -0.034359173084495445 0 0.02213249382207615 -0.037470482571110228 0 0.019583524811014844 -0.040706450850663281 0 0.022913134302383984 -0.034060683637290798 0 0.019792137383195661 -0.034359173084495445 0 0.02213249382207615 -0.037470482571110228 0 0.022913134302383984 -0.034060683637290798 0 0.02213249382207615 -0.037470482571110228 0 0.025352738850509062 -0.037183801481009325 0 0.02213249382207615 -0.037470482571110228 0 0.025352738850509062 -0.037183801481009325 0 0.022671284597907328 -0.040677830515264329 0 0.012803553875721786 -0.03186439212177529 0 0.01364379677459299 -0.032306055849673512 0 0.013082112780792384 -0.033378616465444703 0 0.017767426890840977 -0.035091316206804814 0 0.014640450282274519 -0.047100166701625146 0 0.025352738850509062 -0.037183801481009325 0 0.022671284597907328 -0.040677830515264329 0 0.025071649081441081 -0.044304048774964654 0 0.022671284597907328 -0.040677830515264329 0 0.022039995080752956 -0.043663310719500026 0 0.025071649081441081 -0.044304048774964654 0 0.043113651434439078 -0.038330822149009507 0 0.043528437252421469 -0.039992606983258926 0 0.042954388423796973 -0.039148333362144551 0 0.043528437252421469 -0.039992606983258926 0 0.042743412067981164 -0.039982299785112342 0 0.042954388423796973 -0.039148333362144551 0 0.02213249382207615 -0.037470482571110228 0 0.022671284597907328 -0.040677830515264329 0 0.019583524811014844 -0.040706450850663281 0 0.022671284597907328 -0.040677830515264329 0 0.021057939803387719 -0.042448789216542798 0 0.022039995080752956 -0.043663310719500026 0 0.022671284597907328 -0.040677830515264329 0 0.019583524811014844 -0.040706450850663281 0 0.021057939803387719 -0.042448789216542798 0 0.042647126682929429 -0.040689581575817563 0 0.041793445695643638 -0.04080957821150652 0 0.042693383043273671 -0.041712481409484581 0 0.042743412067981164 -0.039982299785112342 0 0.041793445695643638 -0.04080957821150652 0 0.04201062639558794 -0.038691775886295562 0 0.041793445695643638 -0.04080957821150652 0 0.040234977133243741 -0.040301326849596232 0 0.04201062639558794 -0.038691775886295562 0 0.042647126682929429 -0.040689581575817563 0 0.042743412067981164 -0.039982299785112342 0 0.041793445695643638 -0.04080957821150652 0 0.043528437252421469 -0.039992606983258926 0 0.042647126682929429 -0.040689581575817563 0 0.042693383043273671 -0.041712481409484581 0 0.043528437252421469 -0.039992606983258926 0 0.042647126682929429 -0.040689581575817563 0 0.042743412067981164 -0.039982299785112342 0 0.042743412067981164 -0.039982299785112342 0 0.042954388423796973 -0.039148333362144551 0 0.041514163166398277 -0.037929607407839822 0 0.046946522405758584 -0.037006627913456498 0 0.047319868131678357 -0.036852864394883909 0 0.041793445695643638 -0.04080957821150652 0 0.040234977133243741 -0.040301326849596232 0 0.041187587117319277 -0.041626467750415598 0 0.051099957568485892 -0.038820078720125724 0 0.047319868131678357 -0.036852864394883909 0 0.056668351731463118 -0.036856655413072849 0 0.05669432858506597 -0.03559070368777386 0 0.057732549363128896 -0.035940340817020702 0 0.057039034386249084 -0.034670645928859128 0 0.05669432858506597 -0.03559070368777386 0 0.057732549363128896 -0.035940340817020702 0 0.056668351731463118 -0.036856655413072849 0 0.05669432858506597 -0.03559070368777386 0 0.055925163597380534 -0.035704642838555505 0 0.04920207778517996 -0.034298294714022882 0 0.047319868131678357 -0.036852864394883909 0 0.043649166030699169 -0.036145631824702353 0 0.043113651434439078 -0.038330822149009507 0 0.041514163166398277 -0.037929607407839822 0 0.042273705345684615 -0.035450797108749453 0 0.043649166030699169 -0.036145631824702353 0 0.041849579435111618 -0.03764156224579774 0 0.046343699678384399 -0.037308649495518292 0 0.047319868131678357 -0.036852864394883909 0 0.043113651434439078 -0.038330822149009507 0 0.042954388423796973 -0.039148333362144551 0 0.041514163166398277 -0.037929607407839822 0 0.020386055527825891 -0.022341089288424602 0 0.018139712881779908 -0.026033768977390178 0 0.014788198838464607 -0.032600780470735932 0 0.014761792053858865 -0.032585418690593199 0 0.014774040474678576 -0.032606345002090274 0 0.018239009056655337 -0.022933325950893608 0 0.014750792109942474 -0.028635818057680406 0 0.017995688181140987 -0.030102250125459366 0 0.016085903424307199 -0.030345543963664897 0 0.016255625328033273 -0.031279669264622549 0 0.017995688181140987 -0.030102250125459366 0 0.017697241551105272 -0.029733495952253899 0 0.016085903424307199 -0.030345543963664897 0 0.020386055527825891 -0.022341089288424602 0 0.022238154603960326 -0.01806665547530957 0 0.026276740836881519 -0.026734126524099015 0 0.022940289044976966 -0.022592851759057165 0 0.021961577492820433 -0.025548379057229849 0 0.026276740836881519 -0.026734126524099015 0 0.021961577492820433 -0.025548379057229849 0 0.021880211278383147 -0.028337719901753922 0 0.021961577492820433 -0.025548379057229849 0 0.019681079744513785 -0.027301441064497094 0 0.021880211278383147 -0.028337719901753922 0 0.019711736418723938 -0.024054031075936233 0 0.021961577492820433 -0.025548379057229849 0 0.019681079744513785 -0.027301441064497094 0 0.016085903424307199 -0.030345543963664897 0 0.014553524247591655 -0.030959943058083916 0 0.016255625328033273 -0.031279669264622549 0 0.019681079744513785 -0.027301441064497094 0 0.021880211278383147 -0.028337719901753922 0 0.017569835017256778 -0.02986383079378329 0 0.018139712881779908 -0.026033768977390178 0 0.016014422197022135 -0.028147974543255811 0 0.017569835017256778 -0.02986383079378329 0 0.016668390567551875 -0.027005483199955042 0 0.014994283565114438 -0.02865089450478963 0 0.019681079744513785 -0.027301441064497094 0 0.017569835017256778 -0.02986383079378329 0 0.016668390567551875 -0.027005483199955042 0 0.016280475748362964 -0.024194046911251023 0 0.019681079744513785 -0.027301441064497094 0 0.016668390567551875 -0.027005483199955042 0 0.016152109917059881 -0.023756635346318999 0 0.019711736418723938 -0.024054031075936233 0 0.019681079744513785 -0.027301441064497094 0 0.020113833045004144 -0.020635855720748681 0 0.020545410526194182 -0.02245138089201788 0 0.016280475748362964 -0.024194046911251023 0 0.012737869694068491 -0.026640910659048285 0 0.016668390567551875 -0.027005483199955042 0 0.012737869694068491 -0.026640910659048285 0 0.016668390567551875 -0.027005483199955042 0 0.014994283565114438 -0.02865089450478963 0 0.012737869694068491 -0.026640910659048285 0 0.014994283565114438 -0.02865089450478963 0 0.013467678978084475 -0.031235637507508823 0 0.017569835017256778 -0.02986383079378329 0 0.014994283565114438 -0.02865089450478963 0 0.013467678978084475 -0.031235637507508823 0 0.014553524247591655 -0.030959943058083916 0 0.013467678978084475 -0.031235637507508823 0 0.014061335724510259 -0.031704974815476322 0 0.014061335724510259 -0.031704974815476322 0 0.01364379677459299 -0.032306055849673512 0 0.014553822740807215 -0.032368037422127391 0 0.016014422197022135 -0.028147974543255811 0 0.0148980840906756 -0.028937575494765194 0 0.012803553875721786 -0.03186439212177529 0 0.013467678978084475 -0.031235637507508823 0 0.01364379677459299 -0.032306055849673512 0 0.013467678978084475 -0.031235637507508823 0 0.014061335724510259 -0.031704974815476322 0 0.01364379677459299 -0.032306055849673512 0 0.01364379677459299 -0.032306055849673512 0 0.013976595317415188 -0.032871993735680699 0 0.014553822740807215 -0.032368037422127391 0 0.01364379677459299 -0.032306055849673512 0 0.013976595317415188 -0.032871993735680699 0 0.013082112780792384 -0.033378616465444703 0 0.014553822740807215 -0.032368037422127391 0 0.01463259663215526 -0.032680977948997283 0 0.014725820983643447 -0.032633755222535248 0 0.013976595317415188 -0.032871993735680699 0 0.014553822740807215 -0.032368037422127391 0 0.014476063056513251 -0.03288621490197316 0 0.014553822740807215 -0.032368037422127391 0 0.014476063056513251 -0.03288621490197316 0 0.01463259663215526 -0.032680977948997283 0 0.014476063056513251 -0.03288621490197316 0 0.01463259663215526 -0.032680977948997283 0 0.014652683161456499 -0.032827843728181517 0 0.014553524247591655 -0.030959943058083916 0 0.014553822740807215 -0.032368037422127391 0 0.016255625328033273 -0.031279669264622549 0 0.014553524247591655 -0.030959943058083916 0 0.014061335724510259 -0.031704974815476322 0 0.014553822740807215 -0.032368037422127391 0 0.014097335380886531 -0.02997605967132011 0 0.014750792109942474 -0.028635818057680406 0 0.014553822740807215 -0.032368037422127391 0 0.014739237658506328 -0.032574099102777518 0 0.014725820983643447 -0.032633755222535248 0 0.014553822740807215 -0.032368037422127391 0 0.014761792053858865 -0.032585418690593199 0 0.014739237658506328 -0.032574099102777518 0 0.014739237658506328 -0.032574099102777518 0 0.014725820983643447 -0.032633755222535248 0 0.014775088703245802 -0.032623823126843428 0 0.01463259663215526 -0.032680977948997283 0 0.014731660211362681 -0.032772064320264492 0 0.014725820983643447 -0.032633755222535248 0 0.01463259663215526 -0.032680977948997283 0 0.014652683161456499 -0.032827843728181517 0 0.014731660211362681 -0.032772064320264492 0 0.014731660211362681 -0.032772064320264492 0 0.014725820983643447 -0.032633755222535248 0 0.014778738634969533 -0.03267897167111463 0 0.014725820983643447 -0.032633755222535248 0 0.014778738634969533 -0.03267897167111463 0 0.014775088703245802 -0.032623823126843428 0 0.014778738634969533 -0.03267897167111463 0 0.014790177451096228 -0.032659218084807276 0 0.014775088703245802 -0.032623823126843428 0 0.014731660211362681 -0.032772064320264492 0 0.014778738634969533 -0.03267897167111463 0 0.014808240284487748 -0.032694775596197691 0 0.014778738634969533 -0.03267897167111463 0 0.014790177451096228 -0.032659218084807276 0 0.014808240284487748 -0.032694775596197691 0 0.014781163360843083 -0.03262915216900393 0 0.014790177451096228 -0.032659218084807276 0 0.014775088703245802 -0.032623823126843428 0 0.014739237658506328 -0.032574099102777518 0 0.014775088703245802 -0.032623823126843428 0 0.014774040474678576 -0.032606345002090274 0 0.014761792053858865 -0.032585418690593199 0 0.014739237658506328 -0.032574099102777518 0 0.014774040474678576 -0.032606345002090274 0 0.014781163360843083 -0.03262915216900393 0 0.014775088703245802 -0.032623823126843428 0 0.014774040474678576 -0.032606345002090274 0 0.014781163360843083 -0.03262915216900393 0 0.014780929041988557 -0.032616318900017136 0 0.014774040474678576 -0.032606345002090274 0 -0.0060918359875258878 -0.067235969255355896 0 -0.0080427767710251792 -0.066629038307352076 0 -0.0078015484541439275 -0.06827174744373353 0 -0.0080427767710251792 -0.066629038307352076 0 -0.0078015484541439275 -0.06827174744373353 0 -0.010271410033602409 -0.068516377587872629 0 -0.0058933234152116366 -0.06661589314609638 0 -0.0057243054243854225 -0.065920567817673373 0 -0.0067485174200268621 -0.066117947035815874 0 -0.0058933234152116366 -0.06661589314609638 0 -0.0067485174200268621 -0.066117947035815874 0 -0.0068611773837786464 -0.066340107561286138 0 0.0039404018793009025 -0.048581891982242255 0 0.0033426801368455941 -0.053277073729652 0 -0.004578694287902552 -0.061296883179143731 0 0.0018453633275744164 -0.0567818973227611 0 0.014731660211362681 -0.032772064320264492 0 0.014808240284487748 -0.032694775596197691 0 0.014664750199131675 -0.033008955366551865 0 0.014652683161456499 -0.032827843728181517 0 0.014731660211362681 -0.032772064320264492 0 0.014664750199131675 -0.033008955366551865 0 -0.0080427767710251792 -0.066629038307352076 0 -0.011833564363742251 -0.065807419767342792 0 -0.010271410033602409 -0.068516377587872629 0 0.0018453633275744164 -0.0567818973227611 0 0.0010271286940066416 -0.062889820886642536 0 -0.011833564363742251 -0.065807419767342792 0 -0.01329899340044146 -0.068606205764888517 0 -0.010271410033602409 -0.068516377587872629 0 0.011106824230184267 -0.0556431005711902 0 0.009459937757873637 -0.055290862023372321 0 0.0099410616159670753 -0.057917606017102566 0 0.0033426801368455941 -0.053277073729652 0 0.0090000389306405474 -0.051812406802940726 0 0.014476063056513251 -0.03288621490197316 0 0.014664750199131675 -0.033008955366551865 0 0.014012009610799148 -0.033419158286114449 0 0.00059037511168463829 -0.053801557313889407 0 0.0017199694533317942 -0.051651157847743621 0 0.0068515066513478084 -0.052728816204974882 0 0.0033426801368455941 -0.053277073729652 0 0.0018453633275744164 -0.0567818973227611 0 0.014476063056513251 -0.03288621490197316 0 0.014652683161456499 -0.032827843728181517 0 0.014664750199131675 -0.033008955366551865 0 0.013976595317415188 -0.032871993735680699 0 0.014476063056513251 -0.03288621490197316 0 0.014012009610799148 -0.033419158286114449 0 0.0018453633275744164 -0.0567818973227611 0 0.0090000389306405474 -0.051812406802940726 0 0.010741635210534098 -0.050414146060102742 0 0.01577264435202785 -0.051462142882312996 0 0.015840270352114331 -0.049532062500570892 0 0.009459937757873637 -0.055290862023372321 0 0.0085374026484742703 -0.056917936393457089 0 0.0074292065388724569 -0.055637065125704301 0 0.0090000389306405474 -0.051812406802940726 0 0.014824362657016006 -0.049922507109439823 0 0.0090000389306405474 -0.051812406802940726 0 0.014640450282274519 -0.047100166701625146 0 0.013976595317415188 -0.032871993735680699 0 0.014012009610799148 -0.033419158286114449 0 0.013082112780792384 -0.033378616465444703 0 0.009459937757873637 -0.055290862023372321 0 0.0085374026484742703 -0.056917936393457089 0 0.0099410616159670753 -0.057917606017102566 0 0.0087704455095828481 -0.060214616879417426 0 0.0099410616159670753 -0.057917606017102566 0 0.0073149507707140921 -0.058831652035726628 0 0.0085374026484742703 -0.056917936393457089 0 0.0099410616159670753 -0.057917606017102566 0 0.0073149507707140921 -0.058831652035726628 0 0.0029190762064085518 -0.066056018368925648 0 0.0010271286940066416 -0.062889820886642536 0 -0.011849390176084152 -0.072646873120131697 0 -0.014733908642903727 -0.071408591121065748 0 -0.012304217059483424 -0.070469707211662652 0 -0.011849390176084152 -0.072646873120131697 0 -0.012304217059483424 -0.070469707211662652 0 -0.010422733514941262 -0.070761696657366674 0 -0.01329899340044146 -0.068606205764888517 0 -0.012304217059483424 -0.070469707211662652 0 -0.010271410033602409 -0.068516377587872629 0 -0.014733908642903727 -0.071408591121065748 0 -0.01329899340044146 -0.068606205764888517 0 -0.012304217059483424 -0.070469707211662652 0 -0.010271410033602409 -0.068516377587872629 0 -0.010422733514941262 -0.070761696657366674 0 -0.008278011060643577 -0.06985942622211036 0 -0.012304217059483424 -0.070469707211662652 0 -0.010271410033602409 -0.068516377587872629 0 -0.010422733514941262 -0.070761696657366674 0 -0.011849390176084152 -0.072646873120131697 0 -0.010422733514941262 -0.070761696657366674 0 -0.0089445527983781949 -0.072111921675813748 0 -0.0061172067834644774 -0.070929839625045787 0 -0.0089445527983781949 -0.072111921675813748 0 -0.008278011060643577 -0.06985942622211036 0 -0.010422733514941262 -0.070761696657366674 0 -0.0089445527983781949 -0.072111921675813748 0 -0.008278011060643577 -0.06985942622211036 0 -0.0078015484541439275 -0.06827174744373353 0 -0.010271410033602409 -0.068516377587872629 0 -0.008278011060643577 -0.06985942622211036 0 -0.0063730994276456022 -0.069156132512948373 0 -0.0078015484541439275 -0.06827174744373353 0 -0.008278011060643577 -0.06985942622211036 0 0.03519622047256072 -0.048391010424140193 0 0.026393381375793661 -0.047518622970808701 0 0.03519622047256072 -0.048391010424140193 0 0.023409655143432722 -0.055905963958227042 0 0.025775605093562103 -0.049297496129233842 0 0.027201251568898865 -0.049109876223459741 0 0.02713265491677895 -0.051018162737556029 0 0.032484397241366175 -0.053861051067467476 0 0.03351055677262222 -0.052890285202687785 0 0.033549734067528189 -0.054037353789302994 0 0.039752421544393707 -0.044277677928438411 0 0.039708913739914378 -0.043421630116404819 0 0.040955021994573883 -0.043137536296043687 0 0.041496091119375085 -0.047829901006911126 0 0.03519622047256072 -0.048391010424140193 0 0.039708913739914378 -0.043421630116404819 0 0.041011961710761997 -0.043110466960866192 0 0.040232525758761802 -0.042135090274016532 0 0.036527065299067879 -0.047810120485559646 0 0.03519622047256072 -0.048391010424140193 0 0.040234977133243741 -0.040301326849596232 0 0.040232525758761802 -0.042135090274016532 0 0.038590015879647881 -0.041813129752853978 0 0.03519622047256072 -0.048391010424140193 0 0.035384668693484049 -0.047903092489812608 0 0.040234977133243741 -0.040301326849596232 0 0.040232525758761802 -0.042135090274016532 0 0.041187587117319277 -0.041626467750415598 0 0.041033781175603197 -0.043168066783591467 0 0.040232525758761802 -0.042135090274016532 0 0.041187587117319277 -0.041626467750415598 0 0.040698172980587824 -0.043565362224006997 0 0.042693383043273671 -0.041712481409484581 0 0.043318652037059119 -0.043179600025386344 0 0.041793445695643638 -0.04080957821150652 0 0.041187587117319277 -0.041626467750415598 0 0.042693383043273671 -0.041712481409484581 0 0.041033781175603197 -0.043168066783591467 0 0.041187587117319277 -0.041626467750415598 0 0.042693383043273671 -0.041712481409484581 0 0.03519622047256072 -0.048391010424140193 0 0.038413443323774582 -0.045425328040004348 0 0.021057939803387719 -0.042448789216542798 0 0.022039995080752956 -0.043663310719500026 0 0.019403532258537078 -0.046998220295041949 0 0.043528437252421469 -0.039992606983258926 0 0.042693383043273671 -0.041712481409484581 0 0.043318652037059119 -0.043179600025386344 0 0.029190885882642209 -0.040592349176415028 0 0.026393381375793661 -0.047518622970808701 0 0.019583524811014844 -0.040706450850663281 0 0.021057939803387719 -0.042448789216542798 0 0.019403532258537078 -0.046998220295041949 0 0.014824362657016006 -0.049922507109439823 0 0.026393381375793661 -0.047518622970808701 0 0.022039995080752956 -0.043663310719500026 0 0.024970409776709671 -0.046025618799264645 0 0.019403532258537078 -0.046998220295041949 0 0.022039995080752956 -0.043663310719500026 0 0.025026354362273219 -0.044306776880674241 0 0.024970409776709671 -0.046025618799264645 0 0.016306587482743339 -0.047146258531409656 0 0.014640450282274519 -0.047100166701625146 0 0.014640450282274519 -0.047100166701625146 0 0.014824362657016006 -0.049922507109439823 0 0.014824362657016006 -0.049922507109439823 0 0.013249823155720219 -0.056717319687604253 0 0.018836261361272953 -0.049979787935757636 0 0.016658571892578571 -0.052863471083829973 0 0.018668672351428644 -0.054683279612451861 0 0.0085374026484742703 -0.056917936393457089 0 0.0074292065388724569 -0.055637065125704301 0 0.0073149507707140921 -0.058831652035726628 0 0.018836261361272953 -0.049979787935757636 0 0.015128028123723519 -0.050622606409040316 0 0.016658571892578571 -0.052863471083829973 0 0.015128028123723519 -0.050622606409040316 0 0.016658571892578571 -0.052863471083829973 0 0.014982207727723244 -0.055003722973586903 0 0.026393381375793661 -0.047518622970808701 0 0.023409655143432722 -0.055905963958227042 0 0.016658571892578571 -0.052863471083829973 0 0.014982207727723244 -0.055003722973586903 0 0.018668672351428644 -0.054683279612451861 0 0.0072114418266996626 -0.062053548351896796 0 0.0087704455095828481 -0.060214616879417426 0 0.0073149507707140921 -0.058831652035726628 0 0.011875063220076167 -0.06328644897856063 0 0.013249823155720219 -0.056717319687604253 0 0.018486535482287125 -0.059390310260831317 0 0.018668672351428644 -0.054683279612451861 0 0.016734118878689874 -0.057195861987083076 0 0.022498585632332421 -0.062132125380433376 0 0.023409655143432722 -0.055905963958227042 0 0.014982207727723244 -0.055003722973586903 0 0.018668672351428644 -0.054683279612451861 0 0.016734118878689874 -0.057195861987083076 0 0.013633357922772619 -0.066239346724293713 0 0.013647131037193529 -0.066084428611252771 0 0.013678178437418686 -0.066173296658412234 0 0.023409655143432722 -0.055905963958227042 0 0.017385384589741541 -0.059841541386278937 0 0.035013940498086683 -0.057032411470739362 0 0.035091538304814776 -0.054890668343090608 0 0.033191538710735428 -0.05551000744202346 0 0.03351055677262222 -0.052890285202687785 0 0.035091538304814776 -0.054890668343090608 0 0.033549734067528189 -0.054037353789302994 0 0.035091538304814776 -0.054890668343090608 0 0.033549734067528189 -0.054037353789302994 0 0.033191538710735428 -0.05551000744202346 0 0.032484397241366175 -0.053861051067467476 0 0.033549734067528189 -0.054037353789302994 0 0.033191538710735428 -0.05551000744202346 0 0.032484397241366175 -0.053861051067467476 0 0.033191538710735428 -0.05551000744202346 0 0.031556220697167785 -0.054744620297348327 0 0.032951345597376176 -0.057226104183368258 0 0.031544091541338096 -0.056573761825297386 0 0.033191538710735428 -0.05551000744202346 0 0.0501546376807325 -0.05020198234162053 0 0.047728634099778185 -0.050485973479129635 0 0.048789550292715964 -0.043115132697744855 0 0.031544091541338096 -0.056573761825297386 0 0.033191538710735428 -0.05551000744202346 0 0.031556220697167785 -0.054744620297348327 0 0.046272644710152806 -0.052479491679841922 0 0.050856519701487142 -0.04471885467277821 0 0.0501546376807325 -0.05020198234162053 0 0.048789550292715964 -0.043115132697744855 0 0.050188502982559544 -0.041798299767284101 0 0.054595287805026066 -0.046762281142341038 0 0.056116446459714961 -0.042263990225294056 0 0.06629585679015311 -0.036802581245921416 0 0.056116446459714961 -0.042263990225294056 0 0.070416272104448882 -0.036631589463794231 0 0.069798129227179262 -0.037063626233736859 0 0.070311280585081015 -0.037062867436972104 0 0.068626138096659434 -0.038651231430663562 0 0.066474032341714562 -0.038785282725159832 0 0.066116314975830148 -0.04100532236597236 0 0.070130220769122842 -0.037219941441644179 0 0.069958583171748689 -0.037398021525194211 0 0.070413438985124643 -0.037362036014083923 0 0.070130220769122842 -0.037219941441644179 0 0.069798129227179262 -0.037063626233736859 0 0.070311280585081015 -0.037062867436972104 0 0.070130220769122842 -0.037219941441644179 0 0.069958583171748689 -0.037398021525194211 0 0.069798129227179262 -0.037063626233736859 0 0.056116446459714961 -0.042263990225294056 0 0.059042881047700349 -0.03901797155292365 0 0.050856519701487142 -0.04471885467277821 0 0.054441317922655101 -0.041406935032225936 0 0.06955649024400215 -0.037333411095947067 0 0.069517951167609768 -0.037390657588211682 0 0.069610790639914003 -0.037667450691520284 0 0.039752421544393707 -0.044277677928438411 0 0.038653312289619553 -0.045336177213799192 0 0.03862420859607766 -0.043606702672983638 0 0.069958583171748689 -0.037398021525194211 0 0.069798129227179262 -0.037063626233736859 0 0.069625472813447983 -0.037712330684750148 0 0.056116446459714961 -0.042263990225294056 0 0.050856519701487142 -0.04471885467277821 0 0.041496091119375085 -0.047829901006911126 0 0.050856519701487142 -0.04471885467277821 0 0.06955649024400215 -0.037333411095947067 0 0.069625472813447983 -0.037712330684750148 0 0.069610790639914003 -0.037667450691520284 0 0.039708913739914378 -0.043421630116404819 0 0.03862420859607766 -0.043606702672983638 0 0.038590015879647881 -0.041813129752853978 0 0.039752421544393707 -0.044277677928438411 0 0.039708913739914378 -0.043421630116404819 0 0.03862420859607766 -0.043606702672983638 0 0.069625472813447983 -0.037712330684750148 0 0.069610790639914003 -0.037667450691520284 0 0.069594325217791742 -0.038131122447442323 0 0.069958583171748689 -0.037398021525194211 0 0.070225564931353332 -0.037632258300763791 0 0.070413438985124643 -0.037362036014083923 0 0.069958583171748689 -0.037398021525194211 0 0.069625472813447983 -0.037712330684750148 0 0.070225564931353332 -0.037632258300763791 0 0.069625472813447983 -0.037712330684750148 0 0.070225564931353332 -0.037632258300763791 0 0.069594325217791742 -0.038131122447442323 0 0.070225564931353332 -0.037632258300763791 0 0.07024113146754303 -0.038132711542892571 0 0.069693010009950332 -0.038035157636376514 0 0.063809424707703233 -0.0362058251311701 0 0.05810838799664144 -0.039031132436027252 0 0.039708913739914378 -0.043421630116404819 0 0.040232525758761802 -0.042135090274016532 0 0.038590015879647881 -0.041813129752853978 0 0.054441317922655101 -0.041406935032225936 0 0.05810838799664144 -0.039031132436027252 0 0.070832015539284116 -0.037688157002976334 0 0.071394671426706052 -0.037948821341037262 0 0.070764384201190023 -0.038223620633563569 0 0.070225564931353332 -0.037632258300763791 0 0.07024113146754303 -0.038132711542892571 0 0.070832015539284116 -0.037688157002976334 0 0.07024113146754303 -0.038132711542892571 0 0.070832015539284116 -0.037688157002976334 0 0.070764384201190023 -0.038223620633563569 0 0.070225564931353332 -0.037632258300763791 0 0.070832015539284116 -0.037688157002976334 0 0.070413438985124643 -0.037362036014083923 0 0.070832015539284116 -0.037688157002976334 0 0.070771849664016617 -0.03722524058159276 0 0.070413438985124643 -0.037362036014083923 0 0.070832015539284116 -0.037688157002976334 0 0.070771849664016617 -0.03722524058159276 0 0.071206110650978871 -0.037325979192821809 0 0.070771849664016617 -0.03722524058159276 0 0.071031794556081107 -0.037009885850485931 0 0.071206110650978871 -0.037325979192821809 0 0.070771849664016617 -0.03722524058159276 0 0.070413438985124643 -0.037362036014083923 0 0.070311280585081015 -0.037062867436972104 0 0.070771849664016617 -0.03722524058159276 0 0.070311280585081015 -0.037062867436972104 0 0.070644670281309205 -0.036887743981963483 0 0.070130220769122842 -0.037219941441644179 0 0.070413438985124643 -0.037362036014083923 0 0.070311280585081015 -0.037062867436972104 0 0.070416272104448882 -0.036631589463794231 0 0.070311280585081015 -0.037062867436972104 0 0.070644670281309205 -0.036887743981963483 0 0.07068974877954004 -0.036608600196841742 0 0.070416272104448882 -0.036631589463794231 0 0.070644670281309205 -0.036887743981963483 0 0.070771849664016617 -0.03722524058159276 0 0.070644670281309205 -0.036887743981963483 0 0.071031794556081107 -0.037009885850485931 0 0.070923381986181436 -0.036721043902204771 0 0.07068974877954004 -0.036608600196841742 0 0.070644670281309205 -0.036887743981963483 0 0.070923381986181436 -0.036721043902204771 0 0.070644670281309205 -0.036887743981963483 0 0.071031794556081107 -0.037009885850485931 0 0.070923381986181436 -0.036721043902204771 0 0.071031794556081107 -0.037009885850485931 0 0.071310807889565772 -0.036814591985927403 0 0.071031794556081107 -0.037009885850485931 0 0.071310807889565772 -0.036814591985927403 0 0.071388436732321786 -0.03709675612640484 0 0.071310807889565772 -0.036814591985927403 0 0.071697208539529017 -0.03696041196411836 0 0.071388436732321786 -0.03709675612640484 0 0.071676543908292159 -0.036566809572747092 0 0.071310807889565772 -0.036814591985927403 0 0.071697208539529017 -0.03696041196411836 0 0.071676543908292159 -0.036566809572747092 0 0.071697208539529017 -0.03696041196411836 0 0.072073933909787669 -0.036776679523501568 0 0.071652216281945263 -0.03731537330049145 0 0.072047807716427298 -0.037181413992503777 0 0.071966664986161499 -0.03752047851708841 0 0.071697208539529017 -0.03696041196411836 0 0.071652216281945263 -0.03731537330049145 0 0.071388436732321786 -0.03709675612640484 0 0.071697208539529017 -0.03696041196411836 0 0.071652216281945263 -0.03731537330049145 0 0.072047807716427298 -0.037181413992503777 0 0.071652216281945263 -0.03731537330049145 0 0.071206110650978871 -0.037325979192821809 0 0.071388436732321786 -0.03709675612640484 0 0.071031794556081107 -0.037009885850485931 0 0.071206110650978871 -0.037325979192821809 0 0.071388436732321786 -0.03709675612640484 0 0.072510065625832482 -0.036928557686652194 0 0.072073933909787669 -0.036776679523501568 0 0.072047807716427298 -0.037181413992503777 0 0.072337195200199295 -0.036603479059975151 0 0.072510065625832482 -0.036928557686652194 0 0.072073933909787669 -0.036776679523501568 0 0.071697208539529017 -0.03696041196411836 0 0.072073933909787669 -0.036776679523501568 0 0.072047807716427298 -0.037181413992503777 0 0.072510065625832482 -0.036928557686652194 0 0.072047807716427298 -0.037181413992503777 0 0.072377697946681849 -0.037365565267734706 0 0.0723953908215519 -0.038674993402822815 0 0.072568278338092485 -0.037638754045160545 0 0.072377697946681849 -0.037365565267734706 0 0.072139450011637227 -0.037796576452025603 0 0.072292312811354578 -0.037660904788455594 0 0.072047807716427298 -0.037181413992503777 0 0.072377697946681849 -0.037365565267734706 0 0.071966664986161499 -0.03752047851708841 0 0.072377697946681849 -0.037365565267734706 0 0.071966664986161499 -0.03752047851708841 0 0.072139450011637227 -0.037796576452025603 0 0.072139450011637227 -0.037796576452025603 0 0.072292312811354578 -0.037660904788455594 0 0.072257920083302909 -0.037716427923302799 0 0.071966664986161499 -0.03752047851708841 0 0.072139450011637227 -0.037796576452025603 0 0.071882449124207534 -0.03778189124906698 0 0.070832015539284116 -0.037688157002976334 0 0.071206110650978871 -0.037325979192821809 0 0.071522906495629743 -0.037622218079332234 0 0.071652216281945263 -0.03731537330049145 0 0.071206110650978871 -0.037325979192821809 0 0.071522906495629743 -0.037622218079332234 0 0.071652216281945263 -0.03731537330049145 0 0.071966664986161499 -0.03752047851708841 0 0.071522906495629743 -0.037622218079332234 0 0.071966664986161499 -0.03752047851708841 0 0.071522906495629743 -0.037622218079332234 0 0.071882449124207534 -0.03778189124906698 0 0.071882449124207534 -0.03778189124906698 0 0.071394671426706052 -0.037948821341037262 0 0.072147015249122246 -0.037965147261346387 0 0.072139450011637227 -0.037796576452025603 0 0.071882449124207534 -0.03778189124906698 0 0.072147015249122246 -0.037965147261346387 0 0.071522906495629743 -0.037622218079332234 0 0.071882449124207534 -0.03778189124906698 0 0.071394671426706052 -0.037948821341037262 0 0.070832015539284116 -0.037688157002976334 0 0.071522906495629743 -0.037622218079332234 0 0.071394671426706052 -0.037948821341037262 0 0.074162516473369341 -0.037932037409099485 0 0.072147015249122246 -0.037965147261346387 0 0.07317765568188983 -0.037282501983392287 0 0.071394671426706052 -0.037948821341037262 0 0.071227825888611901 -0.03844332288507013 0 0.072147015249122246 -0.037965147261346387 0 0.072307044413624622 -0.037205988495256255 0 0.072271110117064191 -0.037432957038295321 0 0.072147015249122246 -0.037965147261346387 0 0.07219084773460864 -0.037778772634855469 0 0.07317765568188983 -0.037282501983392287 0 0.07219084773460864 -0.037778772634855469 0 0.07317765568188983 -0.037282501983392287 0 0.072910202642459079 -0.036001106487538771 0 0.072636870839111564 -0.037193726024718099 0 0.073056462694638308 -0.03619606134356531 0 0.072729803425697001 -0.037621537693439414 0 0.072669424699331575 -0.037010589200505463 0 0.073463921931567269 -0.036258641424897368 0 0.07317765568188983 -0.037282501983392287 0 0.072910202642459079 -0.036001106487538771 0 0.074613342015746334 -0.036245848560197969 0 0.074162516473369341 -0.037932037409099485 0 0.07317765568188983 -0.037282501983392287 0 0.074613342015746334 -0.036245848560197969 0 0.072292312811354578 -0.037660904788455594 0 0.072155556582209693 -0.037712036831146573 0 0.072257920083302909 -0.037716427923302799 0 0.072155556582209693 -0.037712036831146573 0 0.072257920083302909 -0.037716427923302799 0 0.072302988202650811 -0.037456489012718787 0 0.072476173320565038 -0.037514732548406829 0 0.072636870839111564 -0.037193726024718099 0 0.072139450011637227 -0.037796576452025603 0 0.072729803425697001 -0.037621537693439414 0 0.072257920083302909 -0.037716427923302799 0 0.072139450011637227 -0.037796576452025603 0 0.072147015249122246 -0.037965147261346387 0 0.07219084773460864 -0.037778772634855469 0 0.072729803425697001 -0.037621537693439414 0 0.072257920083302909 -0.037716427923302799 0 0.072302988202650811 -0.037456489012718787 0 0.072669424699331575 -0.037010589200505463 0 0.072302988202650811 -0.037456489012718787 0 0.072257917596990864 -0.036620703619809805 0 0.072729803425697001 -0.037621537693439414 0 0.072669424699331575 -0.037010589200505463 0 0.072302988202650811 -0.037456489012718787 0 0.071706137147241486 -0.037689893804641786 0 0.072155556582209693 -0.037712036831146573 0 0.072302988202650811 -0.037456489012718787 0 0.071706137147241486 -0.037689893804641786 0 0.072302988202650811 -0.037456489012718787 0 0.072257917596990864 -0.036620703619809805 0 0.071706137147241486 -0.037689893804641786 0 0.071321028181075621 -0.03575485972460557 0 0.072257917596990864 -0.036620703619809805 0 0.071321028181075621 -0.03575485972460557 0 0.072257917596990864 -0.036620703619809805 0 0.072468612795189388 -0.034601003503831378 0 0.072257917596990864 -0.036620703619809805 0 0.072468612795189388 -0.034601003503831378 0 0.073463921931567269 -0.036258641424897368 0 0.072669424699331575 -0.037010589200505463 0 0.072257917596990864 -0.036620703619809805 0 0.073463921931567269 -0.036258641424897368 0 0.070987619602705235 -0.033871262248959519 0 0.071321028181075621 -0.03575485972460557 0 0.072468612795189388 -0.034601003503831378 0 0.072910202642459079 -0.036001106487538771 0 0.073766772059415925 -0.034300677636125848 0 0.074613342015746334 -0.036245848560197969 0 0.073056462694638308 -0.03619606134356531 0 0.07333815741732036 -0.035463005043908861 0 0.072468612795189388 -0.034601003503831378 0 0.073463921931567269 -0.036258641424897368 0 0.073766772059415925 -0.034300677636125848 0 0.075131905717731637 -0.033403633127441199 0 0.073766772059415925 -0.034300677636125848 0 0.075428512639141326 -0.034974726410657048 0 0.073766772059415925 -0.034300677636125848 0 0.075428512639141326 -0.034974726410657048 0 0.074613342015746334 -0.036245848560197969 0 0.075428512639141326 -0.034974726410657048 0 0.074613342015746334 -0.036245848560197969 0 0.076582405939255707 -0.035927528833067872 0 0.075131905717731637 -0.033403633127441199 0 0.075428512639141326 -0.034974726410657048 0 0.076721356058619919 -0.03456294464186517 0 0.075428512639141326 -0.034974726410657048 0 0.076582405939255707 -0.035927528833067872 0 0.076721356058619919 -0.03456294464186517 0 0.076582405939255707 -0.035927528833067872 0 0.076721356058619919 -0.03456294464186517 0 0.078147983052073822 -0.034953612289296512 0 0.077323839559113955 -0.033546223259703328 0 0.076721356058619919 -0.03456294464186517 0 0.078147983052073822 -0.034953612289296512 0 0.056333587985562608 -0.033376968780781051 0 0.055599518419719315 -0.033946360893024399 0 0.056100783977381816 -0.034767256594282189 0 0.061447073883817073 -0.033801013386655969 0 0.063923589997754826 -0.036039309792517807 0 0.055599518419719315 -0.033946360893024399 0 0.056100783977381816 -0.034767256594282189 0 0.055605645872086613 -0.035787536773893174 0 0.076582405939255707 -0.035927528833067872 0 0.078147983052073822 -0.034953612289296512 0 0.078120762072694416 -0.036929653909887707 0 0.063923589997754826 -0.036039309792517807 0 0.071388829299829412 -0.036503714547675994 0 0.076582405939255707 -0.035927528833067872 0 0.078120762072694416 -0.036929653909887707 0 0.076197962146637238 -0.037432101923631063 0 0.056668351731463118 -0.036856655413072849 0 0.055925163597380534 -0.035704642838555505 0 0.055609965595041069 -0.035786277237194908 0 0.05669432858506597 -0.03559070368777386 0 0.056100783977381816 -0.034767256594282189 0 0.055925163597380534 -0.035704642838555505 0 0.056100783977381816 -0.034767256594282189 0 0.055925163597380534 -0.035704642838555505 0 0.055605645872086613 -0.035787536773893174 0 0.063622963722972603 -0.036091871908915454 0 0.063923589997754826 -0.036039309792517807 0 0.05810838799664144 -0.039031132436027252 0 0.063923589997754826 -0.036039309792517807 0 0.051099957568485892 -0.038820078720125724 0 0.05810838799664144 -0.039031132436027252 0 0.056668351731463118 -0.036856655413072849 0 0.055605627339447732 -0.037773519678148716 0 0.055609965595041069 -0.035786277237194908 0 0.07024113146754303 -0.038132711542892571 0 0.069672703240046069 -0.038835736668340275 0 0.07042645067655863 -0.038656435837344474 0 0.07024113146754303 -0.038132711542892571 0 0.069693010009950332 -0.038035157636376514 0 0.069672703240046069 -0.038835736668340275 0 0.07024113146754303 -0.038132711542892571 0 0.070764384201190023 -0.038223620633563569 0 0.07042645067655863 -0.038656435837344474 0 0.071227825888611901 -0.03844332288507013 0 0.070764384201190023 -0.038223620633563569 0 0.07042645067655863 -0.038656435837344474 0 0.072307044413624622 -0.037205988495256255 0 0.071388829299829412 -0.036503714547675994 0 0.071394671426706052 -0.037948821341037262 0 0.071227825888611901 -0.03844332288507013 0 0.070764384201190023 -0.038223620633563569 0 0.074162516473369341 -0.037932037409099485 0 0.074613342015746334 -0.036245848560197969 0 0.076197962146637238 -0.037432101923631063 0 0.074613342015746334 -0.036245848560197969 0 0.076582405939255707 -0.035927528833067872 0 0.076197962146637238 -0.037432101923631063 0 
</DataArray>
</PointData>
<CellData Scalars="region_id,cross_section_updated," Vectors="" Tensors="stress,">
<DataArray type="Float64" Name="region_id" format="ascii">
5 5 6 5 5 5 5 6 5 5 5 5 5 5 5 5 5 5 5 5 6 5 5 5 5 6 5 5 5 5 5 5 5 6 5 5 5 5 5 5 5 5 6 5 5 5 5 5 5 5 5 5 5 5 6 6 5 5 5 5 5 5 5 5 6 5 5 5 5 5 5 5 5 5 5 5 5 5 5 5 5 5 5 5 5 5 5 6 5 5 5 5 5 5 5 5 5 5 5 6 5 5 5 6 5 5 5 5 5 5 5 5 5 5 5 5 5 5 5 5 5 5 5 5 5 5 5 5 5 5 5 5 5 5 5 5 5 5 5 5 5 5 5 5 5 5 5 5 5 6 5 6 5 5 5 5 5 5 5 5 5 5 5 5 5 5 5 5 5 5 5 5 5 5 5 5 5 5 6 5 5 6 5 6 5 5 5 5 5 5 5 5 5 5 5 5 5 5 6 5 6 5 5 5 5 5 5 5 6 5 6 5 5 5 5 5 5 6 5 5 6 5 5 5 5 5 5 6 6 5 5 6 5 6 5 6 6 5 5 5 6 5 5 5 5 5 5 5 5 5 5 5 5 5 6 5 5 5 5 5 5 5 6 5 5 5 5 5 5 5 6 5 5 5 5 6 5 5 5 5 5 5 6 5 5 5 6 5 5 5 5 5 5 5 6 5 5 5 5 5 5 6 5 5 5 5 5 5 6 5 5 5 5 5 5 5 6 5 5 5 5 5 5 5 5 5 5 5 5 5 5 5 5 5 5 5 5 5 6 6 5 5 5 5 5 6 5 5 5 5 5 5 5 6 5 6 5 5 5 6 5 5 5 6 5 6 5 5 5 5 5 5 5 6 5 5 5 5 5 5 5 6 5 5 5 6 5 5 5 5 5 5 5 5 5 5 5 5 5 5 5 5 5 5 5 5 5 5 5 5 5 5 5 5 5 5 5 5 6 5 5 5 5 5 5 5 5 5 5 5 5 5 5 5 5 5 5 5 5 5 5 5 5 5 5 5 5 5 5 5 5 6 5 5 5 5 5 5 5 5 5 5 5 5 5 5 5 5 5 5 5 5 6 5 5 5 5 5 5 5 6 5 5 5 5 5 6 5 5 6 5 6 5 5 5 5 6 5 5 6 5 5 5 5 5 5 6 5 5 5 5 5 5 5 5 5 5 5 5 5 5 5 5 5 5 5 6 5 5 5 5 5 5 5 5 5 5 5 6 6 5 5 5 5 5 5 5 5 5 5 5 5 5 5 5 5 5 5 5 5 5 6 5 6 6 5 5 6 5 5 5 5 5 5 5 5 5 5 5 5 5 6 5 5 5 5 5 5 5 6 6 5 5 5 5 5 5 5 5 6 6 5 5 5 6 5 5 5 5 5 5 5 5 5 5 5 5 5 5 5 5 5 5 5 5 5 5 5 5 5 5 5 5 5 5 5 5 5 5 5 6 5 5 6 5 5 5 5 6 5 5 5 6 5 5 5 6 5 5 6 5 5 5 5 5 5 5 5 5 5 5 5 5 5 5 5 5 5 5 5 5 6 5 5 5 6 5 5 5 5 5 6 5 5 5 5 5 5 6 5 5 5 5 5 5 5 5 5 5 5 5 5 5 5 5 5 5 6 5 5 5 5 5 5 5 5 5 5 5 5 5 5 5 5 5 5 5 5 5 6 5 5 5 5 5 5 5 5 5 5 5 5 5 5 5 6 5 5 5 5 5 5 5 5 5 5 5 5 5 5 5 5 5 5 6 5 5 5 5 5 5 5 6 5 5 5 5 5 5 5 5 5 5 5 5 5 5 5 5 5 5 5 5 5 6 5 5 5 5 5 5 5 5 5 6 5 5 5 5 5 5 5 5 6 5 5 5 5 5 5 5 5 5 5 5 5 5 5 5 5 5 5 5 6 5 5 5 5 5 6 5 5 5 6 5 5 5 5 5 5 6 5 5 5 5 5 5 5 5 5 5 6 5 5 5 5 5 5 5 5 5 5 5 5 6 5 6 5 5 5 5 5 5 5 6 5 6 5 5 5 5 5 5 5 5 5 5 5 5 5 5 5 5 5 5 5 5 5 5 5 5 5 5 5 5 5 5 5 5 5 5 5 5 5 5 5 5 5 5 5 5 5 6 6 5 5 6 5 5 5 5 5 5 5 5 5 5 5 5 5 5 5 5 6 5 5 5 5 6 5 5 6 5 5 5 5 5 5 6 5 6 5 5 6 5 5 5 5 5 5 5 5 5 5 6 5 5 5 5 5 6 6 5 5 5 5 6 5 5 6 5 6 5 5 5 5 5 6 5 5 6 5 5 5 5 5 5 5 5 5 5 5 5 6 5 5 5 5 5 5 5 5 5 5 5 5 5 5 5 6 5 6 5 6 6 5 6 5 5 6 5 5 5 5 5 5 6 5 6 5 5 6 5 5 5 6 5 5 6 5 5 5 5 5 6 5 5 6 5 5 5 5 5 6 5 6 5 5 6 5 5 6 5 5 5 5 5 5 5 5 6 5 5 5 5 5 5 5 5 5 5 6 5 5 5 5 6 5 5 6 5 5 5 5 5 6 5 5 5 5 5 6 5 6 5 5 5 5 5 5 6 5 5 5 5 5 5 5 5 6 6 6 5 5 5 5 6 5 6 5 5 5 6 6 5 5 5 6 5 5 5 6 5 6 5 6 6 5 6 5 5 5 5 6 5 5 5 6 5 6 5 6 5 5 5 5 5 5 5 6 5 5 5 5 6 5 5 5 5 5 5 5 5 6 5 6 6 5 5 5 6 5 5 5 5 6 6 5 5 6 6 5 5 5 5 5 6 5 5 5 5 5 5 5 5 6 5 6 5 5 5 5 5 5 5 5 5 5 5 5 5 5 5 5 5 6 5 5 5 5 5 5 5 5 5 5 5 5 5 5 5 5 5 5 5 5 5 5 5 5 5 6 5 6 5 5 5 5 5 6 6 5 5 5 5 6 6 5 6 5 5 6 5 5 6 5 5 5 5 6 6 5 5 5 5 5 5 5 5 6 5 5 6 5 5 5 6 5 5 6 5 5 5 5 5 5 6 5 5 5 5 5 5 6 5 5 5 5 5 6 5 5 6 6 5 5 6 5 5 6 5 5 5 5 5 5 5 5 5 5 5 5 6 5 6 5 5 6 5 5 5 5 5 5 6 5 5 5 6 6 6 5 5 5 6 6 5 6 6 5 5 6 5 5 6 5 6 5 6 5 5 5 6 6 5 5 6 6 6 6 5 5 5 6 6 5 5 6 6 6 5 6 6 5 5 6 5 6 6 5 6 5 5 6 5 6 6 5 5 5 5 6 6 5 5 6 5 5 5 6 5 5 5 5 5 5 5 5 5 5 5 5 5 5 5 5 5 5 5 5 5 5 5 5 5 5 5 5 5 5 5 5 5 5 5 5 5 5 5 5 5 5 5 5 5 5 5 5 5 5 5 5 5 5 5 5 5 5 6 5 6 5 5 5 5 5 5 5 5 5 5 5 5 5 5 6 5 5 5 5 5 5 5 5 5 5 6 5 5 5 5 5 5 5 5 5 5 5 5 5 5 5 5 5 5 5 5 5 5 5 5 5 5 5 5 5 5 5 5 5 5 5 5 5 5 5 5 5 5 5 5 5 5 6 5 5 5 6 5 6 5 5 5 5 5 6 5 6 5 5 5 5 5 5 5 5 5 5 5 5 5 5 5 5 5 5 5 5 5 5 5 5 5 6 5 5 5 5 5 5 6 5 6 5 5 5 6 5 5 6 5 5 5 5 5 5 5 5 5 5 5 5 5 5 5 5 5 5 5 5 5 5 5 5 5 5 5 5 5 5 5 5 5 5 5 5 5 6 5 6 5 5 5 5 5 5 5 5 5 5 6 5 5 5 5 5 5 5 5 5 5 5 5 5 5 5 5 5 6 5 5 5 6 6 5 6 5 5 5 5 5 5 5 5 6 5 5 5 5 6 5 5 5 5 5 5 5 6 5 5 6 5 6 5 5 6 5 5 6 6 5 5 5 5 5 5 5 5 5 5 5 5 5 5 5 6 5 6 5 5 5 6 5 6 5 5 5 5 5 5 5 5 5 5 5 5 6 5 6 5 5 5 5 5 5 5 5 6 5 5 6 5 5 5 6 6 5 5 5 5 5 5 5 5 5 5 5 5 5 5 5 5 5 5 5 5 5 6 5 5 5 5 5 6 5 6 5 5 5 5 6 5 5 6 5 5 5 5 5 6 5 5 5 5 6 5 5 5 5 5 5 5 6 5 5 5 6 5 5 5 5 5 5 5 5 5 5 5 6 5 5 5 5 5 5 5 5 6 5 5 5 5 5 5 6 5 5 5 5 5 5 6 5 5 5 5 5 5 5 5 5 5 5 6 5 5 5 6 5 5 5 6 5 6 5 5 5 5 5 5 6 5 5 5 5 5 5 5 5 5 5 5 5 5 5 5 6 5 5 5 5 5 6 5 5 5 5 5 5 5 5 6 5 5 5 5 5 5 5 5 5 5 5 5 5 5 5 5 6 5 5 5 5 6 5 5 5 5 5 5 5 5 5 5 5 5 5 5 5 5 5 5 5 5 5 5 5 5 5 5 6 5 5 5 6 5 6 5 5 5 5 6 5 6 5 5 5 5 5 6 5 5 5 5 5 5 5 5 5 6 5 5 5 5 5 5 5 5 5 5 5 5 5 5 5 5 5 5 5 5 5 5 5 5 6 6 5 5 5 5 5 6 5 5 5 6 5 5 5 6 5 5 6 5 6 5 5 5 5 6 5 5 5 5 6 6 5 5 5 5 5 5 5 5 5 5 5 5 6 5 5 5 5 6 5 5 5 5 5 6 5 5 6 5 5 5 5 5 5 5 5 5 5 5 5 5 5 5 5 6 5 5 6 5 5 5 6 5 5 5 5 5 5 5 5 5 5 5 6 5 5 5 5 5 5 5 5 5 5 5 5 5 5 5 5 6 5 5 6 5 6 5 5 6 5 6 5 6 5 5 5 5 5 5 5 5 5 5 5 5 5 6 5 6 6 5 5 6 6 5 5 6 6 5 5 5 6 5 6 5 5 6 5 5 5 5 6 6 5 6 5 5 6 6 5 5 6 5 5 5 6 5 5 5 6 6 6 5 5 6 5 6 6 5 5 5 5 5 5 5 5 5 5 5 6 6 5 6 5 6 5 6 5 5 5 6 5 5 5 5 5 6 5 5 5 5 5 5 5 5 5 5 5 5 5 5 5 5 5 5 5 5 5 5 5 5 6 5 5 5 5 5 5 5 5 5 5 5 5 5 5 5 5 5 5 6 5 5 5 5 5 5 5 5 5 5 5 6 5 5 5 5 5 6 5 5 5 5 5 5 5 5 5 5 5 5 5 5 6 5 5 5 5 5 5 5 5 5 5 5 5 5 5 6 5 6 5 5 5 5 6 5 5 5 5 5 5 5 5 5 5 5 5 6 5 6 5 5 5 5 6 5 5 5 5 5 5 5 6 5 5 5 5 5 5 5 6 5 5 5 6 5 6 5 5 5 5 5 5 5 5 5 6 5 5 5 5 5 5 5 5 5 5 5 5 5 5 5 5 5 5 5 5 5 5 5 5 5 5 5 5 5 5 5 5 5 5 5 5 5 5 5 5 5 5 5 6 5 5 6 5 5 5 5 5 5 5 5 5 5 6 5 5 5 5 5 6 5 5 6 5 5 5 5 5 5 6 5 5 5 5 6 5 5 6 5 6 5 5 5 5 5 5 5 5 5 5 5 6 5 6 5 5 5 5 6 5 5 5 5 5 5 5 5 5 5 5 5 5 5 5 5 5 5 5 5 5 6 5 5 5 5 6 5 5 5 5 5 5 5 6 5 5 5 5 5 6 5 5 5 6 5 5 5 6 5 5 6 5 5 5 6 5 5 6 5 5 5 5 5 5 5 5 5 5 5 5 5 5 5 5 5 5 5 5 5 5 5 5 5 5 5 5 5 5 5 6 5 5 5 5 5 5 5 5 5 5 5 6 5 5 5 5 5 5 5 5 5 5 5 5 5 5 5 6 6 5 5 5 6 5 5 5 5 6 5 5 6 5 5 5 5 5 5 5 5 5 5 5 5 5 6 6 5 5 5 5 5 5 5 5 5 5 5 6 5 5 6 5 5 5 5 5 5 5 5 5 5 5 5 5 5 5 5 5 5 5 6 5 5 5 6 5 5 5 5 5 6 5 5 5 5 5 5 5 5 5 5 5 5 5 5 5 5 5 5 5 5 6 5 5 6 5 5 5 5 5 5 5 5 5 5 5 5 5 5 5 5 5 5 5 6 5 5 5 5 5 5 5 5 5 5 5 5 5 5 5 5 5 5 5 5 5 5 5 5 5 5 5 5 5 5 5 5 6 5 5 5 5 5 5 6 5 5 5 5 5 6 5 5 5 5 6 5 5 5 5 5 5 5 5 5 5 5 5 5 5 5 5 5 5 5 5 5 5 6 5 5 5 5 5 5 5 6 5 5 6 5 5 6 5 5 5 5 5 5 6 5 5 5 5 5 5 5 5 5 5 6 5 6 5 5 5 5 5 5 5 5 6 5 5 6 5 5 5 6 5 5 5 6 5 5 5 6 6 5 5 6 5 5 6 5 5 6 5 5 5 5 5 5 5 5 5 6 5 5 5 6 5 5 5 6 5 5 5 6 5 6 5 5 6 5 5 5 5 5 5 5 5 6 5 5 6 5 5 5 5 5 5 5 5 5 5 5 5 5 6 5 6 5 5 5 6 6 5 6 5 5 5 5 6 5 6 5 5 5 5 5 5 5 5 5 6 5 5 5 5 5 5 5 5 5 5 5 5 5 5 5 5 5 5 5 5 5 5 5 5 5 5 5 5 6 5 5 5 5 5 5 6 5 5 5 5 5 5 6 5 5 5 5 5 5 6 5 5 5 6 5 5 5 6 5 5 6 5 5 5 5 5 5 6 5 5 5 6 6 5 5 5 5 5 5 5 5 5 5 5 5 5 5 5 5 5 6 5 5 5 5 5 5 5 6 5 5 5 5 5 6 5 5 5 5 5 6 5 5 6 5 5 5 5 6 5 5 5 5 5 5 6 5 6 5 6 6 5 6 5 5 5 6 5 5 5 5 5 6 5 5 5 6 5 5 5 5 6 6 6 5 5 5 5 6 6 5 6 5 5 5 5 5 5 6 5 6 5 5 6 5 5 5 6 5 5 6 5 5 5 5 5 5 5 5 5 5 5 5 6 5 5 5 5 6 5 5 5 5 6 5 5 5 5 5 5 5 5 5 6 6 6 5 5 5 6 6 5 5 6 5 6 5 5 5 5 5 5 5 6 5 5 5 5 5 5 5 5 5 5 5 5 5 5 5 5 6 5 5 5 5 5 5 5 5 5 6 5 5 6 5 6 5 6 5 5 6 5 5 5 6 6 5 5 6 5 5 5 6 5 5 5 5 6 5 5 5 5 5 5 5 5 5 5 5 6 6 5 5 5 5 5 5 5 5 5 5 5 5 5 5 5 5 5 5 5 5 5 5 5 5 5 5 5 5 5 5 5 5 6 5 5 5 5 5 5 5 5 5 5 5 5 5 5 5 5 5 5 5 6 5 5 5 5 5 5 6 6 5 5 6 6 5 5 5 6 5 5 5 5 5 5 5 5 5 5 5 5 5 5 5 5 5 5 5 5 5 5 5 6 5 6 5 6 5 5 5 5 5 5 6 5 6 6 5 5 6 5 5 5 5 5 5 6 6 5 5 6 6 5 5 6 6 5 5 5 5 5 5 5 5 6 5 5 5 5 5 6 5 5 6 5 5 5 6 5 5 5 5 5 5 5 5 5 5 5 5 5 5 5 5 5 5 5 5 5 5 5 5 5 5 5 5 5 5 5 5 5 5 6 5 5 6 5 6 6 5 5 5 5 5 5 5 5 5 6 5 5 5 5 5 6 5 5 5 5 5 5 5 6 5 5 5 5 5 5 5 5 6 5 5 5 5 5 6 5 5 5 5 5 5 5 5 5 5 5 5 5 5 5 5 5 5 5 5 5 5 5 5 5 5 5 5 5 5 6 6 5 5 5 5 5 5 5 6 5 5 5 6 5 6 5 5 5 5 5 5 5 5 5 5 5 5 5 5 5 5 5 5 5 5 5 6 5 5 5 5 5 5 6 5 5 5 5 5 5 5 6 5 5 6 5 5 5 5 5 5 6 5 5 5 6 5 5 6 6 5 5 5 5 5 5 5 5 5 5 5 5 5 5 5 5 5 5 5 5 5 5 5 5 5 5 5 5 6 5 5 5 5 5 5 5 5 5 5 5 5 5 5 5 5 5 5 5 6 5 5 5 6 6 5 5 5 5 5 6 5 5 5 6 5 5 5 5 5 6 5 5 5 5 5 5 5 5 5 5 5 5 5 5 5 5 5 5 5 5 5 6 5 5 5 5 5 5 6 5 5 5 5 5 5 5 5 5 5 5 5 6 5 5 5 5 6 5 6 5 5 5 5 5 5 5 5 5 5 5 5 5 6 5 5 5 5 5 6 5 5 5 5 5 5 6 5 5 5 5 5 5 5 5 5 5 5 5 6 5 5 6 5 5 6 5 5 6 5 5 5 5 5 5 5 5 5 5 6 5 5 5 5 5 5 5 5 6 5 5 5 6 5 5 5 6 5 5 6 5 5 5 6 5 5 5 5 5 6 5 6 5 5 5 5 6 6 5 5 5 6 5 5 5 5 6 5 5 5 5 5 5 5 5 5 5 5 5 5 5 5 6 5 5 6 6 5 5 5 5 6 5 5 5 5 5 5 6 5 5 5 5 5 5 6 5 5 5 5 5 5 5 5 6 5 5 5 5 5 5 5 5 5 5 6 5 5 6 5 5 6 5 5 5 5 5 6 6 5 5 6 6 5 6 5 6 5 6 6 5 5 6 5 6 5 6 5 6 5 6 5 5 6 5 6 5 6 5 5 5 5 5 5 6 5 5 5 6 5 5 5 5 5 5 5 5 5 6 5 5 6 5 6 5 6 5 5 5 6 6 5 5 5 5 5 5 5 5 5 5 5 6 5 5 5 5 5 6 5 5 5 5 5 5 5 5 5 5 5 5 5 5 5 5 5 6 5 5 5 5 5 5 6 5 5 5 6 5 5 6 5 5 5 6 5 6 6 5 5 5 5 5 5 5 5 5 6 5 5 5 5 5 5 5 6 5 6 5 6 5 5 5 5 5 5 5 5 5 5 5 5 5 5 5 5 5 5 5 5 5 5 5 5 5 5 5 5 5 5 5 5 5 5 5 5 5 6 5 5 6 6 5 5 5 5 6 5 5 5 5 5 6 5 5 6 6 5 5 5 5 5 5 6 5 6 5 5 6 6 5 6 5 5 5 6 5 5 5 5 6 5 5 5 6 5 5 6 6 5 5 5 6 5 5 5 5 6 5 5 6 5 5 5 6 5 5 6 5 5 5 6 5 6 5 5 6 5 5 6 6 5 5 6 5 6 6 5 5 5 5 6 5 5 5 5 6 5 5 5 5 5 5 5 5 5 5 5 5 6 5 5 5 5 6 5 6 5 5 5 5 5 6 6 6 5 5 5 5 5 5 5 5 6 5 5 5 5 5 5 6 5 5 5 5 6 5 5 5 5 5 5 5 5 5 5 5 5 5 5 5 5 5 5 6 5 6 5 5 6 6 5 6 5 5 6 5 6 5 6 5 6 5 5 5 5 6 5 5 5 6 5 5 5 5 5 5 5 5 5 5 5 5 5 5 5 5 5 5 5 5 5 5 5 5 5 6 5 5 5 5 5 6 5 5 5 5 5 5 5 5 5 5 5 6 5 5 5 5 5 6 5 5 6 6 5 5 5 6 5 5 6 6 5 6 5 5 5 5 5 5 5 5 5 5 5 5 5 5 5 5 6 5 5 5 5 6 5 5 5 5 5 5 5 5 6 6 5 5 6 5 5 5 5 5 5 5 5 5 6 6 5 5 6 5 5 5 6 5 5 5 5 5 5 5 5 5 5 5 5 5 5 5 5 5 5 5 5 5 5 5 5 5 5 6 5 5 5 5 5 5 5 5 5 5 5 5 5 5 5 5 5 5 5 5 6 5 5 5 6 6 5 5 5 6 5 5 6 5 5 5 5 5 6 5 6 5 5 5 5 5 5 5 5 6 5 5 5 6 5 5 6 5 6 5 5 5 6 5 5 5 6 5 5 5 5 5 5 5 5 5 5 5 5 5 5 5 5 5 6 5 5 5 5 5 5 5 5 5 6 5 5 5 5 5 5 5 5 6 5 5 5 5 5 5 5 5 5 5 5 5 5 6 5 5 5 6 5 5 5 5 5 5 5 5 5 5 5 5 5 5 5 5 5 5 5 6 5 5 5 6 5 6 5 5 5 6 5 5 5 6 6 5 5 5 5 5 5 5 5 5 5 5 5 5 5 5 5 5 5 5 5 5 5 6 5 5 5 5 6 5 5 5 5 6 5 5 5 5 5 5 5 6 5 5 5 5 6 5 5 5 5 5 5 6 5 5 5 5 5 5 6 5 5 5 6 5 5 5 5 5 5 5 5 5 6 5 5 5 5 5 5 6 5 5 5 5 5 5 5 5 5 5 5 6 5 5 6 5 5 5 5 5 6 5 5 6 5 5 5 5 5 5 5 6 6 5 5 5 5 6 5 5 5 5 5 5 6 5 5 5 5 5 5 5 5 5 5 6 5 5 5 5 5 5 5 5 5 5 5 5 6 5 6 5 5 5 6 5 5 6 5 5 5 5 6 5 5 5 5 5 6 5 5 5 5 5 5 5 5 6 5 5 5 5 6 5 5 5 5 5 5 5 6 5 5 5 5 5 5 5 5 5 5 6 5 5 5 6 5 6 5 5 5 5 5 5 6 5 6 5 6 5 5 5 5 6 5 5 5 5 5 5 5 5 5 5 5 5 5 5 6 5 6 5 5 5 5 5 5 5 6 5 5 5 5 5 5 5 5 5 5 5 5 5 6 5 5 5 5 6 5 5 5 5 5 5 5 5 5 5 5 5 5 5 5 5 5 5 5 5 5 5 5 5 6 5 5 5 5 6 5 5 5 6 5 5 6 5 5 6 5 5 5 5 5 5 5 5 5 5 5 5 5 5 5 6 5 5 6 5 5 5 5 5 5 5 6 5 5 5 5 5 6 5 5 5 6 5 5 5 6 5 5 5 5 5 5 5 6 5 5 5 6 5 6 6 5 5 5 5 5 6 5 5 5 5 5 5 5 5 5 5 6 5 5 5 5 5 5 5 5 5 5 5 5 5 5 5 5 5 5 5 5 5 5 5 5 5 5 5 5 5 5 5 5 5 5 5 5 5 6 5 5 5 5 5 5 5 5 5 5 5 5 5 5 5 5 6 5 5 5 5 5 5 5 5 5 6 5 5 5 5 5 5 5 6 5 5 5 5 5 5 5 5 5 5 5 5 5 5 5 5 5 5 5 5 5 6 5 5 5 5 5 5 5 5 5 5 5 5 5 5 5 5 5 6 5 5 5 5 5 5 5 5 5 5 5 5 5 5 5 5 5 5 5 5 5 5 5 5 5 5 5 5 5 5 5 5 5 5 5 5 5 5 5 5 5 5 5 5 5 5 6 5 5 5 5 5 5 5 5 5 5 5 5 5 6 5 6 5 5 5 5 5 6 5 5 5 5 5 6 6 5 5 5 5 5 5 5 5 5 5 5 5 5 5 5 5 5 6 6 5 5 5 5 5 5 6 5 6 5 5 5 5 5 5 5 5 5 6 5 5 5 5 5 5 5 5 5 5 5 5 5 5 5 5 5 5 5 6 5 5 5 5 5 6 5 6 5 5 5 5 5 5 5 6 5 5 5 6 5 5 5 6 5 5 6 5 5 5 6 5 5 6 5 6 5 6 5 5 6 5 5 5 5 5 5 5 5 5 5 5 5 5 5 5 5 5 5 5 5 5 6 5 6 5 5 5 5 5 5 5 6 5 5 5 5 5 5 5 5 5 5 5 5 5 5 5 5 5 5 5 6 5 5 5 6 5 5 5 5 5 5 5 5 5 5 6 5 5 5 5 6 5 5 6 5 5 5 5 5 6 5 5 5 5 6 5 6 5 5 6 5 5 5 5 5 5 5 6 5 5 6 5 6 5 5 5 5 5 5 5 5 5 5 5 5 5 5 5 5 5 5 6 5 5 5 5 5 5 5 6 5 5 5 5 6 5 5 5 5 5 5 5 5 5 6 5 5 5 5 6 5 5 5 5 5 5 5 5 5 5 5 5 6 5 5 5 5 5 5 5 5 5 6 5 5 5 5 5 5 5 5 5 5 5 5 6 5 5 6 5 5 5 5 5 5 5 5 5 6 6 6 5 5 5 6 5 5 5 5 5 5 6 5 5 5 6 6 5 5 5 5 5 5 5 5 5 5 5 5 6 5 5 5 6 6 5 5 5 5 5 6 5 5 5 5 6 5 5 5 5 6 5 5 5 5 5 6 6 6 5 5 5 6 6 5 5 5 5 5 5 5 5 5 6 6 5 5 5 6 6 5 5 5 5 5 5 5 5 5 5 5 5 5 5 5 5 5 6 5 6 5 5 5 5 6 5 5 5 5 5 5 5 6 5 5 5 5 5 5 5 6 5 5 6 5 6 6 5 5 5 6 6 5 5 5 6 6 5 5 5 5 5 5 5 5 5 5 6 5 5 5 5 5 5 5 6 5 5 5 5 6 5 5 5 5 5 5 6 5 5 5 5 6 5 6 5 5 5 5 5 5 5 5 5 5 5 5 5 5 6 5 5 5 5 5 5 5 6 5 5 5 5 6 5 5 5 6 5 5 5 5 5 5 5 5 5 5 5 5 5 5 5 5 5 5 5 5 5 5 6 5 6 5 5 6 5 5 5 6 5 5 6 5 5 5 5 5 5 5 5 5 5 5 5 5 5 5 5 5 5 5 5 6 6 6 5 5 5 5 5 5 5 5 5 5 5 5 5 6 5 5 5 6 5 5 6 5 5 5 5 6 5 5 6 6 5 5 5 5 6 5 5 6 5 6 5 5 5 5 5 5 5 5 5 5 5 5 6 5 5 5 5 5 5 5 6 5 6 5 5 5 5 6 5 5 5 5 5 5 5 5 5 5 5 5 5 5 5 5 5 5 5 5 5 5 5 6 5 5 5 6 5 6 5 5 5 6 5 5 5 5 5 6 5 5 6 5 5 5 5 5 5 5 5 6 5 5 5 5 5 6 5 5 5 5 5 5 5 5 5 5 5 5 5 5 6 5 5 5 5 6 5 5 5 5 5 5 5 5 5 5 5 5 6 5 5 5 5 6 5 5 5 5 5 5 5 5 5 5 5 5 5 6 5 5 6 5 5 5 6 5 5 5 5 5 5 5 5 5 5 5 5 5 6 6 5 6 6 5 5 5 6 6 5 6 5 6 5 6 5 5 5 6 5 6 5 5 5 5 6 5 5 5 5 5 5 6 5 5 5 5 5 6 5 5 6 5 5 6 5 5 6 5 5 5 5 5 6 5 6 5 5 5 5 5 5 5 5 5 5 5 5 5 6 5 5 6 5 5 5 5 5 5 5 5 5 6 5 5 5 5 5 5 5 5 5 6 5 5 6 5 6 5 5 5 5 5 5 5 6 5 5 5 5 5 5 5 6 5 6 5 5 6 5 5 5 6 5 5 5 5 6 5 5 5 5 5 6 5 5 5 5 5 5 5 5 5 5 5 5 5 5 5 5 5 5 5 5 5 6 5 5 6 5 5 5 6 5 5 5 5 6 5 5 5 5 5 5 5 5 5 5 5 5 5 5 5 5 5 5 5 5 5 5 5 6 5 5 5 5 5 5 6 5 5 5 5 5 5 5 5 5 5 5 5 5 6 5 6 5 5 6 5 5 5 5 6 6 5 6 5 6 5 5 5 5 5 6 5 5 6 6 5 5 5 5 5 6 5 5 6 5 5 5 5 5 5 5 5 6 6 5 5 5 6 5 6 5 5 5 5 5 6 5 6 5 5 5 5 5 6 6 5 5 5 5 6 5 5 5 5 6 5 5 5 5 5 5 5 5 5 5 5 5 5 5 5 5 5 6 5 5 6 5 5 5 6 5 5 5 5 5 5 5 5 5 5 5 5 5 5 5 5 5 5 5 6 5 5 5 5 5 5 5 5 5 5 5 5 5 5 6 6 5 5 5 6 5 5 5 5 5 6 5 5 5 5 5 5 5 5 5 5 5 6 5 5 6 5 5 5 5 5 5 5 5 5 5 6 5 5 5 6 5 6 5 6 5 5 5 6 6 5 6 5 5 6 5 5 6 6 5 5 5 6 5 5 6 5 6 5 5 5 6 5 5 6 6 5 6 5 5 6 5 6 5 5 5 5 5 5 5 5 5 6 5 5 5 5 5 6 5 5 5 5 5 5 5 5 5 5 6 5 5 5 5 6 6 5 5 6 5 6 5 5 5 5 5 6 5 5 6 5 6 5 5 5 5 5 5 5 6 5 5 5 5 5 5 5 5 5 6 5 6 5 6 5 6 5 5 5 5 6 5 5 5 5 5 6 6 5 5 5 5 5 5 6 5 5 5 5 5 6 5 5 5 5 6 5 5 6 5 6 5 5 5 6 5 6 5 5 6 6 6 5 5 5 5 5 5 6 6 6 5 5 5 5 6 5 6 5 6 5 5 5 5 5 5 6 5 5 5 5 5 5 5 5 5 5 5 5 5 5 5 5 5 5 5 5 5 5 5 5 5 5 5 5 5 5 5 5 5 5 5 5 5 5 5 5 5 5 5 5 5 5 5 5 5 6 5 5 5 6 6 5 5 5 5 5 5 5 5 5 5 5 5 5 5 5 5 5 5 5 6 5 5 5 5 5 5 5 6 5 5 6 5 5 6 5 5 6 5 6 5 5 6 5 5 5 6 5 6 5 6 6 5 5 5 6 6 5 5 6 5 5 6 5 5 5 5 5 5 5 5 5 5 5 5 6 5 5 5 5 6 5 5 5 5 6 5 5 5 5 5 5 5 5 5 6 5 6 5 5 5 5 6 5 5 5 6 5 5 5 5 5 5 6 5 5 6 5 5 5 6 5 5 5 5 5 5 5 6 5 5 5 5 5 6 5 5 5 5 5 5 5 5 5 5 5 5 5 5 5 6 5 5 5 5 5 6 5 5 6 5 6 5 5 5 5 6 6 5 5 6 5 5 5 5 5 5 5 5 5 5 5 6 5 6 5 5 5 5 5 6 5 5 5 6 5 5 5 6 5 5 5 5 5 5 5 5 5 5 5 5 5 6 5 5 5 5 5 5 5 6 5 6 5 5 5 5 5 5 5 6 6 5 5 5 5 5 5 5 5 5 6 5 5 5 5 5 5 6 6 6 5 6 5 5 5 5 5 5 6 5 6 5 6 5 6 5 5 5 5 5 5 6 5 5 6 5 5 5 5 6 5 5 5 5 5 5 5 5 5 5 5 5 5 5 5 5 5 5 5 5 5 6 5 6 5 5 5 5 5 5 5 5 5 5 5 5 5 5 5 5 5 5 5 5 5 5 5 5 5 5 5 5 5 5 5 5 5 5 5 5 5 5 5 5 5 5 5 5 5 5 5 5 5 5 5 5 5 5 5 5 5 5 6 5 5 5 5 5 5 5 5 5 5 5 5 5 5 5 5 5 5 5 5 5 5 5 6 5 5 5 6 5 6 5 5 5 5 5 5 5 5 5 5 5 5 5 5 5 5 5 5 5 5 5 5 5 5 5 5 5 5 5 5 5 5 5 5 5 5 5 5 5 6 5 6 5 5 5 5 5 5 5 5 5 5 5 5 5 5 5 5 5 5 5 5 5 5 5 5 5 6 5 5 5 5 5 5 5 5 5 5 5 5 5 5 5 5 5 5 5 5 5 5 5 5 5 5 5 5 5 5 5 5 5 5 5 5 5 5 5 5 5 5 5 5 5 5 5 5 5 5 5 5 5 5 5 5 5 5 5 5 5 5 5 5 5 5 5 5 5 6 5 5 5 5 5 5 5 6 5 5 6 5 5 5 5 5 5 5 5 5 5 5 5 5 5 5 5 5 5 5 5 6 5 5 5 5 5 5 5 5 5 5 5 5 5 5 5 5 5 5 5 5 5 5 5 5 5 5 5 5 5 5 5 5 6 5 5 5 5 6 5 6 5 5 5 5 5 5 6 5 5 6 5 5 6 6 5 6 5 5 5 6 5 5 5 5 5 5 5 5 5 5 5 5 5 5 5 6 5 5 5 5 5 5 5 5 6 5 5 5 5 5 5 5 5 5 5 5 5 5 5 5 5 5 5 5 5 5 5 5 5 5 5 5 5 5 5 5 5 5 5 5 5 6 5 5 5 5 5 5 5 6 5 5 6 5 6 5 5 5 5 5 5 5 5 5 5 5 6 6 5 5 6 5 5 6 6 5 5 5 5 6 5 6 5 5 6 5 6 6 5 6 5 6 5 5 5 5 5 5 5 6 5 6 5 5 5 5 5 6 5 5 5 6 5 5 6 5 6 5 6 6 5 5 6 5 5 5 5 5 5 6 5 5 5 5 5 5 5 5 6 6 5 5 5 6 5 5 5 5 6 6 5 6 5 5 5 6 5 5 5 5 5 5 5 5 5 5 5 5 5 5 5 5 6 5 5 5 5 5 5 6 5 6 5 5 5 6 6 5 5 6 5 6 5 5 5 5 5 5 5 5 5 5 5 5 6 6 5 5 5 5 5 6 5 5 5 5 5 5 5 6 5 5 5 6 5 6 5 5 6 5 5 5 5 5 5 5 5 5 6 5 5 6 5 5 5 5 5 5 5 5 5 5 5 6 5 5 5 5 5 5 5 5 5 5 5 5 5 5 5 5 5 5 5 5 5 5 6 5 5 5 5 5 5 5 5 5 5 5 6 5 5 5 5 6 5 5 5 5 5 5 5 5 5 5 5 6 5 5 5 5 5 6 5 6 5 5 5 5 5 5 5 5 5 6 5 5 6 5 5 6 5 5 5 5 6 5 5 5 5 5 5 5 5 5 5 5 5 5 5 5 5 5 5 5 5 5 6 5 5 6 5 6 5 5 5 5 5 5 5 5 5 6 5 5 6 6 6 5 5 5 6 5 5 5 5 5 5 6 6 5 6 5 5 6 5 5 6 5 5 5 5 6 5 5 5 5 6 5 5 5 5 5 5 5 5 5 5 5 6 5 5 6 5 6 6 5 5 6 6 6 5 5 5 5 5 5 5 5 5 5 6 5 5 5 5 5 5 5 5 5 6 5 5 5 5 5 6 5 5 5 5 5 5 5 5 5 5 6 5 5 5 5 5 5 5 5 5 5 5 5 5 5 5 5 5 5 5 5 5 5 5 5 6 6 5 5 5 5 5 5 5 5 6 5 5 5 5 5 5 5 5 5 5 5 5 5 5 5 5 6 5 5 5 5 6 5 5 5 6 6 5 5 5 5 5 5 6 5 6 5 5 5 6 5 5 5 5 5 5 5 5 6 5 6 6 5 5 5 5 5 5 5 5 5 5 5 5 6 5 5 6 5 6 5 5 5 5 5 5 5 5 5 5 5 5 5 5 5 5 5 5 5 5 5 5 5 6 5 5 5 5 5 6 5 5 5 5 5 5 5 5 5 5 6 5 5 5 6 5 5 5 5 5 5 5 5 5 5 5 6 6 5 5 5 5 5 6 5 5 5 6 5 5 5 5 5 5 5 5 5 5 6 5 5 5 5 5 5 5 6 6 5 6 5 5 5 5 6 5 5 5 5 5 6 5 5 5 5 5 5 5 5 5 5 6 5 5 5 5 5 5 5 5 5 5 6 5 5 5 5 5 5 5 6 5 5 5 5 5 5 5 5 5 5 5 5 5 5 5 5 5 5 5 5 6 5 5 5 6 5 5 5 5 5 5 5 5 5 5 5 5 5 6 5 6 6 5 6 6 5 5 5 5 5 6 5 5 5 5 5 5 5 6 5 5 6 5 5 6 5 5 6 5 5 6 6 6 6 5 5 6 6 5 5 6 5 5 6 5 5 5 5 6 6 6 6 5 5 5 6 5 6 5 6 5 6 6 5 5 5 5 5 5 5 6 5 5 6 5 6 5 5 6 6 5 5 5 5 5 5 5 5 5 5 5 5 5 5 5 5 5 6 5 5 5 5 5 5 5 5 5 5 5 5 5 5 5 5 5 6 5 5 5 5 5 5 5 5 5 5 5 5 5 5 6 6 5 5 5 5 6 5 6 5 5 5 6 6 5 6 5 5 5 5 5 5 5 5 5 5 5 5 5 5 5 5 5 5 5 6 5 6 5 5 5 5 6 5 5 5 5 5 5 5 5 5 5 5 5 5 5 5 5 5 5 5 5 6 5 5 5 5 5 5 5 5 5 5 5 5 5 5 6 5 5 5 5 5 5 5 5 5 5 5 5 5 5 5 5 5 5 5 5 5 5 5 5 5 5 5 5 5 5 5 5 5 5 5 5 5 5 5 5 5 5 5 5 5 5 5 5 5 5 5 5 5 5 5 5 5 5 5 5 5 5 6 5 5 5 6 5 5 6 5 5 5 5 5 5 5 5 5 5 5 6 5 5 5 5 6 5 5 5 5 5 5 5 5 5 5 5 5 5 5 5 5 5 5 5 5 5 5 5 5 5 5 5 5 5 6 5 5 5 5 6 5 5 5 5 5 5 5 5 5 5 6 5 5 6 5 5 5 5 5 5 5 5 5 5 5 5 6 5 5 5 5 5 5 5 5 6 5 5 5 5 5 5 5 5 5 5 6 5 6 5 5 5 6 5 5 5 6 5 6 5 6 6 5 5 5 5 5 6 5 5 5 5 5 5 5 5 5 5 5 5 5 5 5 5 5 5 5 5 5 5 5 6 5 5 6 5 5 5 6 5 6 5 5 5 5 5 5 5 5 5 5 5 5 6 5 5 5 5 5 5 5 5 5 5 5 5 5 5 5 5 5 5 5 6 5 5 5 5 5 5 5 5 5 5 5 5 5 5 5 5 5 5 5 5 5 5 5 5 5 5 5 6 5 5 5 5 5 5 5 5 5 5 5 5 5 5 5 5 5 5 6 5 5 5 6 5 5 5 6 6 5 5 5 5 5 6 5 5 5 5 5 5 5 6 6 5 5 5 6 5 6 5 5 5 5 5 5 6 6 5 5 6 6 5 5 5 5 5 5 5 5 5 5 6 5 5 5 5 5 5 6 5 5 5 5 5 5 5 5 5 5 5 5 5 5 5 5 5 6 5 5 5 5 6 5 5 6 5 5 5 5 5 5 5 5 5 5 5 6 5 6 5 6 5 5 5 5 5 5 5 5 5 5 5 5 5 5 5 5 5 5 5 6 5 5 6 5 5 5 6 5 5 6 5 5 5 5 6 5 5 5 5 5 5 5 6 5 5 5 5 5 5 5 5 5 5 5 5 5 5 5 5 5 5 5 5 5 5 5 5 5 5 5 5 5 6 5 5 5 5 5 5 5 5 5 5 5 5 5 5 5 5 5 5 5 5 5 5 5 5 5 5 5 5 5 5 5 5 5 5 5 5 5 6 6 6 5 5 6 5 5 5 6 5 6 5 5 5 5 5 6 5 5 5 5 5 5 5 6 5 5 5 5 5 5 5 5 5 5 5 5 5 5 6 5 5 5 6 5 6 5 5 5 5 5 5 5 5 6 5 5 5 5 5 5 5 6 5 6 5 6 5 5 5 5 5 5 5 5 6 5 5 6 6 6 5 6 5 6 5 5 5 5 5 5 5 5 5 5 5 5 5 5 5 5 5 5 5 5 5 6 5 5 6 6 5 5 5 6 5 5 5 5 5 5 5 6 5 6 5 5 5 5 6 5 5 6 5 5 5 5 5 5 5 6 5 5 6 5 5 5 6 5 5 5 5 5 5 5 5 5 6 5 5 5 5 5 5 6 5 5 6 5 5 5 5 6 5 5 5 5 5 5 6 6 6 5 5 5 6 5 6 5 6 5 5 5 5 5 5 6 5 5 5 6 5 5 5 6 5 5 5 5 5 5 5 5 5 5 5 5 6 5 5 5 6 5 5 5 5 5 6 6 5 5 6 5 6 6 6 5 5 5 6 5 5 5 5 5 6 5 5 5 5 5 5 5 5 5 5 5 5 6 5 5 5 5 5 5 6 5 5 6 5 5 6 5 5 5 5 5 6 5 5 6 5 6 5 6 5 5 5 5 5 5 6 5 5 5 5 6 5 5 5 5 5 5 5 5 5 5 6 5 5 5 5 5 6 5 5 5 5 5 5 5 5 5 5 5 5 5 5 5 6 5 5 5 5 5 6 5 6 5 5 5 5 5 6 5 5 5 5 5 6 5 5 5 5 5 6 5 5 5 5 5 5 5 5 5 5 6 5 6 5 6 5 5 6 5 5 5 5 5 5 5 5 6 5 6 5 5 5 5 5 5 5 5 5 5 6 5 5 5 5 5 5 5 5 5 5 6 5 5 5 6 5 6 6 5 5 5 6 5 5 5 6 6 5 5 5 5 5 5 5 5 5 5 6 6 5 5 5 5 5 6 5 5 5 5 5 5 5 5 5 5 6 5 6 6 6 5 5 5 5 5 5 5 5 6 5 5 5 5 5 5 5 5 5 5 5 5 5 5 5 5 5 5 5 5 5 5 5 5 5 5 5 5 5 6 5 5 5 5 6 5 5 5 5 5 5 5 5 6 5 5 5 5 5 5 5 5 6 5 5 5 5 5 5 5 5 5 5 5 5 5 5 5 5 5 5 5 5 5 5 5 5 5 5 6 5 5 5 5 5 5 6 5 6 5 5 6 5 5 5 6 5 6 5 5 5 6 5 5 5 6 5 5 5 5 5 5 6 5 5 5 5 5 5 5 5 5 5 5 5 5 5 5 5 5 5 5 5 5 5 5 5 5 5 5 6 5 6 5 5 5 5 6 5 5 5 5 5 5 5 5 5 5 5 5 5 6 5 5 6 5 5 6 5 5 5 5 5 6 5 5 5 5 5 5 5 5 6 5 6 5 5 5 5 5 6 6 5 5 6 5 5 5 6 5 5 5 5 5 5 5 6 5 5 5 5 5 5 5 5 5 5 5 5 5 5 5 5 6 5 5 5 5 5 6 5 6 5 5 5 5 5 5 5 5 5 5 5 5 6 5 6 5 5 5 5 5 5 6 6 5 5 5 5 5 5 5 5 5 5 5 5 5 5 5 5 5 5 5 5 5 6 5 5 6 5 5 5 5 5 6 5 5 5 5 5 5 6 5 5 5 5 5 5 5 5 5 5 5 5 5 5 5 5 6 5 5 6 5 5 5 5 6 5 5 5 5 5 5 5 5 5 5 5 6 5 5 5 5 5 5 5 5 5 5 5 5 5 5 5 5 5 5 5 6 5 5 5 5 5 5 5 5 5 5 5 5 6 5 5 5 5 5 5 5 5 5 5 5 5 5 6 6 5 5 5 5 5 5 6 5 5 5 5 5 5 5 5 5 5 5 5 5 5 5 5 5 5 5 5 5 5 5 5 5 5 5 5 5 5 5 5 5 5 5 6 5 5 5 5 5 5 5 5 6 5 5 5 5 5 5 5 5 5 5 5 5 6 5 5 5 5 6 5 6 5 5 5 5 5 5 5 5 6 5 5 5 5 5 5 5 5 5 5 6 5 5 5 6 5 5 6 5 5 5 5 6 5 5 6 5 5 5 5 5 5 5 5 6 5 5 5 6 5 5 5 5 5 5 5 6 5 6 5 6 5 6 6 5 5 5 6 6 6 5 5 6 5 5 5 6 5 5 5 5 6 5 5 5 5 5 5 5 5 5 5 5 5 5 5 5 5 5 5 5 5 5 5 5 5 5 5 5 5 5 5 5 5 5 5 5 5 5 5 6 5 5 5 5 5 5 5 5 6 5 5 5 5 6 5 5 6 5 5 6 5 5 5 5 6 5 5 5 5 5 6 5 5 5 5 5 5 5 5 5 5 5 5 5 6 6 5 5 5 6 5 5 5 5 5 5 5 5 5 5 5 5 5 5 6 5 5 5 5 5 5 6 5 5 6 5 5 5 5 5 5 5 5 5 5 6 5 5 5 5 5 6 5 5 5 5 5 5 5 5 5 5 6 5 5 5 5 5 5 5 5 5 5 5 5 5 5 5 6 5 5 5 5 5 5 5 5 5 5 5 5 5 5 5 5 5 5 5 5 5 5 5 6 5 6 5 5 5 6 5 5 5 5 5 5 5 5 5 6 5 5 5 6 5 5 5 5 5 5 5 5 5 5 5 5 5 5 5 5 6 5 5 5 5 5 6 5 5 5 6 5 6 5 5 5 5 5 5 6 5 5 5 5 5 5 5 5 5 5 5 5 5 5 5 5 5 5 5 5 5 5 5 5 5 5 5 6 5 5 6 5 5 5 5 5 5 5 6 5 5 5 5 6 5 5 6 5 5 5 5 5 5 6 5 5 5 6 5 5 5 6 5 5 5 5 5 6 5 5 5 5 5 6 5 5 5 5 5 5 5 5 6 5 5 6 5 5 5 5 6 5 5 5 5 6 5 5 5 5 6 5 5 5 6 5 6 5 5 5 5 5 5 5 5 5 5 6 5 5 5 5 5 5 5 6 6 5 5 5 5 5 6 5 5 5 5 5 6 5 5 5 6 5 5 6 5 5 6 5 5 5 6 5 5 5 5 5 5 6 5 5 5 5 5 6 5 5 5 5 5 6 5 5 5 5 5 5 6 5 5 5 5 6 5 5 5 5 5 6 5 5 5 5 5 5 5 5 5 5 6 5 5 5 5 5 5 5 6 5 5 5 5 6 6 5 5 6 5 5 5 5 5 5 5 6 5 5 5 5 5 5 5 6 5 6 5 5 6 5 5 5 5 6 5 6 5 5 5 5 5 5 5 5 5 5 6 5 5 5 5 5 6 5 5 5 6 5 5 5 5 6 5 5 6 5 5 5 5 5 6 5 6 5 6 6 5 5 5 5 6 6 5 5 5 5 5 5 5 5 5 5 5 5 5 6 5 5 5 5 5 5 6 6 5 5 5 5 5 5 5 5 5 5 5 5 5 6 5 5 5 5 5 5 5 5 5 5 5 5 5 5 5 5 5 5 5 5 5 5 5 5 5 5 5 5 5 5 5 5 5 6 5 5 6 5 5 5 5 5 5 5 6 5 5 5 6 5 5 6 5 5 5 6 6 5 5 5 5 6 6 5 5 5 5 5 5 5 5 5 5 5 5 5 5 6 5 5 6 5 5 5 6 5 5 5 5 6 5 5 6 5 5 5 5 5 5 5 5 5 5 5 6 5 5 5 5 5 5 5 6 5 5 5 5 5 5 5 5 5 5 5 5 5 5 5 5 5 5 6 5 5 5 5 5 5 6 5 6 5 5 5 5 5 6 5 5 6 5 5 5 6 5 5 5 6 5 5 5 5 5 5 5 5 5 5 5 5 5 5 6 5 5 5 5 6 6 5 5 5 5 5 5 5 5 5 5 5 5 5 5 5 5 5 5 5 6 5 5 5 5 5 5 5 5 6 5 6 5 5 5 5 5 5 5 6 5 6 5 5 5 5 5 6 5 5 5 5 5 5 6 5 5 5 5 5 6 6 5 5 5 6 6 6 5 5 5 5 5 6 5 5 5 5 5 6 5 5 5 5 6 5 6 6 5 6 6 5 5 5 6 5 5 5 6 5 5 5 6 5 5 5 6 5 5 5 5 5 5 5 5 6 5 5 5 6 5 5 5 5 5 5 6 5 5 5 5 5 5 6 5 5 5 5 5 5 5 5 5 5 5 5 5 5 6 5 6 5 5 5 6 5 5 6 5 6 5 6 5 5 6 5 5 5 5 5 5 6 5 5 5 5 6 5 5 5 5 5 5 6 5 5 5 5 5 5 5 5 5 5 6 5 5 5 5 5 5 5 5 5 5 5 5 5 5 5 5 5 5 5 6 6 5 5 5 6 5 5 6 5 5 6 5 5 6 5 5 6 6 5 5 5 5 6 5 5 5 5 5 5 5 5 5 5 5 6 6 5 5 5 6 5 6 5 6 5 5 5 5 5 6 5 5 6 5 6 5 5 6 6 6 5 5 5 5 6 5 5 6 5 6 5 5 6 5 5 5 5 5 5 5 5 6 5 6 6 5 5 5 5 5 6 6 5 5 5 6 6 5 5 5 5 5 5 5 5 6 5 6 5 5 5 5 5 5 5 5 5 5 5 5 5 5 5 5 5 5 5 5 5 5 5 5 5 5 5 5 5 6 5 5 5 5 5 5 5 5 5 5 5 5 5 5 5 6 5 5 6 5 5 5 5 5 6 5 5 5 5 5 5 5 5 5 5 5 5 5 6 5 5 5 5 5 5 5 5 5 6 5 5 6 5 5 5 5 6 6 6 5 5 5 5 5 6 5 5 5 
</DataArray>
<DataArray type="Float64" Name="stress" NumberOfComponents="9" format="ascii">
2664901615.1860199 -4433998918.1541595 0 -4433998918.1541595 -2244952.0055784388 0 0 0 0 4270306.974357605 -947216945.33666229 0 -947216945.33666229 1567254819.9918518 0 0 0 0 2046481.0545731261 -5986978.9061721787 0 -5986978.9061721787 2468988.4129119366 0 0 0 0 -2211818183.6650085 -3004415150.4608994 0 -3004415150.4608994 1330889176.5970612 0 0 0 0 557657723.48376465 -4521323014.4732361 0 -4521323014.4732361 949382.88542175293 0 0 0 0 569990751.00189209 -3422639586.0851593 0 -3422639586.0851593 1037158559.3110504 0 0 0 0 1661304535.8997498 -2469727109.2503815 0 -2469727109.2503815 1382040705.4586945 0 0 0 0 2298024.0635048486 -5867199.8726887032 0 -5867199.8726887032 2352082.8421446085 0 0 0 0 4017440306.9177628 -3588342972.2534561 0 -3588342972.2534561 319674953.30581665 0 0 0 0 1415127216.0920563 -3940830680.8302917 0 -3940830680.8302917 404788941.24993896 0 0 0 0 1424020299.1245215 -2890176926.2503276 0 -2890176926.2503276 715529066.56004333 0 0 0 0 474030110.93139648 -3019432153.2605667 0 -3019432153.2605667 1018154454.2136307 0 0 0 0 407830078.07730103 -3418180446.4179459 0 -3418180446.4179459 1371905766.2121124 0 0 0 0 411226196.27593994 -3481086488.8500519 0 -3481086488.8500519 2294221035.9534607 0 0 0 0 9244335.7043151855 -4137490457.6161728 0 -4137490457.6161728 1318796077.1039734 0 0 0 0 -390903202.41238403 -3057843865.1343689 0 -3057843865.1343689 2205636069.1177063 0 0 0 0 575230557.86166382 -2757255043.9842758 0 -2757255043.9842758 1381082971.1782331 0 0 0 0 -492176256.7979126 -2472345910.3431396 0 -2472345910.3431396 1422265232.1611032 0 0 0 0 -681322200.84815216 -1439517810.9688339 0 -1439517810.9688339 320268797.39547729 0 0 0 0 -2424033497.2110596 -2416475322.7426491 0 -2416475322.7426491 2018093892.2250519 0 0 0 0 1017325.6793455146 -2805891.2266702875 0 -2805891.2266702875 2554265.4702599943 0 0 0 0 2045720349.4490662 -2356489209.203804 0 -2356489209.203804 -389157873.17915344 0 0 0 0 897041694.36542511 -3654261359.8823128 0 -3654261359.8823128 522268046.69104004 0 0 0 0 1458358168.1849518 -3461710239.4198914 0 -3461710239.4198914 545742047.01025963 0 0 0 0 2310675999.5878754 -4261706631.958622 0 -4261706631.958622 109934.70855712891 0 0 0 0 1847331.4097996391 -3989964.6959798634 0 -3989964.6959798634 2137421.593720153 0 0 0 0 -1758656338.8222313 -1392283258.0249405 0 -1392283258.0249405 783449875.79620361 0 0 0 0 4679925210.4178467 -3055399841.6054993 0 -3055399841.6054993 -673098427.33553314 0 0 0 0 234858705.4692688 -1726535035.8098831 0 -1726535035.8098831 -1039143.4871063232 0 0 0 0 2493178411.2044373 -912715774.9630661 0 -912715774.9630661 -531210071.39613342 0 0 0 0 2494187772.4659581 -1831954220.2855575 0 -1831954220.2855575 566718311.53091431 0 0 0 0 -59645789.97605896 -398428689.99191284 0 -398428689.99191284 117965144.19911194 0 0 0 0 2844129240.9578514 -1524070244.4528408 0 -1524070244.4528408 702592036.89785767 0 0 0 0 1577689.6624873951 -692470.28663969785 0 -692470.28663969785 174306.64596019685 0 0 0 0 2883745801.8099365 -1419839174.5535812 0 -1419839174.5535812 399183172.79290771 0 0 0 0 2897542082.7190247 -1677526847.2679443 0 -1677526847.2679443 361168.16605036793 0 0 0 0 2522863020.8766785 -1530918407.6644135 0 -1530918407.6644135 1037769354.8625183 0 0 0 0 3352411634.197052 -3092033667.0251694 0 -3092033667.0251694 1200611146.6524515 0 0 0 0 1532227537.9111633 -310304929.45576477 0 -310304929.45576477 -434173423.41909027 0 0 0 0 1242527253.9884491 81571965.925888062 0 81571965.925888062 -219829075.5944519 0 0 0 0 1541338511.3325806 -60774767.679573059 0 -60774767.679573059 -272191806.30859375 0 0 0 0 458775114.28489685 -466048774.20991516 0 -466048774.20991516 102759200.07748413 0 0 0 0 906440.54923441261 -2242193.9597192034 0 -2242193.9597192034 3504118.8893188983 0 0 0 0 150553324.84568024 675591273.14004135 0 675591273.14004135 -335439493.65307617 0 0 0 0 -179422997.55989075 -21084237.872283936 0 -21084237.872283936 -83969698.061759949 0 0 0 0 1181457053.190094 87743055.108581543 0 87743055.108581543 -297089284.45265198 0 0 0 0 6289413.6177062988 -151318448.13095093 0 -151318448.13095093 -62603166.65133667 0 0 0 0 1211492636.1590576 234598693.71852112 0 234598693.71852112 415358386.2986145 0 0 0 0 2597246125.1661224 -698330741.04094696 0 -698330741.04094696 -120266115.44528198 0 0 0 0 3619906565.1402588 -2938952217.8608932 0 -2938952217.8608932 1553521657.9166412 0 0 0 0 3521632825.4473572 -1712450384.5465164 0 -1712450384.5465164 -721034238.63447952 0 0 0 0 3709184653.1820679 -3461784094.7607727 0 -3461784094.7607727 2315810611.097837 0 0 0 0 2424348855.3750381 -2197738874.42173 0 -2197738874.42173 2311297787.1048737 0 0 0 0 -731381478.90828705 767610945.66894531 0 767610945.66894531 -392373419.0302124 0 0 0 0 -706374.95965129137 -3366691.1788709164 0 -3366691.1788709164 7026419.2386285216 0 0 0 0 978777.63975053281 -713382.93180391192 0 -713382.93180391192 781863.10363527387 0 0 0 0 2921949773.7980032 -3136831932.9396553 0 -3136831932.9396553 2373689045.7332153 0 0 0 0 2938980529.189743 -3356799383.7460251 0 -3356799383.7460251 3103279569.356842 0 0 0 0 1095783915.5791931 -1573070799.1582794 0 -1573070799.1582794 1361706009.6266174 0 0 0 0 837221887.37811279 -1529634091.1112213 0 -1529634091.1112213 377311719.35145569 0 0 0 0 729442374.75402832 -2028479851.0600891 0 -2028479851.0600891 900170465.77734375 0 0 0 0 -1228420614.8331985 120332919.58652496 0 120332919.58652496 805024042.61361694 0 0 0 0 338536373.98016357 212257543.69740295 0 212257543.69740295 -781318454.43676758 0 0 0 0 -415891391.06105804 -764569067.6546936 0 -764569067.6546936 228630870.61270142 0 0 0 0 402960.22708133981 -8693647.5253124014 0 -8693647.5253124014 11905587.300523371 0 0 0 0 234418584.17575073 -608057220.31594849 0 -608057220.31594849 -520477356.31721497 0 0 0 0 -721202931.10803223 -180225772.11727905 0 -180225772.11727905 -270004818.89745331 0 0 0 0 -956177546.35385513 -871795285.99038506 0 -871795285.99038506 199539581.5715332 0 0 0 0 -346358704.21638489 -1440244088.9980927 0 -1440244088.9980927 625493832.96856689 0 0 0 0 3033244180.5346832 -205149475.82757568 0 -205149475.82757568 512848505.37503052 0 0 0 0 1974561014.6854248 -670686531.89050293 0 -670686531.89050293 482338455.65731812 0 0 0 0 1156017864.216629 331559773.98027039 0 331559773.98027039 210320165.95019531 0 0 0 0 -220898367.19515991 108052096.29907227 0 108052096.29907227 527870217.81066895 0 0 0 0 902453028.93078613 -1404960000.4945221 0 -1404960000.4945221 701235176.028862 0 0 0 0 1344729812.6186371 -734811071.25563049 0 -734811071.25563049 816760196.98454285 0 0 0 0 536367675.9192276 329345156.92585754 0 329345156.92585754 -303798921.26190186 0 0 0 0 1429236709.7284012 -421592718.65459824 0 -421592718.65459824 1935276239.3220825 0 0 0 0 3329887805.0536499 -997472573.16226196 0 -997472573.16226196 841712195.9163208 0 0 0 0 3115897884.7046509 -550455763.54068756 0 -550455763.54068756 573585131.80422974 0 0 0 0 2140816357.2092743 -1600995390.5318298 0 -1600995390.5318298 1455990202.4252625 0 0 0 0 1477832475.5205078 -734010168.53237915 0 -734010168.53237915 402639894.03594971 0 0 0 0 1911535052.5035553 -750518379.62717438 0 -750518379.62717438 165422531.56154633 0 0 0 0 1869719821.4403534 -1340027864.0242462 0 -1340027864.0242462 -255331087.91300964 0 0 0 0 1784921782.8847046 -1556573039.4774857 0 -1556573039.4774857 437537480.11371946 0 0 0 0 1783506422.1713672 -472186190.11557007 0 -472186190.11557007 -67334849.46685791 0 0 0 0 -1943410693.5564804 -701195248.68011475 0 -701195248.68011475 39147275.274200439 0 0 0 0 -189992241.45327759 -741165033.33152008 0 -741165033.33152008 775132201.67698669 0 0 0 0 471014.23130524717 -8559489.8751970492 0 -8559489.8751970492 9825607.1204599142 0 0 0 0 -2643055783.1556702 -469124126.06206512 0 -469124126.06206512 -389681986.43340302 0 0 0 0 -1237476092.9850464 -751801930.8936615 0 -751801930.8936615 -594807575.94550705 0 0 0 0 -1089716576.9428368 -1160460280.2802353 0 -1160460280.2802353 -496842883.89324951 0 0 0 0 -1303441177.1316223 -438754144.7399292 0 -438754144.7399292 -526048193.56736755 0 0 0 0 -382791660.59597778 -1203260057.3549004 0 -1203260057.3549004 -145668692.88327026 0 0 0 0 -706538922.09205627 -759519303.4394455 0 -759519303.4394455 -77767349.024520874 0 0 0 0 -600191106.40168762 -883871248.48158264 0 -883871248.48158264 939489701.06945801 0 0 0 0 -271424997.42886353 -581120231.84892273 0 -581120231.84892273 -545256793.45674896 0 0 0 0 -173924247.09254456 -780838511.6306839 0 -780838511.6306839 -438468288.53239441 0 0 0 0 -354018812.95394897 -683030633.14820862 0 -683030633.14820862 -310593281.41789246 0 0 0 0 -362598030.82037354 -518705406.8828125 0 -518705406.8828125 1516902.8776092529 0 0 0 0 -1331100.7920186464 -6705210.9978485331 0 -6705210.9978485331 14534770.477046013 0 0 0 0 3884084.1596984863 268355977.26322937 0 268355977.26322937 -412101097.46585083 0 0 0 0 -198798991.60440826 61372792.587984085 0 61372792.587984085 -18133892.439086914 0 0 0 0 -831438906.46231079 -541086747.61415863 0 -541086747.61415863 -265492570.36749268 0 0 0 0 -382950.79151270539 -1745102.2170388773 0 -1745102.2170388773 5648203.7219247073 0 0 0 0 -707411967.52539062 106952002.86483765 0 106952002.86483765 -137156128.65034485 0 0 0 0 2074444172.6585388 -2490435011.3044052 0 -2490435011.3044052 3125927547.0277863 0 0 0 0 -2185485664.4058838 332355487.23206329 0 332355487.23206329 2174288070.8171539 0 0 0 0 -464869881.82879639 -788880760.38639832 0 -788880760.38639832 167690544.46477509 0 0 0 0 -727730809.57095337 -385774637.24315643 0 -385774637.24315643 1799097951.0772095 0 0 0 0 -970849909.54627991 -1241768855.35075 0 -1241768855.35075 2279660693.0887146 0 0 0 0 -1892196925.0588989 -1353727359.3683739 0 -1353727359.3683739 5426867092.4890747 0 0 0 0 -988293265.60183716 -1149414172.7763519 0 -1149414172.7763519 1894349049.2688847 0 0 0 0 463272229.11547852 -3935630466.6799622 0 -3935630466.6799622 3758257231.8969498 0 0 0 0 -921389.08860778809 -2734194977.0699654 0 -2734194977.0699654 6051397714.1286469 0 0 0 0 1072861320.890892 -3348980934.5412598 0 -3348980934.5412598 2759388141.062851 0 0 0 0 647558686.75939941 -2954726097.0154114 0 -2954726097.0154114 2429430236.2918396 0 0 0 0 -120553429.31404114 -3097485211.8621445 0 -3097485211.8621445 2373526824.7854767 0 0 0 0 -511607646.92540741 -2684786630.173378 0 -2684786630.173378 2183250893.7329254 0 0 0 0 -141057523.55981445 -3435083913.142807 0 -3435083913.142807 3373468091.7438812 0 0 0 0 -785045109.91574097 -2607446796.0591812 0 -2607446796.0591812 2038505001.5605469 0 0 0 0 -785756642.69851685 -2138270169.7453156 0 -2138270169.7453156 1534064976.3427124 0 0 0 0 -507288908.40148926 -2553300756.2174988 0 -2553300756.2174988 2048535721.2036629 0 0 0 0 1434019127.4591942 -2877406177.7319565 0 -2877406177.7319565 1344083187.5863953 0 0 0 0 -67634990.060333252 -2400282674.5046692 0 -2400282674.5046692 1250119205.5984497 0 0 0 0 -180387845.34888458 -2259576354.5186348 0 -2259576354.5186348 1078288707.1878357 0 0 0 0 -311371396.89045715 -1592887719.330162 0 -1592887719.330162 318834080.99426651 0 0 0 0 -629529673.40435791 -1522041307.2346439 0 -1522041307.2346439 969409186.18920898 0 0 0 0 -591714612.90449905 -1855917733.3747358 0 -1855917733.3747358 1772397017.3428345 0 0 0 0 -529770138.68624878 -1404591227.3496094 0 -1404591227.3496094 851489080.93718529 0 0 0 0 -755139582.93829346 -2491802888.0318604 0 -2491802888.0318604 2758516768.8249359 0 0 0 0 8472228.2415924072 -25275729.70293808 0 -25275729.70293808 9613131.804107666 0 0 0 0 -1290031.0981903076 -42533310.168197632 0 -42533310.168197632 34537179.654067993 0 0 0 0 54377252.782623291 -95333537.42956543 0 -95333537.42956543 116463638.90441895 0 0 0 0 -7039252.354385376 -9638709.2982635498 0 -9638709.2982635498 84075540.204040527 0 0 0 0 -6546727.0208406448 -7137490.8640394211 0 -7137490.8640394211 89091482.435379028 0 0 0 0 -122218325.55895996 -33041611.632514954 0 -33041611.632514954 70067148.649917603 0 0 0 0 -35262658.963096619 8828442.2595748901 0 8828442.2595748901 72487212.35295105 0 0 0 0 -78360925.234069824 1794554.1950073242 0 1794554.1950073242 143053230.05627441 0 0 0 0 -309056337.01848602 -175614500.79613876 0 -175614500.79613876 -1031055.1983184814 0 0 0 0 -70854272.398864746 -320731129.55614471 0 -320731129.55614471 -51052009.445526123 0 0 0 0 7937838.6038894653 -33839293.440513611 0 -33839293.440513611 -95719208.647033691 0 0 0 0 51829187.801456451 -158943850.67534637 0 -158943850.67534637 247854365.3079834 0 0 0 0 355385690.92492676 -230703511.588974 0 -230703511.588974 -27158913.240783691 0 0 0 0 138618749.47034836 -139998808.54895782 0 -139998808.54895782 475311.02458190918 0 0 0 0 365014216.20279813 -513392759.08407032 0 -513392759.08407032 507310024.21450806 0 0 0 0 201070560.00502968 -212862512.64940453 0 -212862512.64940453 156045179.35398865 0 0 0 0 73008775.282470703 49631863.799034119 0 49631863.799034119 129513916.5134201 0 0 0 0 60156416.024200439 35573033.754516602 0 35573033.754516602 23304250.594711304 0 0 0 0 -90212289.222198486 -80976667.253768921 0 -80976667.253768921 134884958.1672287 0 0 0 0 -1126426.197643064 -1156447.3491887189 0 -1156447.3491887189 -1279571.4810355455 0 0 0 0 -402747903.39305878 -119892906.80093384 0 -119892906.80093384 442402350.4590683 0 0 0 0 2822472.685268119 -930521.95882429555 0 -930521.95882429555 3383068.887244761 0 0 0 0 435615133.0956955 -1023765623.5373154 0 -1023765623.5373154 1209876535.2830276 0 0 0 0 420295809.90839386 -68400375.559402466 0 -68400375.559402466 246035938.09321594 0 0 0 0 1113859652.7610855 -379294368.0482254 0 -379294368.0482254 225824.14317321777 0 0 0 0 1288157348.7563438 -741982019.98716164 0 -741982019.98716164 148962197.61225891 0 0 0 0 2045386260.3115387 -479689486.21072388 0 -479689486.21072388 -465116.7229051512 0 0 0 0 2427482908.9196014 -977282159.00127411 0 -977282159.00127411 140836117.54197693 0 0 0 0 2289955585.0220337 -303369787.45911407 0 -303369787.45911407 141649315.95091248 0 0 0 0 2146602074.5572357 -504354378.66061401 0 -504354378.66061401 -64745246.705871582 0 0 0 0 1956371524.7266083 -390762528.49264526 0 -390762528.49264526 -88895446.928222656 0 0 0 0 1894587642.3679504 -459544299.06291199 0 -459544299.06291199 57487248.310577393 0 0 0 0 2170449869.1715698 -500551591.22970581 0 -500551591.22970581 1013379.9665747894 0 0 0 0 1311780996.4261322 -286667869.5789032 0 -286667869.5789032 57792261.922821045 0 0 0 0 1502691920.8106232 -327248983.70831299 0 -327248983.70831299 55103551.12562561 0 0 0 0 1988166709.4577789 -169549568.78076553 0 -169549568.78076553 -112005559.6975708 0 0 0 0 2044369689.2712402 -947565379.36549377 0 -947565379.36549377 440652965.2376709 0 0 0 0 2123474129.4686432 -319109168.62475586 0 -319109168.62475586 -124839136.89122009 0 0 0 0 2085619927.6561279 -746971669.11677551 0 -746971669.11677551 1010616261.4313812 0 0 0 0 2888033605.2788544 -1738810644.2347488 0 -1738810644.2347488 810942761.1728611 0 0 0 0 3731302354.8513794 -1363387910.046051 0 -1363387910.046051 212527858.8769989 0 0 0 0 2377992815.9788971 -986235382.77401733 0 -986235382.77401733 120659617.44412231 0 0 0 0 2667116459.2433395 -975834635.56263924 0 -975834635.56263924 -54857528.968231201 0 0 0 0 2928377247.7788982 -1003297145.1537886 0 -1003297145.1537886 2132459290.5449829 0 0 0 0 4278937231.2440643 -678243418.80697632 0 -678243418.80697632 102833138.98244476 0 0 0 0 2720660899.5666275 -2455816627.452034 0 -2455816627.452034 1441929927.6697083 0 0 0 0 1332724483.2457809 -279501988.34502029 0 -279501988.34502029 -231614444.61434937 0 0 0 0 -564486894.04428101 -317646904.48320007 0 -317646904.48320007 1035682545.0649719 0 0 0 0 20878509.412742391 -9737042.7984878421 0 -9737042.7984878421 -3403387.5972875878 0 0 0 0 610845978.28382111 16079898.581336975 0 16079898.581336975 -459973313.3740387 0 0 0 0 7076555255.3377686 -1123456137.3610916 0 -1123456137.3610916 164736289.48590088 0 0 0 0 2087201.1164765209 159895.6397434622 0 159895.6397434622 -727927.50235760957 0 0 0 0 6925363348.9625092 -1539030981.7381439 0 -1539030981.7381439 924456069.88299561 0 0 0 0 3764367.1026396118 -4627888.6990204677 0 -4627888.6990204677 672818.44507862628 0 0 0 0 3344223390.9324594 -359097798.30808067 0 -359097798.30808067 2063941647.3190002 0 0 0 0 4475560374.8690796 -1764722605.8269501 0 -1764722605.8269501 1613273476.6981277 0 0 0 0 2602889079.4937134 1893623339.346405 0 1893623339.346405 1293182792.7388 0 0 0 0 6550911847.194809 841975687.7113266 0 841975687.7113266 -78371790.79498291 0 0 0 0 4658538609.8903198 3016977594.138916 0 3016977594.138916 929565968.18888474 0 0 0 0 3175942274.1143188 419483779.80822754 0 419483779.80822754 -28050952.086502075 0 0 0 0 3776228313.7474976 139281441.83105469 0 139281441.83105469 78055820.664916992 0 0 0 0 2808300174.7483521 -1140260375.252243 0 -1140260375.252243 325848530.52764893 0 0 0 0 1928045949.5626831 -65613448.20892334 0 -65613448.20892334 -180876694.57128906 0 0 0 0 2418520310.0149536 -411308491.07243347 0 -411308491.07243347 -627520418.8480835 0 0 0 0 2507643812.3817749 954234511.6125946 0 954234511.6125946 -15097433.31362915 0 0 0 0 2280372608.2424698 837506681.16179657 0 837506681.16179657 403568686.9954834 0 0 0 0 75364817.561676025 -13473553.283061981 0 -13473553.283061981 -21653365.103271484 0 0 0 0 49069155.933654785 -9527719.9154891968 0 -9527719.9154891968 -11703016.627731323 0 0 0 0 11566181.546333969 -2890829.6995762587 0 -2890829.6995762587 -15666726.003561854 0 0 0 0 22628790.629837036 -27343046.299560547 0 -27343046.299560547 -3535642.2551727295 0 0 0 0 19352268.691603694 -12555569.133771747 0 -12555569.133771747 -15243823.198449939 0 0 0 0 56680478.839904785 -36440280.944232941 0 -36440280.944232941 -12736395.682723999 0 0 0 0 51427911.933898926 40475293.335510254 0 40475293.335510254 32450750.896011353 0 0 0 0 103935063.6789093 -3342020.8250732422 0 -3342020.8250732422 -27299192.647659302 0 0 0 0 86657590.467658997 -32565062.790725708 0 -32565062.790725708 -14796488.218811035 0 0 0 0 51633311.112854004 -14157783.159339905 0 -14157783.159339905 -26227626.329231262 0 0 0 0 70577887.587554932 -8837109.0136795044 0 -8837109.0136795044 -47374237.602371216 0 0 0 0 53774158.598556519 -56137504.471092224 0 -56137504.471092224 -76141551.137313843 0 0 0 0 35157397.135434903 -22733839.153853193 0 -22733839.153853193 -5481855.2609852822 0 0 0 0 294056501.94515991 -607277328.06822205 0 -607277328.06822205 818713682.73526001 0 0 0 0 11322254.666953031 -10864690.647999264 0 -10864690.647999264 6076701.9060510695 0 0 0 0 -100091764.63519096 -146677560.26758385 0 -146677560.26758385 -38819380.59197998 0 0 0 0 40431298.542022705 -43991009.368164062 0 -43991009.368164062 -84758536.190795898 0 0 0 0 244330701.57959747 -150160359.46533966 0 -150160359.46533966 -165237112.71052551 0 0 0 0 255312873.97281837 107231500.7402792 0 107231500.7402792 -6995233.6118774414 0 0 0 0 89789529.194503784 -36286998.782867432 0 -36286998.782867432 -69217485.211456299 0 0 0 0 12135425.403442383 -101956221.08436584 0 -101956221.08436584 -76926723.072961807 0 0 0 0 7816410.7141448483 -5277312.9841668457 0 -5277312.9841668457 -16542023.181533918 0 0 0 0 -3071136.8157501221 -33145502.028015137 0 -33145502.028015137 -16049973.102676392 0 0 0 0 73165597.747169495 7810226.4239425659 0 7810226.4239425659 -90373830.681625366 0 0 0 0 43816242.360865474 -31581766.600135997 0 -31581766.600135997 -8447998.072309345 0 0 0 0 69503581.028427124 -45215265.12802124 0 -45215265.12802124 -29961553.365483284 0 0 0 0 55278807.065746307 -42333191.315624237 0 -42333191.315624237 -19367163.564376831 0 0 0 0 111880304.6792984 -57624140.520149231 0 -57624140.520149231 -18531265.214630127 0 0 0 0 76362732.783050537 -76965840.222984314 0 -76965840.222984314 4087783.0978832245 0 0 0 0 70297296.679985046 -72820196.427898407 0 -72820196.427898407 7946043.4735107422 0 0 0 0 54196873.979114532 -64176960.222244263 0 -64176960.222244263 4571607.6167297363 0 0 0 0 11649093.029339992 -40970983.332318246 0 -40970983.332318246 -2476558.3486723974 0 0 0 0 -30249217.749197055 -46562858.352304041 0 -46562858.352304041 6601723.2224394009 0 0 0 0 -70569134.206285477 -24259875.355678558 0 -24259875.355678558 46530285.121696472 0 0 0 0 -1550835858.8736115 371898995.59522247 0 371898995.59522247 262813489.65011597 0 0 0 0 -13309772.199856848 -3554142.7091620993 0 -3554142.7091620993 2354539.2872566581 0 0 0 0 -310237586.48782349 -631960539.0796051 0 -631960539.0796051 -551113187.6057663 0 0 0 0 -9343777.7223459631 -24182638.62048886 0 -24182638.62048886 -710411.36871793866 0 0 0 0 -1176587210.7814522 857999324.63093567 0 857999324.63093567 380326165.81661987 0 0 0 0 246039.20463878289 -7444408.6193695366 0 -7444408.6193695366 -2039228.0030469811 0 0 0 0 1094030.627255246 -27032585.628613792 0 -27032585.628613792 -5242721.6094306204 0 0 0 0 13374745.127807617 -39151983.846282959 0 -39151983.846282959 -47230215.092233658 0 0 0 0 -6095685.9995651245 -20975259.523311615 0 -20975259.523311615 -1394587.3285598755 0 0 0 0 20689536.124183655 -10349389.757797241 0 -10349389.757797241 -12774141.050933838 0 0 0 0 -5227564.8097073175 -21589451.830177568 0 -21589451.830177568 -15698449.624885023 0 0 0 0 191856.21368408203 -19157037.000152588 0 -19157037.000152588 16268766.890258789 0 0 0 0 -1340674865.5702362 -93164172.380912781 0 -93164172.380912781 -19651252.311950684 0 0 0 0 -210473959.98753738 -460212571.43998528 0 -460212571.43998528 34056687.42175293 0 0 0 0 -67853638.612289429 -389056208.33467865 0 -389056208.33467865 -31347281.707229614 0 0 0 0 -56931444.757640839 -359754335.54689026 0 -359754335.54689026 -8586015.4509963989 0 0 0 0 -46320912.43008256 -282435339.41317558 0 -282435339.41317558 78380027.076675415 0 0 0 0 -299416855.44617462 -379098659.18383026 0 -379098659.18383026 203908372.41782761 0 0 0 0 -192221692.64590454 -405050580.77165604 0 -405050580.77165604 189248314.81915283 0 0 0 0 -309487237.6852951 -443481167.45994949 0 -443481167.45994949 421210648.66378784 0 0 0 0 -922224731.60035133 -323461914.72268677 0 -323461914.72268677 418458656.84870911 0 0 0 0 -456930030.56792545 72436475.536382675 0 72436475.536382675 93516116.892578125 0 0 0 0 37342045.839689255 -202880446.95291901 0 -202880446.95291901 140254541.20944595 0 0 0 0 -152322159.96492624 -170068520.31800842 0 -170068520.31800842 158838030.83908081 0 0 0 0 -36604836.787379995 -47771696.289461136 0 -47771696.289461136 1150200.0999638364 0 0 0 0 135911464.98648071 -99191703.883956909 0 -99191703.883956909 16841413.057880402 0 0 0 0 140825331.49189758 -100033921.8916626 0 -100033921.8916626 15360964.507156372 0 0 0 0 109973060.97210693 -63515089.729747772 0 -63515089.729747772 -2997059.4478759766 0 0 0 0 203494144.61373901 -87483426.859046936 0 -87483426.859046936 2833273.7637786865 0 0 0 0 260335206.02151489 -133714804.30241394 0 -133714804.30241394 24446924.329124451 0 0 0 0 145452322.99761963 -104844758.20350266 0 -104844758.20350266 17368349.33996582 0 0 0 0 298031513.09057617 -116946815.07972717 0 -116946815.07972717 31871403.119216919 0 0 0 0 -37238211.694622226 -50548506.950822547 0 -50548506.950822547 -3830029.823570691 0 0 0 0 306201847.60443115 -139920089.61210632 0 -139920089.61210632 88172145.239929199 0 0 0 0 175624085.44693947 -219623401.92602158 0 -219623401.92602158 60336441.973503113 0 0 0 0 223503492.52060246 -331635145.23070908 0 -331635145.23070908 123041430.35942078 0 0 0 0 166563938.40983009 -230599497.18556213 0 -230599497.18556213 -8802651.9709472656 0 0 0 0 167131140.91348839 -217893694.8643074 0 -217893694.8643074 -82768744.853286743 0 0 0 0 401127924.42932415 -268505000.01441574 0 -268505000.01441574 -53211402.252929688 0 0 0 0 275511387.02245712 -152604639.02354431 0 -152604639.02354431 45674319.734565735 0 0 0 0 -31910822.06238737 -54842308.231150299 0 -54842308.231150299 -8126204.9820787162 0 0 0 0 -846080345.22914124 -769862620.41231537 0 -769862620.41231537 461532775.51661682 0 0 0 0 389427943.0133667 -467957653.57585144 0 -467957653.57585144 -251334789.86390686 0 0 0 0 539328018.36761475 -84946498.924316406 0 -84946498.924316406 9505502.3413391113 0 0 0 0 451412164.81112671 -173199158.9884491 0 -173199158.9884491 94224416.25479126 0 0 0 0 1424608.4134536125 -1630932.4666307941 0 -1630932.4666307941 -1454741.6956116855 0 0 0 0 -980524658.36859131 -419522063.75779724 0 -419522063.75779724 -272996174.2226162 0 0 0 0 336830455.86248779 393311857.75309753 0 393311857.75309753 -302898871.27892971 0 0 0 0 -599943941.08321381 247579506.85028839 0 247579506.85028839 -35510856.437133789 0 0 0 0 275055814.19812012 328106292.72991943 0 328106292.72991943 -185776782.024086 0 0 0 0 283877013.50547028 197587697.44322968 0 197587697.44322968 -486595620.59596252 0 0 0 0 -1571956319.4385071 -1303602032.2079926 0 -1303602032.2079926 1210184843.3008728 0 0 0 0 3073553.0289153978 -2717201.2830978632 0 -2717201.2830978632 -3760722.8149219826 0 0 0 0 -122497142.45922852 -926886454.1697464 0 -926886454.1697464 -243533350.40762329 0 0 0 0 420586043.3210144 -19471943.069755554 0 -19471943.069755554 -5209351.4831390381 0 0 0 0 252035988.03121948 3583951.8460006714 0 3583951.8460006714 -2440440.0389556885 0 0 0 0 4501021.6286263037 -3438430.1527764201 0 -3438430.1527764201 -4670492.4759545624 0 0 0 0 208131157.62132263 -19796114.477535248 0 -19796114.477535248 -617765.00755310059 0 0 0 0 106099462.55406189 -13306230.404808044 0 -13306230.404808044 -12995463.517967224 0 0 0 0 182360083.82683945 -3776700.1281890869 0 -3776700.1281890869 -10574965.268722534 0 0 0 0 115228891.11645508 -4078547.5153694153 0 -4078547.5153694153 -6880578.767868042 0 0 0 0 149158130.66610718 -38299288.529190063 0 -38299288.529190063 -15347279.978440285 0 0 0 0 -34790210.485839844 -78483922.65045929 0 -78483922.65045929 5082606.553894043 0 0 0 0 208298687.34716797 -114725539.9377594 0 -114725539.9377594 -152268185.52049255 0 0 0 0 9304405.9927192125 -5194159.3119595796 0 -5194159.3119595796 -8959189.9770605862 0 0 0 0 255083435.30293274 33816954.764968872 0 33816954.764968872 -103905276.88024902 0 0 0 0 -99077566.798725128 54187666.106742859 0 54187666.106742859 249421062.95126343 0 0 0 0 2145898532.7727966 -1406775380.1256714 0 -1406775380.1256714 -652781261.21527863 0 0 0 0 -1032842269.692749 -302586954.88214111 0 -302586954.88214111 1868935398.0170746 0 0 0 0 1785269323.5896912 8969105.6949310303 0 8969105.6949310303 -491930042.04605103 0 0 0 0 1626159885.9471588 -406151969.19026184 0 -406151969.19026184 -1540278048.2773743 0 0 0 0 7451339.0118809678 -4117661.8466727734 0 -4117661.8466727734 -10298241.255432755 0 0 0 0 667092931.03713989 -344654838.29158783 0 -344654838.29158783 -621946196.33250523 0 0 0 0 1936109463.8069916 456119926.67133331 0 456119926.67133331 -2427149281.1457062 0 0 0 0 2157353552.5588379 -1245829479.2622986 0 -1245829479.2622986 -3037577942.176012 0 0 0 0 1604712859.9328308 708597007.38378143 0 708597007.38378143 -6680287777.5912018 0 0 0 0 3419786534.5954132 -1778654425.6471977 0 -1778654425.6471977 472177736.84614563 0 0 0 0 -164643818.29740143 -2114425189.3746262 0 -2114425189.3746262 6980845109.1701508 0 0 0 0 6534573.2131264657 -2319539.4424910918 0 -2319539.4424910918 273769.30547333776 0 0 0 0 1008428752.0498352 469610498.94300842 0 469610498.94300842 980972262.08247375 0 0 0 0 228513134.18289185 -999279119.76784515 0 -999279119.76784515 958812607.81552124 0 0 0 0 1151076535.7371826 -445999465.67952728 0 -445999465.67952728 -128037465.72915649 0 0 0 0 250138402.78082275 15913028.275939941 0 15913028.275939941 -92981964.177171707 0 0 0 0 -178094540.48422241 -552695068.8523407 0 -552695068.8523407 674541792.14885712 0 0 0 0 -499834388.26874542 -235656443.38514328 0 -235656443.38514328 387436511.63238525 0 0 0 0 1150800300.6675339 -731844239.32091904 0 -731844239.32091904 732326771.26086426 0 0 0 0 2078844.1652885191 -1558156.6367061287 0 -1558156.6367061287 -2919355.4197569191 0 0 0 0 -10950830.407165527 51220063.018432617 0 51220063.018432617 -240859192.67384338 0 0 0 0 442109525.318573 9599667.9343643188 0 9599667.9343643188 -43031922.35974884 0 0 0 0 393333305.85873413 -132557777.64678192 0 -132557777.64678192 -100032855.66043091 0 0 0 0 83259028.058105469 -62675440.261993408 0 -62675440.261993408 -75027596.584396362 0 0 0 0 282683815.31536865 13079741.538955688 0 13079741.538955688 -135942169.91061401 0 0 0 0 118796052.35974121 89770900.982162476 0 89770900.982162476 -145722223.47293854 0 0 0 0 164992336.77018738 161132602.39858246 0 161132602.39858246 -105861211.41253662 0 0 0 0 196462650.5994873 38591512.922576904 0 38591512.922576904 -196953850.89920044 0 0 0 0 -6536272.791847229 17531828.620834351 0 17531828.620834351 -144729168.85205078 0 0 0 0 86239688.966064453 21866004.408660889 0 21866004.408660889 -180236792.69404602 0 0 0 0 122360667.9887085 -8732847.1690826416 0 -8732847.1690826416 -261853487.2093811 0 0 0 0 39345529.251098633 -56782105.029296875 0 -56782105.029296875 -219181638.20291901 0 0 0 0 -51209334.878921509 -81038586.584392548 0 -81038586.584392548 -59360651.420578003 0 0 0 0 62889738.961364746 -20547778.588562012 0 -20547778.588562012 -168862632.5512085 0 0 0 0 19881543.471313477 -8939379.1706695557 0 -8939379.1706695557 -150716131.41670227 0 0 0 0 62048888.855651855 -4995833.5358886719 0 -4995833.5358886719 -205106532.45370483 0 0 0 0 76801803.298500061 41063883.565742493 0 41063883.565742493 -119895662.86233521 0 0 0 0 33539013.791381836 -38868220.003147125 0 -38868220.003147125 -104870812.40682983 0 0 0 0 15089793.227142334 -47319003.151954651 0 -47319003.151954651 -108711328.73013306 0 0 0 0 26638211.0597229 -71195123.208862305 0 -71195123.208862305 -198482537.088974 0 0 0 0 12211003.797966003 -27492241.944982529 0 -27492241.944982529 24524419.942718506 0 0 0 0 9475973.0531149171 -9888899.1006200314 0 -9888899.1006200314 -12083421.22078225 0 0 0 0 1001601.4936215878 -2378357.3965469599 0 -2378357.3965469599 3412617.6611471102 0 0 0 0 277230228.43164062 258338686.02729797 0 258338686.02729797 -659955540.73589325 0 0 0 0 -67537157.987716675 -132456805.29801941 0 -132456805.29801941 -154321282.21801758 0 0 0 0 -51894303.784179688 114471363.43339348 0 114471363.43339348 -242457321.26467896 0 0 0 0 54040318.82244873 -61390197.094284058 0 -61390197.094284058 -327498504.90439606 0 0 0 0 -148155069.76634979 -208990463.44318581 0 -208990463.44318581 -97590246.389160156 0 0 0 0 14831016.529229209 -17020208.201909751 0 -17020208.201909751 658283.33580210805 0 0 0 0 450153.00440979004 7244484.5279502869 0 7244484.5279502869 27427268.565357208 0 0 0 0 35619816.274185181 -18115457.25920105 0 -18115457.25920105 -11425452.374557495 0 0 0 0 66792428.051696777 14774188.020009995 0 14774188.020009995 -28714655.94682312 0 0 0 0 26075555.300109863 24212598.341497421 0 24212598.341497421 -19640682.181594849 0 0 0 0 -11281533.944213867 -19961718.573684692 0 -19961718.573684692 -7993930.0255279541 0 0 0 0 93123243.745056152 -41657241.542060852 0 -41657241.542060852 -100563705.54828644 0 0 0 0 -920208.82696533203 -41356031.881629944 0 -41356031.881629944 -8622664.7014007568 0 0 0 0 12262368.654289849 -8656663.9711466283 0 -8656663.9711466283 -15804387.582115404 0 0 0 0 -2621786.3962097168 -14852234.812973022 0 -14852234.812973022 10943646.340869904 0 0 0 0 12628280.709462062 -21379733.120615408 0 -21379733.120615408 -1533677.3535638712 0 0 0 0 -36859435.39074707 -51919923.455177307 0 -51919923.455177307 -11032341.753448486 0 0 0 0 13317596.681945801 -38578723.224655151 0 -38578723.224655151 -39931821.347450256 0 0 0 0 31321024.535675049 -43396075.303375244 0 -43396075.303375244 -43178449.498916626 0 0 0 0 36187406.151115879 -13134131.275070615 0 -13134131.275070615 -17796094.13011013 0 0 0 0 37515518.518157959 -35221956.056999207 0 -35221956.056999207 -38577212.800918579 0 0 0 0 30952681.236663818 -46098222.661323547 0 -46098222.661323547 -41898466.466789246 0 0 0 0 54290090.23638916 7585178.1192321777 0 7585178.1192321777 -236603.12169361115 0 0 0 0 12495263.882393032 3375773.2550639426 0 3375773.2550639426 -11344854.872560281 0 0 0 0 46917620.794540405 -49306285.751720428 0 -49306285.751720428 -150887916.03567505 0 0 0 0 792145.57013042271 -1712929.3908368126 0 -1712929.3908368126 1466080.5091213733 0 0 0 0 40548487.19934082 -71152941.62562561 0 -71152941.62562561 -160915310.96931458 0 0 0 0 4593325.3072509766 95011.099468231201 0 95011.099468231201 -196463996.76948547 0 0 0 0 -241336419.12602234 74500502.191860199 0 74500502.191860199 210435202.64571762 0 0 0 0 141980661.29089355 158083675.10066986 0 158083675.10066986 -11973119.010314941 0 0 0 0 165247397.90148926 -14184563.042373657 0 -14184563.042373657 -232807461.86876345 0 0 0 0 154692851.55760956 75723401.221750736 0 75723401.221750736 -234475698.01248169 0 0 0 0 129434670.49007607 -140399478.85377502 0 -140399478.85377502 -88718878.312896729 0 0 0 0 34102870.603151426 -57739836.680829361 0 -57739836.680829361 -7290997.062607374 0 0 0 0 116251583.19366741 -76301882.807287216 0 -76301882.807287216 -58140204.408996582 0 0 0 0 53477314.743255615 -85664944.319618225 0 -85664944.319618225 -114825337.90145874 0 0 0 0 190522522.77134895 -142667359.99543762 0 -142667359.99543762 -102677262.53102112 0 0 0 0 176069353.42893839 -126552523.08166504 0 -126552523.08166504 -109703820.67398071 0 0 0 0 223764225.98082352 -148307738.87811279 0 -148307738.87811279 -101031922.48104858 0 0 0 0 205256082.34662056 -142908972.68806458 0 -142908972.68806458 -97033924.421020508 0 0 0 0 18357130.856342316 -229941346.18434048 0 -229941346.18434048 22461687.601333618 0 0 0 0 -13730417.667582549 -59252433.896226421 0 -59252433.896226421 -14297464.93702624 0 0 0 0 210670680.47965813 -135034835.37553406 0 -135034835.37553406 -113755872.53085709 0 0 0 0 205268666.50620449 -141803187.97617924 0 -141803187.97617924 -86444222.886871338 0 0 0 0 197592143.54481888 -150297781.19100952 0 -150297781.19100952 -103293093.79201031 0 0 0 0 -814355.64208675921 -2170793.4772321284 0 -2170793.4772321284 -2629435.0543590635 0 0 0 0 72058500.020507812 7630271.0900115967 0 7630271.0900115967 -17488576.683784485 0 0 0 0 -1717307.8933105469 -116966690.7878952 0 -116966690.7878952 -185112027.61868286 0 0 0 0 44267014.416137695 -42910289.219947815 0 -42910289.219947815 -106775384.43029785 0 0 0 0 -1291932.4586181641 -46322857.613250732 0 -46322857.613250732 -106305472.35403442 0 0 0 0 -24364532.504943848 -84077619.281860352 0 -84077619.281860352 24991460.794281006 0 0 0 0 -186789002.01419067 16126049.607513428 0 16126049.607513428 -3129439.7438735962 0 0 0 0 -59853140.901123047 89343575.265319824 0 89343575.265319824 -127625625.53012085 0 0 0 0 -62112509.025817871 86081070.706710815 0 86081070.706710815 19551969.26550293 0 0 0 0 -152952870.18475342 291133874.25448608 0 291133874.25448608 -104062651.26538086 0 0 0 0 -206084832.96228027 29478309.84375 0 29478309.84375 -203449812.89378357 0 0 0 0 -328482227.10980225 124958082.77533722 0 124958082.77533722 26487486.81842041 0 0 0 0 -289881881.07165527 130719535.59191895 0 130719535.59191895 159917903.08914185 0 0 0 0 -157394610.10579109 -146660201.12431812 0 -146660201.12431812 210355489.86560059 0 0 0 0 266291007.59185982 -256081170.92326355 0 -256081170.92326355 -6263674.7407569885 0 0 0 0 205566629.82313919 -163290579.96492767 0 -163290579.96492767 -34851712.902111053 0 0 0 0 234884617.67857742 -154053719.57038879 0 -154053719.57038879 -106402638.75784683 0 0 0 0 294825620.91967392 -181345814.97150517 0 -181345814.97150517 -129392627.10426331 0 0 0 0 222206018.46977615 -116550068.84334564 0 -116550068.84334564 -209915190.60690308 0 0 0 0 230799064.49396896 -190837825.25144768 0 -190837825.25144768 -252004819.97218323 0 0 0 0 255498622.50282478 -95889882.809577942 0 -95889882.809577942 -161186596.95642853 0 0 0 0 242740571.48213196 -113606262.75708771 0 -113606262.75708771 -179049508.14627075 0 0 0 0 274188601.56996536 -183140038.2489357 0 -183140038.2489357 -138105361.03533936 0 0 0 0 244971929.64703941 -125066005.09603882 0 -125066005.09603882 -140538781.49228096 0 0 0 0 205432383.32502937 -97274698.213638306 0 -97274698.213638306 -117818136.18179321 0 0 0 0 213552153.9555397 -98365628.693367004 0 -98365628.693367004 -137782973.14088249 0 0 0 0 234372448.87430573 -86083226.168682098 0 -86083226.168682098 -158888423.32798767 0 0 0 0 224769576.78748703 -20499406.876449585 0 -20499406.876449585 -124367709.54377747 0 0 0 0 224571079.51773262 -51140021.346088409 0 -51140021.346088409 -165986901.32820129 0 0 0 0 187234772.89864731 -85449685.639457703 0 -85449685.639457703 -115348451.48718643 0 0 0 0 201852363.67768478 -53849262.198234558 0 -53849262.198234558 -103900575.46578979 0 0 0 0 203376238.15641785 -30112338.882354736 0 -30112338.882354736 -102815252.02985096 0 0 0 0 224906349.76206589 71491624.887432098 0 71491624.887432098 -24856640.999408722 0 0 0 0 47480177.544737846 -51556995.773097932 0 -51556995.773097932 -10443784.62535974 0 0 0 0 173507974.17417908 31776954.320304871 0 31776954.320304871 16942271.142726898 0 0 0 0 148620137.02300262 -37541237.137069702 0 -37541237.137069702 -15100019.439682007 0 0 0 0 215878526.37268066 18566045.932411194 0 18566045.932411194 -84691663.093084335 0 0 0 0 206339181.6152935 10938543.388309479 0 10938543.388309479 -75349579.360687256 0 0 0 0 199362045.49969482 -31969296.266967773 0 -31969296.266967773 -81353182.559082031 0 0 0 0 188713200.04102325 64729078.075141907 0 64729078.075141907 -107509994.67049026 0 0 0 0 186998624.41201782 63446778.313468933 0 63446778.313468933 -53048438.061889648 0 0 0 0 201478415.02512741 37459798.778953552 0 37459798.778953552 -126930583.63967896 0 0 0 0 200440746.9090271 48954603.752075195 0 48954603.752075195 -150319010.93260193 0 0 0 0 193166640.98297119 33928817.086708069 0 33928817.086708069 -103339883.69808674 0 0 0 0 232538855.19123459 3121379.344127655 0 3121379.344127655 -222874548.34042358 0 0 0 0 227295269.14881516 -16472391.861175537 0 -16472391.861175537 -139767617.54598427 0 0 0 0 255767708.4169696 -85545964.091458142 0 -85545964.091458142 -267447272.86972046 0 0 0 0 251079747.75650024 -30303651.361656189 0 -30303651.361656189 -202946029.59557343 0 0 0 0 234795739.24526215 68276175.922828674 0 68276175.922828674 -263842324.95067596 0 0 0 0 256767660.54262543 -22495009.844665527 0 -22495009.844665527 -396610287.83669281 0 0 0 0 201732285.9760561 48479378.598618507 0 48479378.598618507 -190585095.72869873 0 0 0 0 105338571.62463379 157031343.89684296 0 157031343.89684296 -118511696.20304489 0 0 0 0 205651191.97629166 268667796.80750799 0 268667796.80750799 -538281873.42702484 0 0 0 0 183099935.76118851 326235442.91786957 0 326235442.91786957 -197421933.93599701 0 0 0 0 236120620.14521408 108941825.49740601 0 108941825.49740601 -642636602.75997162 0 0 0 0 219921944.54219627 16454331.318916321 0 16454331.318916321 -389040952.26483917 0 0 0 0 130466108.17041779 -309812250.27235031 0 -309812250.27235031 -619753830.13716125 0 0 0 0 198080683.10781479 -173903470.08681488 0 -173903470.08681488 -333800561.35419846 0 0 0 0 209130518.2855587 -172969078.25392151 0 -172969078.25392151 -400957031.3731842 0 0 0 0 95761581.814832211 -285688436.32885599 0 -285688436.32885599 -202881766.13420105 0 0 0 0 101281120.67625046 -243273774.49616623 0 -243273774.49616623 -90148974.129844666 0 0 0 0 17880478.248588562 -390405130.97788239 0 -390405130.97788239 -317432018.33300972 0 0 0 0 -1029293.7301025391 -365065667.98384285 0 -365065667.98384285 -195478181.79270935 0 0 0 0 -80951237.243006706 -445760491.13895988 0 -445760491.13895988 -216848037.13868713 0 0 0 0 -334319907.68383789 -177652716.63008118 0 -177652716.63008118 351788021.3302002 0 0 0 0 -279252332.2497673 263165593.63294792 0 263165593.63294792 155853966.2822113 0 0 0 0 1817049.8452414721 -2737675.8113856129 0 -2737675.8113856129 4245713.1403694227 0 0 0 0 81484192.322143555 -271380320.84436035 0 -271380320.84436035 -138355397.05657959 0 0 0 0 578517054.82873535 199156445.56304932 0 199156445.56304932 -709566037.67020416 0 0 0 0 265528734.0307312 118372391.296875 0 118372391.296875 28983489.131202698 0 0 0 0 136874131.05923462 244730891.4655838 0 244730891.4655838 1161154991.4380493 0 0 0 0 345020765.66537476 -217539733.61480713 0 -217539733.61480713 1066959851.0516663 0 0 0 0 -103047968.08842468 -90767956.15839386 0 -90767956.15839386 1988077634.0687103 0 0 0 0 -258641050.43431091 -122323704.70245361 0 -122323704.70245361 1252473879.1327209 0 0 0 0 -124941680.57983398 -162595740.37013245 0 -162595740.37013245 495065636.93753052 0 0 0 0 -51595284.633117676 -243217475.83207703 0 -243217475.83207703 982224558.55170059 0 0 0 0 -96629387.396240234 241983572.79154968 0 241983572.79154968 774724975.64778137 0 0 0 0 -192828678.85894775 -426633906.30119705 0 -426633906.30119705 1041828296.7736282 0 0 0 0 -104394039.27023315 -378423085.95762634 0 -378423085.95762634 451475970.39506626 0 0 0 0 -104830586.43701172 -133385612.25595093 0 -133385612.25595093 507743032.37104797 0 0 0 0 -63895887.17388916 -236714271.55183411 0 -236714271.55183411 437667234.02147484 0 0 0 0 -158000683.10392761 -291662019.7457428 0 -291662019.7457428 413900800.62064362 0 0 0 0 -204280743.15026855 -459924130.80072784 0 -459924130.80072784 340707503.93498993 0 0 0 0 -260003.97059631348 -140273023.59605026 0 -140273023.59605026 -356351527.63186646 0 0 0 0 -259349743.69921875 197733571.67120361 0 197733571.67120361 320301390.78309631 0 0 0 0 -79508442.449798584 -381367863.71789551 0 -381367863.71789551 -198082359.77514648 0 0 0 0 168066763.47589111 -14292978.354125977 0 -14292978.354125977 -524111472.74517822 0 0 0 0 929879.62034082413 629054.74579685926 0 629054.74579685926 1099715.6610004022 0 0 0 0 101368225.42193604 92579787.612335205 0 92579787.612335205 -229207740.60036004 0 0 0 0 104801773.54850769 -62667226.889781952 0 -62667226.889781952 -44370572.324493408 0 0 0 0 -39362556.650299072 -34667432.393699646 0 -34667432.393699646 -32252043.357147217 0 0 0 0 31820797.16784668 -132718804.41271973 0 -132718804.41271973 83016933.649642944 0 0 0 0 -50786320.676025391 -51370968.598098755 0 -51370968.598098755 171245467.94291663 0 0 0 0 73077668.348876953 -30132460.372291565 0 -30132460.372291565 -75151026.463546753 0 0 0 0 -10734321.787017822 -1984684.0888824463 0 -1984684.0888824463 14083070.001838684 0 0 0 0 383106.49354287796 -2094822.8805822432 0 -2094822.8805822432 -574838.33386933059 0 0 0 0 -74011199.041152954 -82824763.720184326 0 -82824763.720184326 -92157098.041778564 0 0 0 0 -44423.560577392578 13354528.903808594 0 13354528.903808594 32729094.46647644 0 0 0 0 130379261.5355072 -99544437.441947937 0 -99544437.441947937 -105522185.25827026 0 0 0 0 24673065.320861816 24771318.048355103 0 24771318.048355103 -100877790.8763895 0 0 0 0 -29838845.973052979 27018958.949356079 0 27018958.949356079 -68353710.906158447 0 0 0 0 1389025.6726761237 -5908328.3948454261 0 -5908328.3948454261 -1918699.8392438218 0 0 0 0 15665035.251556396 -4924758.4775772095 0 -4924758.4775772095 -68339539.525466919 0 0 0 0 10172496.114505768 -4598725.1883802414 0 -4598725.1883802414 5460550.0230102539 0 0 0 0 -4351130.5548105389 -2148525.9485541452 0 -2148525.9485541452 12740670.151770495 0 0 0 0 -257897127.00563049 -438567422.28129578 0 -438567422.28129578 -337037098.70069885 0 0 0 0 4849918.2489425093 -10696061.04189297 0 -10696061.04189297 10564001.095995329 0 0 0 0 -213735353.36709976 -504815630.92704582 0 -504815630.92704582 -628375209.64750671 0 0 0 0 -130113330.75389862 -564472352.62617493 0 -564472352.62617493 -1058735440.7829285 0 0 0 0 -132060151.9621582 -580220485.87391663 0 -580220485.87391663 -852967979.51400757 0 0 0 0 -177034080.04431152 -419427128.62081909 0 -419427128.62081909 -814041969.16452408 0 0 0 0 9250775.3596469313 -12310284.827038366 0 -12310284.827038366 7291843.0649670362 0 0 0 0 7850981.624797821 -73742770.64315033 0 -73742770.64315033 -14282970.886810303 0 0 0 0 83858037.92980957 25818398.109947205 0 25818398.109947205 1820739.76512146 0 0 0 0 15349471.986316279 -12411216.415018896 0 -12411216.415018896 2131023.4673604146 0 0 0 0 -422835695.81894684 -609913850.08414078 0 -609913850.08414078 -1009115734.6222839 0 0 0 0 -31768000.183761597 -24306311.566394806 0 -24306311.566394806 37103113.939857483 0 0 0 0 -440440297.38769531 -918526617.84201908 0 -918526617.84201908 -1337345674.9920959 0 0 0 0 -417873518.93257141 -736240273.8571701 0 -736240273.8571701 -676796060.26260376 0 0 0 0 -172817855.35542297 -369514081.8065033 0 -369514081.8065033 -1023566409.3346558 0 0 0 0 -1730495698.8977814 -1494959512.6755295 0 -1494959512.6755295 -1005907470.2233582 0 0 0 0 343515.06083485205 -3955838.8077194579 0 -3955838.8077194579 3375839.3115292341 0 0 0 0 -3962431517.8481979 -2088818704.2303238 0 -2088818704.2303238 -598750248.54920959 0 0 0 0 -202872410.44584656 -1593680887.4180374 0 -1593680887.4180374 -2638632126.6703949 0 0 0 0 -739559754.42407227 -1939927975.6300812 0 -1939927975.6300812 -1514154635.4480286 0 0 0 0 552565864.17623901 -2053623745.7276611 0 -2053623745.7276611 -2386370167.9338531 0 0 0 0 -637228090.94842529 -456454549.1494751 0 -456454549.1494751 -1004812230.2336464 0 0 0 0 -595200796.11856079 -831851491.76184845 0 -831851491.76184845 -1762742242.3241806 0 0 0 0 -1020442082.9233093 -1341617983.4580536 0 -1341617983.4580536 -2027854426.9325714 0 0 0 0 707886130.54470825 -907477245.40524292 0 -907477245.40524292 -221990739.75909424 0 0 0 0 1407289334.9182663 -763167584.56115723 0 -763167584.56115723 -2233780172.9741364 0 0 0 0 4240331362.804903 -1050331321.9613228 0 -1050331321.9613228 -1249442404.5393677 0 0 0 0 2475712282.4123077 -2549990271.208931 0 -2549990271.208931 -1411691272.2501373 0 0 0 0 -252858672.82421875 -1141827367.1637726 0 -1141827367.1637726 -1194197275.0661926 0 0 0 0 1738739544.9136963 -553863739.7046051 0 -553863739.7046051 -6691298998.5119781 0 0 0 0 219936133.64233398 668451219.6502533 0 668451219.6502533 -3792085844.4884949 0 0 0 0 -855612790.95379639 -599340905.82528687 0 -599340905.82528687 -2209476972.5568914 0 0 0 0 859047590.45663452 -1938771791.1967545 0 -1938771791.1967545 -4888348251.7768707 0 0 0 0 601755711.00091553 -1554092345.8441315 0 -1554092345.8441315 1877082359.1390076 0 0 0 0 535471327.97357178 -1779734748.2077866 0 -1779734748.2077866 2438168385.9600983 0 0 0 0 31757648.541671753 -1458633407.0415421 0 -1458633407.0415421 3317486046.9696274 0 0 0 0 16382540.512857556 -9312231.3561972603 0 -9312231.3561972603 1143454.1894320513 0 0 0 0 397298886.1116333 -1646900432.6430664 0 -1646900432.6430664 2127000329.5306244 0 0 0 0 -30839950.342315674 -689497049.67003632 0 -689497049.67003632 1983044760.3824005 0 0 0 0 309188470.66213989 -1800197290.4368439 0 -1800197290.4368439 2346172214.6918945 0 0 0 0 80516498.220458984 -1349705712.3978729 0 -1349705712.3978729 2303189126.4229012 0 0 0 0 318053290.41445923 -1688962671.9075089 0 -1688962671.9075089 2107838980.6405945 0 0 0 0 306911255.0793767 -1375188226.8417342 0 -1375188226.8417342 1957211683.2771912 0 0 0 0 480969177.66325378 -1358902846.0894852 0 -1358902846.0894852 1903705427.7783813 0 0 0 0 366397133.91452026 -1200692978.5561295 0 -1200692978.5561295 1787859274.3685474 0 0 0 0 -135445186.35080719 114432303.94133377 0 114432303.94133377 1186616088.1257629 0 0 0 0 282830129.72891235 554498622.14900208 0 554498622.14900208 -63489762.691711426 0 0 0 0 573840475.93460083 -1225354408.1083755 0 -1225354408.1083755 1028565678.2044983 0 0 0 0 2556937.730202198 2434766.0806333013 0 2434766.0806333013 -4114146.7393357307 0 0 0 0 19268167.432108834 -15303322.374571607 0 -15303322.374571607 3955525.9153746939 0 0 0 0 967912896.5486145 -1058591218.7616577 0 -1058591218.7616577 155046442.61938477 0 0 0 0 651823680.32836914 -193532856.14802551 0 -193532856.14802551 18437046.223059297 0 0 0 0 -167102851.62585449 -1243285243.4546738 0 -1243285243.4546738 1883968935.037735 0 0 0 0 1041451311.4416847 -722617883.11025238 0 -722617883.11025238 1383191632.9161987 0 0 0 0 623114186.83398438 -1589306132.6431122 0 -1589306132.6431122 1836895591.6041489 0 0 0 0 1287093702.326355 -2131453278.5339203 0 -2131453278.5339203 2279546080.2938538 0 0 0 0 190731240.37869263 -1625357258.6274567 0 -1625357258.6274567 2924708819.4276886 0 0 0 0 2499059084.595459 -1829623542.1767426 0 -1829623542.1767426 2189960078.5622101 0 0 0 0 1412615296.3302917 -129108175.30942535 0 -129108175.30942535 2600606754.5037231 0 0 0 0 1110829998.7247925 -716483185.4182663 0 -716483185.4182663 1525805703.976429 0 0 0 0 471519613.84056091 210305274.728302 0 210305274.728302 2145753498.5485992 0 0 0 0 920111805.53717613 -989296073.20711088 0 -989296073.20711088 2075711959.086792 0 0 0 0 924595649.70562172 -879653353.30514145 0 -879653353.30514145 4752782524.0178528 0 0 0 0 2804608842.7652893 -2875834155.1846161 0 -2875834155.1846161 2427862277.185318 0 0 0 0 3749924785.3121338 -800501966.03268433 0 -800501966.03268433 2606931574.3794861 0 0 0 0 1332506719.1348877 -1089632511.3656464 0 -1089632511.3656464 3503444705.201004 0 0 0 0 2909039370.513031 -3248645613.2186489 0 -3248645613.2186489 5856582590.0683289 0 0 0 0 1291465627.4286904 -2230952777.2819633 0 -2230952777.2819633 3255922417.4552002 0 0 0 0 -410694710.56225586 -634757699.47958374 0 -634757699.47958374 4296698553.1183777 0 0 0 0 -43036331.126995087 1757056432.9120049 0 1757056432.9120049 1564814201.2512512 0 0 0 0 3358795114.5039673 185606528.80805969 0 185606528.80805969 -737375177.69252777 0 0 0 0 2395509.6565957367 -1952561.075791223 0 -1952561.075791223 225613.41086489707 0 0 0 0 648919574.70141602 -2108672222.9913635 0 -2108672222.9913635 6775695610.9893341 0 0 0 0 -25131.811772263609 -1698502.9226541817 0 -1698502.9226541817 1087642.3236206099 0 0 0 0 1238398.3704853952 -7300490.0865533128 0 -7300490.0865533128 5697897.4086190611 0 0 0 0 2530137.8614530563 -7292456.8412649632 0 -7292456.8412649632 -3066146.7422027588 0 0 0 0 324680695.6387682 -386408280.62880206 0 -386408280.62880206 655871053.96633911 0 0 0 0 3692711.0376031296 -8012941.8049953654 0 -8012941.8049953654 -2556007.3862989768 0 0 0 0 1610471529.1824493 -302306650.65203857 0 -302306650.65203857 -331896866.44759369 0 0 0 0 1077710556.1532059 -1088678877.194025 0 -1088678877.194025 689997017.36489868 0 0 0 0 1768782670.9545746 -1358840634.7717056 0 -1358840634.7717056 523110599.36225891 0 0 0 0 -91051985.355499268 -749128278.53727722 0 -749128278.53727722 1462252502.9836349 0 0 0 0 652711230.27270508 -399690206.49668121 0 -399690206.49668121 33998179.27646637 0 0 0 0 -41413850.78616333 -80931301.718429565 0 -80931301.718429565 228581698.24954224 0 0 0 0 313700854.40661621 -862036763.1826973 0 -862036763.1826973 1252369306.8466797 0 0 0 0 -449854343.98614502 -258429100.76382446 0 -258429100.76382446 1643832864.3200226 0 0 0 0 91199801.425292969 -584910771.34519958 0 -584910771.34519958 1085351472.4256744 0 0 0 0 148804253.21753693 -1315911721.6379471 0 -1315911721.6379471 2300844584.7990112 0 0 0 0 -398778145.95880127 -242871944.40959167 0 -242871944.40959167 1399889199.7932167 0 0 0 0 -53666713.199127197 -527767662.90280151 0 -527767662.90280151 1456100342.3528137 0 0 0 0 507784193.40072632 -498716961.24902344 0 -498716961.24902344 438215300.28379822 0 0 0 0 6447957.9768787473 -7846623.7054125406 0 -7846623.7054125406 1791631.307286907 0 0 0 0 1996914.4830322266 -6525232.6467590332 0 -6525232.6467590332 644925.78717803955 0 0 0 0 1859345.7829284668 -3503518.7155609131 0 -3503518.7155609131 1346485.5603256226 0 0 0 0 -348467758.76094055 340192677.08068085 0 340192677.08068085 48655728.070251465 0 0 0 0 186043965.28448486 -354538748.423172 0 -354538748.423172 -484223447.88758087 0 0 0 0 -47911022.763305664 -306485172.96850586 0 -306485172.96850586 41289781.734649658 0 0 0 0 24392107.317016602 227334801.04595947 0 227334801.04595947 -164998621.3686676 0 0 0 0 8472639.9294281006 -28672322.824581146 0 -28672322.824581146 29579891.887130737 0 0 0 0 6993728.0247895569 -7114296.5633675307 0 -7114296.5633675307 2914516.2092923857 0 0 0 0 4477842.6602809578 -6081584.3063563704 0 -6081584.3063563704 958332.10276672244 0 0 0 0 7844088.462097168 -50895895.075722694 0 -50895895.075722694 20162655.747451782 0 0 0 0 -46484812.785369873 13162974.092681885 0 13162974.092681885 -4871079.0608344078 0 0 0 0 22927135.05487442 -13211290.461828232 0 -13211290.461828232 -3902255.4550323486 0 0 0 0 26968640.554595947 -64375974.424560547 0 -64375974.424560547 -40142063.500778198 0 0 0 0 436252856.99107361 -525556094.82086563 0 -525556094.82086563 498670162.60430908 0 0 0 0 812680735.25430298 -733665808.80354309 0 -733665808.80354309 279017999.4129982 0 0 0 0 75520908.699554443 -170204929.12921143 0 -170204929.12921143 229388762.8155365 0 0 0 0 1892130.7130737305 -7555817.6159133911 0 -7555817.6159133911 5398627.487663269 0 0 0 0 1889356.4268670771 -9063174.3873835951 0 -9063174.3873835951 1677732.5661409125 0 0 0 0 2779722.2956163739 -6834000.9236449525 0 -6834000.9236449525 -3061165.3558386713 0 0 0 0 5714451.7797546387 -17125926.518520355 0 -17125926.518520355 -41974412.382984161 0 0 0 0 79467351.940429688 -23302991.02809906 0 -23302991.02809906 -14585757.69877243 0 0 0 0 687256344.65444946 -293644386.67485428 0 -293644386.67485428 151248790.81619644 0 0 0 0 -1987422.2940001637 -2502800.4374595359 0 -2502800.4374595359 1996652.8931242004 0 0 0 0 359717012.55062866 -719568145.90224457 0 -719568145.90224457 726892437.72393417 0 0 0 0 505515335.43637085 -732056052.48652649 0 -732056052.48652649 572723237.74151611 0 0 0 0 -86989601.590606689 -937163834.80051804 0 -937163834.80051804 835092367.48622894 0 0 0 0 210092988.52020264 -948083868.8004818 0 -948083868.8004818 878417471.25097656 0 0 0 0 -17354917.335983276 -937867867.21045303 0 -937867867.21045303 885537228.64372253 0 0 0 0 854231441.387146 -1033849440.4964752 0 -1033849440.4964752 620077912.22219467 0 0 0 0 232122147.62942505 -991926726.29296875 0 -991926726.29296875 1178675993.3629456 0 0 0 0 459080181.13348389 -1256053697.4858856 0 -1256053697.4858856 1477731532.7422333 0 0 0 0 300148842.20350647 -1131056581.2209206 0 -1131056581.2209206 1185677452.2507172 0 0 0 0 478261951.76608276 -1457921178.3323822 0 -1457921178.3323822 2602083254.7105408 0 0 0 0 -50608638.736206055 -938401662.77861786 0 -938401662.77861786 1219832982.3800087 0 0 0 0 -123892439.284729 -777415057.04133606 0 -777415057.04133606 1159499494.0550995 0 0 0 0 -2783841.4288482666 -1020390040.6269951 0 -1020390040.6269951 1592168934.4167938 0 0 0 0 -114292287.88998413 -668172246.74099731 0 -668172246.74099731 1388556852.0469284 0 0 0 0 -181041414.19177246 -655636386.92671967 0 -655636386.92671967 1464556258.4340363 0 0 0 0 168900374.18255615 -526415554.76377869 0 -526415554.76377869 1678765191.5123062 0 0 0 0 163138895.72186279 -802686284.42602539 0 -802686284.42602539 2787844179.7339935 0 0 0 0 -101895161.44322968 -822003299.43417788 0 -822003299.43417788 2250755579.8377686 0 0 0 0 -446292.90115356445 -607350018.62284851 0 -607350018.62284851 829604545.21457672 0 0 0 0 -161843831.94039917 -782806065.39733887 0 -782806065.39733887 1211722183.0507011 0 0 0 0 -254984837.5291481 -445023579.52298546 0 -445023579.52298546 1040477553.9449005 0 0 0 0 -191315425.20602417 -728924704.47624207 0 -728924704.47624207 1114425494.0105667 0 0 0 0 -143814374.02279663 -640573112.26634979 0 -640573112.26634979 845146216.43431854 0 0 0 0 -15280788.575622559 -848781726.36935806 0 -848781726.36935806 662282245.89002991 0 0 0 0 -36222.57376952847 -732189084.00811243 0 -732189084.00811243 873094007.0617218 0 0 0 0 -18124498.905700684 -885718473.88410187 0 -885718473.88410187 900382408.09352112 0 0 0 0 -69296455.04309082 -858854523.6297226 0 -858854523.6297226 890157634.92379761 0 0 0 0 59339060.290756226 -986848256.87065887 0 -986848256.87065887 654344993.97225952 0 0 0 0 165488117.01342773 -908590270.34423828 0 -908590270.34423828 600131179.05168915 0 0 0 0 -22975.878372192383 -741178432.35379028 0 -741178432.35379028 623351633.04747868 0 0 0 0 135270937.03730774 -803608618.04160309 0 -803608618.04160309 245017728.96821594 0 0 0 0 320444283.84938049 -742267933.83628082 0 -742267933.83628082 265321742.06369972 0 0 0 0 351246177.33216953 -356030063.29179907 0 -356030063.29179907 -230937106.55560303 0 0 0 0 421773.53518676758 -499325317.78585052 0 -499325317.78585052 81058587.317832947 0 0 0 0 46482367.004318237 -166991004.05926514 0 -166991004.05926514 -1327941210.7667694 0 0 0 0 -1779947.968115285 -290413.31807267666 0 -290413.31807267666 1450832.2166791856 0 0 0 0 14201835.318618774 -1376838399.4820213 0 -1376838399.4820213 22258314.246315002 0 0 0 0 -530596700.42248535 -725299167.3911438 0 -725299167.3911438 -460205616.79332733 0 0 0 0 2508611.2400501668 -670707.53206041828 0 -670707.53206041828 -2437507.4237992838 0 0 0 0 -194279581.762146 -43176722.973808289 0 -43176722.973808289 -183751085.75312042 0 0 0 0 -497003664.71063232 -745764013.5484314 0 -745764013.5484314 -1023359434.1395454 0 0 0 0 -213262733.8092041 -363555408.53371048 0 -363555408.53371048 -601555157.06168365 0 0 0 0 -347232102.32768631 -425718973.77947474 0 -425718973.77947474 -358528633.6426239 0 0 0 0 3898449.3895769417 -1140738.1044147387 0 -1140738.1044147387 -3683413.3135744631 0 0 0 0 202800012.3170929 -228689551.65851593 0 -228689551.65851593 -524880006.68836212 0 0 0 0 -154113774.28919983 -298077161.34099197 0 -298077161.34099197 -600756877.6217804 0 0 0 0 -231828887.59477234 -41237845.053733826 0 -41237845.053733826 -179094709.90148163 0 0 0 0 2223830.3251947165 2138985.767773876 0 2138985.767773876 -2152862.0924980193 0 0 0 0 57078755.340606689 -278066508.06825256 0 -278066508.06825256 -348183045.77739334 0 0 0 0 -17276519.028076172 10802138.015335083 0 10802138.015335083 -136685848.28815079 0 0 0 0 -695986816.0887146 -287092005.75649261 0 -287092005.75649261 -421986530.95534897 0 0 0 0 984261.77671450377 1061853.8077641949 0 1061853.8077641949 -1028013.69377877 0 0 0 0 -95822589.771652222 -200040063.82924271 0 -200040063.82924271 404652110.53807831 0 0 0 0 -150449404.53283691 -118380323.44212914 0 -118380323.44212914 284202054.89878845 0 0 0 0 2504270.3432647884 2628282.5442613345 0 2628282.5442613345 -2584362.8886148892 0 0 0 0 61686548.874298096 -104318215.22249222 0 -104318215.22249222 -508410849.48036194 0 0 0 0 92796795.23538208 -275970688.47035217 0 -275970688.47035217 267686728.50518417 0 0 0 0 51871704.842926025 -102917846.84490585 0 -102917846.84490585 -239509035.65346527 0 0 0 0 -168689531.63870239 -214219613.42552948 0 -214219613.42552948 7915330.6617584229 0 0 0 0 25772568.652587891 -76287860.041481018 0 -76287860.041481018 11741416.136927843 0 0 0 0 -149339.68600463867 -231959799.04948616 0 -231959799.04948616 -71719674.449234009 0 0 0 0 7138962.9244842529 28965397.795772552 0 28965397.795772552 150097516.33501816 0 0 0 0 128942.20620727539 -227712462.65950966 0 -227712462.65950966 529210895.19364929 0 0 0 0 -93434374.756530762 -72967259.667592049 0 -72967259.667592049 997731047.60652542 0 0 0 0 101258780.99885559 -204732564.28284645 0 -204732564.28284645 559942377.5524826 0 0 0 0 -35844584.382324219 -43512588.40713501 0 -43512588.40713501 479374278.68487167 0 0 0 0 -25330329.239713669 -220405130.0020597 0 -220405130.0020597 300455815.64686584 0 0 0 0 -38855363.032707214 -245539723.90607166 0 -245539723.90607166 190941435.10713196 0 0 0 0 -2194554.9145812988 -90931730.995368958 0 -90931730.995368958 302092069.38660431 0 0 0 0 -6117577.146270752 -240282522.56376648 0 -240282522.56376648 490572192.64190674 0 0 0 0 -15699229.214233398 -280223949.36781883 0 -280223949.36781883 318222029.64215088 0 0 0 0 8142719.7062988281 -206230261.29442596 0 -206230261.29442596 245976810.23568344 0 0 0 0 -11262564.456878662 -164402496.94334412 0 -164402496.94334412 461700847.24968719 0 0 0 0 -30761143.501937866 -275724822.26039696 0 -275724822.26039696 345077214.73971558 0 0 0 0 34667631.045261383 -261299951.94989491 0 -261299951.94989491 249941789.94365692 0 0 0 0 85128154.295547485 -227002225.8545723 0 -227002225.8545723 685128868.61894226 0 0 0 0 171890.9154779017 2169011.3879880086 0 2169011.3879880086 1289001.056466585 0 0 0 0 -59636432.972412109 -191629831.19605637 0 -191629831.19605637 629508212.93006134 0 0 0 0 105616257.04598999 -196831410.22973251 0 -196831410.22973251 470319241.34851265 0 0 0 0 -101177201.0098114 -189653819.79508018 0 -189653819.79508018 930198578.73295593 0 0 0 0 105047.89761847258 3198998.9771791697 0 3198998.9771791697 1775589.7755967183 0 0 0 0 27081400.130615234 -13154996.133346558 0 -13154996.133346558 649248690.42901993 0 0 0 0 655164471.81274414 197113117.33653259 0 197113117.33653259 370332375.89006805 0 0 0 0 -352121447.21551514 -435848986.79581261 0 -435848986.79581261 1404137089.6623688 0 0 0 0 -44402373.53894043 345090087.65535736 0 345090087.65535736 1541093506.4077077 0 0 0 0 -74550179.817443848 24161442.19801712 0 24161442.19801712 -32790011.587200642 0 0 0 0 2300965.3490914851 -1054122.5898578949 0 -1054122.5898578949 -1058599.1570547242 0 0 0 0 103606314.4262917 -500391453.55763507 0 -500391453.55763507 525402537.83932495 0 0 0 0 101819391.7159729 -305494388.94931412 0 -305494388.94931412 -69809851.350112915 0 0 0 0 37994615.951965332 -171711363.04240227 0 -171711363.04240227 215828480.14781952 0 0 0 0 -24572982.228881836 -124125774.31585312 0 -124125774.31585312 282026324.96499634 0 0 0 0 -985417.02444458008 -178968532.64252472 0 -178968532.64252472 448359758.28022003 0 0 0 0 -166502870.13473701 -84610359.546518326 0 -84610359.546518326 675739004.13171005 0 0 0 0 -543875.17467448115 3829536.6328405347 0 3829536.6328405347 2069167.2786331121 0 0 0 0 -55494.67350769043 -64085167.620845795 0 -64085167.620845795 520862863.25911713 0 0 0 0 -181618221.38214111 -111214328.03904915 0 -111214328.03904915 998873263.51858521 0 0 0 0 -99756964.440887451 -40645457.341630936 0 -40645457.341630936 434076331.14624023 0 0 0 0 -103166670.36096191 -77260789.986232758 0 -77260789.986232758 288123368.32892203 0 0 0 0 -78287156.810005188 -91443221.115267754 0 -91443221.115267754 109952125.4654541 0 0 0 0 -82914803.809295654 20932437.327484131 0 20932437.327484131 289808614.83270264 0 0 0 0 -100774482.12402344 -41751441.461231232 0 -41751441.461231232 303045106.47001648 0 0 0 0 -104612338.900177 -22978190.629589081 0 -22978190.629589081 214945212.24547577 0 0 0 0 -44614355.983978271 6424623.6574249268 0 6424623.6574249268 207176288.7377243 0 0 0 0 -62966838.455184937 35446485.269853592 0 35446485.269853592 347460667.55604553 0 0 0 0 5061017.2769775391 -36028228.55456543 0 -36028228.55456543 328231787.99580479 0 0 0 0 44680673.440231323 106914435.63289261 0 106914435.63289261 171356557.3940773 0 0 0 0 113001123.14016724 70414510.124286652 0 70414510.124286652 343253903.27061939 0 0 0 0 9036702.520690918 17144320.931610107 0 17144320.931610107 333091085.92529011 0 0 0 0 31426078.370849609 -157860340.63499069 0 -157860340.63499069 898669561.04885864 0 0 0 0 50548998.527511597 187591756.08776951 0 187591756.08776951 702415648.69841003 0 0 0 0 -4561516.7298278809 -35204859.645893097 0 -35204859.645893097 664348629.15570068 0 0 0 0 -47943248.369934082 -64834431.663192749 0 -64834431.663192749 652284539.3017807 0 0 0 0 -98466.308250069618 988504.05374588445 0 988504.05374588445 553239.88205390517 0 0 0 0 -54851783.629337311 -275586574.02052689 0 -275586574.02052689 956852460.98652649 0 0 0 0 -9499039.3646850586 -239742767.48974609 0 -239742767.48974609 76143267.085203171 0 0 0 0 26434561.991607666 -61050107.964984894 0 -61050107.964984894 423795146.87033081 0 0 0 0 -103360658.01773071 -302846693.670578 0 -302846693.670578 383365595.72247314 0 0 0 0 -62132855.669433594 -328898046.43971252 0 -328898046.43971252 283803334.41696167 0 0 0 0 -203949565.18960571 -619179544.15748596 0 -619179544.15748596 -145989549.11116028 0 0 0 0 -122464805.96038818 -330337745.13687134 0 -330337745.13687134 354103791.16676331 0 0 0 0 19994631.222717285 -459515996.37701416 0 -459515996.37701416 183263695.08214092 0 0 0 0 -6889665.0681152344 -279088005.55950928 0 -279088005.55950928 117649664.76405334 0 0 0 0 -29832087.433135986 -279930351.91679764 0 -279930351.91679764 210334885.42879486 0 0 0 0 -94526466.017242432 -275178153.18947411 0 -275178153.18947411 366652073.70918655 0 0 0 0 -21243937.67987442 -191805153.84391308 0 -191805153.84391308 311236998.16461182 0 0 0 0 -68039872.595809937 -208775106.63497543 0 -208775106.63497543 209314342.18479919 0 0 0 0 -81771602.599464417 -250648378.77887344 0 -250648378.77887344 90523124.387504578 0 0 0 0 -42619894.867980957 -314050496.01963043 0 -314050496.01963043 81740324.458086014 0 0 0 0 -28328344.424507141 -336505053.1597805 0 -336505053.1597805 15931554.919021606 0 0 0 0 -8721319.8235626221 -381563810.1146698 0 -381563810.1146698 -201017186.04763031 0 0 0 0 34593138.995574951 -355621527.18213272 0 -355621527.18213272 -486355954.20075226 0 0 0 0 18242892.064453125 -330939268.83448792 0 -330939268.83448792 -209015101.01416969 0 0 0 0 42614565.753433228 -314725945.82666397 0 -314725945.82666397 -336997811.00790405 0 0 0 0 -348428651.06994629 -716859329.6552887 0 -716859329.6552887 91031062.100036621 0 0 0 0 2119615.371792689 -575373.75734543428 0 -575373.75734543428 -2029991.2437054887 0 0 0 0 -37774889.905456543 -21474492.159072876 0 -21474492.159072876 -145741304.68837738 0 0 0 0 208125149.95074463 -81417267.420768738 0 -81417267.420768738 -148106689.45298767 0 0 0 0 153390415.09411621 -195097643.30876923 0 -195097643.30876923 -259531850.36708069 0 0 0 0 289342147.45465851 -393048914.96487617 0 -393048914.96487617 -74867482.184692383 0 0 0 0 -12023973.996276855 -295102291.33184052 0 -295102291.33184052 -97315780.371397018 0 0 0 0 86920200.847045898 -358621199.19815826 0 -358621199.19815826 -232624403.00969696 0 0 0 0 -166599653.11740112 -361479030.66924286 0 -361479030.66924286 -232561595.06238794 0 0 0 0 -341549908.88275146 -169875184.10346985 0 -169875184.10346985 -444790782.61150026 0 0 0 0 -136852229.80270386 -262833809.74546814 0 -262833809.74546814 -257096349.54962063 0 0 0 0 8052604.2261352539 -235318079.14101028 0 -235318079.14101028 -450005044.28478241 0 0 0 0 -147143825.58627319 -256681561.69268799 0 -256681561.69268799 -426761833.54203033 0 0 0 0 -152089293.99026489 -67331199.296188354 0 -67331199.296188354 -146644468.53885293 0 0 0 0 -18894919.654922485 -372667989.59389877 0 -372667989.59389877 -842209064.40085602 0 0 0 0 103451707.33331299 -318784743.22975159 0 -318784743.22975159 -915275221.31510162 0 0 0 0 -23582759.455245972 -128571407.73971939 0 -128571407.73971939 -875321681.06542206 0 0 0 0 837204.35722299479 -2204526.6513890177 0 -2204526.6513890177 -1211096.114707537 0 0 0 0 -219904821.55157852 -450468331.99781466 0 -450468331.99781466 -568535746.68077087 0 0 0 0 2926708.5744857788 232825629.03441358 0 232825629.03441358 -400954264.21636963 0 0 0 0 -184442322.78268433 -55401991.322059631 0 -55401991.322059631 -10788684.363052368 0 0 0 0 100451318.80783081 10623482.614404678 0 10623482.614404678 -781170737.61611176 0 0 0 0 66361027.235397339 -152093342.76727104 0 -152093342.76727104 -354216939.0019455 0 0 0 0 94776080.535743713 -128160790.01461411 0 -128160790.01461411 -358544076.73841095 0 0 0 0 -163569597.13661957 -482091224.75132847 0 -482091224.75132847 -560356578.54618073 0 0 0 0 157540617.74533081 -120843138.92106628 0 -120843138.92106628 -893045487.82028961 0 0 0 0 403685.69055175781 82770928.909927368 0 82770928.909927368 -301702500.73554993 0 0 0 0 -59663655.132293701 18617641.185310364 0 18617641.185310364 -21740905.459068298 0 0 0 0 -3618838.9427185059 -29156227.746173859 0 -29156227.746173859 -95711611.510505676 0 0 0 0 5154939.051700592 1646922.1880960464 0 1646922.1880960464 -82195042.593276978 0 0 0 0 31130227.436279297 -68593805.229293823 0 -68593805.229293823 -200379020.66028595 0 0 0 0 157743.1512298584 -51889303.530344009 0 -51889303.530344009 -22877623.441299438 0 0 0 0 4694679.898399353 -103771549.25537109 0 -103771549.25537109 -125729008.11248779 0 0 0 0 -17029671.736724854 -146213243.32162094 0 -146213243.32162094 -180610520.63090897 0 0 0 0 168234114.168396 42555935.351108551 0 42555935.351108551 -24993568.237640381 0 0 0 0 -9185386.4533996582 -101017721.03882217 0 -101017721.03882217 -123522187.18204498 0 0 0 0 5037488.6271985769 -1939365.5943337753 0 -1939365.5943337753 -9405820.063045837 0 0 0 0 13804383.435180664 56189179.51978302 0 56189179.51978302 15803084.569923401 0 0 0 0 -18784064.843315125 -65448382.610282898 0 -65448382.610282898 -27443454.064880371 0 0 0 0 19469956.531494141 -42428005.077758789 0 -42428005.077758789 -8907953.2253875732 0 0 0 0 75588925.370666504 -97625683.376502991 0 -97625683.376502991 9412749.3687057495 0 0 0 0 61820959.152612686 -97439401.420052528 0 -97439401.420052528 21283300.070083618 0 0 0 0 52546576.156585693 -6111192.5324935913 0 -6111192.5324935913 16441756.092948914 0 0 0 0 37333779.133758545 -278214780.26315308 0 -278214780.26315308 625172820.79968262 0 0 0 0 3380644.4879895002 600201.94002084062 0 600201.94002084062 -2885879.5153641272 0 0 0 0 -26796292.051086426 -91100486.30921936 0 -91100486.30921936 281619272.9569397 0 0 0 0 -54085241.399505615 -6157870.6092529297 0 -6157870.6092529297 142788820.2641449 0 0 0 0 37927141.900024414 -11427932.535293579 0 -11427932.535293579 -146497648.32274055 0 0 0 0 63381438.863464355 -224712700.69267273 0 -224712700.69267273 83389304.254770279 0 0 0 0 88566824.826507568 -191375588.68040466 0 -191375588.68040466 31411889.22518158 0 0 0 0 299567229.64492798 -394231318.27597809 0 -394231318.27597809 -144141879.45010376 0 0 0 0 121300145.47137451 -354827573.1937561 0 -354827573.1937561 339730067.63070488 0 0 0 0 81034918.412231445 -41856398.8384552 0 -41856398.8384552 -76708998.007278442 0 0 0 0 233608624.13464355 -140535867.13673973 0 -140535867.13673973 -203086563.05056763 0 0 0 0 213228781.13085938 -185541589.45402145 0 -185541589.45402145 -8039860.5579833984 0 0 0 0 170851031.49273682 -135109612.28709412 0 -135109612.28709412 -65401705.425682068 0 0 0 0 142201905.19595337 -28754981.896575928 0 -28754981.896575928 9051585.411605835 0 0 0 0 118359902.19993591 -35970114.943502426 0 -35970114.943502426 11859477.592437744 0 0 0 0 179610169.62393188 -106973768.88269043 0 -106973768.88269043 4407858.5695800781 0 0 0 0 233872054.32263184 -70625689.031150818 0 -70625689.031150818 -15654496.885044098 0 0 0 0 323715778.8061676 6245629.200378418 0 6245629.200378418 -25624566.880409241 0 0 0 0 174627653.89376068 -97814326.805880547 0 -97814326.805880547 -61863657.819351196 0 0 0 0 201119818.75091553 -39453957.203887939 0 -39453957.203887939 -41247581.098788261 0 0 0 0 135095288.70861816 -32520545.829566956 0 -32520545.829566956 -35471218.819519043 0 0 0 0 187102445.96003723 -87964860.355522156 0 -87964860.355522156 -4658583.4652938843 0 0 0 0 248256203.74975586 -8012118.620010376 0 -8012118.620010376 -3083960.6676576138 0 0 0 0 675420.93028412759 -356993.81614287943 0 -356993.81614287943 -1827458.806610208 0 0 0 0 585961330.70220947 82253013.744129181 0 82253013.744129181 -100770702.04151154 0 0 0 0 275828860.09040833 12812391.754213333 0 12812391.754213333 32479183.336921692 0 0 0 0 -135764860.72229004 -240580691.92761993 0 -240580691.92761993 -210859584.24590683 0 0 0 0 -919504174.45956421 -585481186.16925049 0 -585481186.16925049 -104155216.81613159 0 0 0 0 -18723293.365318298 -298099861.17658043 0 -298099861.17658043 -212257816.00928497 0 0 0 0 -120151263.56109619 -304913599.29884338 0 -304913599.29884338 -28452756.672454834 0 0 0 0 -140412582.17538452 -208031132.08239365 0 -208031132.08239365 -173066341.69391251 0 0 0 0 -10470884.933517456 -309941949.77274513 0 -309941949.77274513 -214165093.28694916 0 0 0 0 -294852482.95524597 -341875601.21123219 0 -341875601.21123219 -191176793.01939392 0 0 0 0 2259067.6639474034 -809327.54720579833 0 -809327.54720579833 -5444442.0245675147 0 0 0 0 -23519317.33423996 55572279.453884125 0 55572279.453884125 120043202.80522919 0 0 0 0 44348120.307817459 36450475.416577339 0 36450475.416577339 97481555.100292206 0 0 0 0 37433996.844352722 85050752.682624817 0 85050752.682624817 119821202.81012821 0 0 0 0 98726000.057998657 179659078.10311508 0 179659078.10311508 121677399.00175476 0 0 0 0 81578391.703840256 65294031.783884048 0 65294031.783884048 81595523.924812317 0 0 0 0 107679241.81745148 38474598.002840042 0 38474598.002840042 59152138.528289795 0 0 0 0 64411348.895103455 63092365.114845276 0 63092365.114845276 82323514.66287899 0 0 0 0 144390290.91903782 84411973.52546978 0 84411973.52546978 63412727.219619751 0 0 0 0 46617445.842048004 -46298749.602220088 0 -46298749.602220088 -11516155.518361341 0 0 0 0 -276831667.61959839 -160616572.94145203 0 -160616572.94145203 -69819026.048881531 0 0 0 0 112698975.04308701 79186107.75334549 0 79186107.75334549 35776895.330780029 0 0 0 0 126012824.19334602 52523952.636148453 0 52523952.636148453 86482520.382324219 0 0 0 0 130482700.47156525 88753762.67370224 0 88753762.67370224 31453337.059577942 0 0 0 0 624218237.69433594 -761808556.3979187 0 -761808556.3979187 563472146.00183105 0 0 0 0 226721090.5306778 16454594.357715607 0 16454594.357715607 -7282739.0118560791 0 0 0 0 280737768.71963501 385825477.07632446 0 385825477.07632446 -686488181.89426994 0 0 0 0 546742639.04370117 -829745908.91529846 0 -829745908.91529846 489856649.22652054 0 0 0 0 1768396136.5545044 -471884685.07086182 0 -471884685.07086182 -1088410383.3975525 0 0 0 0 334471939.69207764 -244545423.26332855 0 -244545423.26332855 -96472293.058645248 0 0 0 0 78711266.696289062 -62282240.747329712 0 -62282240.747329712 -108715160.41067505 0 0 0 0 -294553987.54571533 119204294.52127838 0 119204294.52127838 -118679729.09409332 0 0 0 0 -59545916.602035522 -75539725.961154938 0 -75539725.961154938 -7291215.0556640625 0 0 0 0 64257776.729118347 -97520532.698865891 0 -97520532.698865891 -31547018.989700317 0 0 0 0 64967871.070922852 -101630550.90202713 0 -101630550.90202713 -10787786.923583984 0 0 0 0 -32033612.193008423 -99546228.760360718 0 -99546228.760360718 38616597.210777283 0 0 0 0 53568228.887512207 -78816639.399673462 0 -78816639.399673462 10688626.7122612 0 0 0 0 150929651.80166626 -83535403.938816071 0 -83535403.938816071 -9197820.6474723816 0 0 0 0 52390300.382148743 -72318524.03940773 0 -72318524.03940773 -24931839.269851685 0 0 0 0 -29328021.143139727 -43500000.376796775 0 -43500000.376796775 -8129707.7747531682 0 0 0 0 -31927058.048568726 -100426769.35113525 0 -100426769.35113525 -26066213.526398182 0 0 0 0 -84014041.914779663 -146858060.2542057 0 -146858060.2542057 -16113642.592178345 0 0 0 0 -37103745.978027344 -106390680.18342972 0 -106390680.18342972 -73130320.716884851 0 0 0 0 60152717.852770805 14353775.821827412 0 14353775.821827412 97723233.562545776 0 0 0 0 59877342.079883575 11258566.515008926 0 11258566.515008926 63121324.755313396 0 0 0 0 32671802.973881982 -40984556.889412351 0 -40984556.889412351 -9044677.0058931634 0 0 0 0 1377599915.9513779 785408811.6053772 0 785408811.6053772 -723180356.39403248 0 0 0 0 66669871.020862579 -52462599.050382614 0 -52462599.050382614 202553471.32717514 0 0 0 0 3950824896.3869781 -294947899.58010101 0 -294947899.58010101 -495028738.32980347 0 0 0 0 -1165712.016827058 -379718.14980647806 0 -379718.14980647806 426012.53178358078 0 0 0 0 -2045261381.9677124 -771173400.18922424 0 -771173400.18922424 575823892.28197861 0 0 0 0 -121870963.86447144 -447906715.64195251 0 -447906715.64195251 -366693402.25644302 0 0 0 0 195875647.57675171 -170551019.93152618 0 -170551019.93152618 -636296380.90468979 0 0 0 0 100554197.77737045 -125031516.92196178 0 -125031516.92196178 -66262292.793449402 0 0 0 0 -57413724.622383118 -1031742115.500618 0 -1031742115.500618 412895432.8429451 0 0 0 0 481129371.71454048 4875134.9021930695 0 4875134.9021930695 -124769000.13802338 0 0 0 0 22469901.029994771 73651.386906653643 0 73651.386906653643 -4670954.8990449831 0 0 0 0 -36815526.082500458 -152645683.73030281 0 -152645683.73030281 -176381800.91797447 0 0 0 0 -3242139.7807579041 -79613282.057666779 0 -79613282.057666779 -254337643.86937714 0 0 0 0 -94029244.926307678 -98156304.568153381 0 -98156304.568153381 -78090778.506530762 0 0 0 0 -101326460.9025898 -169149691.76740551 0 -169149691.76740551 -77097516.441268921 0 0 0 0 69727032.673881531 -190402727.84012604 0 -190402727.84012604 -116525380.51789856 0 0 0 0 -311530917.20654297 -276946577.67300606 0 -276946577.67300606 -1347574.7897262573 0 0 0 0 -105688718.88187408 -160811315.78400707 0 -160811315.78400707 -24459720.50201416 0 0 0 0 -150052388.23828888 -184015166.51685715 0 -184015166.51685715 -17011823.87260437 0 0 0 0 -219028334.27203751 -156646227.35185623 0 -156646227.35185623 62274799.033195496 0 0 0 0 -67366793.013656616 -54157877.141716003 0 -54157877.141716003 8665228.8268127441 0 0 0 0 3395925.500917621 -4656252.7237685993 0 -4656252.7237685993 -2327072.0483757593 0 0 0 0 -198058902.95677185 -132159391.08366394 0 -132159391.08366394 64968011.15883255 0 0 0 0 -118999360.94023514 -48294234.846103668 0 -48294234.846103668 128133001.54463959 0 0 0 0 -14890758.592704773 33049886.632852554 0 33049886.632852554 89536941.438705444 0 0 0 0 142411474.95851135 -15909465.83656311 0 -15909465.83656311 -33524264.206154346 0 0 0 0 89409207.174102783 -17149775.874755859 0 -17149775.874755859 -33462505.956619263 0 0 0 0 -95333700.474136353 -82044955.302363396 0 -82044955.302363396 -10880730.254852295 0 0 0 0 -10093967.27796936 -20736945.927772522 0 -20736945.927772522 -90615810.43926239 0 0 0 0 -44378827.167617798 14895285.818618774 0 14895285.818618774 -84239906.565732002 0 0 0 0 -25520676.379348755 -24742735.933174133 0 -24742735.933174133 -43626859.593817711 0 0 0 0 -3942495.8494377136 -59008303.993233681 0 -59008303.993233681 -39737974.622894287 0 0 0 0 117916320.02562714 -85884239.617527008 0 -85884239.617527008 -44740325.291740417 0 0 0 0 79008855.176803589 -65004339.89414978 0 -65004339.89414978 -37383357.478954315 0 0 0 0 14402063.255365737 -23318499.84851937 0 -23318499.84851937 -4735664.2356990092 0 0 0 0 127413602.21260071 -84178088.882860184 0 -84178088.882860184 -45005127.769622803 0 0 0 0 19419577.052650709 -16720452.311502296 0 -16720452.311502296 -13404798.582459539 0 0 0 0 146874528.53618622 -63438608.718818665 0 -63438608.718818665 -41437724.759876251 0 0 0 0 86088519.245605469 -80023815.710289001 0 -80023815.710289001 -43384752.510154724 0 0 0 0 291497589.24840546 70291855.987911224 0 70291855.987911224 -94520194.121677399 0 0 0 0 -270123909.61334991 -445936473.08976173 0 -445936473.08976173 157804479.97553253 0 0 0 0 100433987.21884155 -126128005.79193878 0 -126128005.79193878 25439096.352548599 0 0 0 0 57851393.454223633 -134588674.80358887 0 -134588674.80358887 23777680.602836609 0 0 0 0 73664721.400146484 -101231911.07413864 0 -101231911.07413864 20174624.038238525 0 0 0 0 -33845740.987646744 -38053669.782272242 0 -38053669.782272242 -1875195.2372599989 0 0 0 0 75818351.8138237 -159005186.70436478 0 -159005186.70436478 59105369.613647461 0 0 0 0 62997552.091956079 -60495552.086630516 0 -60495552.086630516 -21965713.280773982 0 0 0 0 10028872.703659058 -77752530.796461105 0 -77752530.796461105 34463920.209739685 0 0 0 0 -20612279.199934006 -21603977.709009171 0 -21603977.709009171 75155560.477592468 0 0 0 0 -28651534.411277771 -32870675.427462578 0 -32870675.427462578 205547932.43769836 0 0 0 0 45881244.664886475 -120578813.73278427 0 -120578813.73278427 122511360.67040634 0 0 0 0 6881918.2020568848 -73517913.213478088 0 -73517913.213478088 90623429.612998962 0 0 0 0 26549860.648956299 -74492060.626041412 0 -74492060.626041412 -2921705.0565643311 0 0 0 0 69523153.900726318 -97576475.424503326 0 -97576475.424503326 -21591196.893291473 0 0 0 0 63162750.40725708 -122161230.67758942 0 -122161230.67758942 49131382.304851532 0 0 0 0 75818301.007831573 -100763450.98679733 0 -100763450.98679733 30180760.494483948 0 0 0 0 128454979.32098389 -127954554.11836624 0 -127954554.11836624 -15418236.856628418 0 0 0 0 66202834.771728516 -65353045.361724854 0 -65353045.361724854 -58905475.670967102 0 0 0 0 130370701.06555176 -65271253.013717651 0 -65271253.013717651 -82098827.523086548 0 0 0 0 72229119.067321777 -7607228.6572494507 0 -7607228.6572494507 -121320450.59877014 0 0 0 0 135973778.80968666 -48799476.314186096 0 -48799476.314186096 -61971809.898681641 0 0 0 0 98916768.041809082 -260993484.24319839 0 -260993484.24319839 428011300.93302536 0 0 0 0 239642569.121521 -126812862.50852585 0 -126812862.50852585 -21014634.972351074 0 0 0 0 -9057634.7657012939 -82878044.267147064 0 -82878044.267147064 289111836.18350983 0 0 0 0 232490031.88653564 -183142436.94295502 0 -183142436.94295502 66969786.95721817 0 0 0 0 159241822.14855957 -115232442.46809387 0 -115232442.46809387 48786087.181381226 0 0 0 0 48215184.477264404 -112952740.85678101 0 -112952740.85678101 146275214.36181259 0 0 0 0 152643841.99057007 -177669570.97293854 0 -177669570.97293854 86264107.489753723 0 0 0 0 127659947.36962891 -233934793.70476532 0 -233934793.70476532 269596709.23987579 0 0 0 0 264118531.21372986 -205562963.04338455 0 -205562963.04338455 72138272.479187012 0 0 0 0 706921462.2300415 -639460982.9647522 0 -639460982.9647522 125896522.34859085 0 0 0 0 631676165.30700684 72119734.105209351 0 72119734.105209351 -310786982.02536774 0 0 0 0 1436493910.8733826 -427604186.38916779 0 -427604186.38916779 -886155103.14527893 0 0 0 0 46176663.447662354 348052623.52030945 0 348052623.52030945 -245461674.26347351 0 0 0 0 1517210229.692337 80135488.361557961 0 80135488.361557961 -1445990110.4206848 0 0 0 0 560452676.67459488 623888769.4077034 0 623888769.4077034 -936532509.73190308 0 0 0 0 271542310.96090698 115545105.62055969 0 115545105.62055969 -25036374.305679321 0 0 0 0 136513626.27020264 98682578.869003296 0 98682578.869003296 -22042012.306718826 0 0 0 0 193282055.72244263 -29010212.220863342 0 -29010212.220863342 -80127283.327709198 0 0 0 0 411424991.62463379 188451778.39463043 0 188451778.39463043 -370699925.32726288 0 0 0 0 506901105.29743958 -155695164.31541443 0 -155695164.31541443 -37187109.765655518 0 0 0 0 101282361.29328918 -15756087.233886719 0 -15756087.233886719 -69645881.03679657 0 0 0 0 238774800.28251648 15090317.24640274 0 15090317.24640274 -62831097.022659302 0 0 0 0 137776669.30659199 17194898.536517143 0 17194898.536517143 -155825417.54924011 0 0 0 0 62366116.717498779 -59072070.406147003 0 -59072070.406147003 -195833479.0386734 0 0 0 0 96026697.988578796 60606505.266704559 0 60606505.266704559 -20131304.053863525 0 0 0 0 90676407.950737 52682153.758625984 0 52682153.758625984 -13504336.281723022 0 0 0 0 -70413805.416091919 -33292400.532880783 0 -33292400.532880783 112865503.2631073 0 0 0 0 -17364035.507522583 118027016.01968765 0 118027016.01968765 175918825.47489929 0 0 0 0 153129768.60892296 91663067.362026215 0 91663067.362026215 -120972650.21294785 0 0 0 0 -728626625.69376755 -577536496.5804081 0 -577536496.5804081 637219090.49416924 0 0 0 0 -668006677.771698 605238338.68635941 0 605238338.68635941 594025312.08837891 0 0 0 0 7033810.1557252258 -6412363.04459887 0 -6412363.04459887 -2217541.844880871 0 0 0 0 248289.55619828403 1582715.2716898518 0 1582715.2716898518 -803801.31079001725 0 0 0 0 80304459.916740417 224470417.44124889 0 224470417.44124889 61890800.568984985 0 0 0 0 98332764.182891846 -269003935.14993286 0 -269003935.14993286 -696566517.29677105 0 0 0 0 -452470.32983934879 -2828987.5189614967 0 -2828987.5189614967 -101715.72251953464 0 0 0 0 -372269428.33404541 174661076.22803497 0 174661076.22803497 1180925622.7489586 0 0 0 0 -170044040.05908203 -420631512.01298141 0 -420631512.01298141 -260899933.78846741 0 0 0 0 -222171970.16452026 -208367468.63409042 0 -208367468.63409042 240158647.44753265 0 0 0 0 28099965.714927673 -266638341.62945366 0 -266638341.62945366 -19974987.090339661 0 0 0 0 -205867886.9670105 -368029052.81860352 0 -368029052.81860352 643507123.35076904 0 0 0 0 139605035.03210449 -351935099.88310051 0 -351935099.88310051 -402054815.46594238 0 0 0 0 113030354.46780396 394330178.60059738 0 394330178.60059738 158739498.47465134 0 0 0 0 405814243.14047241 -117913269.04326248 0 -117913269.04326248 -193860565.95152283 0 0 0 0 232020595.19030762 -289351369.2052002 0 -289351369.2052002 -306966028.17502594 0 0 0 0 -371246711.61172485 -638195173.64527893 0 -638195173.64527893 155732449.94000626 0 0 0 0 120909087.74028015 -106691627.19919968 0 -106691627.19919968 17764625.28768158 0 0 0 0 153698418.84429169 -92714517.770407677 0 -92714517.770407677 -53314316.07711792 0 0 0 0 276190895.87393188 -158289110.68064117 0 -158289110.68064117 -18927252.19506073 0 0 0 0 118168166.4942627 -147979669.02521515 0 -147979669.02521515 43619329.849006653 0 0 0 0 -159983345.96052551 -233741280.50792885 0 -233741280.50792885 606514773.88885498 0 0 0 0 -91304901.437316895 -172892805.05477905 0 -172892805.05477905 -121893546.23622036 0 0 0 0 -2776936.0080986619 -19935929.919465885 0 -19935929.919465885 1550822.6072537731 0 0 0 0 -42231181.31058979 -167680511.47933674 0 -167680511.47933674 -211298454.78116608 0 0 0 0 -400521088.80377197 -210870316.49997711 0 -210870316.49997711 526574468.95910645 0 0 0 0 -207046807.40454102 34180065.507698059 0 34180065.507698059 105460941.42927551 0 0 0 0 17571632.30859375 -124896929.762146 0 -124896929.762146 -231009245.70947647 0 0 0 0 -18055675.040068582 -37704116.571479954 0 -37704116.571479954 -9978794.2225942947 0 0 0 0 303828646.60690308 -38576869.117630005 0 -38576869.117630005 -376373247.92503357 0 0 0 0 134646740.40167236 -191621323.50055695 0 -191621323.50055695 52175743.137440681 0 0 0 0 12568524.733554915 -4513859.6176000088 0 -4513859.6176000088 -6770387.2506471388 0 0 0 0 23752557.907726288 -77848144.283146858 0 -77848144.283146858 1426683.8145294189 0 0 0 0 5993224.2950286865 -83536151.348461151 0 -83536151.348461151 35223124.044673443 0 0 0 0 18025196.461795807 -97165042.003069878 0 -97165042.003069878 12722766.930404663 0 0 0 0 25819020.419006348 -25553894.756843567 0 -25553894.756843567 -4196835.9861698151 0 0 0 0 24253941.020240784 -39055842.215208054 0 -39055842.215208054 265211148.40090942 0 0 0 0 133145384.47433472 -253514331.06938934 0 -253514331.06938934 184672892.03961563 0 0 0 0 -24167308.568926834 -29518773.656851072 0 -29518773.656851072 -836592.86480855197 0 0 0 0 -66863620.276275635 -463659270.00989532 0 -463659270.00989532 443285931.96380997 0 0 0 0 -22116668.862467818 -26446383.290285192 0 -26446383.290285192 3352330.7965208143 0 0 0 0 15363701.961425781 -75839966.9845047 0 -75839966.9845047 297337561.67610931 0 0 0 0 -89566983.269866943 17943098.929508209 0 17943098.929508209 437747411.80058098 0 0 0 0 -6013273.6186231226 -9987013.4483482465 0 -9987013.4483482465 2490389.8226942811 0 0 0 0 -143074492.71918488 -87955136.174481392 0 -87955136.174481392 402089824.37652588 0 0 0 0 -21498078.352416992 -160707067.14156342 0 -160707067.14156342 85505637.68196106 0 0 0 0 -59637161.244796753 -75117270.854564667 0 -75117270.854564667 52025301.705688477 0 0 0 0 -112665252.45735168 -82919686.679134369 0 -82919686.679134369 54496718.722724915 0 0 0 0 -34205057.045648575 -57156923.041639805 0 -57156923.041639805 -312295267.66746521 0 0 0 0 -23422544.78729248 -226893611.77832794 0 -226893611.77832794 -197022121.14356995 0 0 0 0 -48838232.673858643 -201049669.71386719 0 -201049669.71386719 122835616.85814095 0 0 0 0 -58337653.87322998 9190614.9678459167 0 9190614.9678459167 251482398.47636032 0 0 0 0 -12645348.797784805 -93780765.70848918 0 -93780765.70848918 -5903909.8787841797 0 0 0 0 -13854549.989285469 -120414185.5043174 0 -120414185.5043174 164798339.43417358 0 0 0 0 -11069010.165927559 -7258641.7281342717 0 -7258641.7281342717 4123234.3209991194 0 0 0 0 -11337463.084121704 -43580083.394327164 0 -43580083.394327164 40307164.804656982 0 0 0 0 -1816525.6427612305 -5294617.107925415 0 -5294617.107925415 6183452.9165349007 0 0 0 0 -693598.57363891602 -5838815.370475769 0 -5838815.370475769 5480668.2156600952 0 0 0 0 -414548.21153259277 -7031990.5768346786 0 -7031990.5768346786 21945259.269309998 0 0 0 0 -7514309.9961395264 -19545242.069209099 0 -19545242.069209099 39695777.271255493 0 0 0 0 -1528610.8422806039 -4664177.3410967663 0 -4664177.3410967663 8628700.2453538887 0 0 0 0 381566.23979984224 -7685315.2559444569 0 -7685315.2559444569 -1634195.3291285255 0 0 0 0 4196409.8606262207 -16905514.164157867 0 -16905514.164157867 -7002748.3148419857 0 0 0 0 -1550529.4849395752 -9147053.8001899719 0 -9147053.8001899719 8124485.8006439209 0 0 0 0 -17980126.651824951 16361457.466209412 0 16361457.466209412 51526783.924034119 0 0 0 0 -25144967.409156799 -19800858.137868881 0 -19800858.137868881 16265924.681167603 0 0 0 0 -5928774.9647633135 -18013228.056583915 0 -18013228.056583915 -1233877.9686200991 0 0 0 0 15887917.722167969 -48075945.434562683 0 -48075945.434562683 -68070358.561035156 0 0 0 0 4017165.4582443237 -15823633.717468262 0 -15823633.717468262 -4949039.7321777344 0 0 0 0 -2739998.6040178388 -22298768.383057259 0 -22298768.383057259 -6012206.6635408551 0 0 0 0 3110910.3072509766 -20863154.786647797 0 -20863154.786647797 -27621052.815731049 0 0 0 0 15714594.896320924 -29166329.177434601 0 -29166329.177434601 -905287.99102554284 0 0 0 0 -513550.29414367676 -21958295.491512299 0 -21958295.491512299 -20056945.558422089 0 0 0 0 25553157.222229004 -80641233.687072754 0 -80641233.687072754 -32109228.612960815 0 0 0 0 1750025.6415710449 -27610877.198947906 0 -27610877.198947906 -21346595.039926529 0 0 0 0 -2113004.7471313477 -76716962.715881348 0 -76716962.715881348 3227627.7205238342 0 0 0 0 11019039.173658371 2035837.9487416744 0 2035837.9487416744 25708302.602210999 0 0 0 0 4348519.7386212349 -13961091.031085553 0 -13961091.031085553 -3523624.7163217496 0 0 0 0 55602747.84085083 -9761691.9449462891 0 -9761691.9449462891 -39134016.702321053 0 0 0 0 -28015559.23248291 -60375858.231117249 0 -60375858.231117249 50908746.749148369 0 0 0 0 178841.70293547213 -3119884.8738448564 0 -3119884.8738448564 -555009.8821698447 0 0 0 0 39731197.671234131 -44337542.229251862 0 -44337542.229251862 29737870.047013521 0 0 0 0 3911203.8906097412 -24875949.366744995 0 -24875949.366744995 -36873880.972393036 0 0 0 0 -1435367.5571594238 -30563683.989902496 0 -30563683.989902496 -6162009.0268802643 0 0 0 0 45650630.735046387 -20133084.500522614 0 -20133084.500522614 -12682195.868890762 0 0 0 0 -13922980.127212524 4266300.5425767899 0 4266300.5425767899 -24987796.460189819 0 0 0 0 26103501.105422974 -47736476.914776325 0 -47736476.914776325 34673446.43447113 0 0 0 0 62645178.050384521 9527893.9732532501 0 9527893.9732532501 -8691531.3328475952 0 0 0 0 77955513.189228058 -30477023.983361483 0 -30477023.983361483 12299634.437347412 0 0 0 0 41820966.878814697 -42462018.507637024 0 -42462018.507637024 14704044.402006149 0 0 0 0 77987307.433982849 -26582892.467972279 0 -26582892.467972279 63368227.085056305 0 0 0 0 156308593.78210449 -14251544.712579727 0 -14251544.712579727 6069872.787229538 0 0 0 0 105671257.40541077 -77499514.766605377 0 -77499514.766605377 11127012.404821396 0 0 0 0 -1588497.6419035271 -1582695.3883162513 0 -1582695.3883162513 1254307.9659792967 0 0 0 0 74875697.240020752 -64001098.522899628 0 -64001098.522899628 51346366.927230835 0 0 0 0 75083517.293014526 -70554985.461892128 0 -70554985.461892128 18324668.600463867 0 0 0 0 24102133.709564209 -62582045.045148849 0 -62582045.045148849 17681109.785279751 0 0 0 0 46796758.255661011 -38063090.143383503 0 -38063090.143383503 6768572.5569419861 0 0 0 0 7908935.4838256836 -46545432.616052628 0 -46545432.616052628 12588561.550507545 0 0 0 0 12058637.141365051 -39283004.956437111 0 -39283004.956437111 -29233011.168094635 0 0 0 0 22009060.524139404 -33077393.237136841 0 -33077393.237136841 -191262.56331825256 0 0 0 0 -35046161.872344971 -27850252.870213509 0 -27850252.870213509 5228553.7311663628 0 0 0 0 -3396504.6469345093 -3305897.5192914009 0 -3305897.5192914009 -26365801.064504623 0 0 0 0 -11336067.283752441 -7424403.5701007843 0 -7424403.5701007843 -3779252.5887184143 0 0 0 0 -11031023.138652802 -7357347.5336785316 0 -7357347.5336785316 -14322579.957538605 0 0 0 0 -6600545.556640625 -796372.22487449646 0 -796372.22487449646 -15341828.551971436 0 0 0 0 -10024648.103546143 -10384212.798625946 0 -10384212.798625946 -22577527.234819412 0 0 0 0 483990.93328857422 -6474845.0685844421 0 -6474845.0685844421 5833092.8871078491 0 0 0 0 -10190884.844429016 -7453846.5770255923 0 -7453846.5770255923 -14485716.806655884 0 0 0 0 -2843588.1329533458 -9063379.4601641931 0 -9063379.4601641931 -1268237.9175364128 0 0 0 0 22523225.235671997 -7914732.1854515076 0 -7914732.1854515076 24928051.359481812 0 0 0 0 152011.93571989238 -365493.75492401794 0 -365493.75492401794 866823.88475801051 0 0 0 0 -2818460.8436279297 -2002834.3487701416 0 -2002834.3487701416 31152580.549362183 0 0 0 0 -3826344.121220082 -12692944.862092195 0 -12692944.862092195 -4374315.2343946695 0 0 0 0 -2450226.723186776 -17183.467088460922 0 -17183.467088460922 11092024.775357552 0 0 0 0 5055248.8635253906 -26624085.785820007 0 -26624085.785820007 36150674.694505692 0 0 0 0 810456.1830407083 -14657216.679234186 0 -14657216.679234186 -4982627.6453163512 0 0 0 0 -3893901.0539855957 -10660321.586876869 0 -10660321.586876869 -31674681.396953583 0 0 0 0 -21883660.587890625 -5834996.996591568 0 -5834996.996591568 -37468930.440522194 0 0 0 0 -1296913.5922745466 -2334045.036061991 0 -2334045.036061991 -1710558.3597149514 0 0 0 0 -18691834.358154297 -21213654.5235672 0 -21213654.5235672 63790015.872095108 0 0 0 0 31440509.181125641 -29773210.221125484 0 -29773210.221125484 6337776.2760586739 0 0 0 0 30323334.625297546 -26034888.481689751 0 -26034888.481689751 4626319.4679222107 0 0 0 0 71721197.985027313 -66903300.554113388 0 -66903300.554113388 38109288.669403076 0 0 0 0 56790572.749158859 -32737544.339539528 0 -32737544.339539528 -38088934.033821106 0 0 0 0 32246498.703033447 -23947668.966053426 0 -23947668.966053426 -2760485.1509549618 0 0 0 0 34714289.029378273 -21578739.311305687 0 -21578739.311305687 -6519338.6376468651 0 0 0 0 15695201.989822388 35004824.110164642 0 35004824.110164642 -114754502.97906494 0 0 0 0 7646571.9514220692 -4670024.3927293345 0 -4670024.3927293345 1982689.0687138103 0 0 0 0 37587673.408905029 130951893.58322906 0 130951893.58322906 -236752222.13337898 0 0 0 0 65162950.25315094 -10431709.804412842 0 -10431709.804412842 -120680650.17375183 0 0 0 0 42714938.223356225 -21589764.576830216 0 -21589764.576830216 -14583772.756944101 0 0 0 0 29470080.394165039 -23380468.85012722 0 -23380468.85012722 5410237.935312748 0 0 0 0 33154939.259796143 -27440390.782426834 0 -27440390.782426834 1295902.9510354996 0 0 0 0 108216312.63909912 -61282275.361021042 0 -61282275.361021042 30384508.468179703 0 0 0 0 7201461.1546873823 -15310342.053407319 0 -15310342.053407319 4516621.4429935245 0 0 0 0 87906519.121078491 -65885714.161840439 0 -65885714.161840439 -10134426.311971664 0 0 0 0 107804761.33874512 -66942491.655158997 0 -66942491.655158997 23114947.61523056 0 0 0 0 1726534.4313796312 2648854.9077484701 0 2648854.9077484701 -2815465.9240327943 0 0 0 0 87617428.667266846 -78968534.065573692 0 -78968534.065573692 51567515.248086929 0 0 0 0 46399866.122497559 8029894.9891052246 0 8029894.9891052246 -134087713.04279709 0 0 0 0 102477585.26904678 -74734969.937933922 0 -74734969.937933922 -92476740.621124268 0 0 0 0 33100629.63388443 -44693306.351680756 0 -44693306.351680756 -104302592.22283936 0 0 0 0 74882754.99671936 -68579141.553638458 0 -68579141.553638458 -119019185.55249023 0 0 0 0 24822569.774844334 -17731360.469197005 0 -17731360.469197005 -6858410.6101865666 0 0 0 0 18441859.903429031 -32264229.564499855 0 -32264229.564499855 -77117287.336975098 0 0 0 0 14280604.124166965 -36731487.103754342 0 -36731487.103754342 -15179453.510587692 0 0 0 0 10497091.398435488 -17885058.464098707 0 -17885058.464098707 -1733791.6423454052 0 0 0 0 -27909808.159301758 -22582476.076828003 0 -22582476.076828003 58717416.701889038 0 0 0 0 98529012.477752686 -130219752.01379871 0 -130219752.01379871 26497072.549969196 0 0 0 0 83476185.394393921 -38973390.3974967 0 -38973390.3974967 -45747229.847975254 0 0 0 0 -133845158.94052124 -25275513.357995987 0 -25275513.357995987 79849922.552480698 0 0 0 0 173914252.49771118 -111424724.24573708 0 -111424724.24573708 -11674913.066886902 0 0 0 0 618324.96925150976 649595.22645023465 0 649595.22645023465 -704794.2746065883 0 0 0 0 -64422580.222366333 -39786363.943586349 0 -39786363.943586349 61469483.819705009 0 0 0 0 2297181.1813674048 -12237429.727187831 0 -12237429.727187831 -1863918.9757616697 0 0 0 0 27565704.093856812 -39126557.637285233 0 -39126557.637285233 15052671.835787058 0 0 0 0 29305822.065658569 -22025544.232515097 0 -22025544.232515097 10448257.591495872 0 0 0 0 2938866.1996474564 -12004283.532535061 0 -12004283.532535061 -521950.20114767551 0 0 0 0 32883455.772518158 -32063513.798323572 0 -32063513.798323572 7596772.6215319633 0 0 0 0 31232250.428733826 -26016973.934062719 0 -26016973.934062719 20453391.518609285 0 0 0 0 23058317.420412369 -11307213.134219078 0 -11307213.134219078 -9455693.536809925 0 0 0 0 31741282.652398109 -34037622.985610306 0 -34037622.985610306 21636282.677044868 0 0 0 0 15650482.07359314 20145512.859422684 0 20145512.859422684 -76849423.422439575 0 0 0 0 -594551261.50695801 -56826526.163139343 0 -56826526.163139343 72494607.559492588 0 0 0 0 -214711588.90339661 -135948474.11828423 0 -135948474.11828423 -188528303.57926941 0 0 0 0 -225692352.66227722 56354647.595628738 0 56354647.595628738 -23316031.11328125 0 0 0 0 -268515981.36392212 61671622.074630737 0 61671622.074630737 78536366.134541512 0 0 0 0 -128309970.0526123 194637602.81361961 0 194637602.81361961 -155782387.13987732 0 0 0 0 7036305.1989898682 35166224.646118164 0 35166224.646118164 -21577964.504241943 0 0 0 0 18676486.306448579 -10491738.419242477 0 -10491738.419242477 -12433232.545350568 0 0 0 0 32666332.59375 -43005780.633751392 0 -43005780.633751392 32722151.805352211 0 0 0 0 -46208674.138328552 -34221003.393480301 0 -34221003.393480301 7889823.8685874939 0 0 0 0 -36318390.099094391 9213685.0115251541 0 9213685.0115251541 -4545255.830657959 0 0 0 0 -42561525.441436768 -13911902.923603058 0 -13911902.923603058 -90191419.532020569 0 0 0 0 -73727658.51348877 26635452.607589722 0 26635452.607589722 -80497719.604653358 0 0 0 0 21614130.792778015 -11156684.125391006 0 -11156684.125391006 -34527215.530506134 0 0 0 0 34730282.616078377 -28377684.774309218 0 -28377684.774309218 28825607.897132874 0 0 0 0 22294420.685703278 -21109591.562445521 0 -21109591.562445521 20287008.19183445 0 0 0 0 40272646.952194214 -40540237.747765779 0 -40540237.747765779 16911098.223457336 0 0 0 0 28341884.677642822 -49862119.355664253 0 -49862119.355664253 43822944.969531059 0 0 0 0 16117275.290427536 -11266415.743425718 0 -11266415.743425718 -14588394.888093337 0 0 0 0 14916587.42330265 15845979.916515112 0 15845979.916515112 -71399116.584648132 0 0 0 0 31143492.701858521 -52339267.051031113 0 -52339267.051031113 -43513362.743133545 0 0 0 0 -68964497.094558716 -16270966.732730865 0 -16270966.732730865 104435483.34388638 0 0 0 0 -18512420.058542252 -26068262.946042538 0 -26068262.946042538 7906250.3832321167 0 0 0 0 -3093233.9974507391 -715228.62098046951 0 -715228.62098046951 -4239563.3531347094 0 0 0 0 -8090450.578338623 -3315275.3949050903 0 -3315275.3949050903 -86784270.309341431 0 0 0 0 -76667070.916442871 14547314.004699707 0 14547314.004699707 -40364853.860033035 0 0 0 0 -1987604.1549671292 -589967.81228781212 0 -589967.81228781212 -2533183.8340636203 0 0 0 0 24098836.142929077 29052080.309789658 0 29052080.309789658 60730988.547416687 0 0 0 0 -51299605.728866577 68872292.800086021 0 68872292.800086021 43508023.220367432 0 0 0 0 64637383.374938965 73483246.204792023 0 73483246.204792023 -16820788.845657349 0 0 0 0 36299496.408138275 -166999443.90141582 0 -166999443.90141582 86820973.758674622 0 0 0 0 90011528.926849365 27384289.199474335 0 27384289.199474335 4501538.1462631226 0 0 0 0 -1479958.8004713133 -1746485.2809428424 0 -1746485.2809428424 3796644.1015320905 0 0 0 0 14535742.878990173 -180617392.03604507 0 -180617392.03604507 97873157.26720047 0 0 0 0 36208578.241485596 -193183491.90988159 0 -193183491.90988159 101526851.34605408 0 0 0 0 -188035393.66229248 301439020.5358429 0 301439020.5358429 72338453.203552246 0 0 0 0 -114186995.46695328 -254235816.10344028 0 -254235816.10344028 100166392.6038208 0 0 0 0 -258194337.18920898 -111557648.89300537 0 -111557648.89300537 -19473200.846809387 0 0 0 0 -23794.76517111063 15975.394751995802 0 15975.394751995802 35510.0146570988 0 0 0 0 93918246.287475586 27733484.451084137 0 27733484.451084137 -158002316.84960175 0 0 0 0 -439176.35982796177 -584176.61632849276 0 -584176.61632849276 1475.5867169983685 0 0 0 0 -928645863.23327637 177429022.69911194 0 177429022.69911194 -30720619.938310623 0 0 0 0 -1071021575.5037231 -181393057.87526131 0 -181393057.87526131 123458102.13931274 0 0 0 0 39254291.912109375 -53686291.1653862 0 -53686291.1653862 5722012.3843250275 0 0 0 0 27734605.249633789 -54891116.343910217 0 -54891116.343910217 22098705.716400146 0 0 0 0 17078918.062683105 -79324642.24477005 0 -79324642.24477005 -15860648.97209549 0 0 0 0 153316044.53997803 -8481972.4267730713 0 -8481972.4267730713 -56414530.345375061 0 0 0 0 -2400108.8039097041 7930.7097470238805 0 7930.7097470238805 391131.18090444058 0 0 0 0 -52414794.002868652 -70801993.633506775 0 -70801993.633506775 14908086.440988541 0 0 0 0 -26478039.812255859 27215857.762619019 0 27215857.762619019 -18187906.852367401 0 0 0 0 52935974.682907104 -26392992.062349319 0 -26392992.062349319 1004590.5487518311 0 0 0 0 6867534.2079925537 -5466687.5384578705 0 -5466687.5384578705 -8499569.6163425446 0 0 0 0 18210871.491039276 -43681016.045737743 0 -43681016.045737743 17376204.980007172 0 0 0 0 34318939.869522095 -51715134.079354286 0 -51715134.079354286 12875780.552669525 0 0 0 0 73485920.521377563 -39963378.749101639 0 -39963378.749101639 22450553.004886627 0 0 0 0 48113728.372039795 -66815466.217933655 0 -66815466.217933655 23187383.611428767 0 0 0 0 -6026006.8678165823 -13008603.05010841 0 -13008603.05010841 11612021.512412116 0 0 0 0 5106503.2375746667 -7764121.0474680737 0 -7764121.0474680737 -8380648.5033991877 0 0 0 0 15710308.098271981 -13586808.94305015 0 -13586808.94305015 -17212631.622640077 0 0 0 0 35828511.416641235 -34851562.116718054 0 -34851562.116718054 10384404.203086853 0 0 0 0 14280808.761657715 -28327895.890043736 0 -28327895.890043736 39874559.626630783 0 0 0 0 29023202.917114258 -48050033.176778793 0 -48050033.176778793 43933815.141931057 0 0 0 0 40260946.458465576 -47362364.771226883 0 -47362364.771226883 9397763.1159896851 0 0 0 0 -4930715.4766326211 -15617878.815925404 0 -15617878.815925404 16087885.152993847 0 0 0 0 12946183.822723389 -21774175.235346869 0 -21774175.235346869 32746182.356023222 0 0 0 0 7570661.8636146784 -7741988.1724227518 0 -7741988.1724227518 -16440901.86332182 0 0 0 0 31690919.857551575 -33615008.715001076 0 -33615008.715001076 7107591.001390934 0 0 0 0 16936706.265235901 -33746313.099771023 0 -33746313.099771023 27996822.3060112 0 0 0 0 66509737.733917236 17405669.998519897 0 17405669.998519897 -74274171.496482849 0 0 0 0 5742902.8758688159 -22859182.636334606 0 -22859182.636334606 4547410.3968766443 0 0 0 0 1011682.7752847075 591895.71386174113 0 591895.71386174113 -2573852.4014063999 0 0 0 0 10623475.623203278 -21420560.311822057 0 -21420560.311822057 -40944383.76524353 0 0 0 0 -31777319.374450684 -16732706.710624695 0 -16732706.710624695 -4026823.5850219727 0 0 0 0 -1836551.2141723633 -14589840.849887848 0 -14589840.849887848 -44649812.21162796 0 0 0 0 -3690848.292573154 -1644221.2681402247 0 -1644221.2681402247 -8941654.9376840722 0 0 0 0 399323.49279785156 4596688.4086074829 0 4596688.4086074829 -46082977.763786316 0 0 0 0 3618814.0762634277 -43773644.240478516 0 -43773644.240478516 32482186.195206642 0 0 0 0 9931217.0118560791 -11851735.530677795 0 -11851735.530677795 3134867.361995697 0 0 0 0 594712.94504132122 -11429689.687300906 0 -11429689.687300906 -4481815.9748100303 0 0 0 0 9611096.5926818848 -21063187.8910923 0 -21063187.8910923 31088913.09318161 0 0 0 0 5097357.8232313544 -4753526.8548612716 0 -4753526.8548612716 -15393985.1315208 0 0 0 0 5572483.0397949219 -10383758.73727417 0 -10383758.73727417 8371257.9884395599 0 0 0 0 2850675.0180407837 -7737900.6420711167 0 -7737900.6420711167 614295.26963926852 0 0 0 0 3184342.852194678 -10835797.356623746 0 -10835797.356623746 1087722.0363462325 0 0 0 0 17374354.335952759 -23887682.801620483 0 -23887682.801620483 -8072861.375793457 0 0 0 0 521920.85816587508 -1445040.2461971659 0 -1445040.2461971659 -2787013.3321547946 0 0 0 0 -1995809.4874267578 -29143119.75983429 0 -29143119.75983429 38321812.109380722 0 0 0 0 16183008.287719727 -8862362.4302186966 0 -8862362.4302186966 -28827713.990687132 0 0 0 0 -36531140.033935547 -32143088.001161575 0 -32143088.001161575 41553249.014286041 0 0 0 0 -40816778.660805702 -79126082.726809978 0 -79126082.726809978 145384386.50427246 0 0 0 0 -499787.0047628358 -12815030.757168267 0 -12815030.757168267 -5144725.0615890566 0 0 0 0 46468008.53024292 -129472041.23971939 0 -129472041.23971939 47268806.842998505 0 0 0 0 -30768249.23840332 -14346452.09280777 0 -14346452.09280777 35204912.127418518 0 0 0 0 -37324449.726402283 -88636033.510158539 0 -88636033.510158539 86886994.542156219 0 0 0 0 -1850372.8696508855 301459.10661016405 0 301459.10661016405 1079993.7946355734 0 0 0 0 89302714.025360107 30452111.003650665 0 30452111.003650665 -70789433.54510498 0 0 0 0 2859325.896500349 -19938699.271640413 0 -19938699.271640413 -6853032.4767879564 0 0 0 0 35152516.492370605 -36837827.375904083 0 -36837827.375904083 -9101852.6334953308 0 0 0 0 4313350.1642670557 -23944854.063763257 0 -23944854.063763257 1583149.7825108878 0 0 0 0 5844923.6870422363 -56410707.909534931 0 -56410707.909534931 -2860430.2069404125 0 0 0 0 17852724.433929443 -100108265.84843969 0 -100108265.84843969 18835355.079637766 0 0 0 0 5875610.4694061279 -59764310.712304592 0 -59764310.712304592 -60145644.926242828 0 0 0 0 -26782283.022766113 -30821115.373125553 0 -30821115.373125553 181045.89712905884 0 0 0 0 -38279359.807281494 -77103075.327692032 0 -77103075.327692032 8003628.6543273926 0 0 0 0 -50633893.52722168 -9681052.1107826233 0 -9681052.1107826233 6211495.4352238178 0 0 0 0 -59730575.054512024 -5054032.7279143333 0 -5054032.7279143333 7289046.3326644897 0 0 0 0 -1005420.0062032007 592708.43555586785 0 592708.43555586785 139501.02311774716 0 0 0 0 -5408845.8041687012 7883673.0893096924 0 7883673.0893096924 -21277246.303466797 0 0 0 0 -36871574.506439209 -5122491.4286785126 0 -5122491.4286785126 -4798419.5067615509 0 0 0 0 -50982757.25604248 936286.7293510437 0 936286.7293510437 82375.342864990234 0 0 0 0 -39321695.117980957 -4069928.9218177795 0 -4069928.9218177795 -205638.32229614258 0 0 0 0 5072440.4354052767 -13951359.403287768 0 -13951359.403287768 582421.94786051568 0 0 0 0 -7238607.2208862305 -28581724.102865219 0 -28581724.102865219 1576517.0067749023 0 0 0 0 -36757186.784671783 -18229465.494056582 0 -18229465.494056582 1621520.9727859497 0 0 0 0 14508678.811523438 6435964.5334434509 0 6435964.5334434509 -43401733.085463524 0 0 0 0 -41144027.810089111 -10366767.13168335 0 -10366767.13168335 16738119.382472992 0 0 0 0 -4092756.2714538574 -28853174.911237717 0 -28853174.911237717 12923393.87065506 0 0 0 0 -7686762.8777618408 -13623523.573223114 0 -13623523.573223114 370261.48995733261 0 0 0 0 8865920.2959594727 -9196180.0305724144 0 -9196180.0305724144 140547.22758865356 0 0 0 0 6657373.48046875 -6387009.8043289185 0 -6387009.8043289185 2895814.1271476746 0 0 0 0 -1001162.575345695 -2028162.0142352097 0 -2028162.0142352097 1007529.2558848071 0 0 0 0 -28550255.597442627 -21765742.157753944 0 -21765742.157753944 1759330.7751636505 0 0 0 0 -2817174.5585578755 -115832.86951383203 0 -115832.86951383203 43461.107819354162 0 0 0 0 -4516323.2397252619 -423054.53036326915 0 -423054.53036326915 1814653.2953758668 0 0 0 0 -43319352.957862854 -12810926.594044447 0 -12810926.594044447 11239968.723556519 0 0 0 0 -35292009.611999512 -9771322.3714027405 0 -9771322.3714027405 4304810.3788843155 0 0 0 0 656380.60171508789 -1245504.6536426544 0 -1245504.6536426544 -2802003.2270469666 0 0 0 0 3365765.2387590706 35549.142908360809 0 35549.142908360809 -2112745.6841643332 0 0 0 0 -4316866.2727355957 -20069146.062142849 0 -20069146.062142849 -27906513.359882355 0 0 0 0 298611.01583862305 -2028562.5161495209 0 -2028562.5161495209 -4072344.0212879181 0 0 0 0 539745.23840332031 -2418171.2836875916 0 -2418171.2836875916 -4444020.5708675385 0 0 0 0 25168015.187225342 -15411738.521292686 0 -15411738.521292686 -3919689.9623320103 0 0 0 0 6056014.5222550035 -3011399.2345559141 0 -3011399.2345559141 -1031645.7105235769 0 0 0 0 8542.5516144558787 -3959343.1730016842 0 -3959343.1730016842 -2091383.8287060447 0 0 0 0 157473.71307373047 -2537489.8433704376 0 -2537489.8433704376 -4065003.7777633667 0 0 0 0 33723805.428192139 -4801134.4224462509 0 -4801134.4224462509 47261659.332511902 0 0 0 0 421987.56801564991 -11106061.185064517 0 -11106061.185064517 -971321.1169541534 0 0 0 0 3575552.501548171 -2835912.6529355943 0 -2835912.6529355943 1365504.1689523077 0 0 0 0 23861996.667327881 -28389639.445571423 0 -28389639.445571423 -8996533.361366272 0 0 0 0 22626119.511825562 -38851861.488363266 0 -38851861.488363266 -7002983.7874851227 0 0 0 0 23702796.894561768 -4090496.6270270348 0 -4090496.6270270348 -74248339.939785004 0 0 0 0 9235650.2038574219 -5366080.9402332306 0 -5366080.9402332306 11877337.709237099 0 0 0 0 10718725.262069702 2181266.4231948853 0 2181266.4231948853 -5871119.5606231689 0 0 0 0 165370.17559149861 -933764.42600616068 0 -933764.42600616068 1238456.0089874906 0 0 0 0 -29379422.091461182 -57910995.5238657 0 -57910995.5238657 21432659.143903255 0 0 0 0 -22147984.139663696 -85398112.085422039 0 -85398112.085422039 -76815040.928918839 0 0 0 0 26872842.227905273 -45779242.384073257 0 -45779242.384073257 -183944160.85013247 0 0 0 0 -50569601.956237793 16912063.175818682 0 16912063.175818682 -56833642.485642433 0 0 0 0 33854904.945129395 13711021.792331219 0 13711021.792331219 -172017651.96649075 0 0 0 0 46771882.998321533 -31124776.74797833 0 -31124776.74797833 -199900934.65359426 0 0 0 0 -6190175.0550994873 -66434033.892894387 0 -66434033.892894387 -127097040.67943382 0 0 0 0 495637.24297332764 -107231316.1741817 0 -107231316.1741817 136932827.58226752 0 0 0 0 -1312268.7577721477 1556906.5169687234 0 1556906.5169687234 1214172.0369017262 0 0 0 0 8080274.7788696289 -49065506.027846813 0 -49065506.027846813 88171480.462930679 0 0 0 0 -2407200.7653528005 2822043.9526161477 0 2822043.9526161477 2216557.0972702219 0 0 0 0 64153179.973297119 -30205286.68513298 0 -30205286.68513298 30775148.766202331 0 0 0 0 2109018.0198059082 -52469015.572052956 0 -52469015.572052956 -318595.82659363747 0 0 0 0 27437855.534988403 -1756151.2731983662 0 -1756151.2731983662 -44978491.5213871 0 0 0 0 -9114517.4231414795 -45511916.282847941 0 -45511916.282847941 95394933.906616807 0 0 0 0 31528671.472061157 -53109475.674886227 0 -53109475.674886227 -113448092.65373421 0 0 0 0 28492071.278442383 -49906661.329108238 0 -49906661.329108238 -75291577.498993874 0 0 0 0 39070466.901306152 -43308261.068315506 0 -43308261.068315506 -102388895.76150131 0 0 0 0 37265837.138946533 -60220356.454967499 0 -60220356.454967499 -153267857.15955544 0 0 0 0 16517662.769775391 -22273278.297460556 0 -22273278.297460556 -27376559.699311092 0 0 0 0 -1125803.541557312 5183688.1764608473 0 5183688.1764608473 94153344.026035428 0 0 0 0 23027136.345581055 -48654729.603230238 0 -48654729.603230238 -13619897.359548882 0 0 0 0 -5333872.5765380859 -30809998.31905055 0 -30809998.31905055 -12653209.968379498 0 0 0 0 -25856292.991973877 -81041023.157142639 0 -81041023.157142639 -112230478.05785561 0 0 0 0 -74880684.998718262 -36334233.849715233 0 -36334233.849715233 -68298335.766159058 0 0 0 0 -20479094.366638184 12745055.177049637 0 12745055.177049637 -30568952.380855501 0 0 0 0 54740.681882666177 -17951083.916633759 0 -17951083.916633759 -153215419.67122269 0 0 0 0 -32442953.566345215 -91647599.100610733 0 -91647599.100610733 -99670184.103811264 0 0 0 0 -1555026.677664876 -21892.762362070382 0 -21892.762362070382 1615695.2161976378 0 0 0 0 -23863050.592224121 -36817084.616186142 0 -36817084.616186142 15918230.52015686 0 0 0 0 3174470.8423309326 -64519531.926580906 0 -64519531.926580906 -248683897.4063015 0 0 0 0 1481429.2439880371 -21030236.910161972 0 -21030236.910161972 -103155022.49639678 0 0 0 0 -23987845.955623627 25056227.440053701 0 25056227.440053701 -78591376.442131042 0 0 0 0 -27674814.64440918 87252811.445829391 0 87252811.445829391 -233874545.07902408 0 0 0 0 20449659.101459503 9091422.2316659689 0 9091422.2316659689 5587068.1249237061 0 0 0 0 22974441.69720459 -14077186.198178291 0 -14077186.198178291 170516.09984588623 0 0 0 0 17779643.962280273 4611324.5166568756 0 4611324.5166568756 -5269867.7064628601 0 0 0 0 -26093314.747665405 -17189596.098507881 0 -17189596.098507881 -9823917.2127494812 0 0 0 0 -11603562.661987305 3249639.7794780731 0 3249639.7794780731 7768379.7132492065 0 0 0 0 3369278.2217712402 3349210.4737796783 0 3349210.4737796783 -8703646.8178362846 0 0 0 0 -60751.78955078125 -7320271.4011173248 0 -7320271.4011173248 -28017402.059240341 0 0 0 0 -250502.44589233398 -18138600.306434631 0 -18138600.306434631 -55529484.586382866 0 0 0 0 3292496.9133300781 -36096813.810490608 0 -36096813.810490608 -62580165.679172516 0 0 0 0 4753175.6737060547 -27723199.373979568 0 -27723199.373979568 -21454089.042009354 0 0 0 0 24551737.617668152 -36144504.147373199 0 -36144504.147373199 -93260248.930894852 0 0 0 0 28869868.153404236 -28570084.150642395 0 -28570084.150642395 -112047124.53777313 0 0 0 0 25177196.773712158 -28585886.599662781 0 -28585886.599662781 -103949759.82187128 0 0 0 0 22578337.879455566 -45547912.30627203 0 -45547912.30627203 -162000230.79964447 0 0 0 0 13169056.721740723 26598094.048503876 0 26598094.048503876 -140494350.77812958 0 0 0 0 16520367.195526123 1424130.4653949738 0 1424130.4653949738 -79858578.222194672 0 0 0 0 16094735.70916748 1451002.0919952393 0 1451002.0919952393 -76534001.562553406 0 0 0 0 4151071.7184906006 -12437950.455163002 0 -12437950.455163002 -66799318.012931824 0 0 0 0 470886.31384277344 7155038.973197937 0 7155038.973197937 -42917937.421726227 0 0 0 0 -10846762.977050781 5015619.8636817932 0 5015619.8636817932 1799585.8211479187 0 0 0 0 -536036.39224044979 444556.9168911092 0 444556.9168911092 1228907.7555294698 0 0 0 0 -228032.15441894531 -6577780.4382743835 0 -6577780.4382743835 -40057172.07793808 0 0 0 0 -3298393.4179395884 -247803.24340248853 0 -247803.24340248853 3588547.374046403 0 0 0 0 23830757.452636719 3581787.6159057617 0 3581787.6159057617 -37649049.069229126 0 0 0 0 9818967.9932861328 -9255812.213558197 0 -9255812.213558197 -48572978.607757568 0 0 0 0 5769375.7486572266 23088744.355674744 0 23088744.355674744 -66408661.869527817 0 0 0 0 5041534.7378540039 1700808.6489181519 0 1700808.6489181519 14514387.614118576 0 0 0 0 15614086.622253418 -14136565.333839417 0 -14136565.333839417 17205182.050247192 0 0 0 0 -61505.117114663124 88651.232478890568 0 88651.232478890568 200239.34800902801 0 0 0 0 519492.32923463732 -99780.302635520697 0 -99780.302635520697 -506225.09547160938 0 0 0 0 3825789.4703979492 -22725444.731384277 0 -22725444.731384277 -614662.76568603516 0 0 0 0 -19150893.490722656 -16270205.925445557 0 -16270205.925445557 9062793.0718383789 0 0 0 0 6378560.2072143555 2333406.4422187805 0 2333406.4422187805 1152925.2773323059 0 0 0 0 14051331.24987793 10042782.386390686 0 10042782.386390686 7377443.0263586044 0 0 0 0 -1912958.8155723959 -313719.31590174139 0 -313719.31590174139 3773655.0757847987 0 0 0 0 -625585.13832488656 960634.37743875757 0 960634.37743875757 1157660.8725031493 0 0 0 0 -1064150.6071777344 1479427.9359130859 0 1479427.9359130859 1348491.8361968994 0 0 0 0 -332235.29096284509 1258556.2221322507 0 1258556.2221322507 -1675572.0626826882 0 0 0 0 -141700.07305908203 1264806.568780899 0 1264806.568780899 -8906087.5536212921 0 0 0 0 1239254.3676757812 291385.97637176514 0 291385.97637176514 1127479.0808258057 0 0 0 0 1763582.0124574304 96606.074375859462 0 96606.074375859462 -2363973.0054946514 0 0 0 0 7155516.0336303711 -3683371.5256814957 0 -3683371.5256814957 -46054976.389362335 0 0 0 0 2337642.6376419067 -10301090.893173695 0 -10301090.893173695 -43446400.036590576 0 0 0 0 -2879836.6958705783 -649088.53584704921 0 -649088.53584704921 1297334.6510466579 0 0 0 0 -1738729.6171569824 550819.24820709229 0 550819.24820709229 5499334.8295288086 0 0 0 0 10117777.983795166 -60580210.570026398 0 -60580210.570026398 110620344.25127792 0 0 0 0 -10596015.757965088 -4860486.3705625534 0 -4860486.3705625534 5382471.5163841248 0 0 0 0 -39316.441925048828 -119326.09530067444 0 -119326.09530067444 2081917.3809957504 0 0 0 0 -3629605.5802623332 726272.71830438077 0 726272.71830438077 4091924.9619819559 0 0 0 0 2354979.1472401023 3631320.0235301619 0 3631320.0235301619 -2338772.7937954888 0 0 0 0 -37579750.25994873 12847089.656301498 0 12847089.656301498 97755740.37371254 0 0 0 0 -199779814.75790405 75909958.918518066 0 75909958.918518066 57485805.428592682 0 0 0 0 -21500649.176769257 113952110.092273 0 113952110.092273 51781981.814016342 0 0 0 0 -93920648.389465332 -122144593.51615715 0 -122144593.51615715 -78761811.99005127 0 0 0 0 -33537527.633972168 16546719.413452148 0 16546719.413452148 39400220.769096375 0 0 0 0 -87296141.970153809 -64803650.745513916 0 -64803650.745513916 111767254.6702137 0 0 0 0 -58037752.417297363 9921867.2210388184 0 9921867.2210388184 -50528471.452346802 0 0 0 0 103474840.48727417 -60347538.719465256 0 -60347538.719465256 -49446217.081436157 0 0 0 0 1970171.5218908489 3974247.7597579947 0 3974247.7597579947 -1202897.4878854984 0 0 0 0 -10680500.895080566 -8560830.2083568573 0 -8560830.2083568573 -9772799.3536491394 0 0 0 0 -5759465.3334350586 4157683.8951206207 0 4157683.8951206207 19841445.551594734 0 0 0 0 1776432.770419389 3529730.7960981419 0 3529730.7960981419 -766512.88411859609 0 0 0 0 -30095.963500976562 4993108.886384964 0 4993108.886384964 -1885699.8038253784 0 0 0 0 60896431.066452026 84434345.92323637 0 84434345.92323637 59705694.770296097 0 0 0 0 -5759465.3334655762 -7168424.0016784668 0 -7168424.0016784668 2683950.1526708603 0 0 0 0 3726298.8690741956 -1124191.9526138753 0 -1124191.9526138753 -3505029.5228507686 0 0 0 0 36861.547988891602 -11342356.028816223 0 -11342356.028816223 -7391372.9882240295 0 0 0 0 -28899.804550170898 -11386589.527915955 0 -11386589.527915955 -7366621.1694202423 0 0 0 0 4285176.5136395544 -1012923.8471256085 0 -1012923.8471256085 -4241673.2373094447 0 0 0 0 123577458.09576416 72411338.744480133 0 72411338.744480133 135955251.12227249 0 0 0 0 117919385.82082748 34571406.495011806 0 34571406.495011806 -111380467.02829742 0 0 0 0 4053846.6750411987 -154853194.80086708 0 -154853194.80086708 33073581.811748505 0 0 0 0 35825243.366241455 -75329737.568450928 0 -75329737.568450928 221881805.35947418 0 0 0 0 181028.28513078135 -64334250.48160103 0 -64334250.48160103 270657086.08086395 0 0 0 0 57236346.675048828 -89743593.533588409 0 -89743593.533588409 172549756.23917103 0 0 0 0 -623536.63000369072 1186646.1559231654 0 1186646.1559231654 -285668.49808751559 0 0 0 0 -68579127.252441406 61743573.270048141 0 61743573.270048141 21249216.705137968 0 0 0 0 19209649.379165649 -16525941.026202202 0 -16525941.026202202 -269260579.62063217 0 0 0 0 -164194212.72003174 1910129.5351982117 0 1910129.5351982117 87896320.184204102 0 0 0 0 84269340.41947937 -155732756.4300251 0 -155732756.4300251 148161832.82300186 0 0 0 0 -139233934.50422668 -894597.44307136536 0 -894597.44307136536 21861516.992683411 0 0 0 0 -3352751.2637176514 20011953.703582764 0 20011953.703582764 10253491.749656677 0 0 0 0 4250474.2407747209 -3996944.2828182615 0 -3996944.2828182615 -1875598.0526906662 0 0 0 0 -56364204.921203613 -97185762.160067558 0 -97185762.160067558 -84846304.279632568 0 0 0 0 -29551032.445617676 15660846.83039093 0 15660846.83039093 -28963549.906208038 0 0 0 0 61830594.36895752 23482641.216575623 0 23482641.216575623 -108338066.9146142 0 0 0 0 -2750532.5995635986 -106689760.25980282 0 -106689760.25980282 21134579.403003693 0 0 0 0 -62241541.163955688 -19434403.737569809 0 -19434403.737569809 84922503.352272034 0 0 0 0 -1707502.1355803758 74611.415837258101 0 74611.415837258101 -1180199.2751825289 0 0 0 0 -11862394.945922852 -19179939.840843201 0 -19179939.840843201 82868810.713668823 0 0 0 0 13130199.313140869 -38264167.377277374 0 -38264167.377277374 4514284.7270736694 0 0 0 0 -9160085.9339589626 -5270633.5185612366 0 -5270633.5185612366 2502119.6392173097 0 0 0 0 2263921.5081104487 -8504133.2844880223 0 -8504133.2844880223 -1811370.5397414789 0 0 0 0 -11894618.975830078 -43243236.532157898 0 -43243236.532157898 -37703854.014225006 0 0 0 0 -18442073.590759277 -36737872.955341816 0 -36737872.955341816 -11440473.05449295 0 0 0 0 3617957.4762444049 -5200095.3933255132 0 -5200095.3933255132 -3456184.7032027207 0 0 0 0 -37860111.181501389 -62512164.929947853 0 -62512164.929947853 6289342.4589004517 0 0 0 0 -37907251.086425781 5501367.7637634277 0 5501367.7637634277 110892812.01219559 0 0 0 0 -557300.13583505154 -965113.0557505833 0 -965113.0557505833 101543.59042756911 0 0 0 0 29288850.528961182 12022822.083786011 0 12022822.083786011 52903419.54076767 0 0 0 0 -2142714.7507629395 -16199516.31577301 0 -16199516.31577301 56945585.231878757 0 0 0 0 -32409080.819091797 35270484.840148926 0 35270484.840148926 204176826.60086155 0 0 0 0 -42573195.315673828 -4186092.4944915771 0 -4186092.4944915771 116754027.87142944 0 0 0 0 -50000670.511657715 4659433.4849472046 0 4659433.4849472046 115867217.65351009 0 0 0 0 -56553725.298217773 8024342.5659179688 0 8024342.5659179688 194772035.09356308 0 0 0 0 -26558761.218200684 6078368.8921813965 0 6078368.8921813965 59141897.081253052 0 0 0 0 -22828209.598899841 -9834174.9154071808 0 -9834174.9154071808 33899922.511581421 0 0 0 0 -28008156.771911621 -34584450.219863892 0 -34584450.219863892 106558127.0980835 0 0 0 0 -28374287.22543335 -19173464.347682953 0 -19173464.347682953 70890264.643070221 0 0 0 0 -5744492.347869873 -9457332.7269515991 0 -9457332.7269515991 11418705.405654907 0 0 0 0 -35533913.39239502 -15821389.560157776 0 -15821389.560157776 48569760.973388672 0 0 0 0 -8600476.6758567244 -7408684.2883077562 0 -7408684.2883077562 1618272.1536646881 0 0 0 0 -23395712.445678711 -18686786.756988525 0 -18686786.756988525 1895716.9146575928 0 0 0 0 -4485339.0319559947 -5140113.8893333301 0 -5140113.8893333301 557070.77896600589 0 0 0 0 -3029601.0660400391 -4688865.1783447266 0 -4688865.1783447266 -1602158.578389883 0 0 0 0 -2971335.2501525879 -4622471.2700157166 0 -4622471.2700157166 -2028226.3398742676 0 0 0 0 -4453911.342201069 -5053463.9322124794 0 -5053463.9322124794 -3055327.2235957067 0 0 0 0 -2096789.4458312988 -4600280.2728843689 0 -4600280.2728843689 5191719.1593856812 0 0 0 0 -3283130.7097167969 -7432047.9245452881 0 -7432047.9245452881 -2778935.1624164581 0 0 0 0 -1414869.4611816406 -5581607.4509963989 0 -5581607.4509963989 -3011901.9983825684 0 0 0 0 -7490298.6142578125 9194307.1499557495 0 9194307.1499557495 13875317.834579468 0 0 0 0 -26184626.910095215 -12566595.855224609 0 -12566595.855224609 34305840.967440605 0 0 0 0 -17026957.338165283 -10013295.798675537 0 -10013295.798675537 -24514064.24458313 0 0 0 0 -64975.265016749501 -1376926.7145294622 0 -1376926.7145294622 -1340038.7647495382 0 0 0 0 -4217299.6332073212 -10609483.773313284 0 -10609483.773313284 -7270300.4384765625 0 0 0 0 -4382169.6804699898 -4554680.7173527479 0 -4554680.7173527479 -2586400.4517669678 0 0 0 0 -4563442.1919555664 -6509822.7520523071 0 -6509822.7520523071 -3998898.8727326393 0 0 0 0 -5235775.0495516062 -6312963.3606671914 0 -6312963.3606671914 -2957995.5076631196 0 0 0 0 -6978046.8589940071 -10960215.951978676 0 -10960215.951978676 321992.50788783887 0 0 0 0 -26558.596051007509 -71531.518604576588 0 -71531.518604576588 -61325.467803547159 0 0 0 0 -4051162.746307373 -14740555.932342529 0 -14740555.932342529 -13208339.974494934 0 0 0 0 -7259204.8292236328 -14736211.272541046 0 -14736211.272541046 1982997.5874328613 0 0 0 0 -2426532.0963439941 -3648311.6577033997 0 -3648311.6577033997 -74100.724792480469 0 0 0 0 -819294.24357485771 -7275829.2281353995 0 -7275829.2281353995 -1491431.7359498329 0 0 0 0 -3281614.9654741585 -3575058.0665383823 0 -3575058.0665383823 3192403.5108045954 0 0 0 0 2439203.4309082031 -6979547.9743251801 0 -6979547.9743251801 8931436.1616516113 0 0 0 0 -5794421.3942853063 -6834841.5243065208 0 -6834841.5243065208 -2645909.1574886888 0 0 0 0 -5892747.0915682614 -7144663.8635307103 0 -7144663.8635307103 1165631.8264160231 0 0 0 0 -9890056.0786437988 -26279531.517055511 0 -26279531.517055511 9427639.1343593597 0 0 0 0 -6081434.5704040527 -26724674.85966301 0 -26724674.85966301 -4564516.1117172241 0 0 0 0 -253561.27804203331 -4427025.9621465504 0 -4427025.9621465504 3928228.5039215637 0 0 0 0 -200429.03985595703 -2953165.6753044128 0 -2953165.6753044128 2494777.4962558746 0 0 0 0 -199217.36303710938 -4410137.4332580566 0 -4410137.4332580566 8650317.646697998 0 0 0 0 -2781738.3600520492 -7048566.0814858433 0 -7048566.0814858433 -3320318.571879304 0 0 0 0 -1956761.4453735352 -5115186.8776321411 0 -5115186.8776321411 5536194.494354248 0 0 0 0 -3241191.0103746504 -6845648.3606949709 0 -6845648.3606949709 -1408625.3955566091 0 0 0 0 -1830107.0128173828 -5828297.2292757034 0 -5828297.2292757034 3565254.3747406006 0 0 0 0 -255367.77393296361 -4000668.6916793734 0 -4000668.6916793734 3841079.8228728883 0 0 0 0 -1592795.7333374023 -4448439.039100647 0 -4448439.039100647 305437.55377578735 0 0 0 0 -1262922.3801269531 -3236149.1929016113 0 -3236149.1929016113 -1177706.0593338013 0 0 0 0 -4472345.1467285156 -5984366.6551513672 0 -5984366.6551513672 -2371631.4795761108 0 0 0 0 -6880587.2817502096 -4190891.4525249898 0 -4190891.4525249898 -532219.04292750731 0 0 0 0 -6772629.5543489009 -6903042.1888274401 0 -6903042.1888274401 -3447302.7348819375 0 0 0 0 -1253984.4461975098 -3729041.9290046692 0 -3729041.9290046692 -1478993.6974487305 0 0 0 0 -1776236.2596435547 -2520538.9187469482 0 -2520538.9187469482 -1297427.3911590576 0 0 0 0 -6191860.5710137337 -5168249.5360499844 0 -5168249.5360499844 -3039788.4708285183 0 0 0 0 -3990425.1646916419 -5237568.7335533611 0 -5237568.7335533611 -3696066.360082956 0 0 0 0 -598520.2523637712 -3771481.3204156533 0 -3771481.3204156533 2625153.8155978257 0 0 0 0 1257455.6828050911 -4535505.1667017713 0 -4535505.1667017713 1948609.2149485499 0 0 0 0 1957342.4571533203 -4387521.9323425293 0 -4387521.9323425293 -838064.84860610962 0 0 0 0 2167230.5179443359 -4016722.6193370819 0 -4016722.6193370819 -960297.89485168457 0 0 0 0 1650858.6809082031 -3481851.3474502563 0 -3481851.3474502563 462441.7749710083 0 0 0 0 2184750.2844440937 -4163354.5483033545 0 -4163354.5483033545 430604.92306746077 0 0 0 0 -5927931.0883822832 -5197005.0086793154 0 -5197005.0086793154 -1059957.5471566431 0 0 0 0 -424260.91870117188 -3218953.4256896973 0 -3218953.4256896973 2256324.5964164734 0 0 0 0 -1944118.9582519531 -4802539.4577999115 0 -4802539.4577999115 -1721925.0815124512 0 0 0 0 -8548763.3268224448 -7847205.4333161339 0 -7847205.4333161339 -2099617.2952207122 0 0 0 0 -3285329.2096135914 -11046044.520493999 0 -11046044.520493999 3845117.7929916712 0 0 0 0 1007578.524605915 -4431940.8530520052 0 -4431940.8530520052 3667531.9452831633 0 0 0 0 -9258419.0410766602 -15843022.947004318 0 -15843022.947004318 377604.69013023376 0 0 0 0 -7303513.4550023079 -1770465.9230975807 0 -1770465.9230975807 3545097.016193822 0 0 0 0 -5360410.9471818954 -2494463.7761801332 0 -2494463.7761801332 -1845944.37992814 0 0 0 0 -42401644.207397461 -19542438.183700562 0 -19542438.183700562 -2188822.3368530273 0 0 0 0 -4640637.5536804199 -2146384.546751976 0 -2146384.546751976 61055.475761413574 0 0 0 0 -3220338.2135853805 -3983137.900827609 0 -3983137.900827609 -4138132.2143711206 0 0 0 0 -17586840.734619141 -36936929.045287132 0 -36936929.045287132 -16130156.224143773 0 0 0 0 1802836.9050960541 -3808180.1384948865 0 -3808180.1384948865 1391313.3781318199 0 0 0 0 -5537849.6449810266 -6322777.2171156704 0 -6322777.2171156704 -591652.01403989643 0 0 0 0 3158877.4946899414 -4010784.3829631805 0 -4010784.3829631805 1405850.4539222717 0 0 0 0 1238650.3793084472 -7914921.012571007 0 -7914921.012571007 889961.07383525372 0 0 0 0 2572915.0826873779 -5065147.5948209763 0 -5065147.5948209763 1453325.2817497253 0 0 0 0 4514981.765625 -8055506.7295379639 0 -8055506.7295379639 7006620.5063323975 0 0 0 0 1843188.4193796962 -3399636.0191956498 0 -3399636.0191956498 1761707.6288323342 0 0 0 0 2748644.8374443054 -4403837.6920347214 0 -4403837.6920347214 -622286.780418396 0 0 0 0 -5860472.2802292705 -2870844.8649315834 0 -2870844.8649315834 3747706.3567066574 0 0 0 0 1057545.4740815312 -3341898.8104471415 0 -3341898.8104471415 1551096.7314494597 0 0 0 0 1032463.132232666 -9460172.5115156174 0 -9460172.5115156174 28003524.248996735 0 0 0 0 -5896148.0494995117 13246941.277282715 0 13246941.277282715 41875201.86971283 0 0 0 0 -17544475.43359375 -10648061.638412476 0 -10648061.638412476 28634247.087799072 0 0 0 0 231044.67279052734 -3258464.1160125732 0 -3258464.1160125732 218914.91049194336 0 0 0 0 -31346.549525946379 -916935.74934665114 0 -916935.74934665114 1862527.7817923389 0 0 0 0 -3983515.2394305766 -4001021.4248332232 0 -4001021.4248332232 2381182.472085021 0 0 0 0 -5862428.6791992188 -3617543.4441070557 0 -3617543.4441070557 2885352.1864318848 0 0 0 0 -1824643.8272094727 -10094582.100357056 0 -10094582.100357056 -3716101.6700935364 0 0 0 0 -921132.68890242279 -253305.56085237116 0 -253305.56085237116 145553.5999825187 0 0 0 0 -33290106.592391968 -7252694.8050823212 0 -7252694.8050823212 36915249.273239136 0 0 0 0 -37758451.607971191 31990485.776298523 0 31990485.776298523 10663001.087257385 0 0 0 0 71151399.191261292 -156811641.55236149 0 -156811641.55236149 2482540.9198646545 0 0 0 0 -1736505.4005049318 267095.00428190827 0 267095.00428190827 1840404.4239938594 0 0 0 0 -6719417.4199829102 29274402.953987122 0 29274402.953987122 3637913.2420207262 0 0 0 0 -32571464.208511353 -42242087.448691368 0 -42242087.448691368 11540925.273288727 0 0 0 0 -58596489.716079712 -10786404.864448547 0 -10786404.864448547 20549446.378593445 0 0 0 0 -30408058.219482422 -25179461.281524658 0 -25179461.281524658 1479787.4136543274 0 0 0 0 -17830624.024047852 -10933296.450562477 0 -10933296.450562477 16187663.516876221 0 0 0 0 -30692061.079284668 -15992227.830963135 0 -15992227.830963135 30303843.925100327 0 0 0 0 -19101669.624206543 -4836688.7488059998 0 -4836688.7488059998 21341910.751472473 0 0 0 0 -38602255.761474609 -377351362.87416458 0 -377351362.87416458 88258633.266427994 0 0 0 0 -111489195.11599731 -359503098.83483696 0 -359503098.83483696 84371608.629508972 0 0 0 0 -160312398.87137222 -309409031.45563221 0 -309409031.45563221 247142875.49637222 0 0 0 0 -221024097.98301697 -389608397.46126366 0 -389608397.46126366 203813837.78334427 0 0 0 0 -116265118.25958252 -263159289.94387436 0 -263159289.94387436 278818808.35510635 0 0 0 0 -210901272.12595367 -266474554.05103874 0 -266474554.05103874 375744794.60518265 0 0 0 0 -179237789.83359337 -263673529.39254665 0 -263673529.39254665 304577877.21248627 0 0 0 0 -242933222.50210571 -386244547.53368568 0 -386244547.53368568 204305977.02498436 0 0 0 0 -308030614.70231628 -427101469.85292244 0 -427101469.85292244 100571602.37126827 0 0 0 0 -227794972.24806976 -419263809.3297472 0 -419263809.3297472 96373825.227878571 0 0 0 0 -271580749.08079529 -549451438.00575256 0 -549451438.00575256 18763147.008720398 0 0 0 0 -129924304.99689484 -472402228.00209475 0 -472402228.00209475 19101446.733253479 0 0 0 0 -119838350.13922882 -441372287.29614258 0 -441372287.29614258 42963231.687408447 0 0 0 0 10583168.230575562 -444432869.71160889 0 -444432869.71160889 -48365877.17090416 0 0 0 0 8074074.4308624268 -453769860.66942406 0 -453769860.66942406 -77320168.636005402 0 0 0 0 52228247.796112061 -419988619.45855713 0 -419988619.45855713 -53093198.515033722 0 0 0 0 87598930.781188965 -389872594.96445847 0 -389872594.96445847 -98630125.216283798 0 0 0 0 53151244.159225464 -386857095.74287415 0 -386857095.74287415 -79934263.320022583 0 0 0 0 58536203.435606003 -391595996.23521113 0 -391595996.23521113 -85802931.098480225 0 0 0 0 46663757.754615784 -380753220.89030647 0 -380753220.89030647 -84812413.120332718 0 0 0 0 61834756.819473267 -309756684.23348618 0 -309756684.23348618 -50877267.441698074 0 0 0 0 60319002.892166138 -329204018.80920887 0 -329204018.80920887 -129149574.08432007 0 0 0 0 -2334633.049659729 -297698311.29745865 0 -297698311.29745865 29722713.028864622 0 0 0 0 -40604475.088779449 -387933210.77818298 0 -387933210.77818298 42938377.573177338 0 0 0 0 15742449.750274658 -399923969.70648766 0 -399923969.70648766 -60628928.454684258 0 0 0 0 -39083093.856658936 -273735981.76314926 0 -273735981.76314926 182588597.74361038 0 0 0 0 5125880.0082015991 -300288184.61988735 0 -300288184.61988735 -25970656.011688232 0 0 0 0 46787393.521774292 -191889699.59757996 0 -191889699.59757996 56886598.075483322 0 0 0 0 52902741.100499153 -217285183.63834453 0 -217285183.63834453 -141056968.37372589 0 0 0 0 41445361.256011963 -54833691.013040543 0 -54833691.013040543 161475455.67314529 0 0 0 0 -24487414.783252716 -119888397.10012126 0 -119888397.10012126 218942382.35643387 0 0 0 0 -6003082.475151062 -157969647.52746582 0 -157969647.52746582 38878407.949289322 0 0 0 0 -95193004.971977234 -92496830.111131668 0 -92496830.111131668 383840790.67481232 0 0 0 0 -38523879.838233948 -125002789.17152596 0 -125002789.17152596 225400347.73999405 0 0 0 0 -100450965.88687134 -256450600.16246414 0 -256450600.16246414 181719157.28309727 0 0 0 0 -67159078.536628723 -201062571.28481674 0 -201062571.28481674 272927353.21163177 0 0 0 0 -93936910.506774902 -144693204.02503586 0 -144693204.02503586 397714893.03452301 0 0 0 0 -76301136.919113159 -105382400.40943909 0 -105382400.40943909 353729186.15975666 0 0 0 0 -134640175.01819611 -181954277.11137962 0 -181954277.11137962 376763055.54021454 0 0 0 0 -150926243.97480774 -143805281.93910789 0 -143805281.93910789 451746586.62777328 0 0 0 0 -84751981.701789856 -37342948.74130106 0 -37342948.74130106 510258202.39591217 0 0 0 0 -2450748.3346481323 16518571.117996216 0 16518571.117996216 311470717.56206226 0 0 0 0 -1172167.6513137817 110306273.40195084 0 110306273.40195084 521915264.1963191 0 0 0 0 -17505883.414619446 97916833.765745163 0 97916833.765745163 563989764.05352592 0 0 0 0 2111731185.4140129 -3262511418.0786629 0 -3262511418.0786629 -204346339.13037872 0 0 0 0 -41255852.145645142 58320305.529670715 0 58320305.529670715 620038115.27416229 0 0 0 0 -65775076.474700928 -18526236.108409882 0 -18526236.108409882 480979568.73327255 0 0 0 0 4027997.8050842285 49757170.17401123 0 49757170.17401123 605269695.86817169 0 0 0 0 100254102.69041443 140387065.06578064 0 140387065.06578064 578751227.31505203 0 0 0 0 -3017426711.4461632 912995544.23601532 0 912995544.23601532 -2920735720.3012466 0 0 0 0 7022971.3485412598 148645661.16036987 0 148645661.16036987 940406788.88129044 0 0 0 0 8913161.228502661 -4418805.4094350319 0 -4418805.4094350319 784995.13324129395 0 0 0 0 28255499.13640976 280200400.50372124 0 280200400.50372124 934248961.85706329 0 0 0 0 3575956.2729273848 -1283034.527238613 0 -1283034.527238613 -203600.00402661937 0 0 0 0 174404162.27689362 259532646.3569355 0 259532646.3569355 676528543.13433075 0 0 0 0 46625684.97895813 174286569.06107712 0 174286569.06107712 733546204.6129303 0 0 0 0 19162459.344924927 94114721.355670929 0 94114721.355670929 682131482.26766968 0 0 0 0 -46301446.190719604 69632464.140480042 0 69632464.140480042 732169980.79080963 0 0 0 0 44153070.872131348 129030619.55690384 0 129030619.55690384 822344590.4833374 0 0 0 0 19570951.778945684 185336588.16766492 0 185336588.16766492 886266824.78497314 0 0 0 0 -22358989.31640625 -110502917.75141525 0 -110502917.75141525 762408361.45046997 0 0 0 0 -38795464.648066521 47743292.436327934 0 47743292.436327934 890299033.6812439 0 0 0 0 -26063340.550343513 -30549299.60157752 0 -30549299.60157752 624723681.30998993 0 0 0 0 -127934462.39663696 -119354972.11628532 0 -119354972.11628532 687373249.06402206 0 0 0 0 -94049221.472824097 -44762975.128955841 0 -44762975.128955841 573172668.11338615 0 0 0 0 -160534751.85725403 -187580426.18788528 0 -187580426.18788528 504650364.90586662 0 0 0 0 -63772138.431066513 -48919349.040359497 0 -48919349.040359497 561040453.87020874 0 0 0 0 245463487.17830658 -164803670.75624466 0 -164803670.75624466 -1923460576.234602 0 0 0 0 12898899.057260573 -5390158.8347009681 0 -5390158.8347009681 -340634.90491833241 0 0 0 0 -316439744.03507996 44201786.946800232 0 44201786.946800232 -1512382052.3620987 0 0 0 0 423221198.12018585 -1241948004.9389572 0 -1241948004.9389572 -3807053211.9940643 0 0 0 0 40367712.637176514 108854681.87148285 0 108854681.87148285 909816051.38585854 0 0 0 0 43409010.168670654 -22286162.737485886 0 -22286162.737485886 733092057.57303619 0 0 0 0 33122577.57951355 -146946940.91716766 0 -146946940.91716766 1137600812.6286206 0 0 0 0 285153038.91951752 -74451302.357549667 0 -74451302.357549667 807184624.13875198 0 0 0 0 195800449.27243805 272816387.31315994 0 272816387.31315994 1064410291.0735207 0 0 0 0 228844978.93558121 -450728518.85694885 0 -450728518.85694885 1774221994.962471 0 0 0 0 17267145.267742157 254524289.42952824 0 254524289.42952824 2074560076.8372765 0 0 0 0 803122264.88090515 -621946895.3659687 0 -621946895.3659687 889721037.45804596 0 0 0 0 4005244.6537573896 -735686.04328871286 0 -735686.04328871286 -396210.33071376011 0 0 0 0 486981845.16247559 29575773.763482571 0 29575773.763482571 262853567.41841888 0 0 0 0 307297329.97941589 -316789198.48815346 0 -316789198.48815346 747172608.53687286 0 0 0 0 195988295.89432144 -64324840.22103405 0 -64324840.22103405 280304050.66458511 0 0 0 0 127917673.92520714 -254919403.48475885 0 -254919403.48475885 458970095.99732971 0 0 0 0 -27978637.892654419 -107015088.79327774 0 -107015088.79327774 754924003.36351871 0 0 0 0 218220296.82531738 -192212636.59176254 0 -192212636.59176254 194761249.10580826 0 0 0 0 142146576.73581696 -36174277.144753456 0 -36174277.144753456 -79948459.621498108 0 0 0 0 278545865.1288147 -79920369.26086998 0 -79920369.26086998 205448681.11206055 0 0 0 0 289378812.80146408 54991317.022289991 0 54991317.022289991 -40267143.361274719 0 0 0 0 -186637173.25039673 -291361750.17324448 0 -291361750.17324448 344616947.44126511 0 0 0 0 -183482930.11840057 -161835437.27180052 0 -161835437.27180052 481866738.25218201 0 0 0 0 -232493213.32619476 -281152267.17493057 0 -281152267.17493057 384213044.95664597 0 0 0 0 -135444115.90114594 -165347979.86534023 0 -165347979.86534023 433288946.6242218 0 0 0 0 -79602212.837135315 -131784455.75728703 0 -131784455.75728703 457088517.67750931 0 0 0 0 -51863884.644241333 -36888059.631198883 0 -36888059.631198883 663570644.57484436 0 0 0 0 -56775111.284957886 -214405380.1711731 0 -214405380.1711731 508841335.87549591 0 0 0 0 -103569343.50436401 -133597162.2882061 0 -133597162.2882061 437876893.10680008 0 0 0 0 -66424840.349435806 -253209043.63251734 0 -253209043.63251734 293067499.14884949 0 0 0 0 6366812.961769104 -81743195.391166687 0 -81743195.391166687 244136891.61628723 0 0 0 0 -24421614.645690918 -187334101.78373528 0 -187334101.78373528 192217575.71648598 0 0 0 0 -47657972.171272278 -112379264.6185379 0 -112379264.6185379 4984172.4177780151 0 0 0 0 -284094040.52607727 -167072166.01659966 0 -167072166.01659966 259241607.42063332 0 0 0 0 -200312637.96321869 -293857482.05287933 0 -293857482.05287933 127376318.29400444 0 0 0 0 -275119786.65625 -209271560.72748566 0 -209271560.72748566 285420078.1886158 0 0 0 0 -341751951.88445282 -394622386.90764427 0 -394622386.90764427 236018379.71152496 0 0 0 0 -339047125.85678101 -336394236.59667778 0 -336394236.59667778 -72740236.567512512 0 0 0 0 -528178120.59495544 -250831963.02008629 0 -250831963.02008629 125770134.36763763 0 0 0 0 -567107662.88905334 -285736653.58811188 0 -285736653.58811188 -83216741.542572021 0 0 0 0 -244307669.04902649 -121666797.63622093 0 -121666797.63622093 8128319.933631897 0 0 0 0 -205914400.58181 -147492250.69835377 0 -147492250.69835377 -161474804.59938049 0 0 0 0 -161711048.67346191 -146370089.03007507 0 -146370089.03007507 -609459593.2647438 0 0 0 0 -719339269.58262062 -241051368.21304941 0 -241051368.21304941 -346912511.60452271 0 0 0 0 -187989640.00514221 -123902330.08264065 0 -123902330.08264065 -240797911.85157537 0 0 0 0 -620676384.43014526 -396907477.5739994 0 -396907477.5739994 -1673891097.9957581 0 0 0 0 -1205615792.5213547 -205126577.44937706 0 -205126577.44937706 -310665997.68312836 0 0 0 0 -710375068.3378706 -436304888.54897916 0 -436304888.54897916 -203156442.84989166 0 0 0 0 -651021571.26165771 -3457186.7674369812 0 -3457186.7674369812 -207727473.29421139 0 0 0 0 175572224.61305237 17960693.666741371 0 17960693.666741371 -262626045.44388962 0 0 0 0 123922580.48234558 -41057375.181574821 0 -41057375.181574821 -83439224.92599678 0 0 0 0 38957656.565551758 -13654250.628032684 0 -13654250.628032684 -295660470.71312714 0 0 0 0 82098481.595954895 -117943131.3112545 0 -117943131.3112545 -79643627.475792408 0 0 0 0 85414699.124450684 -30362283.195227623 0 -30362283.195227623 -290139480.92199898 0 0 0 0 108164191.12635803 -54202571.522827148 0 -54202571.522827148 -268303226.281093 0 0 0 0 51995256.046203613 -4700915.7669973373 0 -4700915.7669973373 -61293431.554513931 0 0 0 0 53610774.083314896 8431849.0190105438 0 8431849.0190105438 -187609322.77264977 0 0 0 0 8861732.2057151794 -115977193.24103594 0 -115977193.24103594 -266858173.17724228 0 0 0 0 1003177.4439057671 -591780.99500957504 0 -591780.99500957504 -1155837.4927163385 0 0 0 0 -343298549.30815506 -161628123.67503214 0 -161628123.67503214 -277133619.15618134 0 0 0 0 -814583848.72710419 -611635182.3791275 0 -611635182.3791275 -278080078.57500494 0 0 0 0 30218141.910629272 51337695.327334404 0 51337695.327334404 -78048888.484429121 0 0 0 0 1978541.2677974366 -1688941.2676709369 0 -1688941.2676709369 -1931976.6435714792 0 0 0 0 -1052877282.8393135 -488616879.25693417 0 -488616879.25693417 -146973980.57124901 0 0 0 0 -389133.39060836774 -847762.62693327852 0 -847762.62693327852 -1751040.6697447393 0 0 0 0 -1833375413.7715302 -1046260908.6616697 0 -1046260908.6616697 -525601591.79259682 0 0 0 0 -588383972.29532623 -690048707.84728527 0 -690048707.84728527 -762249640.72919369 0 0 0 0 -446779149.47077942 -362246731.45107031 0 -362246731.45107031 -242603614.22057152 0 0 0 0 -553797800.85880661 -392741856.28407037 0 -392741856.28407037 -266971141.96537971 0 0 0 0 -546198173.35363007 -363935536.31472492 0 -363935536.31472492 -238335601.43388844 0 0 0 0 -1030341.6122002553 -2255924.0977829378 0 -2255924.0977829378 -4787945.77031238 0 0 0 0 -158265582.93607569 198863594.10924017 0 198863594.10924017 492925195.43141365 0 0 0 0 -1469483.878394831 -1460867.2942451453 0 -1460867.2942451453 -3074279.4318236355 0 0 0 0 -2862633.3921508789 -7390400.3929004669 0 -7390400.3929004669 -10663273.41955471 0 0 0 0 -93734611.844741821 -114390379.68146324 0 -114390379.68146324 178316313.79611015 0 0 0 0 5544422.0649795532 -65740908.922482014 0 -65740908.922482014 83955348.404644012 0 0 0 0 54593582.196098328 -58691131.30871439 0 -58691131.30871439 -454876062.10504913 0 0 0 0 -128275618.35163116 -92567995.146892548 0 -92567995.146892548 -33884120.290943146 0 0 0 0 83257317.038601637 260403659.5245297 0 260403659.5245297 -679642557.40925598 0 0 0 0 46791867.240982056 -522241576.25710297 0 -522241576.25710297 -1115093173.1740046 0 0 0 0 -798085451.38224602 -829947166.22553015 0 -829947166.22553015 -445246263.07161713 0 0 0 0 -57307376.720489502 -349892512.63064003 0 -349892512.63064003 -265141368.85983467 0 0 0 0 86069048.876419067 -345238862.39704418 0 -345238862.39704418 -383648038.68538284 0 0 0 0 -179631693.90649796 -507874582.51105976 0 -507874582.51105976 -142068076.48600769 0 0 0 0 -96103367.239551544 -549496554.48863411 0 -549496554.48863411 -233677431.89460754 0 0 0 0 -100258591.19468248 -517009488.26333553 0 -517009488.26333553 -89217343.210155487 0 0 0 0 -99761622.15223527 -501958258.25711888 0 -501958258.25711888 -145383536.10110855 0 0 0 0 -240545004.8077774 -644082105.14408875 0 -644082105.14408875 -386107302.30228615 0 0 0 0 -447155172.1915741 -538859136.43714523 0 -538859136.43714523 14474745.419445038 0 0 0 0 -630509623.08057404 -503390500.51617432 0 -503390500.51617432 7904427.2588577271 0 0 0 0 124309107.49591255 -433511709.64123082 0 -433511709.64123082 -120086781.21236801 0 0 0 0 138999887.12788486 -363035316.72915173 0 -363035316.72915173 -86734245.345561981 0 0 0 0 54430282.138458252 -465320429.78305435 0 -465320429.78305435 -125102029.23514557 0 0 0 0 43397180.003219604 -444802004.73049927 0 -444802004.73049927 -159837328.38137817 0 0 0 0 112809079.83449936 -318528495.5602169 0 -318528495.5602169 -137539231.11910212 0 0 0 0 78116663.633285522 -376189621.48262119 0 -376189621.48262119 -202549033.73332787 0 0 0 0 157406013.02291298 -397047849.50815392 0 -397047849.50815392 -26097934.81920433 0 0 0 0 668279102.10339355 -398998961.19319534 0 -398998961.19319534 -60401820.549163818 0 0 0 0 -756554.73795161024 -480051.0501126023 0 -480051.0501126023 -683837.66686484683 0 0 0 0 -110802610.77961731 -312956779.92331982 0 -312956779.92331982 488843893.91991425 0 0 0 0 -159279553.44883728 -178302799.26127148 0 -178302799.26127148 116141966.67355919 0 0 0 0 39656481.100524902 -170825709.58645058 0 -170825709.58645058 318804609.34464836 0 0 0 0 1848207426.0459976 -139595630.59089565 0 -139595630.59089565 57618654.528673768 0 0 0 0 819635657.17221832 -900506058.62327099 0 -900506058.62327099 920196912.91527939 0 0 0 0 491046766.76384544 -44648164.20938611 0 -44648164.20938611 52084537.976890564 0 0 0 0 -2336206.6538162753 -3721029.0155292489 0 -3721029.0155292489 25038130.770065159 0 0 0 0 617119541.17324448 -9339028.7488889694 0 -9339028.7488889694 -16899838.929077148 0 0 0 0 -1439051.0998992845 -65046.642953678966 0 -65046.642953678966 9115337.3011579551 0 0 0 0 1128688164.7744598 1264327737.6582541 0 1264327737.6582541 633028066.81592178 0 0 0 0 -179944665.28302002 -468661244.46936512 0 -468661244.46936512 -384513582.30370235 0 0 0 0 -654522918.26053619 147924719.58880234 0 147924719.58880234 210932543.51075649 0 0 0 0 12922897.635182396 -20597125.34445931 0 -20597125.34445931 23081895.682211302 0 0 0 0 -611259562.73823929 -508681263.49466169 0 -508681263.49466169 -50293015.110942841 0 0 0 0 121238191.65895081 78052372.283908844 0 78052372.283908844 45546726.30039978 0 0 0 0 -1068370.3167347014 -11382298.334509687 0 -11382298.334509687 38374746.894447446 0 0 0 0 -58645559.315620422 100979944.33169556 0 100979944.33169556 70235908.339179993 0 0 0 0 -157943667.9342041 -245358888.52221489 0 -245358888.52221489 93444771.308769226 0 0 0 0 -277609735.78989029 -133741958.88703823 0 -133741958.88703823 109195215.29846573 0 0 0 0 6916019.152130127 -80512559.492507935 0 -80512559.492507935 104821401.96192551 0 0 0 0 237842890.46571922 -13302507.002091408 0 -13302507.002091408 20260127.752967834 0 0 0 0 160522285.79550934 -126011289.99855518 0 -126011289.99855518 -16761937.185466766 0 0 0 0 153605171.9516983 -346181505.27261925 0 -346181505.27261925 -128245087.25786853 0 0 0 0 281258756.29664612 -191338363.85527897 0 -191338363.85527897 -45471201.01115799 0 0 0 0 431466420.06941223 -280603730.48712063 0 -280603730.48712063 -120961957.25920486 0 0 0 0 309889265.76503754 -51951319.91705513 0 -51951319.91705513 19027889.562188148 0 0 0 0 -289224463.65161133 -387999763.79854202 0 -387999763.79854202 -201879249.92016602 0 0 0 0 -71204339.021179199 -161477425.90138245 0 -161477425.90138245 -68609727.405124664 0 0 0 0 427355024.82498169 -383286354.7232399 0 -383286354.7232399 17242931.209594727 0 0 0 0 3311692.5233459473 -364024373.15916824 0 -364024373.15916824 339547859.13446045 0 0 0 0 188297872.98969269 -469855085.92100048 0 -469855085.92100048 121616235.61827087 0 0 0 0 136259430.50740051 -346592569.79358482 0 -346592569.79358482 56228026.829437256 0 0 0 0 -220199695.11407471 -493814512.17680359 0 -493814512.17680359 95268543.91519165 0 0 0 0 37497467.771118164 -407106284.89372253 0 -407106284.89372253 99732624.161113739 0 0 0 0 269873181.55300903 -333553631.50494385 0 -333553631.50494385 25641839.455543756 0 0 0 0 405388972.89115906 -517854524.3255558 0 -517854524.3255558 23685664.500259399 0 0 0 0 239127885.66967773 -330457094.96377945 0 -330457094.96377945 25904071.43813324 0 0 0 0 403720521.29675293 -256317602.38166809 0 -256317602.38166809 -90361671.436775208 0 0 0 0 605376951.24990845 -280262831.09489441 0 -280262831.09489441 -88370775.471059799 0 0 0 0 786739638.59880066 -398350917.07413101 0 -398350917.07413101 -33795421.948364258 0 0 0 0 564529513.6399231 -615044988.0225544 0 -615044988.0225544 341577544.71188354 0 0 0 0 1029852821.969696 -214427871.4032135 0 -214427871.4032135 58771772.554931641 0 0 0 0 794980609.87240815 259313779.53425997 0 259313779.53425997 26871036.796165466 0 0 0 0 1458954373.9130402 112011866.26709938 0 112011866.26709938 55609170.912257195 0 0 0 0 191146291.82672119 40673205.950183868 0 40673205.950183868 7113883.7912025452 0 0 0 0 183892372.3513031 -21384315.885803223 0 -21384315.885803223 -10708135.525726318 0 0 0 0 -240076583.13922119 -244231364.64634323 0 -244231364.64634323 102566594.64371681 0 0 0 0 -301124321.3762207 -296187283.10874939 0 -296187283.10874939 134254138.32144165 0 0 0 0 -204600320.38546753 -322291051.73782063 0 -322291051.73782063 121059027.28118896 0 0 0 0 -71917017.670043945 -213485975.03041077 0 -213485975.03041077 -85924298.780162811 0 0 0 0 163509310.25608826 -365428931.59937286 0 -365428931.59937286 11554337.124687195 0 0 0 0 213349320.96362305 64939427.987514496 0 64939427.987514496 -222586345.8719101 0 0 0 0 158887648.71681309 -477268513.22112536 0 -477268513.22112536 -1124426073.8369293 0 0 0 0 10407896.786026752 -9373742.2190555707 0 -9373742.2190555707 -9312705.9951526523 0 0 0 0 -1625673493.8482361 -2536785686.204464 0 -2536785686.204464 -1722379124.8781471 0 0 0 0 2912320.1266090795 -6861196.40483509 0 -6861196.40483509 9610485.6695423052 0 0 0 0 -589762363.92354584 326960973.43574476 0 326960973.43574476 1709402331.3783989 0 0 0 0 -3257642228.8132019 -2594403417.6729355 0 -2594403417.6729355 1700896712.5976639 0 0 0 0 5314012055.2530212 -794359693.78779984 0 -794359693.78779984 -3250716829.1289597 0 0 0 0 1471809144.3222809 -669955091.95303154 0 -669955091.95303154 525230707.09573364 0 0 0 0 784975567.4119873 -432909615.12540817 0 -432909615.12540817 2480401778.039917 0 0 0 0 784942918.70571756 -442193029.86676621 0 -442193029.86676621 523036305.69668579 0 0 0 0 296187406.97103882 -258372917.08873749 0 -258372917.08873749 527398595.73439789 0 0 0 0 634198392.41116333 997525404.38990211 0 997525404.38990211 1686216886.8793793 0 0 0 0 2601755331.7713928 2857755976.8602448 0 2857755976.8602448 3250564208.0823898 0 0 0 0 1276765315.9609833 451481073.28458023 0 451481073.28458023 -1108615701.7394791 0 0 0 0 7778726.8848965168 -13618497.836273426 0 -13618497.836273426 2122976.0121633084 0 0 0 0 146394673.03826904 222075046.99694824 0 222075046.99694824 -932877025.73479271 0 0 0 0 746662004.32261658 462193299.10493469 0 462193299.10493469 -1047573371.9518642 0 0 0 0 -90284897.5652771 -120872339.90227127 0 -120872339.90227127 -568721457.03069687 0 0 0 0 -184315928.67843628 315597037.98621368 0 315597037.98621368 122902256.16133881 0 0 0 0 -380163674.64660645 166836649.15336609 0 166836649.15336609 157626774.51903534 0 0 0 0 454187904.11105347 424053391.59416199 0 424053391.59416199 -138474314.14117813 0 0 0 0 282751750.8561554 -321683487.70088387 0 -321683487.70088387 250273622.65302277 0 0 0 0 -284635701.76016235 161455669.6486969 0 161455669.6486969 850531706.74240112 0 0 0 0 -463977115.90612793 201621644.39112663 0 201621644.39112663 173359698.16088867 0 0 0 0 -268411391.82232666 175340783.68854904 0 175340783.68854904 101941320.34122467 0 0 0 0 29771743.768859863 -26789093.033535361 0 -26789093.033535361 6332989.3403692245 0 0 0 0 29525535.705436707 -24835330.961130381 0 -24835330.961130381 11445040.018556118 0 0 0 0 127510700.06542969 29745165.114021301 0 29745165.114021301 -74744514.833223343 0 0 0 0 89921462.303611755 -133196286.26587009 0 -133196286.26587009 12105368.524139404 0 0 0 0 38742259.396118164 -109169145.54193497 0 -109169145.54193497 132852094.2997818 0 0 0 0 35387654.94241333 -57415238.256767273 0 -57415238.256767273 38128849.239257812 0 0 0 0 67652561.338928223 -37727410.202823639 0 -37727410.202823639 11264004.648916155 0 0 0 0 32591250.001102962 -16558105.390002966 0 -16558105.390002966 -6827376.2482716255 0 0 0 0 24963110.105819702 -29851836.842870235 0 -29851836.842870235 10433827.277309895 0 0 0 0 -31489908.394824982 -185033293.33259583 0 -185033293.33259583 150541252.95939541 0 0 0 0 -336514389.52749634 87864612.883045197 0 87864612.883045197 107138544.21920776 0 0 0 0 3183785.6796438843 -2816066.6470042989 0 -2816066.6470042989 -146239.56871423312 0 0 0 0 12725396.092708446 -40421912.315858886 0 -40421912.315858886 39149171.688221812 0 0 0 0 -15712231.422637939 -136015883.59667587 0 -136015883.59667587 50189310.157154083 0 0 0 0 51949532.482286721 -32263604.807317976 0 -32263604.807317976 -10806238.7626267 0 0 0 0 145897262.34755325 -37041069.817528725 0 -37041069.817528725 -73458759.497772217 0 0 0 0 88723035.506233215 -28833935.005134583 0 -28833935.005134583 776084.61672210693 0 0 0 0 8441552.9734420776 -21618532.962459564 0 -21618532.962459564 131338881.34822083 0 0 0 0 109271409.84870911 -163447744.89736557 0 -163447744.89736557 119803849.2171638 0 0 0 0 70047512.507705688 -95284298.00384903 0 -95284298.00384903 5445872.7110977173 0 0 0 0 156117135.00215912 -210382096.6366787 0 -210382096.6366787 -35681640.424263 0 0 0 0 171343226.48397636 -81543347.442766905 0 -81543347.442766905 -127091666.4475174 0 0 0 0 167867315.01405191 -61064306.79376936 0 -61064306.79376936 17013681.339508057 0 0 0 0 3478048.0808303785 -968790.27454008535 0 -968790.27454008535 -3221899.2157361694 0 0 0 0 271604243.11772537 221561465.08235168 0 221561465.08235168 -478677490.35150909 0 0 0 0 231015268.68767548 181986540.58904457 0 181986540.58904457 -190597513.71829414 0 0 0 0 449953291.19845581 108539312.10914612 0 108539312.10914612 -427545656.58858269 0 0 0 0 523313039.55934906 161805220.53678513 0 161805220.53678513 -663242350.14006615 0 0 0 0 -299967.36281651258 -665705.597751569 0 -665705.597751569 -530023.99238012731 0 0 0 0 46818034.79829216 -584769108.40836239 0 -584769108.40836239 -818312713.26831818 0 0 0 0 407609837.09984589 -44062226.922302246 0 -44062226.922302246 -844655400.93976593 0 0 0 0 -572213213.46299744 -900113451.25522614 0 -900113451.25522614 -562360556.13425446 0 0 0 0 -14603007.430828094 -182237302.95767307 0 -182237302.95767307 77392363.376548767 0 0 0 0 177292519.09753418 -253767302.08989716 0 -253767302.08989716 -430920119.45569205 0 0 0 0 -122979372.27151489 97908333.853042603 0 97908333.853042603 58960208.648353577 0 0 0 0 56291048.877555847 -46419158.399072647 0 -46419158.399072647 16164822.232807159 0 0 0 0 -10597444.488990728 -1570995.9425378507 0 -1570995.9425378507 8587401.046099741 0 0 0 0 152796083.7410726 -22352554.115770936 0 -22352554.115770936 47349780.836170197 0 0 0 0 24051468.880706787 -25337981.606957436 0 -25337981.606957436 6332829.904812336 0 0 0 0 41331283.336785927 -33736429.846210755 0 -33736429.846210755 10227879.998893883 0 0 0 0 15715391.306884766 -26957295.473868608 0 -26957295.473868608 9709957.0152637959 0 0 0 0 22877592.041251324 -20486141.26178411 0 -20486141.26178411 8771980.3412050139 0 0 0 0 147637711.23329163 -7178130.3550934792 0 -7178130.3550934792 -824276733.59858704 0 0 0 0 -84282447.282577515 -102617177.46802521 0 -102617177.46802521 -50919988.048431396 0 0 0 0 7433790.3736066855 -5030588.5953385774 0 -5030588.5953385774 -2961411.515334148 0 0 0 0 -188854000.54529572 -308324613.09695053 0 -308324613.09695053 -766739244.66362 0 0 0 0 27909365.988861084 -25161251.948354483 0 -25161251.948354483 6112702.7482941151 0 0 0 0 36383195.555124506 -16519992.439769167 0 -16519992.439769167 -4804636.319202248 0 0 0 0 1420470.6504462883 -2542895.7376844771 0 -2542895.7376844771 -606608.56163339503 0 0 0 0 27293964.457054138 -27707948.545254469 0 -27707948.545254469 5712348.1522350311 0 0 0 0 -173104339.60493469 -400978341.55934334 0 -400978341.55934334 -104470508.27972031 0 0 0 0 -232621937.25991249 -213827179.76812649 0 -213827179.76812649 8314343.5727539062 0 0 0 0 -472603988.23623657 27100213.81823349 0 27100213.81823349 -197556824.8775425 0 0 0 0 -74739451.117950439 -392211436.81765366 0 -392211436.81765366 -116073823.23598862 0 0 0 0 -1537170.3274383545 -434952307.87854576 0 -434952307.87854576 -333590086.64925385 0 0 0 0 63459586.598587036 -325587587.69127655 0 -325587587.69127655 -151311848.41113853 0 0 0 0 -16099510.447967529 -397134853.76605988 0 -397134853.76605988 -121436188.12362385 0 0 0 0 -17344291.479243636 -296034981.82360941 0 -296034981.82360941 -39810662.873031616 0 0 0 0 28944436.201919556 -265400389.30219841 0 -265400389.30219841 -44125852.361346036 0 0 0 0 63216541.076126099 -352803198.55562592 0 -352803198.55562592 -98714026.407608032 0 0 0 0 123144119.1103363 -352438004.61829376 0 -352438004.61829376 -100527676.78366852 0 0 0 0 -10927855.963188171 -289690854.0716877 0 -289690854.0716877 -45589226.186248779 0 0 0 0 15103346.593330383 -80108502.103466034 0 -80108502.103466034 4332042.51085186 0 0 0 0 20139935.448695183 -102114296.8781743 0 -102114296.8781743 57637194.926460266 0 0 0 0 4658378.5797996148 -26423606.953327984 0 -26423606.953327984 45525796.668423876 0 0 0 0 82203338.239864349 -19437781.358523369 0 -19437781.358523369 20857171.958904266 0 0 0 0 35609257.837680355 -34388232.773573875 0 -34388232.773573875 -4060264.7877687728 0 0 0 0 19008651.423812866 -42091151.213726044 0 -42091151.213726044 73090355.451545715 0 0 0 0 -12190843.104400635 -71897637.963569641 0 -71897637.963569641 99774801.317268372 0 0 0 0 66036607.54006958 28407288.03487587 0 28407288.03487587 -73872820.730377197 0 0 0 0 16063851.333437361 -7686844.8056604713 0 -7686844.8056604713 -13389965.393943548 0 0 0 0 106915267.46730804 -52079020.697385788 0 -52079020.697385788 3062326.3101043701 0 0 0 0 3933623.6885430366 -6121605.3593147472 0 -6121605.3593147472 3436330.4781962563 0 0 0 0 13514.557174682617 -196737702.97671509 0 -196737702.97671509 -216506210.15382004 0 0 0 0 -306466204.73394775 -231156154.28723526 0 -231156154.28723526 -3909121.2015800476 0 0 0 0 -78635775.892589569 -52681379.75328064 0 -52681379.75328064 70671861.987541199 0 0 0 0 -320379641.09663391 -159079373.90358353 0 -159079373.90358353 -146765045.30937958 0 0 0 0 -273228760.71004486 -89141377.443973541 0 -89141377.443973541 -96507313.846918106 0 0 0 0 -470756497.44255066 -432989768.13619232 0 -432989768.13619232 -398849166.60253525 0 0 0 0 194629538.97813797 57090686.549866676 0 57090686.549866676 -265323449.0845108 0 0 0 0 -209592146.99610901 -422293365.17236328 0 -422293365.17236328 -364487011.91996002 0 0 0 0 -213586948.84134293 -452878412.65082455 0 -452878412.65082455 -469235122.90278625 0 0 0 0 -436721817.14675903 -468106748.19684982 0 -468106748.19684982 -484118858.09025955 0 0 0 0 -379331285.74510193 -416996356.62773323 0 -416996356.62773323 -327816160.11673546 0 0 0 0 -388725182.86049652 -31739606.129961014 0 -31739606.129961014 103632876.62778282 0 0 0 0 -158284.09066904709 -554318.61006129347 0 -554318.61006129347 321157.91603819281 0 0 0 0 -501288707.37369537 -514121301.51392746 0 -514121301.51392746 -480600929.75618744 0 0 0 0 394639.67114211852 -1835384.2645233814 0 -1835384.2645233814 -896580.80776553042 0 0 0 0 134295355.78253174 56184778.50348866 0 56184778.50348866 -238795595.86621094 0 0 0 0 -245359677.0921669 -615141117.15427494 0 -615141117.15427494 -386806156.50453186 0 0 0 0 108701008.96511078 -269862992.75895882 0 -269862992.75895882 -728661251.51847649 0 0 0 0 -334443578.44554472 -337491199.71920717 0 -337491199.71920717 -633168543.19210815 0 0 0 0 55812231.360328674 -177438053.97385979 0 -177438053.97385979 -59369075.179042816 0 0 0 0 134118238.03575897 -159793318.21652603 0 -159793318.21652603 -293741548.37776899 0 0 0 0 56346303.554725647 -100950247.19705582 0 -100950247.19705582 -50600077.469512224 0 0 0 0 -27375830.339813232 -74998326.062979698 0 -74998326.062979698 123776002.32027435 0 0 0 0 1226834.3657612354 -3494791.6080566049 0 -3494791.6080566049 -349020.20736850053 0 0 0 0 711262.02161407471 -1799755.0022850037 0 -1799755.0022850037 1425537.1247062683 0 0 0 0 -1073972.5880432129 -3949957.0449695587 0 -3949957.0449695587 5714445.7359466553 0 0 0 0 -720674.17240415886 -3970531.9330808688 0 -3970531.9330808688 2854019.1719525876 0 0 0 0 479589.27346420288 -4106022.0697097778 0 -4106022.0697097778 -1762786.6820373535 0 0 0 0 35433021.358634949 -23537152.702619553 0 -23537152.702619553 -20090977.366882324 0 0 0 0 -1906250.3266372681 -3634235.7046661377 0 -3634235.7046661377 1931991.2347832918 0 0 0 0 25649.568514580373 -4545020.4408915713 0 -4545020.4408915713 1539431.4051528871 0 0 0 0 -765413.81367285701 -3847644.6811890416 0 -3847644.6811890416 3512612.9735800885 0 0 0 0 33141136.505311251 -20579480.137491167 0 -20579480.137491167 -97969485.089775085 0 0 0 0 354786.37786102295 -4272876.7903251648 0 -4272876.7903251648 1883324.9184951782 0 0 0 0 -145256410.35745239 -176560335.48099518 0 -176560335.48099518 -132796174.51267624 0 0 0 0 -172536868.12247467 -97723348.152122498 0 -97723348.152122498 -196713346.46700478 0 0 0 0 -202452795.15499115 10959847.514425755 0 10959847.514425755 2706131.656211853 0 0 0 0 -185420774.9537735 -17124771.828580856 0 -17124771.828580856 46381918.550460815 0 0 0 0 -152784655.97734308 -312362166.629255 0 -312362166.629255 -646286120.12185287 0 0 0 0 -98098451.068214417 111130782.42229462 0 111130782.42229462 -477487190.40850067 0 0 0 0 -220899101.73045349 -48195302.98141098 0 -48195302.98141098 -40897346.309371948 0 0 0 0 -200268626.23935699 44606143.955442429 0 44606143.955442429 175091589.63867188 0 0 0 0 -177934499.06755829 47315777.158592224 0 47315777.158592224 44264794.475120544 0 0 0 0 -240191097.55105591 -54437603.133579254 0 -54437603.133579254 136706209.84077072 0 0 0 0 -199817140.32411957 -17289282.627376556 0 -17289282.627376556 144259124.2203064 0 0 0 0 -233443176.33665466 -63528021.993404388 0 -63528021.993404388 69835094.775558472 0 0 0 0 -168717521.91269684 -106438643.65481567 0 -106438643.65481567 242338751.21963501 0 0 0 0 -5446413.4582138062 -93888889.355766296 0 -93888889.355766296 79808724.343063354 0 0 0 0 -53101261.465324402 50051520.506660461 0 50051520.506660461 -254530.68301963806 0 0 0 0 -173133055.36288452 -33781395.003334045 0 -33781395.003334045 36490521.410816193 0 0 0 0 -104516733.80326843 -23636697.308994293 0 -23636697.308994293 28368302.329682201 0 0 0 0 -163994430.07120514 -45558423.274318695 0 -45558423.274318695 28261243.389915466 0 0 0 0 33866073.896118164 -49641067.639175415 0 -49641067.639175415 -47750854.263549805 0 0 0 0 822557.73708887398 -1899462.3859343324 0 -1899462.3859343324 369343.9187574489 0 0 0 0 -71017528.712364197 -9918939.1372909546 0 -9918939.1372909546 15660940.65763855 0 0 0 0 -218921918.76052856 -271794092.58802032 0 -271794092.58802032 -141725215.58925247 0 0 0 0 -131754398.032547 -144710708.70523453 0 -144710708.70523453 -50070021.161026001 0 0 0 0 -99296252.664237976 -173477141.83625221 0 -173477141.83625221 -295108745.18791962 0 0 0 0 -227010782.32095337 -102955850.46456528 0 -102955850.46456528 110317574.86747742 0 0 0 0 -52011.972627537325 -115239.39554461464 0 -115239.39554461464 92711.51410523057 0 0 0 0 -115098264.16571045 31465542.020370483 0 31465542.020370483 204560366.89427757 0 0 0 0 -314322.45694470033 10404.929329158738 0 10404.929329158738 373651.76660885941 0 0 0 0 -204272644.61297607 -49894736.563854218 0 -49894736.563854218 151108244.15069962 0 0 0 0 -319018251.74868774 -161243251.68787766 0 -161243251.68787766 113342836.21561623 0 0 0 0 -312717990.89767456 -231892022.3255043 0 -231892022.3255043 -19584713.806869507 0 0 0 0 185421966.12107849 -133360866.20096588 0 -133360866.20096588 -45035073.393428802 0 0 0 0 -896996.23197282851 -1074421.5775848366 0 -1074421.5775848366 368729.56200363487 0 0 0 0 -300602736.98727417 -49963003.234205246 0 -49963003.234205246 183794870.87307739 0 0 0 0 -196405388.40749741 -140235298.24765396 0 -140235298.24765396 146124757.51024628 0 0 0 0 -1289545.973710021 -1635945.6799846776 0 -1635945.6799846776 1863407.0234558024 0 0 0 0 -616842.79363250732 -1020760.1999435425 0 -1020760.1999435425 255989.15280151367 0 0 0 0 126436814.20016098 -199999731.75967598 0 -199999731.75967598 85724222.210197449 0 0 0 0 -51244815.051200867 133486567.51930809 0 133486567.51930809 114535658.67605972 0 0 0 0 -26961690.314105988 105304345.93486595 0 105304345.93486595 110990362.22613144 0 0 0 0 183494908.77000427 50158612.883504868 0 50158612.883504868 3872580.5522994995 0 0 0 0 -871918.56489903107 -1760659.036723366 0 -1760659.036723366 2786950.0621210635 0 0 0 0 -2125282.1297645569 -1689792.6961402893 0 -1689792.6961402893 930819.24229431152 0 0 0 0 526758099.03649139 -344153945.70490837 0 -344153945.70490837 -646918556.51935577 0 0 0 0 121374571.09875107 311141874.0104332 0 311141874.0104332 738852443.05586243 0 0 0 0 -289847743.45103455 -931836646.26474762 0 -931836646.26474762 -409929149.30204773 0 0 0 0 10217664.434517242 5528525.856691964 0 5528525.856691964 -12120852.38968 0 0 0 0 -174237462.8560524 -461662344.66880417 0 -461662344.66880417 -280849537.31681061 0 0 0 0 -150399246.47405243 -303836745.28291321 0 -303836745.28291321 -1401490253.9338837 0 0 0 0 -65849781.552566528 -539356935.29177094 0 -539356935.29177094 -239488469.05496216 0 0 0 0 -51962328.418716431 -599994721.82627106 0 -599994721.82627106 -851285185.49686599 0 0 0 0 -551481853.73448944 -556598693.61624908 0 -556598693.61624908 -37131253.147720337 0 0 0 0 -85471194.022929907 -29785641.988911629 0 -29785641.988911629 250173803.14713287 0 0 0 0 97296643.359588623 -610425535.98488808 0 -610425535.98488808 912531114.91978455 0 0 0 0 1883966.8391283937 -1341158.0701193176 0 -1341158.0701193176 -504346.26923704986 0 0 0 0 175641153.11489105 -99450636.238803864 0 -99450636.238803864 -459480145.50459194 0 0 0 0 -446025198.20910263 -10055670.851200104 0 -10055670.851200104 1739132214.1459122 0 0 0 0 250634109.88803673 361473765.65958023 0 361473765.65958023 542570774.316185 0 0 0 0 -1009444.6884306949 -1707225.3950354494 0 -1707225.3950354494 -536273.3863715902 0 0 0 0 615899935.68581009 -183536475.26104546 0 -183536475.26104546 46652397.9503479 0 0 0 0 -3391691.318939209 122658367.81401253 0 122658367.81401253 -40232976.740699768 0 0 0 0 451695412.68629456 304895039.16900015 0 304895039.16900015 -457489254.59867859 0 0 0 0 -142220216.10353088 -592608954.7895546 0 -592608954.7895546 74757570.246753693 0 0 0 0 -355562371.58029938 118268067.69274902 0 118268067.69274902 13632151.911979675 0 0 0 0 646754169.8289032 -541155072.65123749 0 -541155072.65123749 -106467739.92609406 0 0 0 0 226822673.29836273 69452012.028597832 0 69452012.028597832 183058285.90363312 0 0 0 0 -18642473.111160278 -155754840.81557465 0 -155754840.81557465 42891099.900320053 0 0 0 0 -11817334.377090454 -178065777.13809967 0 -178065777.13809967 402752981.53363419 0 0 0 0 217968963.67342377 -349005515.69623566 0 -349005515.69623566 116408255.3221817 0 0 0 0 190625839.93823624 -327913299.39155769 0 -327913299.39155769 6020869.7603378296 0 0 0 0 -1499925.9383102823 -2027977.3753676862 0 -2027977.3753676862 255735.09789657965 0 0 0 0 183404780.83242798 -151322454.97650719 0 -151322454.97650719 131744700.81563759 0 0 0 0 402295839.88800812 -148348166.35352707 0 -148348166.35352707 71400576.494590759 0 0 0 0 173310295.57538033 -182808790.25829983 0 -182808790.25829983 39391148.195446014 0 0 0 0 289107560.91268158 -419040978.13755035 0 -419040978.13755035 69024650.386518478 0 0 0 0 359715727.34273148 -317610910.91781092 0 -317610910.91781092 -201313736.22845459 0 0 0 0 56550834.720077515 -38786626.630977631 0 -38786626.630977631 -136293651.12187243 0 0 0 0 58981851.986548424 -34909866.139905214 0 -34909866.139905214 -265450982.7195549 0 0 0 0 189550262.20287704 -104186648.64703751 0 -104186648.64703751 -4473873.2763023376 0 0 0 0 -573467.80972519144 405027.00673931837 0 405027.00673931837 701667.3269078806 0 0 0 0 -49036484.207130432 -54423936.578346252 0 -54423936.578346252 -225235052.47279739 0 0 0 0 -26107854.90625 -181304694.81674767 0 -181304694.81674767 -117123676.06720734 0 0 0 0 212058872.48639297 129463365.64871693 0 129463365.64871693 270461737.34371185 0 0 0 0 150744280.64877701 -253451983.02449608 0 -253451983.02449608 -291129946.92960358 0 0 0 0 130119521.7420311 -79375828.319869995 0 -79375828.319869995 -5157592.1133842468 0 0 0 0 -104194610.41087341 96843172.691526413 0 96843172.691526413 368591252.46628571 0 0 0 0 -1173232.9576416463 707787.3421270363 0 707787.3421270363 1372148.7419049181 0 0 0 0 113500607.27693176 -37145995.469734192 0 -37145995.469734192 -4462327.6993255615 0 0 0 0 172836523.12755299 145523546.45889091 0 145523546.45889091 22507355.723041534 0 0 0 0 263442816.24107742 -254619290.40903091 0 -254619290.40903091 189395563.15444756 0 0 0 0 149474681.58914375 -181887116.72127581 0 -181887116.72127581 143118960.90498352 0 0 0 0 4127907.2175598145 -32368378.527065277 0 -32368378.527065277 290446980.91194344 0 0 0 0 -174855449.11505318 -76781764.173237801 0 -76781764.173237801 340466091.11398315 0 0 0 0 -1566107.1335391589 486685.62990352511 0 486685.62990352511 1386099.0139114074 0 0 0 0 -238072082.56874657 -195503703.09527159 0 -195503703.09527159 182701706.49090576 0 0 0 0 -184934638.72808838 -760777311.45683098 0 -760777311.45683098 -736032331.45599365 0 0 0 0 -532848141.97671509 -670103251.09588623 0 -670103251.09588623 -145684989.25664902 0 0 0 0 -429642464.66247559 -352345575.06928635 0 -352345575.06928635 247720896.50027466 0 0 0 0 -661524616.02696991 -609903242.70202637 0 -609903242.70202637 794588884.15199375 0 0 0 0 -390013368.37731552 -284442539.88334274 0 -284442539.88334274 -510070733.61465454 0 0 0 0 -311899386.88822174 84132591.340110779 0 84132591.340110779 368125914.16691017 0 0 0 0 144430696.83640671 378816204.5175457 0 378816204.5175457 502275623.9212532 0 0 0 0 203373633.62829208 623374949.04264069 0 623374949.04264069 310540071.0278492 0 0 0 0 -17058097.100382805 -17577729.729241133 0 -17577729.729241133 725013703.13273239 0 0 0 0 592059849.36065674 -160420483.06750107 0 -160420483.06750107 334822601.94980335 0 0 0 0 2873312.1453951411 480426.92101292685 0 480426.92101292685 2488719.7483943067 0 0 0 0 440988124.73083496 -457088874.90886307 0 -457088874.90886307 89503915.927627563 0 0 0 0 316774013.05563354 -615900973.85816574 0 -615900973.85816574 315908532.78343964 0 0 0 0 1249770835.7051086 -266088228.47727966 0 -266088228.47727966 63712771.7865448 0 0 0 0 -136783.22277490911 -348620.20529983565 0 -348620.20529983565 236824.55740066618 0 0 0 0 -814109185.33586431 -952600556.27875543 0 -952600556.27875543 -1662381375.8360672 0 0 0 0 -835595034.87033081 18836527.384693146 0 18836527.384693146 595220820.45407486 0 0 0 0 -578709307.34521484 -182147865.13721848 0 -182147865.13721848 176158857.33472824 0 0 0 0 -857471.20506188273 -2103786.1531904675 0 -2103786.1531904675 31332.920971736312 0 0 0 0 -3219165.8452515602 -1883076.0148758888 0 -1883076.0148758888 1189803.5953826904 0 0 0 0 -808587.54946672777 -1076737.3361619655 0 -1076737.3361619655 410571.84358542785 0 0 0 0 608544866.87004137 38125258.513117194 0 38125258.513117194 -629439789.85871887 0 0 0 0 -191008500.79199219 -238986330.39649963 0 -238986330.39649963 174213982.16165924 0 0 0 0 217669794.61416626 -83506463.426422119 0 -83506463.426422119 20759029.309837341 0 0 0 0 440762774.29134369 -290929774.80955315 0 -290929774.80955315 170891924.8249588 0 0 0 0 189527425.08229828 -370916366.35926056 0 -370916366.35926056 84945836.878974915 0 0 0 0 469156274.23023033 -296979180.54532337 0 -296979180.54532337 88777035.431617737 0 0 0 0 -982571.06673548743 190838.75423816592 0 190838.75423816592 740738.73586843908 0 0 0 0 -69958690.959350586 -183981596.66567993 0 -183981596.66567993 450255132.28794098 0 0 0 0 -185577104.32339096 -42451765.71014595 0 -42451765.71014595 386296666.83644867 0 0 0 0 -113002868.15357971 -288330722.26112366 0 -288330722.26112366 267184692.13717651 0 0 0 0 34669913.176229477 -398031180.4676609 0 -398031180.4676609 -231789464.60243988 0 0 0 0 -10164723.713027954 -271223827.67515564 0 -271223827.67515564 -28431776.076156616 0 0 0 0 -76043608.004852295 -438293028.44388199 0 -438293028.44388199 137599301.22554779 0 0 0 0 -94280897.02481842 -504239545.96313095 0 -504239545.96313095 -303433226.16824722 0 0 0 0 -57973079.616924286 -417924973.36819839 0 -417924973.36819839 -366321875.7996521 0 0 0 0 85571121.404457092 -391772544.89504242 0 -391772544.89504242 -637264165.57809448 0 0 0 0 83544000.784660339 -521833325.52682114 0 -521833325.52682114 -685489420.04198837 0 0 0 0 220595952.61074829 -271502097.06875992 0 -271502097.06875992 -400205478.71366882 0 0 0 0 -341066807.00668335 -934776577.93039703 0 -934776577.93039703 -687144920.25430298 0 0 0 0 334987491.21775436 -879213150.25729251 0 -879213150.25729251 -857467157.56148529 0 0 0 0 969654589.0238986 -438166279.83231139 0 -438166279.83231139 191096560.15646362 0 0 0 0 306349504.85857391 -37240886.764125824 0 -37240886.764125824 247283158.68213654 0 0 0 0 -825300.19198508188 -1527945.9416804053 0 -1527945.9416804053 -618081.36635844409 0 0 0 0 1100558816.6095009 -484495245.77072334 0 -484495245.77072334 -666856646.31775665 0 0 0 0 -1153559753.2549591 -1054155074.4020348 0 -1054155074.4020348 -586770134.41892624 0 0 0 0 -1395102320.4621696 -748223126.8621006 0 -748223126.8621006 -261301452.28401947 0 0 0 0 -402347992.91743469 -272461616.98668289 0 -272461616.98668289 -535389427.6187706 0 0 0 0 156369390.03333664 66736117.566679001 0 66736117.566679001 -10596143.266498566 0 0 0 0 587215.62649342569 -3487612.9667890929 0 -3487612.9667890929 -8712532.351597257 0 0 0 0 -407994593.22313619 -322288552.19963181 0 -322288552.19963181 -369271357.47325134 0 0 0 0 -55209761.662666321 -15265105.034549713 0 -15265105.034549713 57625738.986564636 0 0 0 0 -74650952.822540283 -18936656.933261871 0 -18936656.933261871 75010300.191745758 0 0 0 0 -30271753.599006653 14589556.084655762 0 14589556.084655762 57849640.893901825 0 0 0 0 -58624835.62802887 3144064.5003929138 0 3144064.5003929138 87043071.752895355 0 0 0 0 168578951.22146606 -455729942.31578064 0 -455729942.31578064 -186611588.07996845 0 0 0 0 -3304805.586566925 23778834.757406235 0 23778834.757406235 -5315072.9978179932 0 0 0 0 -2414175569.5326309 -1112975325.3732395 0 -1112975325.3732395 16315182.605350494 0 0 0 0 -7022.7926840172731 -747685.5871920865 0 -747685.5871920865 -3056605.4469041973 0 0 0 0 -67643178.994102478 -34620597.829235077 0 -34620597.829235077 54893055.014025688 0 0 0 0 73955438.776283264 36178159.930624008 0 36178159.930624008 -130141087.63690567 0 0 0 0 239063103.47636795 -402890283.09188509 0 -402890283.09188509 170008605.19052124 0 0 0 0 180519987.20742798 -135121247.14634705 0 -135121247.14634705 -90567810.15455246 0 0 0 0 393304871.48908997 65129803.495372772 0 65129803.495372772 77481180.466503143 0 0 0 0 -30470138.715545654 -81668769.848897934 0 -81668769.848897934 -23805124.585514069 0 0 0 0 144905559.16475677 44613599.322410583 0 44613599.322410583 65350236.86156559 0 0 0 0 101541565.19960785 -103572872.37405396 0 -103572872.37405396 117318909.80291939 0 0 0 0 219836281.4094696 -412030379.69631195 0 -412030379.69631195 212783319.17764282 0 0 0 0 86103740.564029694 -43429579.804672241 0 -43429579.804672241 388713091.18395996 0 0 0 0 131857185.13824844 -435626102.7964077 0 -435626102.7964077 357508508.93880463 0 0 0 0 194031689.79490423 9063867.766616106 0 9063867.766616106 -3631629.4396705627 0 0 0 0 244789857.1749382 -359699246.49518585 0 -359699246.49518585 302317439.53757477 0 0 0 0 82290301.759605408 -276472357.99876404 0 -276472357.99876404 441410787.20788264 0 0 0 0 42633706.519176483 95535191.256084442 0 95535191.256084442 -22303000.3176651 0 0 0 0 -259847386.79351807 -267161696.85651398 0 -267161696.85651398 -319594130.06248093 0 0 0 0 1365868.509378165 -1225300.4162954483 0 -1225300.4162954483 -562660.44622682501 0 0 0 0 138939990.97585297 -405886113.39058685 0 -405886113.39058685 405961935.79641724 0 0 0 0 -506118987.56325531 -420576662.28720856 0 -420576662.28720856 -157835719.9410553 0 0 0 0 90396591.219451904 -604355504.33668137 0 -604355504.33668137 -934824076.72684097 0 0 0 0 -404366309.09407806 -194182178.18683624 0 -194182178.18683624 -67184988.744239807 0 0 0 0 681498.0743380934 -1283067.966516424 0 -1283067.966516424 -1695708.0097145196 0 0 0 0 -9529296.905254364 141132255.7442646 0 141132255.7442646 -1100636161.8139801 0 0 0 0 -121627936.17484283 -843657289.73172379 0 -843657289.73172379 -1361359140.1659508 0 0 0 0 -1792197169.2089729 -425502716.40478325 0 -425502716.40478325 1120024.8895187378 0 0 0 0 -7947816.5165863037 -381955102.14616585 0 -381955102.14616585 -26103421.656196594 0 0 0 0 -40886247.442230225 -889994250.04469109 0 -889994250.04469109 -666503225.52833176 0 0 0 0 -318843295.23603821 -356352728.63323593 0 -356352728.63323593 -37862637.032779694 0 0 0 0 -571885305.42106247 -604109155.99900627 0 -604109155.99900627 -273292349.92030334 0 0 0 0 -295958566.28406906 -176479628.79448128 0 -176479628.79448128 -29506354.093078613 0 0 0 0 -199943838.95900345 -175337881.88330269 0 -175337881.88330269 -261693779.9642868 0 0 0 0 56581789.307472229 44996231.121520996 0 44996231.121520996 -23641595.76544714 0 0 0 0 -167921674.45317078 -65226330.572360992 0 -65226330.572360992 -155876308.11580992 0 0 0 0 -380473738.59999084 -266423038.83389282 0 -266423038.83389282 -122790756.31709051 0 0 0 0 -320677902.77785301 -371445672.10364103 0 -371445672.10364103 -398218972.30667877 0 0 0 0 -621571613.55368042 -69091124.825115204 0 -69091124.825115204 -650917639.51827049 0 0 0 0 -476299474.70004845 -610062773.70484591 0 -610062773.70484591 -782604837.92198563 0 0 0 0 -159970502.06932068 -221356538.07540131 0 -221356538.07540131 -378215714.03263092 0 0 0 0 -408318475.30345917 -393850333.86762238 0 -393850333.86762238 -305234238.48500061 0 0 0 0 -552828452.12944794 -340802800.59691906 0 -340802800.59691906 -96160575.020683289 0 0 0 0 -420930511.71120453 -183919547.4454422 0 -183919547.4454422 -233935086.15700531 0 0 0 0 -258339776.16126251 -296590923.42063522 0 -296590923.42063522 -173062172.69169617 0 0 0 0 -303830088.19902802 -397364229.31168747 0 -397364229.31168747 -185037311.50324249 0 0 0 0 -83951846.935695648 -117606981.56932449 0 -117606981.56932449 -104873872.90322113 0 0 0 0 11443582.063575745 -245817883.20600128 0 -245817883.20600128 38285618.078250885 0 0 0 0 -538808233.52301025 -289994801.55237579 0 -289994801.55237579 -89471506.666051865 0 0 0 0 -425536181.11013412 -211983836.97012329 0 -211983836.97012329 -146515368.52431488 0 0 0 0 -828373471.25952339 -78861646.642597198 0 -78861646.642597198 -188420919.07319641 0 0 0 0 5291756.69367636 -9053903.7511521652 0 -9053903.7511521652 4646027.8601849489 0 0 0 0 -97684880.156433105 -229602643.2600708 0 -229602643.2600708 -456125057.76567078 0 0 0 0 -17254689.528144836 -7096885.8061008453 0 -7096885.8061008453 288053811.72847176 0 0 0 0 -586902500.68112755 -414153514.41723251 0 -414153514.41723251 -172408310.18429565 0 0 0 0 126213.39718388766 -173552.59818082675 0 -173552.59818082675 487189.96440578066 0 0 0 0 -13612752.779399872 -66547968.042962074 0 -66547968.042962074 186799390.90420914 0 0 0 0 1570790.5087411404 -4283222.2307321299 0 -4283222.2307321299 1777531.0387118338 0 0 0 0 12733441.901283264 -34351083.210092545 0 -34351083.210092545 218852948.02553475 0 0 0 0 591417.2255859375 -4221448.1972980499 0 -4221448.1972980499 2359125.4624786377 0 0 0 0 -180495100.29661942 -150131348.69755554 0 -150131348.69755554 47489694.971435547 0 0 0 0 -137235389.10079193 56811457.000621796 0 56811457.000621796 121429699.90261459 0 0 0 0 1873393.2650343031 -4420250.2575360239 0 -4420250.2575360239 683299.76141796075 0 0 0 0 -41944031.316261292 -714359108.71532822 0 -714359108.71532822 1297399914.2184544 0 0 0 0 647262.47750377655 -3033720.3696667627 0 -3033720.3696667627 -1043380.0672340347 0 0 0 0 -130000463.6386652 -395967623.81959343 0 -395967623.81959343 622156790.89801025 0 0 0 0 -67312463.857009888 -428934480.15783882 0 -428934480.15783882 43918650.043624878 0 0 0 0 482923683.75051117 -123595457.32552338 0 -123595457.32552338 -1357166356.4336634 0 0 0 0 243146608.70842743 -267590565.02978516 0 -267590565.02978516 298619596.8360877 0 0 0 0 -90051397.008735657 -49584629.416172028 0 -49584629.416172028 280377269.63544464 0 0 0 0 2039599.9510797709 235974.6123829037 0 235974.6123829037 -1446847.5715849176 0 0 0 0 204514392.55354309 -324724701.89936066 0 -324724701.89936066 230555506.74177551 0 0 0 0 -58666900.493476868 -594940650.76935577 0 -594940650.76935577 355483045.0557251 0 0 0 0 169205879.6039505 -103899185.34482527 0 -103899185.34482527 561469455.60745239 0 0 0 0 -286964866.08006287 -825158480.76017761 0 -825158480.76017761 1925007531.7646298 0 0 0 0 -43136851.113372803 -451810828.43596649 0 -451810828.43596649 1579985247.9799347 0 0 0 0 368017857.33486176 -1314606915.1743965 0 -1314606915.1743965 1083425114.134346 0 0 0 0 243267449.21520615 -520087892.82019806 0 -520087892.82019806 143123819.05229187 0 0 0 0 335091823.01163483 -592950098.16217422 0 -592950098.16217422 125659158.02628803 0 0 0 0 86263616.114242554 -224084324.21426392 0 -224084324.21426392 -1433623912.7192593 0 0 0 0 8723957.8487565033 -8004144.9095426742 0 -8004144.9095426742 3285551.860652836 0 0 0 0 450744622.95593452 -951583195.7133007 0 -951583195.7133007 -120823620.93728638 0 0 0 0 -448374660.59136963 -175623686.80057907 0 -175623686.80057907 -198873727.87500763 0 0 0 0 245510484.90751648 -145451403.82892609 0 -145451403.82892609 -582960374.37319183 0 0 0 0 174805156.42464447 -368340216.21043396 0 -368340216.21043396 -296709817.82155418 0 0 0 0 398149295.4325676 -353287678.52428436 0 -353287678.52428436 -295702945.69237518 0 0 0 0 17858302.933353424 -394949466.20499229 0 -394949466.20499229 -154775784.7280426 0 0 0 0 49458548.132965088 -145416946.70831299 0 -145416946.70831299 -263423690.37902069 0 0 0 0 -83361881.78710556 -204562532.57105637 0 -204562532.57105637 -243005052.90299416 0 0 0 0 -115768035.17666054 -291272315.39502716 0 -291272315.39502716 -392097056.28687286 0 0 0 0 91497698.534973145 -34348606.688804626 0 -34348606.688804626 -563303065.38145065 0 0 0 0 153989162.00927925 -297202766.78868103 0 -297202766.78868103 -168937488.89653778 0 0 0 0 98350007.689086914 -62319036.604286194 0 -62319036.604286194 -270082135.99147415 0 0 0 0 201527430.04581642 -152581928.4852829 0 -152581928.4852829 -293063620.06357574 0 0 0 0 442864142.87675285 -751768523.94085312 0 -751768523.94085312 206031825.60702515 0 0 0 0 143718332.94709778 -151885065.0096283 0 -151885065.0096283 72336600.05645752 0 0 0 0 265083475.45113182 -505733557.53903675 0 -505733557.53903675 249801227.64990234 0 0 0 0 189109893.41623402 -423974126.07186317 0 -423974126.07186317 227605697.22270966 0 0 0 0 52786752.307350159 -140401935.40577698 0 -140401935.40577698 645223691.37724686 0 0 0 0 -57779706.209624767 -630847699.92515016 0 -630847699.92515016 182724591.08843231 0 0 0 0 17444748.710575104 -179296873.31699371 0 -179296873.31699371 -35651441.977626801 0 0 0 0 23614461.617744446 -285548872.14212418 0 -285548872.14212418 -89831252.969970703 0 0 0 0 -157051406.68184853 -104091710.61750793 0 -104091710.61750793 -267653347.03599548 0 0 0 0 -2436848.0966453552 -3518132.537733078 0 -3518132.537733078 -2082592.0764350891 0 0 0 0 24236253.460092545 -200312687.04431248 0 -200312687.04431248 -345787718.81993484 0 0 0 0 -2621552.3206661753 -3507209.2977855001 0 -3507209.2977855001 2434696.2646871619 0 0 0 0 1619762.6996743148 -1024982.4263140969 0 -1024982.4263140969 266409.77018741518 0 0 0 0 -25267644.540798187 -158477118.93735886 0 -158477118.93735886 -292131775.10109758 0 0 0 0 -2202999.2911376953 -2289637.0753173828 0 -2289637.0753173828 640169.48488616943 0 0 0 0 -71761736.129486084 23976847.672927856 0 23976847.672927856 68893256.107849121 0 0 0 0 2172687.5313415527 -2160528.9843940735 0 -2160528.9843940735 -879420.53242111206 0 0 0 0 167872.90294647217 -1305843.1759910583 0 -1305843.1759910583 -1214853.3223819733 0 0 0 0 832355.6550871972 -790368.06345537305 0 -790368.06345537305 712839.75194663182 0 0 0 0 -17015957.850035667 106312852.95159531 0 106312852.95159531 -318850669.46506882 0 0 0 0 98069130.732219696 -77240050.626739502 0 -77240050.626739502 -292361671.25770569 0 0 0 0 49214457.415287018 -56597563.282004356 0 -56597563.282004356 -300842494.00859833 0 0 0 0 -386806.79459970817 -4443676.4323480548 0 -4443676.4323480548 1492904.2764702011 0 0 0 0 89168.180053710938 -5783633.3840942383 0 -5783633.3840942383 -4483298.3434448242 0 0 0 0 -3684543.5903892517 10306710.077838898 0 10306710.077838898 -229377777.72140503 0 0 0 0 32480.513324737549 -7204206.7978439331 0 -7204206.7978439331 -2773093.7227249146 0 0 0 0 3972454.4379662983 -3447062.9805339165 0 -3447062.9805339165 -1670638.118157004 0 0 0 0 96839686.96219635 40540528.470093727 0 40540528.470093727 24180631.936664581 0 0 0 0 1247177.1262588501 -4501672.9229373932 0 -4501672.9229373932 -237815883.28221893 0 0 0 0 1802945.9754759856 -3520006.4779474735 0 -3520006.4779474735 -3846310.1789411567 0 0 0 0 6994710.47706604 -52286277.799842834 0 -52286277.799842834 425599126.88747406 0 0 0 0 -286180.09444696456 -1532520.3431285741 0 -1532520.3431285741 954616.3788346462 0 0 0 0 20863044.388000488 47528279.945213318 0 47528279.945213318 150529778.92893982 0 0 0 0 61689146.222640991 -167696325.743927 0 -167696325.743927 257862268.58279228 0 0 0 0 -5660804.5722045898 -58523995.116889954 0 -58523995.116889954 291974564.12849426 0 0 0 0 -380851.54375839233 -4861834.7629966736 0 -4861834.7629966736 9740253.6489257812 0 0 0 0 1417500.263224218 -4868334.4128289819 0 -4868334.4128289819 -1480412.5224084761 0 0 0 0 -23038129.547603607 -15602815.783742905 0 -15602815.783742905 186219356.94068146 0 0 0 0 30360246.497283936 -14972908.501155853 0 -14972908.501155853 5150167.8303146362 0 0 0 0 -27767104.482841492 59444883.220689774 0 59444883.220689774 76374492.869117737 0 0 0 0 17842786.90895462 13144775.798398972 0 13144775.798398972 -236620428.58068848 0 0 0 0 1437458.0524813682 -8958105.4008059129 0 -8958105.4008059129 -1939366.1631560083 0 0 0 0 2799327.4641801137 -1233206.9220750853 0 -1233206.9220750853 -1697762.7390138395 0 0 0 0 -7060968.4457244873 -71986802.721008301 0 -71986802.721008301 75416300.756095886 0 0 0 0 63417819.705680847 -94296626.619907379 0 -94296626.619907379 27420802.792137146 0 0 0 0 37695176.443565369 -111676874.61812973 0 -111676874.61812973 92205744.638439178 0 0 0 0 102657752.99562073 -128522043.75608063 0 -128522043.75608063 57006912.429710388 0 0 0 0 65886594.888515472 -152077242.00380135 0 -152077242.00380135 112140318.92243195 0 0 0 0 222832725.25392532 -227032247.73348236 0 -227032247.73348236 -72154787.17477417 0 0 0 0 52804787.041015625 -124369240.74555206 0 -124369240.74555206 93108078.826873779 0 0 0 0 143826352.24666595 -211366905.12235641 0 -211366905.12235641 120543350.72618675 0 0 0 0 141912692.99485779 -157364607.73160172 0 -157364607.73160172 64629102.970775604 0 0 0 0 74050689.477256775 -214295025.73130417 0 -214295025.73130417 122342333.7312851 0 0 0 0 -209749.29552078247 -3173851.8330726624 0 -3173851.8330726624 996206.42460632324 0 0 0 0 2592502.2856216431 -7952419.3127059937 0 -7952419.3127059937 14014017.505447388 0 0 0 0 3141702.1585550308 -3879086.4905598909 0 -3879086.4905598909 -1866726.5643204954 0 0 0 0 7257804.5656738281 -6600067.1624412537 0 -6600067.1624412537 364841.89848327637 0 0 0 0 1310075.6236495972 -2316948.5625724792 0 -2316948.5625724792 9914034.0979537964 0 0 0 0 22544188.48500824 -3874085.6243104935 0 -3874085.6243104935 -8739231.7628936768 0 0 0 0 3725390.6400680542 862046.49705123901 0 862046.49705123901 2816206.038974762 0 0 0 0 1496741.651268743 -449629.11335660703 0 -449629.11335660703 -1144836.3029430769 0 0 0 0 52525189.393363953 -107794931.32618523 0 -107794931.32618523 71815905.898036957 0 0 0 0 100853803.466362 -75749687.089954376 0 -75749687.089954376 -18894452.158525944 0 0 0 0 10552822.374916077 8755960.8093891144 0 8755960.8093891144 31674799.460357666 0 0 0 0 -151249385.42541122 -204613498.10599613 0 -204613498.10599613 -24665725.33700943 0 0 0 0 43614499.947387695 -12138534.263980865 0 -12138534.263980865 -41479324.202476501 0 0 0 0 -76165.461514128372 1711044.5231491188 0 1711044.5231491188 582824.93966106325 0 0 0 0 -108470197.02807045 -20715809.234819412 0 -20715809.234819412 -75563685.464618683 0 0 0 0 -447544602.39270592 -138340975.19832802 0 -138340975.19832802 176527812.01187134 0 0 0 0 -454223.15232188441 1266170.1133730998 0 1266170.1133730998 662562.17470970005 0 0 0 0 141520704.11161423 -136029755.25723457 0 -136029755.25723457 86616219.01525116 0 0 0 0 224099240.46925735 -41688167.751657486 0 -41688167.751657486 30036453.75850296 0 0 0 0 30873176.340248108 -114410471.1486721 0 -114410471.1486721 101121289.49816132 0 0 0 0 -126087485.24614716 -170824017.05379295 0 -170824017.05379295 77592383.07809639 0 0 0 0 -16320401.904834747 -57685461.611541748 0 -57685461.611541748 129841167.85332584 0 0 0 0 23422245.226753235 -42648955.730805397 0 -42648955.730805397 -45338205.714185715 0 0 0 0 14354913.360635757 -49353062.282533646 0 -49353062.282533646 33339496.313419342 0 0 0 0 20673606.541372299 -66460848.301322937 0 -66460848.301322937 28277015.937210083 0 0 0 0 -20070151.258623123 -88965816.948555946 0 -88965816.948555946 45783178.628412247 0 0 0 0 -25651088.650943279 -61613211.139581442 0 -61613211.139581442 57242278.785255432 0 0 0 0 6721099.7023448944 -163377177.11870766 0 -163377177.11870766 -59245826.336292267 0 0 0 0 44455281.087315559 -111824067.01818371 0 -111824067.01818371 -237956441.11768341 0 0 0 0 26024567.533218384 -118715833.2747612 0 -118715833.2747612 -95943975.840880394 0 0 0 0 -15062936.310456276 220377824.62759042 0 220377824.62759042 -283738833.28786469 0 0 0 0 183416376.30872345 152064076.79909325 0 152064076.79909325 -397117406.10198975 0 0 0 0 30249197.126867294 77499014.758928299 0 77499014.758928299 -33552845.648376465 0 0 0 0 3007970.7253022492 -10832510.378430586 0 -10832510.378430586 -6890768.7782737873 0 0 0 0 -103088504.10958099 -85696779.456001282 0 -85696779.456001282 16055933.475521088 0 0 0 0 179581367.78381348 193924780.6178112 0 193924780.6178112 -186918720.09126663 0 0 0 0 1503132.3028295068 1167606.1939633898 0 1167606.1939633898 -2023694.0144069511 0 0 0 0 192227474.01678467 110871130.50366974 0 110871130.50366974 -281767433.94714355 0 0 0 0 -14375477.970069885 -96022236.573204517 0 -96022236.573204517 48886156.557517529 0 0 0 0 92337769.976257324 -26385396.236913681 0 -26385396.236913681 -580781.86363315582 0 0 0 0 2428665.384676164 1801714.7457708642 0 1801714.7457708642 -3309032.6453042533 0 0 0 0 227995723.53648376 -187136175.515625 0 -187136175.515625 8508175.5219993591 0 0 0 0 70376530.513889313 60802553.993445396 0 60802553.993445396 -175666829.19797897 0 0 0 0 -187397994.82926941 -57126627.982831955 0 -57126627.982831955 261027228.5377121 0 0 0 0 156138150.37195396 -100643558.37933922 0 -100643558.37933922 56165113.970615387 0 0 0 0 95322380.741882324 -126257156.5226078 0 -126257156.5226078 102763998.98035622 0 0 0 0 90871229.334411621 -80481227.520830154 0 -80481227.520830154 70349286.14575386 0 0 0 0 91810140.921595573 -129298159.56365585 0 -129298159.56365585 58371903.156410217 0 0 0 0 84025353.654953003 -103311754.95317268 0 -103311754.95317268 68000477.722385406 0 0 0 0 173719558.29037476 -94116141.901031494 0 -94116141.901031494 67631658.874679565 0 0 0 0 222523252.87830544 -131812565.90876102 0 -131812565.90876102 -11968191.293273926 0 0 0 0 104951649.36436844 -152848653.63273621 0 -152848653.63273621 -12966733.068687439 0 0 0 0 1417343.5694446154 1083023.7317850552 0 1083023.7317850552 -1775632.9387639705 0 0 0 0 100276581.03682327 -134607067.84716034 0 -134607067.84716034 -82616216.429397583 0 0 0 0 79849535.106229782 -36589362.700576305 0 -36589362.700576305 -91166928.745140076 0 0 0 0 -11619962.140548706 -57586338.770236969 0 -57586338.770236969 -79222920.755702972 0 0 0 0 91550328.703056335 -119206514.13768959 0 -119206514.13768959 -40565427.158535004 0 0 0 0 33649072.534052849 -41008835.018733025 0 -41008835.018733025 -16363422.847949982 0 0 0 0 19147629.910354614 17984933.707280159 0 17984933.707280159 -155929078.69965363 0 0 0 0 -85784154.268730164 44246345.758586884 0 44246345.758586884 -48209920.391677856 0 0 0 0 25154395.227684021 46765133.606983185 0 46765133.606983185 -45980722.067619324 0 0 0 0 145595228.72168636 33918609.882297993 0 33918609.882297993 20116877.993862152 0 0 0 0 55732151.140884399 -84174250.986377716 0 -84174250.986377716 91566506.491363525 0 0 0 0 56538103.980079651 -61522982.717435837 0 -61522982.717435837 -73486116.652103424 0 0 0 0 -168115028.57949829 163026809.07081413 0 163026809.07081413 57455722.754020691 0 0 0 0 -201764167.9660697 -130473853.58293986 0 -130473853.58293986 -52826928.29019165 0 0 0 0 -7675927.7035827637 -29938041.69960022 0 -29938041.69960022 -292511235.95082092 0 0 0 0 -150671252.49573898 -1790344.8852367401 0 -1790344.8852367401 60084458.321582794 0 0 0 0 -133601067.26672363 129867892.40027428 0 129867892.40027428 -171923818.74050713 0 0 0 0 181774.15852400102 -2791036.0159509219 0 -2791036.0159509219 1619079.3958237115 0 0 0 0 46675739.154075742 -4597126.9879105687 0 -4597126.9879105687 -34571688.698135376 0 0 0 0 218309122.53466034 -42774750.684651375 0 -42774750.684651375 -116261650.64638138 0 0 0 0 1853160.8258214032 -13436303.044669844 0 -13436303.044669844 -13265649.727337513 0 0 0 0 34440167.438171387 -247526026.53899574 0 -247526026.53899574 -279047113.47066689 0 0 0 0 4154412.960621757 -22379180.707014997 0 -22379180.707014997 -17106772.68360097 0 0 0 0 15962602.667190552 -21846602.267318726 0 -21846602.267318726 -1394294.8873672485 0 0 0 0 -30088174.462356567 -112504593.77098274 0 -112504593.77098274 97654274.390230179 0 0 0 0 7276041.984650936 -13738010.62147757 0 -13738010.62147757 -23088181.63141324 0 0 0 0 -20184848.144161224 -32509061.346715927 0 -32509061.346715927 86620323.752315521 0 0 0 0 -3131127.4573672265 -12699607.012590505 0 -12699607.012590505 9229727.6172295474 0 0 0 0 25785077.039485931 -29010582.245910645 0 -29010582.245910645 -7847440.7192611694 0 0 0 0 3500443.4442932308 -15200138.677484566 0 -15200138.677484566 -19383126.613377556 0 0 0 0 1134829.5266113281 -17629639.909690857 0 -17629639.909690857 -11852307.210105896 0 0 0 0 7540247.5279855728 -25896337.773329735 0 -25896337.773329735 -3758719.122756958 0 0 0 0 62838735.232204676 -57324346.588874817 0 -57324346.588874817 -35470775.791473389 0 0 0 0 10935918.893237114 -14668887.400842667 0 -14668887.400842667 -11260752.019271851 0 0 0 0 21173304.028236389 28281014.183631897 0 28281014.183631897 -99573774.736911774 0 0 0 0 -6089995.8164901733 38324037.473241806 0 38324037.473241806 -13978660.16494751 0 0 0 0 56614156.388168335 -31611076.650941849 0 -31611076.650941849 -16622618.63394165 0 0 0 0 -22599280.695236206 22412008.506809235 0 22412008.506809235 -45719581.806037903 0 0 0 0 -58224657.556419373 45388708.439231873 0 45388708.439231873 -48870702.088441849 0 0 0 0 -28628676.771835327 41861787.764148712 0 41861787.764148712 -56490700.222934723 0 0 0 0 -35897741.661178589 21250636.927743912 0 21250636.927743912 -72714400.272331238 0 0 0 0 -7496709.5276794434 47970194.315883636 0 47970194.315883636 -48382198.842537165 0 0 0 0 -13078540.035217285 11918062.083162308 0 11918062.083162308 -69125351.585144043 0 0 0 0 -2366707.434567675 -11732172.044318609 0 -11732172.044318609 -5504211.5763849877 0 0 0 0 18576.911819458008 -7351396.2046203613 0 -7351396.2046203613 3390272.9684448242 0 0 0 0 1833784.7791453712 -19172456.818715107 0 -19172456.818715107 2663026.0878056362 0 0 0 0 1395320.0261430778 -8636489.4501776546 0 -8636489.4501776546 -26304562.385331269 0 0 0 0 -3366645.0151519775 -103601475.25138855 0 -103601475.25138855 -69203971.754379272 0 0 0 0 33223504.876327515 -51020224.352560043 0 -51020224.352560043 -220732468.37038898 0 0 0 0 -1199784.242308028 -16780224.020696249 0 -16780224.020696249 -3952649.1641312279 0 0 0 0 1722136.0441863164 -993280.06597974291 0 -993280.06597974291 -11306647.536100537 0 0 0 0 -23051698.883903503 -7156498.4468841553 0 -7156498.4468841553 -101530838.83216965 0 0 0 0 -6867757.2971801758 -29841282.303924561 0 -29841282.303924561 -21041598.829551697 0 0 0 0 498842.2697927244 5239.0799886328168 0 5239.0799886328168 -1816438.1235773601 0 0 0 0 8374737.6648686342 -8899039.5937533639 0 -8899039.5937533639 -28466235.276480928 0 0 0 0 14325331.058425903 -9283845.6250762939 0 -9283845.6250762939 -13174974.07118988 0 0 0 0 19732874.833526611 -47331297.935932159 0 -47331297.935932159 -36039290.408790588 0 0 0 0 3058940.9276885986 -201260.03690338135 0 -201260.03690338135 -14814199.184165955 0 0 0 0 -217723.32063921541 -14130192.441629369 0 -14130192.441629369 -28150267.999454521 0 0 0 0 19753445.758300781 -4979582.2957763672 0 -4979582.2957763672 -24771037.698425293 0 0 0 0 8999607.789898729 -16647685.749842871 0 -16647685.749842871 -14793964.739730299 0 0 0 0 5669597.174041748 -3075837.764793396 0 -3075837.764793396 -12275966.189781189 0 0 0 0 -2404066.4744262695 -18029513.682659149 0 -18029513.682659149 -38560213.849029541 0 0 0 0 6934172.2570731938 -23418458.602474686 0 -23418458.602474686 1398687.4089892432 0 0 0 0 28083125.659498215 -34075626.501716614 0 -34075626.501716614 -109356187.52429199 0 0 0 0 4047057.4329223633 -15587222.550678253 0 -15587222.550678253 -68823650.585174561 0 0 0 0 18452029.954366684 -18373278.023639679 0 -18373278.023639679 -15472173.53263092 0 0 0 0 21070742.641334534 -23027534.602191925 0 -23027534.602191925 -7767420.9926052094 0 0 0 0 17471946.966624565 -16369429.037802281 0 -16369429.037802281 -59808570.371987402 0 0 0 0 11506149.429433957 -21975047.639757536 0 -21975047.639757536 -21626395.223825827 0 0 0 0 13042577.0689888 -20554568.609294891 0 -20554568.609294891 -29455989.700386047 0 0 0 0 7141339.3244468719 -16884072.251425199 0 -16884072.251425199 -20273124.941451728 0 0 0 0 108762936.0525589 -2332290.255531311 0 -2332290.255531311 -49033839.493743896 0 0 0 0 1876933.1828765869 -14937728.038673401 0 -14937728.038673401 -11179356.111628532 0 0 0 0 3555217.50549886 -11131291.715621781 0 -11131291.715621781 -19256329.227630626 0 0 0 0 2817669.8609708082 928908.34840105474 0 928908.34840105474 6358.104698240757 0 0 0 0 1002426.3760223389 -25086329.724411011 0 -25086329.724411011 -17648037.649116516 0 0 0 0 -2929230.7864074707 -22337325.837875366 0 -22337325.837875366 -37616579.454128265 0 0 0 0 3725476.2108411677 -12291629.5213817 0 -12291629.5213817 -17773384.999598674 0 0 0 0 -1487949.7468099594 -18733995.785898209 0 -18733995.785898209 -39775225.968429565 0 0 0 0 63652955.332321167 -5669021.5962753296 0 -5669021.5962753296 -90161296.114219666 0 0 0 0 59971046.843986511 -203074825.94061279 0 -203074825.94061279 32006259.43371582 0 0 0 0 3248979.6386041343 -19808000.773456998 0 -19808000.773456998 -1439332.9305942953 0 0 0 0 -4674257.5112915039 -22929186.805053711 0 -22929186.805053711 -39086819.036499023 0 0 0 0 272382.44773864746 -116805429.10993958 0 -116805429.10993958 -90257577.467590332 0 0 0 0 -3167522.6543121338 -14889477.985610962 0 -14889477.985610962 -2785145.9525604248 0 0 0 0 9428259.3888460491 -17649633.590076689 0 -17649633.590076689 -10420920.401855454 0 0 0 0 7448670.7200023746 -17571028.520271778 0 -17571028.520271778 -5133304.171024546 0 0 0 0 2649138.709650673 -18526519.490272149 0 -18526519.490272149 -2029346.6899502426 0 0 0 0 98147286.703182101 -10580904.559552506 0 -10580904.559552506 11865396.335083008 0 0 0 0 -2815792.1650543213 -14827171.973098755 0 -14827171.973098755 -3652312.1010742188 0 0 0 0 8129668.2819119953 -11996904.550914593 0 -11996904.550914593 -24796963.481815249 0 0 0 0 -131646858.78850365 -91819949.307540894 0 -91819949.307540894 77265386.000793457 0 0 0 0 111768.26299743619 -17955047.079476513 0 -17955047.079476513 13633617.251787841 0 0 0 0 2160355.5719058178 -7611208.5215346338 0 -7611208.5215346338 -187410.31002117693 0 0 0 0 -190324641.06829631 -65026087.785345078 0 -65026087.785345078 97162841.699584961 0 0 0 0 -51129906.00699234 22840875.133544922 0 22840875.133544922 -50622272.690460205 0 0 0 0 -88830462.712955475 -77139450.764068604 0 -77139450.764068604 63037782.296325684 0 0 0 0 -90873532.272838593 -38109810.979446411 0 -38109810.979446411 125953674.44437408 0 0 0 0 -96411186.134357452 -135107878.16454315 0 -135107878.16454315 31637684.656967163 0 0 0 0 63820739.648567677 -193186928.88332748 0 -193186928.88332748 3633073.3262939453 0 0 0 0 78241433.334434509 -72706372.286682129 0 -72706372.286682129 -5902777.6689147949 0 0 0 0 -98535915.503379822 -22128319.994232178 0 -22128319.994232178 -41642342.536758423 0 0 0 0 -125682235.18250656 -100994713.35391998 0 -100994713.35391998 49929946.035598755 0 0 0 0 30660446.660774231 -77221767.306289673 0 -77221767.306289673 34889879.589050293 0 0 0 0 116658193.92136383 -30045212.329833984 0 -30045212.329833984 18175338.77923584 0 0 0 0 4102456.8436127827 -14494455.399934664 0 -14494455.399934664 -7658292.2425482273 0 0 0 0 -6622733.6909566289 -12419079.02803709 0 -12419079.02803709 11561920.276709646 0 0 0 0 43441608.643163681 -17659035.359474182 0 -17659035.359474182 60687455.913696289 0 0 0 0 -1700197.3054616763 -34331424.780061372 0 -34331424.780061372 5059589.1336718202 0 0 0 0 4347492.3116073608 -22170325.282836914 0 -22170325.282836914 -4875707.510925293 0 0 0 0 -1294446.6386026274 -27045417.940784287 0 -27045417.940784287 -5661857.1770076901 0 0 0 0 -23471712.230491638 12003107.282669067 0 12003107.282669067 -48640164.890838623 0 0 0 0 7294635.8895126469 -12734845.575133748 0 -12734845.575133748 -40009288.78643696 0 0 0 0 117746172.08911896 -142238411.2182312 0 -142238411.2182312 46469444.116264343 0 0 0 0 37484001.122550964 -82787066.497558594 0 -82787066.497558594 89557497.150138855 0 0 0 0 21977220.954158783 1989953.5577926636 0 1989953.5577926636 -56064598.101928711 0 0 0 0 927884.62854449451 220921.602805309 0 220921.602805309 -10657268.426370712 0 0 0 0 367093061.40105438 -51270103.289115906 0 -51270103.289115906 -60918250.383924484 0 0 0 0 66243020.401073456 -66867843.229026794 0 -66867843.229026794 -61555047.549438477 0 0 0 0 -11579299.11384964 -62512447.207626343 0 -62512447.207626343 23923865.706207275 0 0 0 0 -5179410.408493042 5119297.0014953613 0 5119297.0014953613 -1894932.4062767029 0 0 0 0 -86886322.536560059 -216640628.54499817 0 -216640628.54499817 -104437292.69677734 0 0 0 0 -1410609.2427301351 -3262141.7898761407 0 -3262141.7898761407 2819815.1354466826 0 0 0 0 -167196978.26543427 -151619732.8486557 0 -151619732.8486557 -42620420.610961914 0 0 0 0 103700129.29384613 32172136.290603638 0 32172136.290603638 805709.64627075195 0 0 0 0 -35695318.108528137 11012508.257659912 0 11012508.257659912 59490144.453109741 0 0 0 0 -18376426.217208862 -71555.169387817383 0 -71555.169387817383 49603931.552734375 0 0 0 0 -23582464.680915833 16891204.064002991 0 16891204.064002991 91266584.280845642 0 0 0 0 -6412822.8532552719 -30026160.042871475 0 -30026160.042871475 -17486032.478118896 0 0 0 0 60752698.781074524 -8787052.3981018066 0 -8787052.3981018066 47234342.646606445 0 0 0 0 -165375613.19190979 -103779280.09877014 0 -103779280.09877014 -17550621.142223835 0 0 0 0 127629648.55310822 -4732309.8886260986 0 -4732309.8886260986 -15892192.006581306 0 0 0 0 -72346883.394691467 -204749228.70973206 0 -204749228.70973206 -75427895.775596619 0 0 0 0 -51222087.373813629 -183263436.96940613 0 -183263436.96940613 -58173379.374847412 0 0 0 0 -346983684.01363373 -181355735.11776733 0 -181355735.11776733 -49249462.101043701 0 0 0 0 -207647891.83002472 -65899747.573562622 0 -65899747.573562622 -155248012.11630249 0 0 0 0 -255547338.79676247 -176242930.96705627 0 -176242930.96705627 -78325955.355926514 0 0 0 0 -432169275.31257629 76436686.43548584 0 76436686.43548584 -281583423.31919861 0 0 0 0 -462575193.24562073 -11786837.770385742 0 -11786837.770385742 274485951.56933594 0 0 0 0 -647365360.76361847 -230500858.79980469 0 -230500858.79980469 76885994.596252441 0 0 0 0 -574617147.30599976 -530943271.28237915 0 -530943271.28237915 1075136577.5721016 0 0 0 0 -360450766.37641525 -658948874.74864197 0 -658948874.74864197 277077694.22979736 0 0 0 0 -222017091.84798431 -560499554.51620483 0 -560499554.51620483 -219489306.71221924 0 0 0 0 -219952110.76982117 -437925923.69087219 0 -437925923.69087219 -26420358.25100708 0 0 0 0 -334391754.33576202 -366693061.97686768 0 -366693061.97686768 135622796.56091309 0 0 0 0 -364482902.60161281 -730070793.3421545 0 -730070793.3421545 -191380599.32525635 0 0 0 0 185621305.28943634 72417225.793380737 0 72417225.793380737 69244173.347015381 0 0 0 0 -710546.54699516203 1775068.1163846524 0 1775068.1163846524 -1795629.3592530042 0 0 0 0 183674821.526474 -38848528.092651367 0 -38848528.092651367 -73793413.618713379 0 0 0 0 134679660.65211487 -51053497.175354004 0 -51053497.175354004 -44798532.390899658 0 0 0 0 197956491.18777466 -36917994.523193359 0 -36917994.523193359 -74752175.546356201 0 0 0 0 274299926.88023376 63339500.095153809 0 63339500.095153809 -69574671.372283936 0 0 0 0 178511362.49378967 43688111.4949646 0 43688111.4949646 -10594000.600037783 0 0 0 0 298032694.61615944 -28719239.128177643 0 -28719239.128177643 -137485541.25244141 0 0 0 0 221982263.73526764 -84715239.480331421 0 -84715239.480331421 -165959306.77243042 0 0 0 0 332443908.08075142 557028756.39311981 0 557028756.39311981 990542708.98303223 0 0 0 0 289401927.46569824 -53573630.64944458 0 -53573630.64944458 -172676118.28277588 0 0 0 0 499893068.0334549 -58173660.360443115 0 -58173660.360443115 -321876259.7052002 0 0 0 0 -113132047.82273865 -644029563.12155151 0 -644029563.12155151 -744137934.41912842 0 0 0 0 116693018.09892273 -313135966.80709839 0 -313135966.80709839 -1041230620.866806 0 0 0 0 -180414662.88757324 -339615715.43727875 0 -339615715.43727875 -172808238.12109375 0 0 0 0 -29123651.413909912 -197600535.91825867 0 -197600535.91825867 -91151604.388031006 0 0 0 0 -18762865.655815125 -346514653.13038635 0 -346514653.13038635 -534757726.07702637 0 0 0 0 -139707864.19971466 -523138107.10317993 0 -523138107.10317993 -204113364.39248657 0 0 0 0 14999510.98166275 -253936349.86535645 0 -253936349.86535645 -393118635.42260742 0 0 0 0 -78200813.458435059 -27480786.658290863 0 -27480786.658290863 -165545556.05395126 0 0 0 0 -3397416.080556618 -45382313.383545049 0 -45382313.383545049 7648509.0459095603 0 0 0 0 -98209051.279273987 114806897.35144806 0 114806897.35144806 155986840.96736145 0 0 0 0 136455086.98052979 205879499.95625305 0 205879499.95625305 -466059939.80950737 0 0 0 0 13004355.84416008 -90892250.879682541 0 -90892250.879682541 -214095785.17739487 0 0 0 0 -204147153.69656944 -180264446.83840942 0 -180264446.83840942 121094931.96340942 0 0 0 0 172053483.01217651 77691239.997070312 0 77691239.997070312 -774607762.38833618 0 0 0 0 52674767.52901268 -72561133.250619888 0 -72561133.250619888 -208343600.25579453 0 0 0 0 22272246.740932703 -93951699.673877001 0 -93951699.673877001 -220910428.3639183 0 0 0 0 31258801.980393887 -46328233.63471067 0 -46328233.63471067 -252636786.28282928 0 0 0 0 -50470985.851478577 -140043887.57163286 0 -140043887.57163286 -155744667.2487545 0 0 0 0 109646056.65047455 -69579311.235326767 0 -69579311.235326767 -372641811.66985846 0 0 0 0 254988592.93151855 -44937876.637903214 0 -44937876.637903214 -57075536.184928894 0 0 0 0 10758444.054057028 -110299.15621585771 0 -110299.15621585771 -45158400.461338893 0 0 0 0 71441982.212905884 -103755495.54610825 0 -103755495.54610825 -152407262.90182304 0 0 0 0 121769747.43938446 28268657.010197639 0 28268657.010197639 -83249451.420509338 0 0 0 0 103048513.8164444 -79833133.277048588 0 -79833133.277048588 -152101300.93124199 0 0 0 0 59246404.149841309 -74650764.997313976 0 -74650764.997313976 -129945981.4346447 0 0 0 0 19720212.540904999 -79807192.080196381 0 -79807192.080196381 -127047451.05845928 0 0 0 0 3157914.5661388077 -43327817.156978786 0 -43327817.156978786 -2888099.7992339209 0 0 0 0 -125191506.8163147 -565681600.54991531 0 -565681600.54991531 -517719220.78705597 0 0 0 0 -273016039.52563477 -451427230.31574249 0 -451427230.31574249 -149926997.08807182 0 0 0 0 -737022477.79063034 -383471376.75379562 0 -383471376.75379562 1831274.4666290283 0 0 0 0 -337650622.20670319 -581941847.83376694 0 -581941847.83376694 -412120935.00395203 0 0 0 0 -325003548.75549316 -588981879.87329483 0 -588981879.87329483 -412423640.17120385 0 0 0 0 -912584636.89596558 -1307550694.2254295 0 -1307550694.2254295 -1290408797.800827 0 0 0 0 108291547.77321625 -324430300.47795868 0 -324430300.47795868 -487544849.34257698 0 0 0 0 -87459573.67156601 -698634091.804039 0 -698634091.804039 -1184184646.1759491 0 0 0 0 211596527.35808945 191217992.76655769 0 191217992.76655769 -1099236999.0847931 0 0 0 0 157925097.02838516 93559440.585250854 0 93559440.585250854 -443463020.71681976 0 0 0 0 -212153816.24317169 -232128004.50276566 0 -232128004.50276566 -698088882.17865181 0 0 0 0 757929816.11425209 249105453.22521973 0 249105453.22521973 -876380697.9835968 0 0 0 0 -654942453.26830673 560372314.93857574 0 560372314.93857574 -2113448999.3777695 0 0 0 0 -87761001.409324646 -626031992.74618721 0 -626031992.74618721 -3042009999.0353851 0 0 0 0 -4563345.9244213924 603225.85819690302 0 603225.85819690302 1633067.0702011436 0 0 0 0 -1441130363.1704397 -1210014461.7733374 0 -1210014461.7733374 -484604606.75977325 0 0 0 0 -115422676.6648674 -455491175.86461735 0 -455491175.86461735 -1013712764.4818802 0 0 0 0 50433071.037525177 -151404514.16869354 0 -151404514.16869354 -99087305.240402222 0 0 0 0 -510875860.2301178 256876782.77802277 0 256876782.77802277 200248536.95693588 0 0 0 0 -1398861497.1906147 -421138395.98122311 0 -421138395.98122311 7276243.7503738403 0 0 0 0 -361418043.93745422 -4341495.8792991638 0 -4341495.8792991638 45065968.113095284 0 0 0 0 -67855438.108169556 58965951.167644501 0 58965951.167644501 -94943026.291252136 0 0 0 0 -314041671.43263245 -50145446.978801727 0 -50145446.978801727 -8908619.7479629517 0 0 0 0 10565944.857406616 -48446615.428890228 0 -48446615.428890228 7128931.8600234985 0 0 0 0 31001842.025299072 -42242049.122741699 0 -42242049.122741699 -59213508.616352081 0 0 0 0 -7867554.9677124023 19662517.733428955 0 19662517.733428955 -74798064.761493683 0 0 0 0 15904834.973495483 -29683260.494697571 0 -29683260.494697571 -24210118.86428833 0 0 0 0 14654736.767349243 -20253418.289253235 0 -20253418.289253235 -12177015.032989502 0 0 0 0 -69629923.509567261 -15889943.625511169 0 -15889943.625511169 26237417.141693115 0 0 0 0 -720696.55207107961 -8917556.1028885543 0 -8917556.1028885543 6109419.3181716278 0 0 0 0 17776511.18911314 -51837186.398102522 0 -51837186.398102522 8774304.4819335938 0 0 0 0 -17834607.382147819 -7123411.6979905888 0 -7123411.6979905888 10420568.008732349 0 0 0 0 26133068.795597076 -62103331.086442947 0 -62103331.086442947 11091538.747367859 0 0 0 0 -29416365.840667725 -35830616.081687927 0 -35830616.081687927 72140139.529579163 0 0 0 0 -41530429.344711304 -120550963.94577026 0 -120550963.94577026 236104119.22693062 0 0 0 0 40357933.81244278 -35681900.576246262 0 -35681900.576246262 10618340.976074219 0 0 0 0 -12202499.267810151 -1231651.7223032191 0 -1231651.7223032191 5205491.1073265504 0 0 0 0 95739952.221611023 -269882627.93101883 0 -269882627.93101883 -1467934091.4522953 0 0 0 0 3132283.9268712997 -534487767.03682995 0 -534487767.03682995 -784557470.66983795 0 0 0 0 -32532085.605934143 -386185247.97432327 0 -386185247.97432327 -964493926.44837952 0 0 0 0 87352416.810005188 -443773708.83406067 0 -443773708.83406067 -933385437.12290955 0 0 0 0 25982497.823806763 -456885932.89307022 0 -456885932.89307022 -753997042.90888214 0 0 0 0 57937107.326644897 -464548071.21300507 0 -464548071.21300507 -763720919.28778458 0 0 0 0 -111390478.52255249 -220055979.78592682 0 -220055979.78592682 -351020916.35536575 0 0 0 0 30654234.826843262 -154101869.897995 0 -154101869.897995 -830125126.40432739 0 0 0 0 -76262814.053855896 -393674876.06887054 0 -393674876.06887054 -700561360.11315918 0 0 0 0 -103772445.75156403 -228387823.75704193 0 -228387823.75704193 -346496018.45120239 0 0 0 0 94078861.047103882 37607751.605354309 0 37607751.605354309 -204823044.92233658 0 0 0 0 -1040519.8505954742 -23163767.540849686 0 -23163767.540849686 33982439.747436523 0 0 0 0 -7194714.0848667286 -19092494.443130866 0 -19092494.443130866 17475934.918581925 0 0 0 0 -374664857.73982239 -532741268.5446434 0 -532741268.5446434 -718436190.31044769 0 0 0 0 -1111506.0037202649 126132.4963128753 0 126132.4963128753 2088164.5946367942 0 0 0 0 -419742731.35699463 -224912922.1503067 0 -224912922.1503067 182348759.09089661 0 0 0 0 -201529243.76132202 -492102041.87149048 0 -492102041.87149048 -663253949.15312958 0 0 0 0 -613396851.33734894 -815781635.77531052 0 -815781635.77531052 -497574678.20372772 0 0 0 0 -416249552.58704376 -538694022.05304337 0 -538694022.05304337 -652440393.96287537 0 0 0 0 1729649.7183863595 -3301330.0746311974 0 -3301330.0746311974 -2673951.4595277682 0 0 0 0 -353263083.87166214 -720112521.38498974 0 -720112521.38498974 -463500753.14323425 0 0 0 0 80051702.331514359 -682700754.96081543 0 -682700754.96081543 -659871471.3530426 0 0 0 0 -327814068.6879425 -28968415.22366333 0 -28968415.22366333 170367666.99529266 0 0 0 0 -263067217.2266922 -419199417.9283638 0 -419199417.9283638 -342626202.78397369 0 0 0 0 -702740006.51356506 -313954305.51552582 0 -313954305.51552582 -209840282.80599213 0 0 0 0 -24819676.535079956 -49442348.918395996 0 -49442348.918395996 18936667.420028687 0 0 0 0 475427.56083679199 -44697192.75718689 0 -44697192.75718689 -3361578.0372009277 0 0 0 0 1633937.7715474591 -14879418.010570053 0 -14879418.010570053 -13832723.578716815 0 0 0 0 155622189.74913788 -42362280.578392029 0 -42362280.578392029 -3788292.4680862427 0 0 0 0 -5339344.9462738037 -47087445.211730957 0 -47087445.211730957 3106081.1058044434 0 0 0 0 11470325.624420166 -44533761.798294067 0 -44533761.798294067 -3515683.7098999023 0 0 0 0 50325463.658126831 -47313365.164276123 0 -47313365.164276123 -24215943.520507812 0 0 0 0 11250712.839523315 -64131383.366973877 0 -64131383.366973877 -11103797.850753784 0 0 0 0 -11531834.898651123 -74738403.490753174 0 -74738403.490753174 -13169194.345306396 0 0 0 0 -12158511.832855225 -53946478.659683228 0 -53946478.659683228 6042282.306427002 0 0 0 0 255050.87906642631 -976374.39596708491 0 -976374.39596708491 1718674.1421126444 0 0 0 0 -4685930.5736083984 -46414214.097015381 0 -46414214.097015381 -56812749.209274292 0 0 0 0 -8069365.9314918518 -33185094.376022339 0 -33185094.376022339 -13199132.73626709 0 0 0 0 -5906811.1529541016 -44215726.110343933 0 -44215726.110343933 36627197.067626953 0 0 0 0 3340459.7770926356 -27818216.60318312 0 -27818216.60318312 10955144.800891295 0 0 0 0 6669971.7160644531 -62741119.000747681 0 -62741119.000747681 -32247471.992980957 0 0 0 0 -1841777.1371296495 199828.10651396587 0 199828.10651396587 1983204.9385962561 0 0 0 0 -32740173.831481934 -70433931.257858276 0 -70433931.257858276 1826008.4529418945 0 0 0 0 -32690902.164031982 -68812811.12991333 0 -68812811.12991333 -13632730.666168213 0 0 0 0 -34799925.731872559 -53627668.623580933 0 -53627668.623580933 34382945.098846436 0 0 0 0 -34069519.559509277 -73561306.434234619 0 -73561306.434234619 -5409349.9945068359 0 0 0 0 -36938805.585876465 -93419695.648643494 0 -93419695.648643494 23681601.529632568 0 0 0 0 -14235777.392669678 -68809094.008766174 0 -68809094.008766174 -2345635.7853393555 0 0 0 0 -31010439.275039673 -81944202.916168213 0 -81944202.916168213 -12093070.798706055 0 0 0 0 -30173539.100646973 -92267127.481719971 0 -92267127.481719971 -39257056.73651123 0 0 0 0 -97034249.458734512 -95582685.556466103 0 -95582685.556466103 -20919614.378509521 0 0 0 0 12458273.944460481 -18785216.395436741 0 -18785216.395436741 2298881.5971063375 0 0 0 0 -4497994.6234741211 -76014487.414306641 0 -76014487.414306641 -30253703.893615723 0 0 0 0 -42936626.2371521 -84652457.614074707 0 -84652457.614074707 -18829739.828674316 0 0 0 0 -48081521.23638916 -70538089.696350098 0 -70538089.696350098 -24833482.496772766 0 0 0 0 -98765420.550949097 -71275992.813598633 0 -71275992.813598633 -6588149.3232116699 0 0 0 0 -62599104.758850098 -44511019.984222412 0 -44511019.984222412 -16875902.28187561 0 0 0 0 -62841939.142349243 -89475162.765579224 0 -89475162.765579224 -33256848.470947266 0 0 0 0 -79248909.261516571 -102944303.17061996 0 -102944303.17061996 -30298432.293518066 0 0 0 0 -70730754.032485962 -86040828.23815918 0 -86040828.23815918 -33925444.91897583 0 0 0 0 -79721027.327682495 -99544903.404724121 0 -99544903.404724121 -53810986.196289062 0 0 0 0 16092348.322052002 -90636591.887435913 0 -90636591.887435913 -88072182.286791682 0 0 0 0 -29193387.819225311 -78753020.771484375 0 -78753020.771484375 -42578325.593841553 0 0 0 0 -38849182.176116943 -99697779.018096924 0 -99697779.018096924 -69286058.55065918 0 0 0 0 48265492.98614502 -55332509.777038574 0 -55332509.777038574 -47970452.028366089 0 0 0 0 16591718.33277607 -78117859.931629658 0 -78117859.931629658 -58036922.053161621 0 0 0 0 42929605.323699951 -47974598.957839966 0 -47974598.957839966 -7947312.5562591553 0 0 0 0 -2213517.8099212646 -67104602.532531738 0 -67104602.532531738 -18614077.896286011 0 0 0 0 7950472.0662155151 -75734746.960014343 0 -75734746.960014343 -30268192.350997925 0 0 0 0 43885264.808563232 -40938135.231643677 0 -40938135.231643677 -77758316.029174805 0 0 0 0 114421900.79780579 -10988311.195327759 0 -10988311.195327759 -107854278.27397156 0 0 0 0 92062776.184646606 5349683.4851837158 0 5349683.4851837158 -40621252.571746826 0 0 0 0 89568549.242212743 3442022.3606808931 0 3442022.3606808931 -24467009.34552002 0 0 0 0 109431614.04084778 3257205.9681091309 0 3257205.9681091309 -76193894.52293396 0 0 0 0 76407887.530654907 -26185471.866043091 0 -26185471.866043091 -56293521.98184967 0 0 0 0 112785912.73091125 -7013309.8847427368 0 -7013309.8847427368 -56418261.93939209 0 0 0 0 83989639.647335052 -39120712.82642746 0 -39120712.82642746 -98650724.770385742 0 0 0 0 26959238.00944519 -45988031.388671875 0 -45988031.388671875 -54910074.493202209 0 0 0 0 29493765.580596924 -56769209.493591309 0 -56769209.493591309 -88086035.915573627 0 0 0 0 -2048089.459777832 -75867733.311340332 0 -75867733.311340332 -92540137.504058838 0 0 0 0 -2084770.1733856201 -72978537.836929321 0 -72978537.836929321 -198223193.81658936 0 0 0 0 -87008236.727432251 -119991423.56150055 0 -119991423.56150055 -12233241.636260986 0 0 0 0 -70035862.102462769 -136523412.98890686 0 -136523412.98890686 -90445861.096481323 0 0 0 0 -86558502.526565552 -122313934.14987183 0 -122313934.14987183 -35279155.380844116 0 0 0 0 -47446827.868675232 -46402741.42930603 0 -46402741.42930603 -69507803.04119873 0 0 0 0 -68181293.833053589 -2141143.3335418701 0 -2141143.3335418701 -110378646.80249023 0 0 0 0 44775296.723388672 -37629631.571624756 0 -37629631.571624756 -133307608.96310425 0 0 0 0 18431283.213226318 -114966245.74397278 0 -114966245.74397278 -120181195.17092896 0 0 0 0 29149979.341522217 -65559475.787948608 0 -65559475.787948608 -85477525.714935303 0 0 0 0 -146693912.19142151 -91707795.900798798 0 -91707795.900798798 -28137144.582336426 0 0 0 0 171675324.2589798 8872858.9543991089 0 8872858.9543991089 -84350463.084472656 0 0 0 0 442358265.56778717 299042613.03424072 0 299042613.03424072 49204072.541740417 0 0 0 0 128574271.49462891 90034402.425033569 0 90034402.425033569 19626530.503570557 0 0 0 0 113612444.03491211 32881599.29069519 0 32881599.29069519 -61849662.368286133 0 0 0 0 84401724.422058105 30481789.39781189 0 30481789.39781189 53778686.888916016 0 0 0 0 -222501.70026996732 -4432320.3709347397 0 -4432320.3709347397 -3346655.1707719788 0 0 0 0 -20880323.583555121 -10605922.861120787 0 -10605922.861120787 -27066382.004135132 0 0 0 0 92081488.858062744 93856443.1875 0 93856443.1875 64619601.485290527 0 0 0 0 -2362210.4132122174 -2185056.6765581407 0 -2185056.6765581407 -2690242.9361459464 0 0 0 0 -81942121.217582703 83934037.128890991 0 83934037.128890991 -181238865.10887146 0 0 0 0 -1063801.8296127319 -52691901.785446167 0 -52691901.785446167 -31368824.30046463 0 0 0 0 -113956429.8566415 90452035.85764125 0 90452035.85764125 -116809841.74703979 0 0 0 0 -86778440.869239807 156468223.55795288 0 156468223.55795288 -162039349.54049683 0 0 0 0 -123371050.49846268 110832838.59563446 0 110832838.59563446 -27755721.553955078 0 0 0 0 -110415348.32369995 252897909.05412292 0 252897909.05412292 41415430.098545074 0 0 0 0 45744101.249603271 469699763.10057831 0 469699763.10057831 916627549.31500244 0 0 0 0 46201999.181930542 188658163.33990479 0 188658163.33990479 -195826026.97949219 0 0 0 0 -176360372.94651794 80250647.458297729 0 80250647.458297729 -127618050.72909546 0 0 0 0 782102055.55957031 125906769.7816925 0 125906769.7816925 147262243.32180786 0 0 0 0 691345.40333124995 -860030.65803156793 0 -860030.65803156793 -1749122.5928346664 0 0 0 0 -55813629.083747864 -88500715.885894775 0 -88500715.885894775 222899737.07244873 0 0 0 0 200279131.73799515 -428669900.8482132 0 -428669900.8482132 -2856416.9590759277 0 0 0 0 -974476718.12527466 -710735411.18714905 0 -710735411.18714905 -24571409.410705566 0 0 0 0 4617191.0703582764 155142495.58326721 0 155142495.58326721 424094007.16539001 0 0 0 0 314739677.38401031 667639255.68106079 0 667639255.68106079 123731155.65111828 0 0 0 0 4186972.5310004167 -3118406.1549336063 0 -3118406.1549336063 -6225420.5183885843 0 0 0 0 -192640382.77043724 -621382692.3415451 0 -621382692.3415451 -819120674.92233276 0 0 0 0 1138958488.5958481 608924322.24648285 0 608924322.24648285 -1511300013.4265747 0 0 0 0 759448.05072927102 258504.05019928887 0 258504.05019928887 -2069013.9288750961 0 0 0 0 448826588.05051422 -297951876.46891403 0 -297951876.46891403 -1131982527.3964386 0 0 0 0 909777786.83170319 588715401.9765625 0 588715401.9765625 -863160751.07883072 0 0 0 0 -366018717.85891867 -1375748305.1439829 0 -1375748305.1439829 -3127968.3179931641 0 0 0 0 1537620937.8789139 -723773193.71073151 0 -723773193.71073151 -125784136.53895569 0 0 0 0 -217203329.90594864 -661743066.72249222 0 -661743066.72249222 -1286331497.9799194 0 0 0 0 -920164437.23820496 -111957578.05900574 0 -111957578.05900574 -228289256.01512146 0 0 0 0 8559460.7613331489 -12838544.332114223 0 -12838544.332114223 11365114.775497831 0 0 0 0 -21239096.034992218 127186891.74794006 0 127186891.74794006 -419705340.37057495 0 0 0 0 -91669992.919338226 -120073049.20448017 0 -120073049.20448017 -21790102.625686646 0 0 0 0 -35738055.574258804 -374763459.88324165 0 -374763459.88324165 -402213495.18225098 0 0 0 0 -428974666.60555267 12274931.546714783 0 12274931.546714783 -154901936.82879639 0 0 0 0 -1876166.7541266903 -13802.858268346637 0 -13802.858268346637 1077996.3459570408 0 0 0 0 -79393466.782051086 13760606.4715271 0 13760606.4715271 68022910.873931885 0 0 0 0 -66216456.557747841 -75813499.300180435 0 -75813499.300180435 -12913624.090301514 0 0 0 0 13032025.240105201 -17773531.721030012 0 -17773531.721030012 4805706.9055557102 0 0 0 0 13057194.608688354 25956040.931938171 0 25956040.931938171 -28821306.563171387 0 0 0 0 6129936.5522952341 -5900345.6035691313 0 -5900345.6035691313 -1213053.0364698768 0 0 0 0 -56307675.699012756 22810960.17546463 0 22810960.17546463 67005231.743019104 0 0 0 0 19875502.820323944 -17076062.917021751 0 -17076062.917021751 -36394890.41293335 0 0 0 0 -89929913.962080956 -43968859.735648155 0 -43968859.735648155 -32498271.566413879 0 0 0 0 -53043331.226951599 -48586478.151977539 0 -48586478.151977539 -7595786.9710235596 0 0 0 0 -122248545.67857361 -24911687.896011353 0 -24911687.896011353 -13803732.324607849 0 0 0 0 -92116516.713928223 8522087.9179229736 0 8522087.9179229736 -28309427.033660889 0 0 0 0 -246753797.89171219 -106099893.71899033 0 -106099893.71899033 33004065.870742798 0 0 0 0 17784268.922096252 -152234223.94393921 0 -152234223.94393921 -52076244.221748352 0 0 0 0 -56973457.755584717 -134731301.20526123 0 -134731301.20526123 24081602.095081329 0 0 0 0 -57998909.805906296 131962211.63634968 0 131962211.63634968 85801996.873657227 0 0 0 0 -25188949.274421692 -15045593.295143127 0 -15045593.295143127 4815800.2492370605 0 0 0 0 6632578.4195061773 -3380616.625660209 0 -3380616.625660209 -3392116.0275106132 0 0 0 0 95610062.113037109 -99726720.812072754 0 -99726720.812072754 -121304377.28495026 0 0 0 0 7515607.9560276195 -9251848.0370172057 0 -9251848.0370172057 7461449.2942755967 0 0 0 0 -270751734.7072525 -358094299.40531158 0 -358094299.40531158 87953307.052482605 0 0 0 0 1148026231.8307495 -417271718.56483459 0 -417271718.56483459 -214868078.34522247 0 0 0 0 -209213740.68127584 3787328.3669519424 0 3787328.3669519424 465873577.76695251 0 0 0 0 747487052.39491272 -262371766.3368454 0 -262371766.3368454 -37754314.097183228 0 0 0 0 3572354.4134735987 -1155674.0326335393 0 -1155674.0326335393 -2416650.5955249071 0 0 0 0 149033178.17441368 270304579.46603155 0 270304579.46603155 286947521.40620422 0 0 0 0 -17073011.179838181 -588899100.82003021 0 -588899100.82003021 236428942.85273743 0 0 0 0 1166949544.3477478 -548711898.32154846 0 -548711898.32154846 311131514.30579376 0 0 0 0 94635356.738445282 -758501404.42937469 0 -758501404.42937469 455849248.46525574 0 0 0 0 -545816611.83884048 -799240597.61066437 0 -799240597.61066437 540428189.3022728 0 0 0 0 -207931763.40097809 -604431518.36967468 0 -604431518.36967468 250203623.743927 0 0 0 0 -255003067.88431549 -485350204.86977386 0 -485350204.86977386 210095311.96782732 0 0 0 0 -306825392.01434708 -495910373.24545288 0 -495910373.24545288 210809662.8454895 0 0 0 0 -255296373.09363556 -346843220.10337067 0 -346843220.10337067 25680903.495132446 0 0 0 0 209417780.52993774 -457910543.7663002 0 -457910543.7663002 51738478.319854736 0 0 0 0 -315474484.43170166 -252396201.21147919 0 -252396201.21147919 40206158.700256348 0 0 0 0 -110214301.80509567 -282388741.79094696 0 -282388741.79094696 14802756.658172607 0 0 0 0 -218671850.59329987 -475054276.07186127 0 -475054276.07186127 -151989718.85160255 0 0 0 0 -389145472.81965351 -475001911.53726101 0 -475001911.53726101 41154659.851531982 0 0 0 0 -225036396.00057983 -496365683.64157104 0 -496365683.64157104 21596494.612442017 0 0 0 0 -150943130.59742355 -449091725.2011261 0 -449091725.2011261 41335891.344741821 0 0 0 0 -1378820092.4433441 559205363.37342834 0 559205363.37342834 142285345.91897583 0 0 0 0 -831157902.71542358 516053077.96754456 0 516053077.96754456 -114148787.55039978 0 0 0 0 -221880493.50595093 -47619298.262985229 0 -47619298.262985229 303034835.58087158 0 0 0 0 -997093686.68003082 -217389536.36985779 0 -217389536.36985779 335258338.9004364 0 0 0 0 -370739920.01703262 -344714425.31602859 0 -344714425.31602859 47935524.926849365 0 0 0 0 -7534670.4034246281 -2126730.0931883156 0 -2126730.0931883156 3507673.253014423 0 0 0 0 -109581793.91386127 -623535460.19472742 0 -623535460.19472742 769436395.98045349 0 0 0 0 -1682179873.1521263 274849104.38265228 0 274849104.38265228 717388819.31008911 0 0 0 0 9801332.7964477539 438905329.20739746 0 438905329.20739746 -217616744.59463501 0 0 0 0 -577144612.39324188 320179013.25606537 0 320179013.25606537 -810200825.93264771 0 0 0 0 -3501709.464895431 620176.41169552505 0 620176.41169552505 1982289.3440045752 0 0 0 0 -557414922.13000488 -308370681.20275116 0 -308370681.20275116 181598599.93193054 0 0 0 0 -1584879413.6212397 -318027728.2998085 0 -318027728.2998085 562579479.58596802 0 0 0 0 -352955082.06830978 -963033763.23677254 0 -963033763.23677254 821665237.15628052 0 0 0 0 763578462.41676331 -1423903577.0712357 0 -1423903577.0712357 970799254.02417755 0 0 0 0 -796298779.42249489 207422846.8096199 0 207422846.8096199 1720725296.7705383 0 0 0 0 476268953.34591675 -1348255589.3610382 0 -1348255589.3610382 496015406.77183533 0 0 0 0 1530825817.2766762 1003509624.3232574 0 1003509624.3232574 -1421642047.8846588 0 0 0 0 3304007.9106152467 -3627584.3087850474 0 -3627584.3087850474 2834985.0380551666 0 0 0 0 1960514768.3907928 -790282552.47554779 0 -790282552.47554779 -87896080.018070221 0 0 0 0 -461173324.32601166 -250714417.32718658 0 -250714417.32718658 -289070716.90869713 0 0 0 0 -936816626.53082275 79905658.564865112 0 79905658.564865112 2033470875.4965973 0 0 0 0 -621086315.1764679 -90445858.717308044 0 -90445858.717308044 240016230.22923279 0 0 0 0 -620123152.70215607 -485150395.31982422 0 -485150395.31982422 2197804597.7979279 0 0 0 0 -11086760.38774832 -7966924.7561381385 0 -7966924.7561381385 5051302.2846848145 0 0 0 0 156743760.97561646 -267895112.31523895 0 -267895112.31523895 -1010190234.0035706 0 0 0 0 321041822.09118652 -440697283.97566986 0 -440697283.97566986 64275391.336181641 0 0 0 0 -382124759.54614258 -376596758.10652161 0 -376596758.10652161 105941059.64858246 0 0 0 0 -1207113.881411165 -9652021.0024558641 0 -9652021.0024558641 6599366.4012945592 0 0 0 0 351730177.51862144 -345250071.9889431 0 -345250071.9889431 204798996.77423096 0 0 0 0 739251760.48503876 -247260014.11620331 0 -247260014.11620331 9230845.3826980591 0 0 0 0 -407637955.67667389 -964813934.58888245 0 -964813934.58888245 -131024008.9637146 0 0 0 0 -6927799.3130407222 -6392035.1804717034 0 -6392035.1804717034 3910993.2562880963 0 0 0 0 200957998.15081787 18217727.158760071 0 18217727.158760071 -999392066.88162231 0 0 0 0 171656160.48558807 -46555533.241531372 0 -46555533.241531372 -2414194794.1608887 0 0 0 0 -2507593.6995820999 -1614897.7382779345 0 -1614897.7382779345 1341831.6358377263 0 0 0 0 281139012.14892197 -380507451.63013268 0 -380507451.63013268 327951883.21676636 0 0 0 0 203912281.49544525 -110559132.63799286 0 -110559132.63799286 92552480.755882263 0 0 0 0 -322826989.51704407 -471380212.63560486 0 -471380212.63560486 256989508.71266174 0 0 0 0 -1824334.9509200798 -9403137.164170064 0 -9403137.164170064 9527205.6086259931 0 0 0 0 284101403.72645569 -245466580.89241028 0 -245466580.89241028 197602596.90611267 0 0 0 0 -413317447.11589432 603499921.5699501 0 603499921.5699501 1948380865.8525085 0 0 0 0 -258167.76789366454 -3236371.4992353013 0 -3236371.4992353013 3605978.4309880584 0 0 0 0 -223923269.62415695 -1166520418.7703323 0 -1166520418.7703323 2557689164.3153229 0 0 0 0 1008411422.0854549 1223605293.3797512 0 1223605293.3797512 669728442.0977478 0 0 0 0 -79056664.497009277 -89432874.728645325 0 -89432874.728645325 2904348199.6507874 0 0 0 0 1963382672.1197948 -1280753226.6797295 0 -1280753226.6797295 770761775.07290649 0 0 0 0 765640321.73865509 -759027111.03755188 0 -759027111.03755188 362455608.20779419 0 0 0 0 443005036.53611374 -254686592.936203 0 -254686592.936203 116774793.17842102 0 0 0 0 177149836.38040924 -801644356.431427 0 -801644356.431427 877990038.89054966 0 0 0 0 -180273120.86643982 -11993270.704208374 0 -11993270.704208374 817256575.86864948 0 0 0 0 -34519102.031272888 -132705719.45042229 0 -132705719.45042229 836560479.78469849 0 0 0 0 -146632393.80452347 -126967742.25418854 0 -126967742.25418854 323376516.02107239 0 0 0 0 -388100831.61399078 36265634.224090576 0 36265634.224090576 342864544.68574524 0 0 0 0 38650722.506980896 -444109127.44917488 0 -444109127.44917488 112450471.1247406 0 0 0 0 498880437.86256409 -725592358.37184906 0 -725592358.37184906 282004219.93348694 0 0 0 0 315872587.7174511 -839204006.92016983 0 -839204006.92016983 215783260.87863159 0 0 0 0 57868900.109405518 -497082046.52238464 0 -497082046.52238464 267461094.45055389 0 0 0 0 -185852593.25131845 -970920764.62673569 0 -970920764.62673569 210214470.73126221 0 0 0 0 -83106887.253173828 -454158702.60707092 0 -454158702.60707092 471816681.03788757 0 0 0 0 2205448495.6147766 -564331832.04632568 0 -564331832.04632568 -1113840966.9102783 0 0 0 0 187186260.92722321 213470729.9430294 0 213470729.9430294 171001446.3213501 0 0 0 0 -429194884.64509201 -1195456428.7648926 0 -1195456428.7648926 -343323676.23468018 0 0 0 0 -210510361.98265076 -426011350.32332611 0 -426011350.32332611 385324406.37269592 0 0 0 0 757625495.79675388 -467386118.60522461 0 -467386118.60522461 258508527.76242065 0 0 0 0 2813754074.6795044 52830784.072029114 0 52830784.072029114 -185518320.56128693 0 0 0 0 2743524521.7937813 -13148801.130065918 0 -13148801.130065918 163440584.56547546 0 0 0 0 765711819.67048645 -513165285.33114433 0 -513165285.33114433 515647060.03611755 0 0 0 0 2590289563.9699745 -1293241569.5513916 0 -1293241569.5513916 1233731.8033905029 0 0 0 0 4040095317.0646133 -687713610.8159256 0 -687713610.8159256 -490961572.44473267 0 0 0 0 526339599.15532303 -1535164178.7032814 0 -1535164178.7032814 -1592598.4019622803 0 0 0 0 1053443475.6886673 -339492155.31328583 0 -339492155.31328583 540605931.85906982 0 0 0 0 -67215987.769203186 -849666772.1338501 0 -849666772.1338501 625884278.92134285 0 0 0 0 -731883542.48085022 445862050.99420929 0 445862050.99420929 -187578984.05249023 0 0 0 0 1196514.2245963886 -2907380.0419558734 0 -2907380.0419558734 -1345175.647109054 0 0 0 0 -1298539263.9548302 -368871496.33958435 0 -368871496.33958435 728491521.85506821 0 0 0 0 4766489.6999359131 -8081060.2951965332 0 -8081060.2951965332 6841.9919988829088 0 0 0 0 1006615.2934036255 -4714781.378112793 0 -4714781.378112793 1614009.6097717285 0 0 0 0 -188718901.07892609 -41817800.583824158 0 -41817800.583824158 250245481.33303833 0 0 0 0 -93392510.759300232 -219948450.75505066 0 -219948450.75505066 151812507.66074371 0 0 0 0 -45320479.108547211 -197535253.21588898 0 -197535253.21588898 -52590494.955444336 0 0 0 0 -361463425.55147171 -519040191.65354156 0 -519040191.65354156 490205371.77471924 0 0 0 0 -321180388.9515152 -852644502.00802612 0 -852644502.00802612 290508871.01087189 0 0 0 0 -153174452.81733322 -328113209.17592239 0 -328113209.17592239 -65680900.071350098 0 0 0 0 427875587.4538765 -892055331.3447876 0 -892055331.3447876 -411983805.88391113 0 0 0 0 934113928.61219025 -142038372.07833099 0 -142038372.07833099 -56855603.845977783 0 0 0 0 -921023.24636226706 -884431.6940322388 0 -884431.6940322388 1375062.5829606205 0 0 0 0 -1380832775.8802338 -481438397.27105713 0 -481438397.27105713 -308508062.56743622 0 0 0 0 431582935.23861694 -359049649.64622498 0 -359049649.64622498 261332954.87536621 0 0 0 0 466020119.58855247 -489787802.17882538 0 -489787802.17882538 -200081379.16854858 0 0 0 0 -101992751.32714844 -285551434.74136353 0 -285551434.74136353 66735157.068206787 0 0 0 0 -630950722.82141876 -138356143.53674316 0 -138356143.53674316 -497959841.20791626 0 0 0 0 -339166541.47669601 -769310787.21540833 0 -769310787.21540833 -581453643.23254395 0 0 0 0 998627069.87669373 487501298.05711365 0 487501298.05711365 464686063.0454483 0 0 0 0 883391101.76065063 -358067917.01455688 0 -358067917.01455688 -770142470.24725342 0 0 0 0 2464800435.5552368 -545660328.90586853 0 -545660328.90586853 -1564424807.2779541 0 0 0 0 759237132.34115601 89833213.008270264 0 89833213.008270264 -331587577.7010498 0 0 0 0 396259303.20285797 -698465430.97631836 0 -698465430.97631836 -1222554146.5494995 0 0 0 0 -486381153.30267334 323527426.70410156 0 323527426.70410156 -664192293.65229797 0 0 0 0 719037290.45815277 -1403248119.5763092 0 -1403248119.5763092 -207592099.18258667 0 0 0 0 -1626574556.4831505 -782235092.94317627 0 -782235092.94317627 -232315985.78671265 0 0 0 0 2726909611.5548477 769132029.87010193 0 769132029.87010193 -956407327.92622375 0 0 0 0 -2147620.3390720673 -3252105.9346430562 0 -3252105.9346430562 3359888.1963014603 0 0 0 0 -202462.92386964895 -2909657.1963946354 0 -2909657.1963946354 2166088.7327884585 0 0 0 0 -1242741365.7838593 -859506198.48358154 0 -859506198.48358154 -274214866.25238037 0 0 0 0 63805139.506523132 -57840406.794834137 0 -57840406.794834137 23423403.060028076 0 0 0 0 -130600562.7463932 43713203.604499817 0 43713203.604499817 -13115948.523590088 0 0 0 0 -958364.97511639446 -5463352.051212281 0 -5463352.051212281 -2183482.5636347905 0 0 0 0 -8060257.2751808167 -9768404.2527694702 0 -9768404.2527694702 2193015.1317901611 0 0 0 0 -5560832.8601837158 -6845395.5155792236 0 -6845395.5155792236 2039118.6268005371 0 0 0 0 -4523677.1977539062 -9062552.7746582031 0 -9062552.7746582031 -3529.0161590576172 0 0 0 0 541394797.44606686 1134716461.1977539 0 1134716461.1977539 -1320590957.0250244 0 0 0 0 -5886544.132599432 -1392858.8315320406 0 -1392858.8315320406 1526257.9734036624 0 0 0 0 471479938.37982178 672608630.72986603 0 672608630.72986603 -430463233.10192871 0 0 0 0 927854944.16041565 -1149025587.710556 0 -1149025587.710556 711730329.44165039 0 0 0 0 -2455849.6716276705 -4048886.822250247 0 -4048886.822250247 -1673065.353534922 0 0 0 0 1150124069.9103241 1077234435.170517 0 1077234435.170517 -165488983.70777583 0 0 0 0 1126309673.1321793 -739020007.48178482 0 -739020007.48178482 -2349949722.8805542 0 0 0 0 -5423330128.9894714 -280598927.93382263 0 -280598927.93382263 2127961593.0692749 0 0 0 0 276042964.39163208 -365105106.20625305 0 -365105106.20625305 -469309048.94931793 0 0 0 0 -2458581242.516983 -783312335.39785004 0 -783312335.39785004 -63778260.202880859 0 0 0 0 -1177191285.7754669 -376398285.13780212 0 -376398285.13780212 2058801.1211442742 0 0 0 0 -1023441532.5939026 -804399865.37217712 0 -804399865.37217712 -432605223.33404541 0 0 0 0 -2065860.6206207275 -113938746.14076233 0 -113938746.14076233 -287613496.97380066 0 0 0 0 -185200180.58987427 -192850904.64077759 0 -192850904.64077759 -152236450.9229126 0 0 0 0 -446999117.70422363 -898039341.86662292 0 -898039341.86662292 -741760200.72689819 0 0 0 0 22386548.883850098 54826483.736595154 0 54826483.736595154 102201316.10748291 0 0 0 0 -62346430.17767334 -89084300.692428589 0 -89084300.692428589 266212646.27128601 0 0 0 0 -5343790007.4838104 814679692.88780212 0 814679692.88780212 864239563.4831543 0 0 0 0 -2187151.2961135507 -4171776.4333866239 0 -4171776.4333866239 -3998165.7775581628 0 0 0 0 -1947275.4528981745 -1373216.6768422201 0 -1373216.6768422201 -242212.53699021786 0 0 0 0 -456024456.63939667 146271847.76196289 0 146271847.76196289 -1871564333.9337158 0 0 0 0 -4774165384.2854309 -959400340.32678223 0 -959400340.32678223 1892627369.4242401 0 0 0 0 -1621646077.8580017 -1237796526.4869385 0 -1237796526.4869385 -1492898985.8800354 0 0 0 0 -2694918351.2509766 346278408.44821167 0 346278408.44821167 -1857563003.2402954 0 0 0 0 -2374606909.5038147 1990934338.3658905 0 1990934338.3658905 -1128346226.7184753 0 0 0 0 -3887640231.4706306 -1350138.1359558105 0 -1350138.1359558105 -54869301.881622314 0 0 0 0 -1207250457.8695831 47779675.328964233 0 47779675.328964233 -82651661.213783264 0 0 0 0 -1484445720.3542328 -157242767.21031952 0 -157242767.21031952 64041219.19631958 0 0 0 0 -1907281264.4464722 756851702.68411255 0 756851702.68411255 -3228726.5001831055 0 0 0 0 53468524.518249512 -159904739.98782349 0 -159904739.98782349 167576446.51818848 0 0 0 0 -1522120758.4220963 714172648.56158447 0 714172648.56158447 -338997912.87518311 0 0 0 0 -4500671.9373356737 -12208219.067611955 0 -12208219.067611955 -11114777.241370827 0 0 0 0 910845586.19022369 655501826.25165462 0 655501826.25165462 207371560.89202881 0 0 0 0 792098062.86845398 549149150.84114075 0 549149150.84114075 339714570.30029297 0 0 0 0 -566012.91266868636 3614435.6523358915 0 3614435.6523358915 -6952317.7658920288 0 0 0 0 -172569251.49230534 -140167610.81557047 0 -140167610.81557047 -98957863.074371338 0 0 0 0 -172640064.79936981 -147329312.72784424 0 -147329312.72784424 -67542928.602996826 0 0 0 0 775944316.76226807 479912489.58184814 0 479912489.58184814 554044095.46887207 0 0 0 0 -186271333.44333649 -241349535.4355011 0 -241349535.4355011 -177823872.02532959 0 0 0 0 -65962148.082557678 -187988760.1394043 0 -187988760.1394043 -143069142.23266602 0 0 0 0 -138365879.19309998 -196506127.46951294 0 -196506127.46951294 -140637725.24425507 0 0 0 0 -78880819.02555275 -281995479.32059479 0 -281995479.32059479 -227524841.03677368 0 0 0 0 14685122.835853577 -224907209.59068298 0 -224907209.59068298 -197435294.45996094 0 0 0 0 5667831.0237178802 -292853729.15383816 0 -292853729.15383816 -216809308.36871338 0 0 0 0 141601283.30468369 -229782185.64978027 0 -229782185.64978027 -189570229.34228516 0 0 0 0 -69349638.623125076 -195709645.65124512 0 -195709645.65124512 -150787105.40362549 0 0 0 0 28920399.232574463 -180855599.9309082 0 -180855599.9309082 -154975284.37835693 0 0 0 0 35264253.39597702 -27868567.997039795 0 -27868567.997039795 -5509934.1585693359 0 0 0 0 140542888.31282806 -104571502.76693726 0 -104571502.76693726 -105092223.03164673 0 0 0 0 240819318.81109238 -6977953.4560852051 0 -6977953.4560852051 -99457038.065551758 0 0 0 0 120757450.85389376 -218869253.32884884 0 -218869253.32884884 -194668049.67297363 0 0 0 0 291840658.78148651 -119071395.63470459 0 -119071395.63470459 -150912533.76026154 0 0 0 0 281122653.95957375 129436801.18361282 0 129436801.18361282 -202009746.66532898 0 0 0 0 542589595.66161156 27725274.288257599 0 27725274.288257599 -444943169.9866333 0 0 0 0 259975.02356712334 5343303.7263589296 0 5343303.7263589296 -12938851.590336323 0 0 0 0 -83448585.71478653 -71847375.266578674 0 -71847375.266578674 -17950767.493713379 0 0 0 0 954748195.58209229 269995959.10017395 0 269995959.10017395 360263708.95410156 0 0 0 0 232959877.90951538 223720180.490448 0 223720180.490448 594352544.84740448 0 0 0 0 -146642.41277941689 -55427.060488551855 0 -55427.060488551855 72885.806134160608 0 0 0 0 484219430.92875671 -170763196.02511597 0 -170763196.02511597 -52282286.979125977 0 0 0 0 -452026110.24993896 -453311111.04693604 0 -453311111.04693604 -684485510.53613281 0 0 0 0 109055957.03059387 -169906099.38961792 0 -169906099.38961792 -559241180.25547791 0 0 0 0 -85540595.517944336 34243866.896514893 0 34243866.896514893 -302383950.47735596 0 0 0 0 60235267.349369049 -241830053.34184265 0 -241830053.34184265 -612947934.35580826 0 0 0 0 1243238.5508831665 -3651272.271586556 0 -3651272.271586556 557555.5650764294 0 0 0 0 -85832558.003646851 -72181463.66973877 0 -72181463.66973877 -183195093.19143677 0 0 0 0 24851823.709922791 -66382855.108520508 0 -66382855.108520508 -513643601.98815918 0 0 0 0 -14896745.479564667 -52223951.510742188 0 -52223951.510742188 -304783033.09619141 0 0 0 0 -27901685.598999023 -111360367.81011963 0 -111360367.81011963 -347051517.87506104 0 0 0 0 -8527118.2341766357 -55275075.55368042 0 -55275075.55368042 -367927512.61853027 0 0 0 0 -31654453.466316223 -69254765.599029541 0 -69254765.599029541 -167451308.91143799 0 0 0 0 -55883713.860687256 -122561418.85714722 0 -122561418.85714722 -157932022.0173645 0 0 0 0 -28155904.144500732 -100615832.17956543 0 -100615832.17956543 -287339556.89814758 0 0 0 0 -20190576.665908813 -306985424.52143097 0 -306985424.52143097 -473116727.34290314 0 0 0 0 -26246812.664585114 -20070666.000526428 0 -20070666.000526428 -529353860.17318726 0 0 0 0 119940678.20337677 -63117282.737789154 0 -63117282.737789154 -274458096.11685181 0 0 0 0 17020186.664581299 -187479426.84353638 0 -187479426.84353638 -312518740.16293335 0 0 0 0 -83053408.503723145 -83227800.194824219 0 -83227800.194824219 2600.3739471435547 0 0 0 0 -33138342.852127075 -231330882.58673096 0 -231330882.58673096 -98150053.157546997 0 0 0 0 -152030433.5944519 -273550890.23101807 0 -273550890.23101807 -264385381.19863892 0 0 0 0 -139341366.3417933 -19275206.415192604 0 -19275206.415192604 -278023982.41925049 0 0 0 0 11627484.853794098 10761805.077140808 0 10761805.077140808 -12122622.128799438 0 0 0 0 -1722711.0764045715 -28300393.456962585 0 -28300393.456962585 7575339.4690093994 0 0 0 0 17270153.777626038 4981037.8124542236 0 4981037.8124542236 -27511080.031463623 0 0 0 0 12280674.060520172 2633354.7557373047 0 2633354.7557373047 -16519211.81578064 0 0 0 0 -715689.4703802634 4310778.2185411872 0 4310778.2185411872 -2616961.6965792328 0 0 0 0 560135313.41560364 1065510552.8365173 0 1065510552.8365173 -154692625.88641357 0 0 0 0 1457547754.6401024 -112728689.46670532 0 -112728689.46670532 525525736.70249939 0 0 0 0 -289089.97040990554 1193139.9544531666 0 1193139.9544531666 -1955085.7416829467 0 0 0 0 8722484.1374740601 8012997.5370864868 0 8012997.5370864868 7510767.9826965332 0 0 0 0 54695030.973365784 12303077.099105835 0 12303077.099105835 7048232.0710344315 0 0 0 0 32011298.044670105 -26568641.380340576 0 -26568641.380340576 6219630.762336731 0 0 0 0 58580516.924324036 -34459669.496459961 0 -34459669.496459961 7284292.2059326172 0 0 0 0 49161885.700862885 -23758418.954238892 0 -23758418.954238892 789068.59524536133 0 0 0 0 63182078.094091415 -42456545.638437271 0 -42456545.638437271 -4248511.9052124023 0 0 0 0 77731472.506881714 -41662824.022674561 0 -41662824.022674561 -17405206.719284058 0 0 0 0 95482113.163116455 -14839720.7605896 0 -14839720.7605896 -13594267.624908447 0 0 0 0 82999388.408437729 -19547702.645763397 0 -19547702.645763397 -1519541.0833740234 0 0 0 0 107886461.87294006 13419878.229064941 0 13419878.229064941 -10555149.797567129 0 0 0 0 78769176.932760239 3739769.1553688049 0 3739769.1553688049 -6785888.5169067383 0 0 0 0 156932902.68966675 -7638725.8384399414 0 -7638725.8384399414 -30141271.287658691 0 0 0 0 95177987.913696289 -19192312.332305908 0 -19192312.332305908 -31822835.983032227 0 0 0 0 114299000.90612793 -37915825.427185059 0 -37915825.427185059 -17161660.311691284 0 0 0 0 138632284.5888443 -47347732.259063721 0 -47347732.259063721 -42118272.59942627 0 0 0 0 94762354.013885498 -56151060.262954712 0 -56151060.262954712 -29903124.038818359 0 0 0 0 78339506.436008453 2515453.6397171021 0 2515453.6397171021 -4343774.1748046875 0 0 0 0 -651078650.29253483 -643847220.26228428 0 -643847220.26228428 -671006533.81912231 0 0 0 0 1212853182.3132019 603768357.42541504 0 603768357.42541504 -1374555830.447998 0 0 0 0 -1480434.6865710784 4360538.7745418902 0 4360538.7745418902 -3249817.6733484119 0 0 0 0 -667519473.14126587 1168992925.1473389 0 1168992925.1473389 1383393807.2416229 0 0 0 0 -390195564.08840179 722447273.56855774 0 722447273.56855774 -1065060147.3500366 0 0 0 0 -217710456.31949615 -344938218.79753113 0 -344938218.79753113 -1423353342.0435486 0 0 0 0 -212944615.96642303 -176285080.7820282 0 -176285080.7820282 -542580036.49287415 0 0 0 0 -183663859.4088974 -99165315.653167725 0 -99165315.653167725 -398287176.709198 0 0 0 0 -134975809.35705566 -208315717.41894531 0 -208315717.41894531 -249636060.91094971 0 0 0 0 -96811198.779059649 -221181646.30812502 0 -221181646.30812502 -524863997.39746094 0 0 0 0 -264483241.91714478 -270902491.54194641 0 -270902491.54194641 -414072919.92802429 0 0 0 0 -317684279.16603088 -437143507.54779053 0 -437143507.54779053 -780208336.43917847 0 0 0 0 -257684331.15515709 -186518431.4412632 0 -186518431.4412632 -505746853.78369141 0 0 0 0 -676258928.95114994 -396287922.67202759 0 -396287922.67202759 -219576040.7253418 0 0 0 0 -450146747.58744812 -378426484.92111206 0 -378426484.92111206 -297582250.62954712 0 0 0 0 -171431853.80315399 -280681309.78485107 0 -280681309.78485107 -442851908.40563965 0 0 0 0 -205437906.07068634 -228508607.31199646 0 -228508607.31199646 -183587817.94012451 0 0 0 0 -223876696.00921631 -264063027.61732483 0 -264063027.61732483 -251259704.17254639 0 0 0 0 -547241569.08945465 -228027781.54957581 0 -228027781.54957581 -109337685.70349121 0 0 0 0 -257934516.6955719 -115004444.97640991 0 -115004444.97640991 -81651729.019042969 0 0 0 0 -490265016.19570923 -177609365.53930664 0 -177609365.53930664 -69747217.925437927 0 0 0 0 60755045.334224701 -285361552.52557373 0 -285361552.52557373 -257996972.00942993 0 0 0 0 -43769926.781824112 -342139725.18116951 0 -342139725.18116951 -254744046.24911499 0 0 0 0 -76326504.176139832 -236753492.48724365 0 -236753492.48724365 -237822530.14958191 0 0 0 0 -111273762.15710831 -291974032.72528076 0 -291974032.72528076 -324805808.64776611 0 0 0 0 -168037654.66843033 -249795423.92565918 0 -249795423.92565918 -296035031.43014526 0 0 0 0 -96646575.879930496 -221255798.08258057 0 -221255798.08258057 -272310350.32662964 0 0 0 0 69870092.924846649 -51579492.823127747 0 -51579492.823127747 -269939860.4526062 0 0 0 0 -77261500.176860809 -200884620.21784973 0 -200884620.21784973 -412117968.2351532 0 0 0 0 -95492448.04314661 -184079808.86210895 0 -184079808.86210895 -384039320.31735229 0 0 0 0 -57228688.550331116 -174890309.5438385 0 -174890309.5438385 -389752318.86706543 0 0 0 0 -124790148.4204731 -138464053.4223175 0 -138464053.4223175 -162474405.21328735 0 0 0 0 -1507497.9553756714 -253734280.98924255 0 -253734280.98924255 -72775643.724060059 0 0 0 0 4613894.0828895569 -273584401.25872803 0 -273584401.25872803 -357921763.41767502 0 0 0 0 262348161.80114746 -189867677.04307556 0 -189867677.04307556 -53424704.13924408 0 0 0 0 770257.24568513501 -3646667.934959555 0 -3646667.934959555 -1782023.8394692838 0 0 0 0 -26536214.477867126 -211868856.60211182 0 -211868856.60211182 -111619844.62791443 0 0 0 0 223991140.88015747 -263495847.59644318 0 -263495847.59644318 -211144294.73919678 0 0 0 0 95039390.785879135 -151322995.47296906 0 -151322995.47296906 -82682804.398468018 0 0 0 0 151949172.6812439 -387600247.98299408 0 -387600247.98299408 -248039510.64212036 0 0 0 0 58149970.543848515 -338101959.88103247 0 -338101959.88103247 -229664052.50531006 0 0 0 0 -319260182.47806549 -57108190.543174744 0 -57108190.543174744 49169233.682540894 0 0 0 0 9335.3345839785288 -13105442.847887918 0 -13105442.847887918 10685518.894850016 0 0 0 0 -153702353.82107925 -137237898.25341797 0 -137237898.25341797 -28040489.110275269 0 0 0 0 -33402043.351009369 -243490546.65401459 0 -243490546.65401459 8612959.8344573975 0 0 0 0 -38440030.368972778 -65637953.012992859 0 -65637953.012992859 -36815216.329727173 0 0 0 0 -330290042.5512886 -83847481.224441528 0 -83847481.224441528 -30346187.480750561 0 0 0 0 -362913232.32743073 -190144719.30636597 0 -190144719.30636597 -79889888.671562195 0 0 0 0 223350.89896527005 -11729340.591179473 0 -11729340.591179473 6542438.8720560819 0 0 0 0 -524415508.85971278 -182587876.50851914 0 -182587876.50851914 -24809856.166625977 0 0 0 0 -99604750.366693497 -285624245.84755707 0 -285624245.84755707 -121184245.33972168 0 0 0 0 -398856409.76055431 -283169146.61179161 0 -283169146.61179161 -116896748.89956665 0 0 0 0 -1029076393.4849968 -287559829.40167999 0 -287559829.40167999 25869851.481399536 0 0 0 0 532207.84185442328 -9458347.019545231 0 -9458347.019545231 2443684.753121838 0 0 0 0 182951802.94532013 -345043427.17260742 0 -345043427.17260742 -273011917.62773132 0 0 0 0 110020714.10053253 -344372227.30091858 0 -344372227.30091858 -248074884.72364807 0 0 0 0 111451077.69890928 -347511831.91960907 0 -347511831.91960907 -272670308.48379517 0 0 0 0 72417785.473957062 -352938164.10461426 0 -352938164.10461426 -263812974.0848999 0 0 0 0 61556778.536590576 -335010119.77944946 0 -335010119.77944946 -250477814.20883179 0 0 0 0 -54721345.990472794 -473245330.57118225 0 -473245330.57118225 -239552936.14482117 0 0 0 0 -5354408.3271980286 -390257986.40658569 0 -390257986.40658569 -257501156.36353683 0 0 0 0 334908506.92010498 -327154581.47787476 0 -327154581.47787476 -280114505.63771057 0 0 0 0 108607835.77672195 -363460828.82727051 0 -363460828.82727051 -260635728.777771 0 0 0 0 232493705.13322639 -264399370.60475922 0 -264399370.60475922 -264454263.41299438 0 0 0 0 598871220.84470367 -125632756.12011719 0 -125632756.12011719 -261583501.58648682 0 0 0 0 39513675.887462616 -456332700.77230835 0 -456332700.77230835 -231720592.31375122 0 0 0 0 402173811.17086029 -472237282.93994904 0 -472237282.93994904 -347698296.99734497 0 0 0 0 658326667.89906311 -270364947.00578308 0 -270364947.00578308 -306355128.87814713 0 0 0 0 11004443.41627121 -668294884.52812195 0 -668294884.52812195 37614376.233642578 0 0 0 0 1459285507.0389252 -229480914.43035889 0 -229480914.43035889 -166712160.63848114 0 0 0 0 783104808.28294849 137689889.14829254 0 137689889.14829254 -124143623.41439819 0 0 0 0 1413713552.4232798 732382938.31856632 0 732382938.31856632 309249917.13397217 0 0 0 0 591726639.44479752 -269933116.0443573 0 -269933116.0443573 -121295746.42105103 0 0 0 0 -753984097.20311737 -233977490.31777954 0 -233977490.31777954 -207043507.02780151 0 0 0 0 -650605976.31151199 -637752593.01047516 0 -637752593.01047516 -15454159.58833313 0 0 0 0 -37813453.597621918 -504035363.33783722 0 -504035363.33783722 -435412660.79393005 0 0 0 0 612105.99076107214 -5750118.3081735875 0 -5750118.3081735875 531135.05871535838 0 0 0 0 -2059479441.6447449 -478513098.54462433 0 -478513098.54462433 201718896.27166748 0 0 0 0 -1195072057.832634 -453798762.26234436 0 -453798762.26234436 -438514178.21031189 0 0 0 0 -1180366678.228385 -793077145.50145626 0 -793077145.50145626 257355638.1383667 0 0 0 0 -51694915.553604126 -874570266.13619232 0 -874570266.13619232 -260659750.08605957 0 0 0 0 -602352125.60759544 -152860355.55053711 0 -152860355.55053711 165466696.58261108 0 0 0 0 -3531798191.258316 -386258429.71286011 0 -386258429.71286011 579252525.95102692 0 0 0 0 -1577064369.3820095 -1112201475.8240929 0 -1112201475.8240929 -1131290.9591369629 0 0 0 0 586895.11748897715 -2169394.3476370182 0 -2169394.3476370182 121341.88243739307 0 0 0 0 1623174201.7877274 132431787.60731506 0 132431787.60731506 -118187668.4153595 0 0 0 0 2209252002.3990002 481232751.49636841 0 481232751.49636841 67469243.160491943 0 0 0 0 3709958.0993443327 -5632049.0370012149 0 -5632049.0370012149 -995775.30565419793 0 0 0 0 -68364763.256256104 -80138154.380935669 0 -80138154.380935669 -28970568.470397949 0 0 0 0 1604625808.1696749 -77172938.907126427 0 -77172938.907126427 -12670107.585998535 0 0 0 0 267031.83957709 -462985.16789447516 0 -462985.16789447516 -752162.58667685837 0 0 0 0 936386629.47985077 -96757597.145248413 0 -96757597.145248413 291063197.43911743 0 0 0 0 1113543866.6978989 -666698126.31661987 0 -666698126.31661987 -335539983.0640564 0 0 0 0 174458355.98211288 -419293046.09104919 0 -419293046.09104919 4393086.4432220459 0 0 0 0 719912267.07039642 -1007518722.794632 0 -1007518722.794632 1496775.3479309082 0 0 0 0 2846865395.1013794 -397334388.50265503 0 -397334388.50265503 -241853082.41863537 0 0 0 0 1469727090.752552 -917968131.80151367 0 -917968131.80151367 -220545146.224823 0 0 0 0 1015876.0602850849 -1794738.9744101372 0 -1794738.9744101372 -231328.06004734337 0 0 0 0 -109798489.98574829 -83996805.144248962 0 -83996805.144248962 -70385.409103393555 0 0 0 0 3602667427.1533184 754954959.1639328 0 754954959.1639328 -245996595.10333252 0 0 0 0 -36154507.156028748 -60060384.740859985 0 -60060384.740859985 -38021257.639251709 0 0 0 0 -31430117.291698456 -40359642.052597046 0 -40359642.052597046 -21948099.940002441 0 0 0 0 36243475.236717224 -105931509.71157074 0 -105931509.71157074 149978.55236665931 0 0 0 0 151543463.49962139 -18272881.057914734 0 -18272881.057914734 -46481468.008117676 0 0 0 0 8063866.294107914 -58609064.541088104 0 -58609064.541088104 -46004993.637786865 0 0 0 0 18310560.938390732 -68618347.011619568 0 -68618347.011619568 -68096771.577766418 0 0 0 0 -57368708.767971039 -62221856.447631836 0 -62221856.447631836 -19345105.367847443 0 0 0 0 92771527.640651703 -57268224.049736023 0 -57268224.049736023 -42026292.452690125 0 0 0 0 10611196.02883618 -16417664.42162095 0 -16417664.42162095 7076232.6191492155 0 0 0 0 549522711.50722504 174846791.52246094 0 174846791.52246094 -7376901.7614212036 0 0 0 0 4466566.5796812456 4745662.757770231 0 4745662.757770231 -20476026.711771503 0 0 0 0 40112907.993687153 51790315.356051445 0 51790315.356051445 5374261.5947723389 0 0 0 0 -12920559.061262131 -34081034.409220695 0 -34081034.409220695 41175871.256027222 0 0 0 0 -10578781.486006737 -41216552.277982712 0 -41216552.277982712 -47695407.811920166 0 0 0 0 26534772.128753662 -13552145.370925903 0 -13552145.370925903 -173033443.87639236 0 0 0 0 324921526.7654686 -16358748.558624268 0 -16358748.558624268 -50491933.204956055 0 0 0 0 222279154.8031311 -110512513.7177887 0 -110512513.7177887 -126243757.46644592 0 0 0 0 21484179.402596951 -22548128.668775558 0 -22548128.668775558 -20479358.560897827 0 0 0 0 100405777.60508347 -27260889.991695404 0 -27260889.991695404 -61792616.235870361 0 0 0 0 2176710.3839455191 -3150613.1752155731 0 -3150613.1752155731 -1058506.1934305876 0 0 0 0 -69083375.131347656 -5959131.1530151367 0 -5959131.1530151367 -100835095.69944763 0 0 0 0 -65814781.556533813 -20251661.117462158 0 -20251661.117462158 -5280822.9930725098 0 0 0 0 10337763.429581957 -17662746.552405 0 -17662746.552405 7855240.2101975977 0 0 0 0 -51601293.787506104 -77814782.418762207 0 -77814782.418762207 -29804192.601348877 0 0 0 0 -92866386.212257385 -39375719.981948853 0 -39375719.981948853 -47694952.945098877 0 0 0 0 41554512.820010662 -22235173.368492126 0 -22235173.368492126 -62698248.254386902 0 0 0 0 7825891.5454213275 -2833013.1681774911 0 -2833013.1681774911 -14950507.242767677 0 0 0 0 9285775.9383406639 -8143296.2587814331 0 -8143296.2587814331 -4495591.0756072998 0 0 0 0 2232000.957883358 -3556505.4336700439 0 -3556505.4336700439 -7447315.6938018799 0 0 0 0 5654552.542881012 -7366583.5067977905 0 -7366583.5067977905 -13045776.421775818 0 0 0 0 3839618.718317423 116301.71658545919 0 116301.71658545919 -9201580.4647962898 0 0 0 0 59204558.255684853 12757526.872344971 0 12757526.872344971 -26828104.348556519 0 0 0 0 43405574.38220787 12168502.810279846 0 12168502.810279846 -19100179.369491577 0 0 0 0 105550533.77735186 67718676.891765594 0 67718676.891765594 35338594.665527344 0 0 0 0 2121262.4386030738 -2939064.2417314528 0 -2939064.2417314528 -1130546.7564022839 0 0 0 0 -1680310.1361827888 -4252760.510427922 0 -4252760.510427922 -1361998.0851529241 0 0 0 0 -1081823.2603874207 -5391900.5224609375 0 -5391900.5224609375 -4888.0787353515625 0 0 0 0 4547969.0216083527 -3801032.8200073242 0 -3801032.8200073242 -19260231.194137573 0 0 0 0 875880.25742595969 -6503909.9608596116 0 -6503909.9608596116 -734107.58095264435 0 0 0 0 -426712.91279730201 -7311192.2276859283 0 -7311192.2276859283 -8469200.2692871094 0 0 0 0 -6731668.9323372841 -18098576.068023682 0 -18098576.068023682 -10797.851837158203 0 0 0 0 5017218.3637828249 -7339093.6044137627 0 -7339093.6044137627 253538.25056161731 0 0 0 0 25317954.898394585 1443704.2824783325 0 1443704.2824783325 -18166857.151733398 0 0 0 0 -7311387.1884460449 -6651362.1578979492 0 -6651362.1578979492 -2866.2451925874593 0 0 0 0 -2580030.8318210905 -3019781.8828188479 0 -3019781.8828188479 2602377.8901002854 0 0 0 0 30530252.754011154 2643132.890838623 0 2643132.890838623 -23007509.267333984 0 0 0 0 6219826.1449103355 2615744.0713348389 0 2615744.0713348389 -5180196.024887085 0 0 0 0 12002035.317088127 -7703347.0720977783 0 -7703347.0720977783 -36570449.898967743 0 0 0 0 -844258.07748365402 -7455556.2825927734 0 -7455556.2825927734 -9357926.3157653809 0 0 0 0 5758434.5949878693 -8504623.7650680542 0 -8504623.7650680542 -9283727.2905197144 0 0 0 0 17519364.292646408 -11141117.589599609 0 -11141117.589599609 -4947.7191772460938 0 0 0 0 26847082.398832321 -14612930.806716919 0 -14612930.806716919 -4366425.6026611328 0 0 0 0 -4818216.6976699829 -12060549.760253906 0 -12060549.760253906 10518902.782714844 0 0 0 0 -29172844.855401993 -14596451.106697083 0 -14596451.106697083 20776384.005233765 0 0 0 0 -1388695.5541731725 -1643988.0467028618 0 -1643988.0467028618 1415755.9661987051 0 0 0 0 17167258.262695312 -8390777.1731567383 0 -8390777.1731567383 -6068652.8266525269 0 0 0 0 390983.18213653564 -1313157.0349731445 0 -1313157.0349731445 -4882536.3649597168 0 0 0 0 1657268.7102775574 -11579759.676498413 0 -11579759.676498413 3973711.8453674316 0 0 0 0 9159850.1090770215 -8238861.5109914467 0 -8238861.5109914467 -24169.303491257131 0 0 0 0 23037521.901126862 -28986276.402908325 0 -28986276.402908325 -31866247.648674011 0 0 0 0 9904318.8096424341 -20356316.4336586 0 -20356316.4336586 -5140119.4778594971 0 0 0 0 39140052.949794769 -10027086.972549438 0 -10027086.972549438 -2809748.1394500732 0 0 0 0 13492190.312856752 -8831279.1003814191 0 -8831279.1003814191 -1974891.7457496077 0 0 0 0 3962178.0689826012 -8620396.1102714539 0 -8620396.1102714539 3638280.606628418 0 0 0 0 -1134842.8497142792 -9385564.0205230713 0 -9385564.0205230713 6073137.8317718506 0 0 0 0 -5936286.3079719543 -12654891.516830444 0 -12654891.516830444 5662956.0306854248 0 0 0 0 789195.35535740433 -935676.01554445643 0 -935676.01554445643 -426339.61999258399 0 0 0 0 9808206.6804113388 -15142657.556533813 0 -15142657.556533813 3373600.207698822 0 0 0 0 2877573.7571136439 -3733820.5725343637 0 -3733820.5725343637 -1732544.5076849312 0 0 0 0 18429105.785366058 -5082045.0713920593 0 -5082045.0713920593 -8132939.8833312988 0 0 0 0 41828922.107660294 6872613.5827865601 0 6872613.5827865601 -18062330.886886597 0 0 0 0 10778917.828376606 -5851820.2424915954 0 -5851820.2424915954 -9147528.7814799771 0 0 0 0 41556716.880074903 -9265154.6612001657 0 -9265154.6612001657 -3256312.6080169678 0 0 0 0 5577050.0439357758 -5536717.1576080322 0 -5536717.1576080322 -2255521.4766235352 0 0 0 0 12237800.798153877 -20124378.788444519 0 -20124378.788444519 10851174.397628784 0 0 0 0 46390934.973040581 -8372392.8812828064 0 -8372392.8812828064 -5952844.3349914551 0 0 0 0 15202827.273855448 -7944287.2280273438 0 -7944287.2280273438 -8836811.1822814941 0 0 0 0 13420148.198244095 -7084197.5290985107 0 -7084197.5290985107 -5044257.2705764771 0 0 0 0 6036377.6492929459 -12954138.292152405 0 -12954138.292152405 1804859.2935218811 0 0 0 0 5344428.0319786072 -10647267.894287109 0 -10647267.894287109 -5559798.9711608887 0 0 0 0 9893609.6469109152 -9024704.6692408323 0 -9024704.6692408323 -1458391.8508529663 0 0 0 0 -75920666.300422668 -52887122.756469727 0 -52887122.756469727 -24811272.450838089 0 0 0 0 40519569.45331955 -89195904.427619934 0 -89195904.427619934 -282401950.54580688 0 0 0 0 178240.30868916772 -3611126.5068120621 0 -3611126.5068120621 1618493.2876198106 0 0 0 0 23997708.672382355 -41885601.07649231 0 -41885601.07649231 -7418545.9027099609 0 0 0 0 -133629354.44084549 -175065714.31460571 0 -175065714.31460571 -235308063.19767761 0 0 0 0 27743311.976415634 -166017483.43174744 0 -166017483.43174744 -560659159.14616394 0 0 0 0 85474406.497182846 -151868227.0340271 0 -151868227.0340271 -512316468.06569672 0 0 0 0 53690720.776371002 -204529376.15873718 0 -204529376.15873718 -354978350.47452354 0 0 0 0 -17830891.65977478 -137849550.94880676 0 -137849550.94880676 -163008922.2648468 0 0 0 0 -115810104.97311711 -15408977.624516487 0 -15408977.624516487 -297824447.11611938 0 0 0 0 56410353.667770386 -106982761.17121887 0 -106982761.17121887 -365936230.35342407 0 0 0 0 64475628.361595154 -42108332.355697632 0 -42108332.355697632 -281216443.82180786 0 0 0 0 8779557.9454269409 -2853605.9718475342 0 -2853605.9718475342 -119815387.262146 0 0 0 0 31112315.421585083 -52147598.762435913 0 -52147598.762435913 -72206432.611663818 0 0 0 0 11602375.30649662 -11181156.707443237 0 -11181156.707443237 -10566759.889350891 0 0 0 0 -26084005.733031273 30516917.85824585 0 30516917.85824585 -110858141.35681152 0 0 0 0 7479448.3106584623 -8450622.6110164672 0 -8450622.6110164672 -274709.95936910808 0 0 0 0 -8048011.44115448 -31371351.974822998 0 -31371351.974822998 -28769919.89352417 0 0 0 0 592787.60225577932 -229397.01508209482 0 -229397.01508209482 -4307.9743918925524 0 0 0 0 8367978.8800086975 -3618773.3783416748 0 -3618773.3783416748 -7374745.2119750977 0 0 0 0 4220009.9585475922 -1783262.0398712158 0 -1783262.0398712158 -2548014.8062133789 0 0 0 0 1816684.4440755844 -3379289.7956447601 0 -3379289.7956447601 -6110881.5043029785 0 0 0 0 6354549.5954285068 -3388504.7418832891 0 -3388504.7418832891 -2480269.9367903098 0 0 0 0 6117162.9096132368 727774.98212475143 0 727774.98212475143 -7575488.2752782702 0 0 0 0 -28305089.017868042 19833720.341827393 0 19833720.341827393 -71857482.766387939 0 0 0 0 6270564.9269104674 -2304246.6063491628 0 -2304246.6063491628 -3931102.3623401895 0 0 0 0 64826900.409486771 4534889.7669677734 0 4534889.7669677734 -19703796.702133179 0 0 0 0 62629951.790079951 -10601683.732206345 0 -10601683.732206345 4514686.210357666 0 0 0 0 54788829.28386879 -20663921.47808075 0 -20663921.47808075 -110110.45175170898 0 0 0 0 84222103.32480526 -33407205.004646301 0 -33407205.004646301 5318022.6686401367 0 0 0 0 786942.85532301664 580361.48694235086 0 580361.48694235086 -1395439.1918268204 0 0 0 0 68690662.417120934 -5805577.4188346863 0 -5805577.4188346863 7698873.2999267578 0 0 0 0 1915946.0944963191 336992.50356330536 0 336992.50356330536 -1503175.648157239 0 0 0 0 -248443049.44228554 -315913680.55965424 0 -315913680.55965424 -130523487.99310303 0 0 0 0 -63998437.555480957 -37629000.25730896 0 -37629000.25730896 -94951063.804931641 0 0 0 0 -197970097.76173019 -165813127.32984924 0 -165813127.32984924 -213399237.91635132 0 0 0 0 -48364459.274154663 -112328446.49777222 0 -112328446.49777222 -243957304.05072021 0 0 0 0 67112088.887493134 -251293654.08430481 0 -251293654.08430481 -224834625.679245 0 0 0 0 -654928690.8062973 -312938395.92622757 0 -312938395.92622757 54092333.947937012 0 0 0 0 -41671528.666303635 -416283663.65505219 0 -416283663.65505219 -156603073.53601074 0 0 0 0 -230121468.57300949 205321378.1960144 0 205321378.1960144 172570928.20140839 0 0 0 0 69924866.001785278 -303767320.59870529 0 -303767320.59870529 -84861710.088562012 0 0 0 0 168240.90514613967 828287.47678085417 0 828287.47678085417 55762.4627404809 0 0 0 0 203644924.24398232 -4006206.4951858521 0 -4006206.4951858521 -28388754.202186584 0 0 0 0 105252899.73439372 -39595950.219710648 0 -39595950.219710648 10407988.2059021 0 0 0 0 105052829.91100311 -5675967.4875488281 0 -5675967.4875488281 1112747.5815582275 0 0 0 0 -64099377.136907578 -203236650.64115906 0 -203236650.64115906 -118025064.83843994 0 0 0 0 153925409.14173031 -63910198.526405334 0 -63910198.526405334 -37577594.634002686 0 0 0 0 35493062.223106384 -79654986.057022095 0 -79654986.057022095 -160092835.94549561 0 0 0 0 -75566014.987277985 -129513177.55107117 0 -129513177.55107117 -278163593.30117798 0 0 0 0 -90852002.267129898 -113414468.19689178 0 -113414468.19689178 -104346222.83329773 0 0 0 0 56064100.862037659 -102279315.76791382 0 -102279315.76791382 -125509037.77856445 0 0 0 0 45407450.484847546 -170137729.21311378 0 -170137729.21311378 -49951043.233673096 0 0 0 0 46727914.603660583 -137479540.48822021 0 -137479540.48822021 -6587837.3450012207 0 0 0 0 55179022.0883255 -172238526.84213257 0 -172238526.84213257 1075567.2434387207 0 0 0 0 61516862.758087158 -115640703.30633545 0 -115640703.30633545 -34031745.674804688 0 0 0 0 53237462.839958191 -136019535.10040283 0 -136019535.10040283 -59913807.87979126 0 0 0 0 65411176.742675781 -134763908.56378174 0 -134763908.56378174 -25966873.835617065 0 0 0 0 88258928.634613037 -101989918.3760376 0 -101989918.3760376 -57490197.078125 0 0 0 0 86377411.111152649 -96221417.125762939 0 -96221417.125762939 -42237187.807189941 0 0 0 0 103214912.55552864 -77610438.28446579 0 -77610438.28446579 -26631483.206573486 0 0 0 0 57757975.309715271 -88408143.129577637 0 -88408143.129577637 -12004393.587478638 0 0 0 0 58543832.635853291 -71808080.863679886 0 -71808080.863679886 2093743.9211425781 0 0 0 0 19072748.867660522 -105236892.5949707 0 -105236892.5949707 13855014.213157654 0 0 0 0 57195739.65510726 -106078055.34558392 0 -106078055.34558392 12350341.670593262 0 0 0 0 19508364.992698669 -133111733.12480164 0 -133111733.12480164 119603095.55621338 0 0 0 0 36259164.870643616 -80815682.112121582 0 -80815682.112121582 26837444.685974121 0 0 0 0 26432384.676208496 -52931531.725036621 0 -52931531.725036621 38550158.669891357 0 0 0 0 16969705.681556702 -27057006.014205933 0 -27057006.014205933 5725516.0118713379 0 0 0 0 2652560.9758682251 -37236572.561210632 0 -37236572.561210632 94791230.964599609 0 0 0 0 -63030987.280029297 -70968371.667617798 0 -70968371.667617798 382358791.91981506 0 0 0 0 -233847.79705302604 -1706574.3794199452 0 -1706574.3794199452 970497.31852316856 0 0 0 0 -1505948.3577899933 -301320250.72266388 0 -301320250.72266388 199300498.77175903 0 0 0 0 -11484640.540225923 -14792571.816802979 0 -14792571.816802979 6585559.6569442749 0 0 0 0 -52987281.73273468 -47470997.533584595 0 -47470997.533584595 -2813973.3191375732 0 0 0 0 -49765161.896616697 -54105244.280685425 0 -54105244.280685425 9917806.6613855362 0 0 0 0 -74729600.112825871 -67673063.568191528 0 -67673063.568191528 9135248.5024056435 0 0 0 0 7959575.5708010197 -42655492.165963173 0 -42655492.165963173 -130206841.48991394 0 0 0 0 1100240.3609396864 2826135.2316490728 0 2826135.2316490728 -1685031.3847340941 0 0 0 0 150221751.15014648 -67252962.895523071 0 -67252962.895523071 -8765085.6098251343 0 0 0 0 7141533.2257041931 -36649269.154159546 0 -36649269.154159546 28100079.194992065 0 0 0 0 22459539.052662849 -32898452.42855835 0 -32898452.42855835 2076911.4190216064 0 0 0 0 102988464.76165199 -41808593.961418152 0 -41808593.961418152 -31534789.851966858 0 0 0 0 75923469.401072383 -24920823.152137756 0 -24920823.152137756 15545017.047042847 0 0 0 0 74235133.038280487 -47312288.387023926 0 -47312288.387023926 12279684.138549805 0 0 0 0 1088309.1164031478 2829493.4854102563 0 2829493.4854102563 -1542494.9324062616 0 0 0 0 45284337.099826917 -76300210.142249107 0 -76300210.142249107 -25979574.508285522 0 0 0 0 95568092.38417244 -19867116.303474426 0 -19867116.303474426 15217860.561276913 0 0 0 0 139554915.32176828 -37569971.558677673 0 -37569971.558677673 -141423.89909362793 0 0 0 0 94335897.066202164 -29669235.564506531 0 -29669235.564506531 2310548.9146118164 0 0 0 0 90774991.684641838 -16229706.498970032 0 -16229706.498970032 21488136.612594604 0 0 0 0 91397736.665481567 -19842364.118934631 0 -19842364.118934631 -16415500.301361084 0 0 0 0 575810.50654280104 1542885.7252918854 0 1542885.7252918854 -749966.72453048825 0 0 0 0 171897873.51961851 -33469146.360649109 0 -33469146.360649109 -33409408.091461182 0 0 0 0 -138287904.12322426 -80841325.13230896 0 -80841325.13230896 18836663.280330658 0 0 0 0 -27857610.809066057 -84413971.627449036 0 -84413971.627449036 9992531.8791160583 0 0 0 0 4650383.3328644764 -194827.90879456326 0 -194827.90879456326 -1792098.7888774425 0 0 0 0 -46828000.062718153 -46959378.118913651 0 -46959378.118913651 -7838551.1165924072 0 0 0 0 86283726.235901713 -4469691.3796234131 0 -4469691.3796234131 3044505.1615600586 0 0 0 0 -14582128.454940796 -12718507.335426331 0 -12718507.335426331 86872739.994556427 0 0 0 0 -5116308.7780984044 -340934.62746785581 0 -340934.62746785581 3989583.401371114 0 0 0 0 5679388.3554289341 -143287076.07536888 0 -143287076.07536888 -10048545.918029785 0 0 0 0 4724711.1911094189 23821506.826698303 0 23821506.826698303 29111580.635322571 0 0 0 0 17630257.384177409 -21710456.983883288 0 -21710456.983883288 4029099.8745233677 0 0 0 0 86504855.156213403 -15803701.48103714 0 -15803701.48103714 -39621141.425300598 0 0 0 0 9814195.0472154617 -68418378.699623108 0 -68418378.699623108 50933250.388748169 0 0 0 0 74973942.897180557 -19247499.653762817 0 -19247499.653762817 -26012204.779525757 0 0 0 0 69007587.676032066 -62657676.305870056 0 -62657676.305870056 -35714893.903381348 0 0 0 0 -40607476.402060032 -56059135.021110535 0 -56059135.021110535 -4990623.4251937866 0 0 0 0 26455881.724048667 -26710966.356897473 0 -26710966.356897473 3632848.0368804932 0 0 0 0 11895729.91225284 -11454228.977836519 0 -11454228.977836519 -7270253.621441938 0 0 0 0 26875861.339708328 -36727646.831069946 0 -36727646.831069946 -22353410.799180031 0 0 0 0 19027954.364704132 -13907266.166519165 0 -13907266.166519165 2710372.4477386475 0 0 0 0 12875570.259605408 -20153853.796737671 0 -20153853.796737671 21505251.208747864 0 0 0 0 17678711.725181777 -20408739.4297265 0 -20408739.4297265 1637005.6019641124 0 0 0 0 4633874.1337266108 -2862311.4307854772 0 -2862311.4307854772 1357508.1652249545 0 0 0 0 19875026.08663559 -26794612.744827271 0 -26794612.744827271 -12925594.19229126 0 0 0 0 13578951.463085175 -26894288.149780273 0 -26894288.149780273 16812406.452705383 0 0 0 0 19350658.486244202 -11992320.70085144 0 -11992320.70085144 -3190927.012512207 0 0 0 0 19544642.50138855 -15222496.709289551 0 -15222496.709289551 -21526.703543709526 0 0 0 0 23103277.431556702 -16623502.578521729 0 -16623502.578521729 47961.767303466797 0 0 0 0 15598227.23015976 -24949823.998191833 0 -24949823.998191833 514560.60656738281 0 0 0 0 14889941.640697479 -25068558.791717529 0 -25068558.791717529 2289534.1972885132 0 0 0 0 16221649.096761703 -21801793.281211853 0 -21801793.281211853 9412745.3262634277 0 0 0 0 19990940.54691124 -31558298.92527771 0 -31558298.92527771 8673.2903594970703 0 0 0 0 15286556.795570374 -29555084.129722595 0 -29555084.129722595 530545.77293395996 0 0 0 0 13528641.134692192 -31495850.250161767 0 -31495850.250161767 4709161.7749938965 0 0 0 0 14483248.814723969 -29697402.385536194 0 -29697402.385536194 1441141.4631500244 0 0 0 0 13839814.692222595 -28631841.103046417 0 -28631841.103046417 -22464.181610107422 0 0 0 0 12445694.240242004 -30003505.513771057 0 -30003505.513771057 -1305554.7908859253 0 0 0 0 15543009.552248001 -25514818.66724205 0 -25514818.66724205 -3985391.3215026855 0 0 0 0 18822920.215770721 -21632739.842834473 0 -21632739.842834473 106554.57614135742 0 0 0 0 -48641350.395214081 -34455229.088592529 0 -34455229.088592529 35743256.977752686 0 0 0 0 922028.3640664462 -5049997.5927366205 0 -5049997.5927366205 5731615.6045545787 0 0 0 0 25483972.4582901 -33052274.886764526 0 -33052274.886764526 -9941965.254611969 0 0 0 0 4679807.8412818909 -45851794.464790344 0 -45851794.464790344 -14394459.0597229 0 0 0 0 9026388.2497177124 -16143072.066368103 0 -16143072.066368103 5496922.253692627 0 0 0 0 -22738153.654636383 -38016742.71257782 0 -38016742.71257782 26870.278533935547 0 0 0 0 47568332.261230469 -20633935.289871216 0 -20633935.289871216 988309.14762115479 0 0 0 0 43902872.842445374 -33365805.164054871 0 -33365805.164054871 -17109.970581054688 0 0 0 0 47431635.661322206 -53556717.964525729 0 -53556717.964525729 20363328.192596436 0 0 0 0 -588228.6078152582 -987301.21304483712 0 -987301.21304483712 -218057.43825155497 0 0 0 0 14608217.049697876 5551193.0234375 0 5551193.0234375 -3232454.6023864746 0 0 0 0 38213712.993415833 -68537647.014381409 0 -68537647.014381409 9953776.3726806641 0 0 0 0 56114238.102348328 -52347060.443969727 0 -52347060.443969727 -7991714.2044067383 0 0 0 0 42562319.459609985 -10909775.273452759 0 -10909775.273452759 -18236454.756469727 0 0 0 0 -4087628.9052734375 -68656852.028640747 0 -68656852.028640747 32024520.376152039 0 0 0 0 -2151882.1914525069 -25070595.037540965 0 -25070595.037540965 12302523.290407339 0 0 0 0 -2411404.993473053 -25736550.018493652 0 -25736550.018493652 35781302.273345947 0 0 0 0 1236543.1348419189 -29761889.111709595 0 -29761889.111709595 22042093.184112549 0 0 0 0 12131597.29637146 -58210806.460662842 0 -58210806.460662842 8473145.9021148682 0 0 0 0 -15217085.634254456 -42572775.013809204 0 -42572775.013809204 14252856.897705078 0 0 0 0 8523958.2302703857 -18805216.358947754 0 -18805216.358947754 -5319812.8824234009 0 0 0 0 32202.503146544099 -343953.1233125329 0 -343953.1233125329 -666937.4250265453 0 0 0 0 33508112.714660645 -37792005.198181152 0 -37792005.198181152 -17288980.318664551 0 0 0 0 1289252.794052124 -25923226.846710205 0 -25923226.846710205 -7873268.2689361572 0 0 0 0 3329803.3656661585 -10119024.063719742 0 -10119024.063719742 13344995.476097271 0 0 0 0 57656102.350452423 -34067344.993686676 0 -34067344.993686676 -157975444.20094299 0 0 0 0 -28666060.005157471 31566478.843963623 0 31566478.843963623 -149922603.68652344 0 0 0 0 -14278245.167392731 -76735829.850627899 0 -76735829.850627899 -47793663.371704102 0 0 0 0 -40466775.033241272 -13729133.336784363 0 -13729133.336784363 55595646.886985779 0 0 0 0 -2021693.0133290254 -2323961.0134238731 0 -2323961.0134238731 6795856.8982096538 0 0 0 0 -15571274.321556091 37193158.238891602 0 37193158.238891602 -129910617.28871155 0 0 0 0 5656467.9030303955 -9145620.7981643677 0 -9145620.7981643677 -31578060.247711182 0 0 0 0 11638567.362243652 -53271661.456085205 0 -53271661.456085205 -17256746.974200249 0 0 0 0 5970550.6862945557 -5012744.0052642822 0 -5012744.0052642822 -21267991.378476143 0 0 0 0 -15429005.458859444 -4298275.0555648804 0 -4298275.0555648804 15944382.787719727 0 0 0 0 31542168.560344696 -22210711.761741638 0 -22210711.761741638 -16788134.757965088 0 0 0 0 6621383.5563010462 -14488570.420076294 0 -14488570.420076294 -317325.05571439117 0 0 0 0 -5593625.7945537567 -24134783.405418396 0 -24134783.405418396 36146598.623703003 0 0 0 0 17144366.310834218 -24017782.852909282 0 -24017782.852909282 4583829.1887469776 0 0 0 0 8358714.0258336067 -58494262.098394394 0 -58494262.098394394 4533098.3911437988 0 0 0 0 2840200.8246891731 -19388384.620034628 0 -19388384.620034628 6071523.7194828093 0 0 0 0 -2398320.5597316697 -26822547.191137016 0 -26822547.191137016 12334567.429401636 0 0 0 0 -8067127.9522399902 -40720188.962310791 0 -40720188.962310791 29443457.086502075 0 0 0 0 34942.295806065202 -2056824.7603028268 0 -2056824.7603028268 127985.20245136693 0 0 0 0 -330880654.22386932 -254048410.65507507 0 -254048410.65507507 -180548359.67384338 0 0 0 0 50253999.185760498 31956864.528076172 0 31956864.528076172 -54216782.609592438 0 0 0 0 -606731593.6558857 -111726496.53361762 0 -111726496.53361762 -16327171.880828857 0 0 0 0 3870246.9964520037 -1523871.0618581213 0 -1523871.0618581213 -3165623.6352705434 0 0 0 0 -24224800.435787201 32849433.546981812 0 32849433.546981812 6439998.713104248 0 0 0 0 16080868.628570557 -52887401.162200928 0 -52887401.162200928 9318.934069563591 0 0 0 0 41647937.531158447 20339053.860855103 0 20339053.860855103 20262112.214645386 0 0 0 0 38386738.399154663 18132639.340408325 0 18132639.340408325 17176001.675598145 0 0 0 0 41300235.047309875 21391054.456504822 0 21391054.456504822 19827796.951049805 0 0 0 0 2834431.5461638197 -2342467.2351531424 0 -2342467.2351531424 -2384453.4630050957 0 0 0 0 -3304697.9528884888 4686180.4634857178 0 4686180.4634857178 7171794.8485870361 0 0 0 0 -5529441.9804992676 -20364554.174102783 0 -20364554.174102783 21445621.629840851 0 0 0 0 18227235.330780029 -17547578.644195557 0 -17547578.644195557 39721.115951538086 0 0 0 0 4671840.3316759318 -1224341.5906202756 0 -1224341.5906202756 -2817739.761894159 0 0 0 0 26098704.677467346 -28796588.196586609 0 -28796588.196586609 15281245.982376099 0 0 0 0 25436218.605300903 -30919991.651367188 0 -30919991.651367188 8702235.1036224365 0 0 0 0 3921127.0536193848 -11776871.859283447 0 -11776871.859283447 15866884.003907681 0 0 0 0 10934903.419006348 -31710502.274124146 0 -31710502.274124146 59098047.227157593 0 0 0 0 3616237.6949756816 -1536816.0614339672 0 -1536816.0614339672 -1264501.8765462339 0 0 0 0 -3463264.8291314319 -5711283.8171839714 0 -5711283.8171839714 4333750.352265127 0 0 0 0 4030089.505148612 -6508454.5473948605 0 -6508454.5473948605 1255905.3367186934 0 0 0 0 3827573.7963867188 4442996.7624816895 0 4442996.7624816895 19676899.73236084 0 0 0 0 -2060567.6254577637 -3090742.0620193481 0 -3090742.0620193481 40184681.935775757 0 0 0 0 4827679.9993286133 -1949952.256942749 0 -1949952.256942749 24856158.969772339 0 0 0 0 -442277.58531188965 -5049591.4899139404 0 -5049591.4899139404 5459710.4760894775 0 0 0 0 342684.26480358839 -4272867.0933540314 0 -4272867.0933540314 4894538.5128191244 0 0 0 0 -49411.258359402418 -19209933.856342569 0 -19209933.856342569 5355411.2846810594 0 0 0 0 -3818658.2173309326 -2319861.8946914673 0 -2319861.8946914673 65465983.545623779 0 0 0 0 -1907692.7398670316 -19886088.259413533 0 -19886088.259413533 7296353.1926128529 0 0 0 0 5909982.3791809082 -62310438.442420959 0 -62310438.442420959 -130347494.66587067 0 0 0 0 2202834.02784729 -7426509.640914917 0 -7426509.640914917 50925917.697906494 0 0 0 0 2042164.6692352295 -3983172.8471984863 0 -3983172.8471984863 56232183.383026123 0 0 0 0 -3522972.5916137695 3089888.6773986816 0 3089888.6773986816 38020261.048095703 0 0 0 0 4735792.7206215262 -13090554.456773043 0 -13090554.456773043 52322678.859191895 0 0 0 0 -4311776.7722167969 3958098.1047973633 0 3958098.1047973633 38333559.007293701 0 0 0 0 687922.3873273544 -65278.204895425588 0 -65278.204895425588 -753476.25832925737 0 0 0 0 -3277916.0148010254 10953381.894805908 0 10953381.894805908 -17960131.486328125 0 0 0 0 2266501.6068433523 -9080528.5488405824 0 -9080528.5488405824 4086936.1938617108 0 0 0 0 -31718053.066162109 -28895195.108886719 0 -28895195.108886719 -8795559.0544433594 0 0 0 0 -3190779.1298828125 5138127.7573547363 0 5138127.7573547363 42626303.738769531 0 0 0 0 -1650732.9593499079 -3490741.6296660751 0 -3490741.6296660751 3713498.3308893889 0 0 0 0 -2823251.3732757568 -5362710.0324554443 0 -5362710.0324554443 7167910.7771148682 0 0 0 0 4146206.5852203369 -2824405.4327697754 0 -2824405.4327697754 51158917.542694092 0 0 0 0 7147155.0488891602 -4308069.2422027588 0 -4308069.2422027588 51409309.279693604 0 0 0 0 128298.3659529388 -4121251.8683607578 0 -4121251.8683607578 850955.81980917696 0 0 0 0 6163952.9912567139 -805009.2366027832 0 -805009.2366027832 55836313.868276596 0 0 0 0 7517508.4401321411 -2782749.9971237183 0 -2782749.9971237183 52186841.158477783 0 0 0 0 -3518259.7241344526 -19740545.957556903 0 -19740545.957556903 7934134.7092648242 0 0 0 0 3766258.9991111755 3993316.6677436829 0 3993316.6677436829 79381210.27230835 0 0 0 0 -4517723.7087068558 1623305.8634929657 0 1623305.8634929657 4858457.3834991455 0 0 0 0 1409166.0783691406 -40215899.717378616 0 -40215899.717378616 -52990419.21975708 0 0 0 0 -5480641.8347473145 -30622992.102172852 0 -30622992.102172852 -20161658.263412476 0 0 0 0 8024111.8172836304 -50751337.013069153 0 -50751337.013069153 -45141999.662017822 0 0 0 0 -4197036.0039672852 -68330225.354827881 0 -68330225.354827881 -69356351.272460938 0 0 0 0 -24604673.705265045 -58469683.149032593 0 -58469683.149032593 -16810287.374755859 0 0 0 0 -8196267.6355285645 -34832020.827449799 0 -34832020.827449799 -26379543.512435913 0 0 0 0 -25284329.339195251 -30024390.23802948 0 -30024390.23802948 -10040745.774017334 0 0 0 0 -16991238.112869263 -5592909.2615737915 0 -5592909.2615737915 31634589.891439438 0 0 0 0 1996880.4775543213 -102660464.32608414 0 -102660464.32608414 9992823.1642150879 0 0 0 0 83469100.450027466 5398021.94947052 0 5398021.94947052 -128070574.75061798 0 0 0 0 -2175313.0277413055 -1256021.9209320396 0 -1256021.9209320396 1564569.967570737 0 0 0 0 118236573.31984711 -27611418.54957962 0 -27611418.54957962 -10434513.692321777 0 0 0 0 80265318.900093079 37598796.556917191 0 37598796.556917191 21163580.963394165 0 0 0 0 25334306.276618958 -23859526.668266296 0 -23859526.668266296 -10556580.067169189 0 0 0 0 63032999.90688324 3583128.0331954956 0 3583128.0331954956 -40353815.471984863 0 0 0 0 8320345.1872293502 -8989225.0654631406 0 -8989225.0654631406 -5309880.4593232982 0 0 0 0 2185423.8201217651 -9405178.4710769653 0 -9405178.4710769653 -7294210.9625892639 0 0 0 0 5094857.3205108643 -2922673.4184417725 0 -2922673.4184417725 -4612862.4781341553 0 0 0 0 36435159.480171204 -10211930.779747009 0 -10211930.779747009 -70731541.415145874 0 0 0 0 -5412157.8174133301 -4581475.1684570312 0 -4581475.1684570312 -41125258.493057251 0 0 0 0 11566407.213288404 -6482811.7260298133 0 -6482811.7260298133 -6676948.4225209467 0 0 0 0 16401320.113140106 -1151097.9140224457 0 -1151097.9140224457 -7311480.7523498535 0 0 0 0 29968005.630737305 18745838.281951904 0 18745838.281951904 -64045545.210876465 0 0 0 0 9517946.1209106445 -5336304.5116577148 0 -5336304.5116577148 -5505090.2467536926 0 0 0 0 -11578162.18572998 11386373.320068359 0 11386373.320068359 -46794386.221710205 0 0 0 0 20341676.428436279 -2044653.6523590088 0 -2044653.6523590088 -42765980.219974518 0 0 0 0 9426860.0164031982 568218.80055236816 0 568218.80055236816 9079047.7939300537 0 0 0 0 832609.46780776978 -22102907.634643555 0 -22102907.634643555 -26212733.093444824 0 0 0 0 -547556.71054077148 15304555.867607117 0 15304555.867607117 -16789502.88293457 0 0 0 0 -5552734.8994293213 -12867059.74785614 0 -12867059.74785614 -5011149.7054824829 0 0 0 0 -1643216.9288547337 -2611854.8930421099 0 -2611854.8930421099 -749908.24322548509 0 0 0 0 2905386.8683783934 -16121570.450932078 0 -16121570.450932078 -4835164.6076650023 0 0 0 0 10645065.655982265 -4553368.1716033034 0 -4553368.1716033034 -8311195.7814230174 0 0 0 0 6142622.0714073181 -19885974.259595871 0 -19885974.259595871 -10045995.022827148 0 0 0 0 6050673.0345001221 -2851644.6236114502 0 -2851644.6236114502 -50479254.577423096 0 0 0 0 -14134013.232727051 -8511812.780128479 0 -8511812.780128479 19551845.416519165 0 0 0 0 443802.76458332129 -778141.68794890493 0 -778141.68794890493 -199659.13418628275 0 0 0 0 -282161.32742863894 -538464.56639695913 0 -538464.56639695913 906028.76738189161 0 0 0 0 1062071.7367324829 -8183260.6111297607 0 -8183260.6111297607 -15854855.636180878 0 0 0 0 -1240363.8726272583 -3249599.3650398254 0 -3249599.3650398254 12406625.582000732 0 0 0 0 -217724.95807331055 -3929698.2006094083 0 -3929698.2006094083 -4175252.7148424163 0 0 0 0 14545503.641616821 -20533999.417251587 0 -20533999.417251587 -34247797.441482544 0 0 0 0 3188595.4547492117 -10792301.674989283 0 -10792301.674989283 -1991333.9973347075 0 0 0 0 -1897470.7757110596 -22433512.165672302 0 -22433512.165672302 -20413802.454910278 0 0 0 0 -4004674.5770568848 36076319.751220703 0 36076319.751220703 -31521153.155653 0 0 0 0 31199834.713417053 7730008.4317016602 0 7730008.4317016602 -23334486.681182861 0 0 0 0 53185474.605827332 4418782.5885009766 0 4418782.5885009766 -35409964.562080383 0 0 0 0 15465002.385709763 -3856233.7452697754 0 -3856233.7452697754 -21183253.184280396 0 0 0 0 -22647377.938796997 16992562.098899841 0 16992562.098899841 -17463244.932022095 0 0 0 0 6419041.9456939697 -4668022.550201416 0 -4668022.550201416 -6154486.3430862427 0 0 0 0 5583866.8513655271 -8084258.6515963003 0 -8084258.6515963003 1771115.9922563583 0 0 0 0 -31916996.937591553 33538714.126449585 0 33538714.126449585 -33856361.30430603 0 0 0 0 -6843612.3737869263 23337913.873973846 0 23337913.873973846 -52552567.651763916 0 0 0 0 -903343.34242248535 -31373784.76914978 0 -31373784.76914978 -21910498.298873901 0 0 0 0 -95087833.757553101 -27771726.797901154 0 -27771726.797901154 -21131401.27796936 0 0 0 0 -27939229.072957516 -23653343.389953613 0 -23653343.389953613 -5931038.3390197754 0 0 0 0 30346202.568336487 -19738060.232635498 0 -19738060.232635498 -144067688.44956779 0 0 0 0 29663599.28352356 35921910.546596527 0 35921910.546596527 5191292.9547119141 0 0 0 0 -20651231.116775513 -53776882.451370239 0 -53776882.451370239 110190424.27498627 0 0 0 0 57656407.854156494 -92308587.633468628 0 -92308587.633468628 51695467.425521851 0 0 0 0 -22275888.734795094 -23081682.2777915 0 -23081682.2777915 12287574.166046143 0 0 0 0 -10540477.275932312 -13963710.381942749 0 -13963710.381942749 -11309623.590026855 0 0 0 0 11859871.906433105 -32695242.83807373 0 -32695242.83807373 -6738367.5852813721 0 0 0 0 -13157820.169914246 -49876442.060745239 0 -49876442.060745239 58484865.10836792 0 0 0 0 -17834863.389083862 -68618968.8046875 0 -68618968.8046875 60505819.721012115 0 0 0 0 539149.41979598999 -89877727.226203918 0 -89877727.226203918 78554405.309844971 0 0 0 0 86169318.719177246 -67140245.394668579 0 -67140245.394668579 9499862.9306564331 0 0 0 0 -37623.617701292038 94904.692290864885 0 94904.692290864885 906652.96768764406 0 0 0 0 -36535185.407632828 -17930184.556749344 0 -17930184.556749344 20079828.308288574 0 0 0 0 -30199462.59165287 -49766230.042705536 0 -49766230.042705536 78778793.998077393 0 0 0 0 -56418760.331344604 235519953.12698364 0 235519953.12698364 -157723926.13027954 0 0 0 0 10271455.900909424 -47069533.648193359 0 -47069533.648193359 13687451.51600647 0 0 0 0 -8404792.6229400635 -42332544.40713501 0 -42332544.40713501 16945927.772186279 0 0 0 0 -7372459.9206848145 -64436364.829605103 0 -64436364.829605103 57808207.791809082 0 0 0 0 1669161.1504516602 -21211548.61239624 0 -21211548.61239624 -48023968.083740234 0 0 0 0 41529978.713615417 -25721617.730415344 0 -25721617.730415344 -39106847.362792969 0 0 0 0 -1764837.7689743042 -21615595.30809021 0 -21615595.30809021 -39205042.221694946 0 0 0 0 3589716.4452337101 779194.00124396384 0 779194.00124396384 -818905.39044553041 0 0 0 0 7381155.5224227905 -47474429.474807739 0 -47474429.474807739 -49630939.947574615 0 0 0 0 1733219.765953064 21901551.082580566 0 21901551.082580566 -13438439.915588379 0 0 0 0 13799323.004690792 -16378469.529238455 0 -16378469.529238455 -5259901.8565436527 0 0 0 0 2197370.1272735596 -9677042.1304321289 0 -9677042.1304321289 -15293225.576904297 0 0 0 0 3263578.9897461012 -5489234.2177406102 0 -5489234.2177406102 -561178.35109959543 0 0 0 0 -3499318.4522399902 -10278480.520904541 0 -10278480.520904541 -11216635.234031677 0 0 0 0 8497590.8473360129 521077.43513303995 0 521077.43513303995 -910243.34018500894 0 0 0 0 -11829849.259407043 -29678195.59979248 0 -29678195.59979248 -5783002.4686279297 0 0 0 0 -6387886.0252723694 -23898450.505523682 0 -23898450.505523682 28550118.389076233 0 0 0 0 8965032.619229082 -8186079.3920511752 0 -8186079.3920511752 3349080.5945994481 0 0 0 0 43918210.859870911 -54675314.385025024 0 -54675314.385025024 44098729.6951828 0 0 0 0 -16914407.149338722 -24510990.156749725 0 -24510990.156749725 9261440.6413269043 0 0 0 0 -16663798.461288452 -10531013.856903076 0 -10531013.856903076 -14979833.032516479 0 0 0 0 -1675992.3308878634 -1224839.7507992387 0 -1224839.7507992387 1131662.6508541182 0 0 0 0 -3910774.0658357032 -16604535.914340071 0 -16604535.914340071 -465262.37595509179 0 0 0 0 10870397.12030983 -28902603.03125 0 -28902603.03125 -4389107.4070587158 0 0 0 0 -2858971.0836925507 -37684942.144622803 0 -37684942.144622803 16079136.373298645 0 0 0 0 2575033.246034991 -8472061.8392966166 0 -8472061.8392966166 -2347741.4287621863 0 0 0 0 3391789.8231287003 -18938740.634941101 0 -18938740.634941101 -13718127.139297485 0 0 0 0 5042707.0559163094 -23593925.735336304 0 -23593925.735336304 -15073149.145553589 0 0 0 0 97638767.763534546 -173401880.17373657 0 -173401880.17373657 197975281.10125732 0 0 0 0 7224343.3953281641 -7900609.3436410353 0 -7900609.3436410353 3374669.4508286715 0 0 0 0 -103241.82501029968 -35964131.775428772 0 -35964131.775428772 -33501598.439727783 0 0 0 0 -70704146.680013657 -32514578.458282471 0 -32514578.458282471 56074484.593406677 0 0 0 0 -1360407.1652536392 -14942598.267471313 0 -14942598.267471313 14339118.832878113 0 0 0 0 10214031.472604156 -37874240.091285706 0 -37874240.091285706 -262254904.11837769 0 0 0 0 802050.21886267001 -2744615.7264405042 0 -2744615.7264405042 -813978.54652263783 0 0 0 0 -17008323.539724827 -57955557.337520599 0 -57955557.337520599 -158515197.55923462 0 0 0 0 -23979241.22914505 -72583782.894378662 0 -72583782.894378662 -126633743.77073669 0 0 0 0 7196608.6907272339 -59472300.144927979 0 -59472300.144927979 -157018821.99293518 0 0 0 0 -4962035.4396781921 -73562753.063430786 0 -73562753.063430786 -111686681.96205139 0 0 0 0 11033385.214522362 -44786482.915092468 0 -44786482.915092468 -106441417.60427856 0 0 0 0 8598835.6329650879 -8429498.7833709717 0 -8429498.7833709717 -135924904.77631378 0 0 0 0 833916.42089557648 -23660962.474853516 0 -23660962.474853516 -85722520.332580566 0 0 0 0 12152959.189655304 -23860564.447311401 0 -23860564.447311401 -98242301.904815674 0 0 0 0 13834938.10074234 -14503586.32793045 0 -14503586.32793045 -57780866.191223145 0 0 0 0 8596179.8536338806 -46594787.212280273 0 -46594787.212280273 -101478244.23581696 0 0 0 0 -2360857.2902393341 -14595407.963375092 0 -14595407.963375092 -12850410.205612183 0 0 0 0 5570943.7917368524 -4725190.1169378534 0 -4725190.1169378534 -1635817.1922702044 0 0 0 0 1708738.9521878809 596097.10197678208 0 596097.10197678208 -291194.95396637172 0 0 0 0 -1130793.1652030945 -9895184.3749389648 0 -9895184.3749389648 -24619937.890930176 0 0 0 0 -8453328.2606697083 -34013670.673751831 0 -34013670.673751831 -51033543.055145264 0 0 0 0 14279833.30386734 -27922211.946365356 0 -27922211.946365356 -85346698.332672119 0 0 0 0 7663674.4898300171 -40857652.145874023 0 -40857652.145874023 -87985276.682025909 0 0 0 0 7008175.1400947571 -41258546.159362793 0 -41258546.159362793 -77701503.506713867 0 0 0 0 9665148.6813850403 -43768349.652099609 0 -43768349.652099609 -75628940.917785645 0 0 0 0 -7877020.0690139532 -47126584.825740814 0 -47126584.825740814 -74043703.081237793 0 0 0 0 10178480.681869507 -49815969.289031982 0 -49815969.289031982 -82769030.265792847 0 0 0 0 6086892.7771091461 -42970345.541664124 0 -42970345.541664124 -71386879.62298584 0 0 0 0 7743804.7476463318 -51848928.756103516 0 -51848928.756103516 -92210931.396118164 0 0 0 0 8520296.6195011139 -49036629.985618591 0 -49036629.985618591 -83075644.429718018 0 0 0 0 4946006.5932350159 -58950254.862892151 0 -58950254.862892151 -84178127.6875 0 0 0 0 6503336.6733016968 -58424139.472961426 0 -58424139.472961426 -87096931.896636963 0 0 0 0 10146710.855937958 -51342165.494171143 0 -51342165.494171143 -99159496.016059875 0 0 0 0 11272617.87922287 -41632182.41027832 0 -41632182.41027832 -88446097.458618164 0 0 0 0 12386472.349510193 -44444249.047348022 0 -44444249.047348022 -101155691.11355591 0 0 0 0 7908913.0156822205 -63602757.421157837 0 -63602757.421157837 -101448810.30449486 0 0 0 0 12048294.18927002 -50513708.935592651 0 -50513708.935592651 -99597280.408813477 0 0 0 0 11311593.83820343 -52737995.105636597 0 -52737995.105636597 -117559624.78924561 0 0 0 0 3522527.9662799835 -66566420.853912354 0 -66566420.853912354 -91890526.061889648 0 0 0 0 3364666.4392914772 -68687993.258409023 0 -68687993.258409023 -109157489.07891846 0 0 0 0 4837761.7906532288 -66046170.23651123 0 -66046170.23651123 -91791019.038879395 0 0 0 0 7139716.4899177551 -64149043.813137054 0 -64149043.813137054 -81728990.605957031 0 0 0 0 9083464.0178833008 -59503071.493911743 0 -59503071.493911743 -87146514.953521729 0 0 0 0 7103016.6422576904 -63243100.11781311 0 -63243100.11781311 -90033398.598937988 0 0 0 0 4878983.4474334717 -66580515.837814331 0 -66580515.837814331 -85923818.416717529 0 0 0 0 -3653400.5152397156 -66592699.718383789 0 -66592699.718383789 -64656966.104492188 0 0 0 0 8796556.2187843323 -60351655.6459198 0 -60351655.6459198 -80922446.428878784 0 0 0 0 -8225719.0134339333 -76793684.437282562 0 -76793684.437282562 -77462365.028656006 0 0 0 0 -8192361.7573547363 -76499498.055511475 0 -76499498.055511475 -81571028.546142578 0 0 0 0 10214799.874973536 -53680578.735843658 0 -53680578.735843658 -91205300.507797241 0 0 0 0 -51687335.882152557 -103598548.87904358 0 -103598548.87904358 -60847412.105331421 0 0 0 0 3645018.8865224859 -14722029.875662694 0 -14722029.875662694 -6545988.0842111409 0 0 0 0 -5650504.0954778194 -79122162.581665039 0 -79122162.581665039 -115670487.81904602 0 0 0 0 -15133247.251903534 -85168317.469406128 0 -85168317.469406128 -109476922.83868408 0 0 0 0 -22478705.774730295 -72102851.145735741 0 -72102851.145735741 -117673979.07885742 0 0 0 0 -20518856.388435721 -84950773.77176857 0 -84950773.77176857 -110977434.07452393 0 0 0 0 -12058042.112470627 -83807117.565200806 0 -83807117.565200806 -112141043.92024231 0 0 0 0 -11823962.184028625 -86290286.00402832 0 -86290286.00402832 -91304968.845352173 0 0 0 0 -4320625.5905513763 -73430742.026535034 0 -73430742.026535034 -128192940.17118073 0 0 0 0 7806839.8302078247 -11241827.391960144 0 -11241827.391960144 -12046015.336639404 0 0 0 0 10372524.261434555 -17070876.716016769 0 -17070876.716016769 -16792932.103408813 0 0 0 0 9607265.8265075684 -32783565.83417511 0 -32783565.83417511 -48058843.928604126 0 0 0 0 -14309367.206413269 -8537819.2650680542 0 -8537819.2650680542 -31385996.704162598 0 0 0 0 -298065.84354114532 -22784215.429161072 0 -22784215.429161072 -17125206.725112915 0 0 0 0 -2312015.0255508423 -11441931.942470551 0 -11441931.942470551 -9905412.7417297363 0 0 0 0 -3753613.015914917 -7852347.5594062805 0 -7852347.5594062805 7513108.3095397949 0 0 0 0 2190623.6447601318 -15456012.033355713 0 -15456012.033355713 -26687653.792724609 0 0 0 0 -3288975.4734802246 -41996797.060974121 0 -41996797.060974121 -28914921.749786377 0 0 0 0 -12729880.26197052 -36078667.06652832 0 -36078667.06652832 -6129776.8110351562 0 0 0 0 8785873.5232458115 -2788128.5158100128 0 -2788128.5158100128 -5454050.0752563477 0 0 0 0 20248881.66558075 -2554902.8852844238 0 -2554902.8852844238 -12660877.579849243 0 0 0 0 12748743.384951012 -2092512.5149536505 0 -2092512.5149536505 -6712872.3792691827 0 0 0 0 9028513.7988433838 -13906139.183280945 0 -13906139.183280945 -14247954.082733154 0 0 0 0 22134473.995361328 20197918.137451172 0 20197918.137451172 -6485746.8613204956 0 0 0 0 -27722881.563079834 -55869355.022521973 0 -55869355.022521973 -35145782.288269043 0 0 0 0 -15755200.759597778 -29197207.510757446 0 -29197207.510757446 -24827887.308769226 0 0 0 0 49697199.897438049 277869.48321533203 0 277869.48321533203 -10538228.794361115 0 0 0 0 -21013681.815626144 -41674596.3266716 0 -41674596.3266716 -50462351.902893066 0 0 0 0 1289327.2845391035 889306.00869731605 0 889306.00869731605 436424.87678477168 0 0 0 0 2539749.0473725162 -7508034.872962594 0 -7508034.872962594 -5153607.4130877256 0 0 0 0 4960586.2492904663 -3986623.715171814 0 -3986623.715171814 -2204518.9117736816 0 0 0 0 6052622.1053934097 -8036336.0376739502 0 -8036336.0376739502 -9553867.8145141602 0 0 0 0 1371117.6609130688 -5028923.9093294665 0 -5028923.9093294665 -2194999.6952733099 0 0 0 0 6353386.4525453374 -732516.79593605548 0 -732516.79593605548 -901061.09168164432 0 0 0 0 37723858.149757385 -2654286.1088562012 0 -2654286.1088562012 -38067259.670562744 0 0 0 0 -645250.63198852539 -6192273.3858947754 0 -6192273.3858947754 -17504934.012237549 0 0 0 0 -12962210.707977295 -19753059.543670654 0 -19753059.543670654 -12194135.55480957 0 0 0 0 5105084.591765549 -1097553.4811268374 0 -1097553.4811268374 -455277.36350229383 0 0 0 0 -1855089.3328094482 -22739251.661712646 0 -22739251.661712646 -44424231.534538269 0 0 0 0 25100510.808135986 -34938122.744476318 0 -34938122.744476318 -75115375.191223145 0 0 0 0 2984118.3831291199 -45071461.030975342 0 -45071461.030975342 -72595965.228302002 0 0 0 0 -12881605.796821594 -37912392.676727295 0 -37912392.676727295 -49677067.100219727 0 0 0 0 -8007703.8908538818 -41014674.820770264 0 -41014674.820770264 -54920793.661117554 0 0 0 0 -11691907.815162659 -36962590.513969421 0 -36962590.513969421 -56966036.409545898 0 0 0 0 -12441796.465843201 -44261684.729507446 0 -44261684.729507446 -54497309.549865723 0 0 0 0 -14301215.534812927 -52935183.092681885 0 -52935183.092681885 -51075799.003913879 0 0 0 0 -2343727.6102981567 -53947546.845932007 0 -53947546.845932007 -68147052.527633667 0 0 0 0 -12259271.690490723 -66547926.922698975 0 -66547926.922698975 -70550788.209831238 0 0 0 0 -8656556.9589691162 -59220517.283203125 0 -59220517.283203125 -71525014.764404297 0 0 0 0 -12060067.104240417 -65134556.540847778 0 -65134556.540847778 -64733273.281616211 0 0 0 0 -780451.26323699951 -70814810.378234863 0 -70814810.378234863 -86814477.921264648 0 0 0 0 -2745424.9578647614 -80138385.590690613 0 -80138385.590690613 -100066270.48121643 0 0 0 0 10940939.148421288 -66251772.367876053 0 -66251772.367876053 -87697927.610809326 0 0 0 0 -158855608.20978165 -68536817.212417603 0 -68536817.212417603 -52236847.198448181 0 0 0 0 -40877788.943546295 -54902343.999107361 0 -54902343.999107361 -52690230.990783691 0 0 0 0 -46579555.387779236 -59403574.692993164 0 -59403574.692993164 -52994851.317047119 0 0 0 0 -35740420.544166565 -59577672.238143921 0 -59577672.238143921 -57633342.70401001 0 0 0 0 -41456628.46169281 -82753043.255752563 0 -82753043.255752563 -72619353.355529785 0 0 0 0 -26734225.908111572 -64023135.672821045 0 -64023135.672821045 -60629794.093933105 0 0 0 0 -25370003.836308956 -48444055.650269508 0 -48444055.650269508 -47505825.340820312 0 0 0 0 -59661912.058109283 -40465014.96408844 0 -40465014.96408844 -34016735.188995361 0 0 0 0 7005118.2412002515 7427390.9586572312 0 7427390.9586572312 -4545320.8510859013 0 0 0 0 40528956.030873299 4810292.9029598236 0 4810292.9029598236 -19827516.171386719 0 0 0 0 12970708.211818129 -10839571.392330579 0 -10839571.392330579 -13063169.782421909 0 0 0 0 -34114422.104253769 -52845722.328437805 0 -52845722.328437805 -55631001.34362793 0 0 0 0 1677168.2337671584 3379551.0988874305 0 3379551.0988874305 -1302588.301995948 0 0 0 0 28909706.978279114 31597977.154006958 0 31597977.154006958 -4316441.7368631363 0 0 0 0 33916679.796142578 24357418.235267639 0 24357418.235267639 -55860801.075592041 0 0 0 0 15952118.199195862 2456256.7227020264 0 2456256.7227020264 -4195888.6361646652 0 0 0 0 20677404.576273918 -17725970.265037537 0 -17725970.265037537 -38645281.480529785 0 0 0 0 -3207344.911075592 -10992131.997718811 0 -10992131.997718811 18126783.360733032 0 0 0 0 1208254.6256637573 -163869.42456912994 0 -163869.42456912994 57462924.038002014 0 0 0 0 -9114013.0945985168 -28789878.141772926 0 -28789878.141772926 -13962866.400222581 0 0 0 0 -6572986.7314033508 -2240509.985411644 0 -2240509.985411644 104507859.57500839 0 0 0 0 -9155105.872518912 -4141823.9983389527 0 -4141823.9983389527 20927638.256796334 0 0 0 0 -23176937.653846674 -19388158.74873583 0 -19388158.74873583 36015702.407485038 0 0 0 0 233088104.34466815 16605492.124872446 0 16605492.124872446 -580010574.81365967 0 0 0 0 234536561.60875702 -157495152.63261414 0 -157495152.63261414 -66977270.360076904 0 0 0 0 -6199790.085571114 -33208099.450739995 0 -33208099.450739995 -9072897.7424532175 0 0 0 0 4644124.5564002991 -27097830.31665802 0 -27097830.31665802 17280472.123222351 0 0 0 0 -289963146.12174702 -226651816.15704918 0 -226651816.15704918 -92497013.145294189 0 0 0 0 -2219059.7936782837 58471381.379806519 0 58471381.379806519 -22271639.645019531 0 0 0 0 119328892.01809692 247459577.18234253 0 247459577.18234253 -942030504.32052612 0 0 0 0 11667876.679851532 -34013074.353084564 0 -34013074.353084564 18679465.085249901 0 0 0 0 15358787.297546387 -29800278.496650696 0 -29800278.496650696 -6630174.1332778931 0 0 0 0 418665.31451127306 -5073382.2882462628 0 -5073382.2882462628 5420486.6766848434 0 0 0 0 -10770677.772210594 -27556340.417394593 0 -27556340.417394593 -5849702.8919290826 0 0 0 0 -479557780.95610809 -799263864.80105591 0 -799263864.80105591 1141375374.4526978 0 0 0 0 -3264741.5294494629 -9790827.5610046387 0 -9790827.5610046387 26390578.223449707 0 0 0 0 -11095453.807485163 -32602705.463676035 0 -32602705.463676035 -1271473.8925594829 0 0 0 0 3998607.3736152612 -18940539.995619696 0 -18940539.995619696 -14734180.190195799 0 0 0 0 -126587513.48881531 -15998299.596000671 0 -15998299.596000671 139734823.54610443 0 0 0 0 29195724.585647583 -4596632.4666900635 0 -4596632.4666900635 89540873.340968132 0 0 0 0 -7946440.8586615026 -35228264.446011096 0 -35228264.446011096 -7528296.8570033927 0 0 0 0 123828.19958758727 -1447754.9381224848 0 -1447754.9381224848 1695796.6509972769 0 0 0 0 14655530.589237213 -26944955.043525696 0 -26944955.043525696 -55810365.307983398 0 0 0 0 7029125.8034210205 -28813300.968452454 0 -28813300.968452454 291817.26483917236 0 0 0 0 1891920.9052810669 -17434859.001396179 0 -17434859.001396179 -14700095.201568604 0 0 0 0 -9235490.047908783 -126092615.09513092 0 -126092615.09513092 -153478145.53811646 0 0 0 0 -102649345.40967751 75455217.539070129 0 75455217.539070129 92156759.695144653 0 0 0 0 61343188.153526306 -46984990.227642059 0 -46984990.227642059 -8433439.906993866 0 0 0 0 -2130606.5209541321 -46515108.335388184 0 -46515108.335388184 -45163169.206588745 0 0 0 0 36033843.87166214 -45082914.581840515 0 -45082914.581840515 -89267004.615955353 0 0 0 0 -10370803.024766544 -31031843.314988997 0 -31031843.314988997 4336473.1170937661 0 0 0 0 11473371.907974243 -43093251.641517639 0 -43093251.641517639 -20666179.534484863 0 0 0 0 9034251.2141647339 -48012802.379686356 0 -48012802.379686356 -2066667.8826751709 0 0 0 0 2034012.6405878067 -35443932.225213528 0 -35443932.225213528 -698931.69032287598 0 0 0 0 1123745.4551315308 -29048343.774490356 0 -29048343.774490356 -9109659.4970397949 0 0 0 0 1630128.9464764595 -37987946.704266548 0 -37987946.704266548 553851.45942687988 0 0 0 0 1262896.8129066117 -16372514.143636614 0 -16372514.143636614 -7054922.0819459092 0 0 0 0 1077712.5065078735 -36405541.430892944 0 -36405541.430892944 8256115.8342666626 0 0 0 0 3529011.507106781 -34324863.771820068 0 -34324863.771820068 4279546.5775985718 0 0 0 0 -4482504.8196162377 -23390585.984943956 0 -23390585.984943956 -15458314.436086856 0 0 0 0 522779074.18452454 -270819203.11592865 0 -270819203.11592865 -6718663.1251678467 0 0 0 0 450164254.22418213 -112202411.26914215 0 -112202411.26914215 214065960.92491913 0 0 0 0 194534872.14724731 -227301294.87425613 0 -227301294.87425613 194064654.94717026 0 0 0 0 1464984.6782539189 -2865160.025893453 0 -2865160.025893453 -2422958.314504555 0 0 0 0 5900894.3537855148 -41715438.709699631 0 -41715438.709699631 7550943.3168716431 0 0 0 0 4832136.1416969299 -28358631.520122528 0 -28358631.520122528 6557679.1385498047 0 0 0 0 3428617.6063919067 -36447610.722930908 0 -36447610.722930908 -9722137.3054180145 0 0 0 0 -349525553.14573669 -425041049.25043869 0 -425041049.25043869 391033660.36750793 0 0 0 0 -443089317.4200325 -317106153.61537886 0 -317106153.61537886 -22345543.603408813 0 0 0 0 -536982127.25569153 132501666.44131851 0 132501666.44131851 46357144.914169312 0 0 0 0 610064297.47833252 119895793.20658493 0 119895793.20658493 -469955229.68421936 0 0 0 0 611203815.8006897 -169727087.25417328 0 -169727087.25417328 -282436614.83755493 0 0 0 0 229542927.11779785 618050246.32034683 0 618050246.32034683 -635352730.82414627 0 0 0 0 -19215705.503356934 8396226.9989776611 0 8396226.9989776611 22452258.510986328 0 0 0 0 263132.13082885742 -149014551.63453293 0 -149014551.63453293 129598589.09381104 0 0 0 0 146720232.41067505 -88585869.831577301 0 -88585869.831577301 24420337.48134613 0 0 0 0 141586679.93054199 -155034061.34076691 0 -155034061.34076691 137693555.1026001 0 0 0 0 302432223.28518677 -235887704.74964905 0 -235887704.74964905 169435548.10640717 0 0 0 0 99427220.078826904 -106236701.02293015 0 -106236701.02293015 59162556.487754822 0 0 0 0 123890518.00662231 -36251330.041957855 0 -36251330.041957855 242598338.08838272 0 0 0 0 -71358251.902130127 -140789317.67105484 0 -140789317.67105484 74964165.246253967 0 0 0 0 -22533148.008728027 -48787477.498271942 0 -48787477.498271942 147350114.68448257 0 0 0 0 -139122034.98704529 -188974692.71010303 0 -188974692.71010303 50828579.836990356 0 0 0 0 -162136470.7623291 -84607266.511623383 0 -84607266.511623383 126933484.38356018 0 0 0 0 -23212030.712247849 -50306701.078138351 0 -50306701.078138351 43563802.904708862 0 0 0 0 -154791816.76959229 -175629061.74090576 0 -175629061.74090576 41980010.300907135 0 0 0 0 -168885684.7109375 -247355012.62543106 0 -247355012.62543106 -34186725.677200317 0 0 0 0 -174853416.53269958 -183477118.51577759 0 -183477118.51577759 94387113.625518799 0 0 0 0 -112725288.43991089 -180831958.84013748 0 -180831958.84013748 17898374.728916168 0 0 0 0 -131522620.71562195 -161002766.34985352 0 -161002766.34985352 62326733.041679382 0 0 0 0 -97098733.316864014 -128598644.05738258 0 -128598644.05738258 89355780.826698303 0 0 0 0 -146382957.33325195 -134174782.89027786 0 -134174782.89027786 41416716.699920267 0 0 0 0 -84576223.671531677 -142656551.29825592 0 -142656551.29825592 41485725.960754395 0 0 0 0 -67637376.066497803 -112937803.44198799 0 -112937803.44198799 -28810197.23582077 0 0 0 0 20546700.12925148 -38465222.904490232 0 -38465222.904490232 31710501.426811218 0 0 0 0 -20698413.127822876 -61316340.995401382 0 -61316340.995401382 93263237.732063293 0 0 0 0 35383191.855010986 -128820052.93685913 0 -128820052.93685913 -110057962.45987415 0 0 0 0 -56037938.167297363 -232191508.71854401 0 -232191508.71854401 -181144222.34877205 0 0 0 0 -2155407.276664637 -1639653.748185413 0 -1639653.748185413 5695550.3511282718 0 0 0 0 56811947.148379326 -87463531.373729706 0 -87463531.373729706 -79245200.285467148 0 0 0 0 -57854939.254419804 -111407374.31362343 0 -111407374.31362343 -52281177.850826263 0 0 0 0 -1479852.2112791678 -37546347.690625027 0 -37546347.690625027 10406613.996259911 0 0 0 0 17299605.210472107 -74549408.363899231 0 -74549408.363899231 -43643130.583065033 0 0 0 0 2370488.4787528384 -32309659.806674495 0 -32309659.806674495 6223754.1820991784 0 0 0 0 -14388945.636653872 -31678055.62045569 0 -31678055.62045569 14134563.059817273 0 0 0 0 -29310754.722845078 -67428018.179733276 0 -67428018.179733276 -17364844.343734741 0 0 0 0 -23203031.890571594 -32857263.08146286 0 -32857263.08146286 -23201306.525625229 0 0 0 0 -5482890.0382995605 -55532529.003921509 0 -55532529.003921509 -65102429.209673882 0 0 0 0 -27162453.854301453 -30351867.779777527 0 -30351867.779777527 3034464.1897125244 0 0 0 0 -17339535.090126038 -44108633.989974976 0 -44108633.989974976 8298199.6968612671 0 0 0 0 -4803924.7116165161 -36621020.82724762 0 -36621020.82724762 -2856769.6025543213 0 0 0 0 -20927438.008796692 -22391228.893737793 0 -22391228.893737793 -7999878.9902648926 0 0 0 0 -23945821.598468781 -37636931.731025696 0 -37636931.731025696 -2362526.9740848541 0 0 0 0 -21360763.120643616 -32550873.512401581 0 -32550873.512401581 7561198.9292221069 0 0 0 0 -1496136.3937313359 -20418367.896008905 0 -20418367.896008905 15631429.38172958 0 0 0 0 -4090103.9411001205 -24945687.989159584 0 -24945687.989159584 10830714.774223328 0 0 0 0 -9325837.5522384644 -37166617.005596161 0 -37166617.005596161 7018013.0069503784 0 0 0 0 -7644798.9344406128 -41338846.493873596 0 -41338846.493873596 -4018195.3110809326 0 0 0 0 5504805.9791107178 -28567663.431968689 0 -28567663.431968689 10977682.290466309 0 0 0 0 -5659754.3259544373 -29408260.937545776 0 -29408260.937545776 23999782.425415039 0 0 0 0 -3740623.3295552582 -19940531.709731158 0 -19940531.709731158 19472516.572875906 0 0 0 0 -524274743.47409582 -72282256.163833618 0 -72282256.163833618 309890609.4412384 0 0 0 0 -1158016.8685569763 -29569852.597873688 0 -29569852.597873688 13412234.185970306 0 0 0 0 -131320888.81596661 -57989043.674125671 0 -57989043.674125671 -90882391.684909821 0 0 0 0 43669233.236530781 -418705030.9641571 0 -418705030.9641571 497752286.08457947 0 0 0 0 -329098342.51359296 -268739135.19488764 0 -268739135.19488764 84495138.350341797 0 0 0 0 27476034.909035683 -64839723.325198174 0 -64839723.325198174 -25692040.172225952 0 0 0 0 467292405.62383366 3107703.9976444244 0 3107703.9976444244 -69620223.698009491 0 0 0 0 169717.3175691939 -2948375.4974944983 0 -2948375.4974944983 -631493.32689290494 0 0 0 0 -189658130.13771391 256779538.18057632 0 256779538.18057632 655817206.94255447 0 0 0 0 -253409168.41077042 -60878146.314483643 0 -60878146.314483643 262232066.25046539 0 0 0 0 -130161895.47538185 -82382514.77374649 0 -82382514.77374649 308195170.01383018 0 0 0 0 -21570276.919436455 -265506071.69662476 0 -265506071.69662476 256664315.43063354 0 0 0 0 -249001812.82345593 -219875771.21086836 0 -219875771.21086836 303838266.25312042 0 0 0 0 34926199.6671381 -220982323.14469528 0 -220982323.14469528 112756692.79866886 0 0 0 0 -66526217.120038986 -180365468.03175735 0 -180365468.03175735 104160541.3254776 0 0 0 0 -225914859.87447131 -104080165.73104692 0 -104080165.73104692 152138651.12186813 0 0 0 0 398877.43868276011 -10014455.729126422 0 -10014455.729126422 -3544014.9728529565 0 0 0 0 72283006.46883297 -39025069.059193611 0 -39025069.059193611 -57818890.219486237 0 0 0 0 -180800067.76626873 -130819203.58298683 0 -130819203.58298683 154602468.42756557 0 0 0 0 -156888577.9475379 -87142507.153668404 0 -87142507.153668404 13467332.239753723 0 0 0 0 -9143190.0399971008 -119114921.98541832 0 -119114921.98541832 -86938191.777893066 0 0 0 0 -65534770.672395706 -145833586.27971077 0 -145833586.27971077 -78010043.526343346 0 0 0 0 7316645.0031387433 -23747591.688641116 0 -23747591.688641116 -18863709.09080746 0 0 0 0 1411802.3205356598 -49039746.36516571 0 -49039746.36516571 -78598690.149486542 0 0 0 0 -11951826.445812225 -46413042.929088593 0 -46413042.929088593 -55004936.352114677 0 0 0 0 -18646095.871850014 -62527912.536689758 0 -62527912.536689758 -88129771.028966904 0 0 0 0 45952573.01803112 -43882547.749949455 0 -43882547.749949455 -82794747.946559906 0 0 0 0 12255012.20645237 -88756864.450027466 0 -88756864.450027466 -85089186.914405823 0 0 0 0 -16715865.513485909 -75540651.462310791 0 -75540651.462310791 -90645731.975027084 0 0 0 0 80398226.094046593 -62425490.672987938 0 -62425490.672987938 -74948710.515098572 0 0 0 0 -5023070.2130308151 -137108336.68823242 0 -137108336.68823242 -39067865.27368927 0 0 0 0 55392138.524215698 -113877040.17971039 0 -113877040.17971039 -33325293.904476166 0 0 0 0 78811000.364895821 -78818597.958965302 0 -78818597.958965302 -53919776.052654266 0 0 0 0 -8233615.6002130508 -44301792.168148041 0 -44301792.168148041 -48520173.163064957 0 0 0 0 13509595.616451263 -31428918.716941833 0 -31428918.716941833 -44715905.564958572 0 0 0 0 61100823.875896454 3929922.419708252 0 3929922.419708252 -29716374.178466797 0 0 0 0 -51158037.427474976 21858707.577575684 0 21858707.577575684 38306083.131591797 0 0 0 0 -24504126.047491074 -14518428.514434814 0 -14518428.514434814 418337.18075180054 0 0 0 0 48061994.472259521 -3756597.8656692505 0 -3756597.8656692505 -25781299.067138672 0 0 0 0 53459139.722297668 94737687.167957306 0 94737687.167957306 22338695.640823364 0 0 0 0 182671339.52622414 52960735.535224915 0 52960735.535224915 -37941483.447090149 0 0 0 0 194563465.52254534 -74650050.693875074 0 -74650050.693875074 -12532535.093727112 0 0 0 0 383104618.7559967 71249032.418682098 0 71249032.418682098 22253024.065525413 0 0 0 0 146448057.79352379 -192910670.5882206 0 -192910670.5882206 34812071.741313934 0 0 0 0 182264443.58922386 -48343589.211338043 0 -48343589.211338043 -50542045.804092407 0 0 0 0 508595068.0018034 -95938079.882858276 0 -95938079.882858276 -24266882.431647301 0 0 0 0 32907554.452722549 -181256380.03775406 0 -181256380.03775406 79654925.952907562 0 0 0 0 -39259797.033475876 -276386884.25672913 0 -276386884.25672913 542990424.50528717 0 0 0 0 392475189.55459118 -421373400.9581337 0 -421373400.9581337 229472121.17446518 0 0 0 0 411887704.10587406 -364644356.62802124 0 -364644356.62802124 397003987.38627625 0 0 0 0 263473732.18996429 -91832627.819347382 0 -91832627.819347382 392893864.02822876 0 0 0 0 441805473.3259964 -388275339.95800781 0 -388275339.95800781 295939131.85477066 0 0 0 0 -76730836.379592896 15818135.91217041 0 15818135.91217041 181369998.57233429 0 0 0 0 -699235.85551084962 -492037.2652912382 0 -492037.2652912382 933227.63492618874 0 0 0 0 -502977.66929385392 -662262.89476803597 0 -662262.89476803597 377035.78284241073 0 0 0 0 -242588121.44765186 -276477210.23951721 0 -276477210.23951721 505365957.90951538 0 0 0 0 -651017237.00072742 -65056866.497109294 0 -65056866.497109294 -172154844.86560059 0 0 0 0 -635479571.39678824 -223908340.85170364 0 -223908340.85170364 208353052.89007568 0 0 0 0 -298049871.1847167 -140647788.56661606 0 -140647788.56661606 173074158.36137009 0 0 0 0 -121612739.09113568 -187408165.32628012 0 -187408165.32628012 -112867914.15529633 0 0 0 0 -769893241.96980166 -270719960.79452896 0 -270719960.79452896 106615819.53223038 0 0 0 0 -1069050141.5897176 272770993.37293625 0 272770993.37293625 -139528293.34369993 0 0 0 0 340273.03655327554 713535.40576689551 0 713535.40576689551 -939013.07584296726 0 0 0 0 1385732698.6964362 -709618500.5412755 0 -709618500.5412755 -91914142.660793304 0 0 0 0 -2128377401.4356437 28320262.181200981 0 28320262.181200981 245813967.15606689 0 0 0 0 -15733634.98365283 -16612703.510980606 0 -16612703.510980606 -17506670.511669159 0 0 0 0 -603083.35739495198 -2677533.2139585894 0 -2677533.2139585894 1308695.5874940306 0 0 0 0 -486964165.97078609 80999125.568536758 0 80999125.568536758 -237102042.5200758 0 0 0 0 -1806689.7156290067 -2046822.7559149293 0 -2046822.7559149293 1001020.1025425289 0 0 0 0 -30975987.576269388 -26415750.483774185 0 -26415750.483774185 -1923581.5675048828 0 0 0 0 -702080456.85532129 -263154046.647995 0 -263154046.647995 20620805.812099457 0 0 0 0 185562786.9287014 54156733.294908524 0 54156733.294908524 174055473.2158165 0 0 0 0 13754247.903038025 -182249009.78356171 0 -182249009.78356171 102166979.44559574 0 0 0 0 -38905025.230902672 44040248.313077927 0 44040248.313077927 160517474.22832108 0 0 0 0 643503303.04270554 -245196687.44455338 0 -245196687.44455338 217690516.92143774 0 0 0 0 419671449.55786896 23397596.085502625 0 23397596.085502625 213128784.31185544 0 0 0 0 1028532722.202013 -108561825.23508835 0 -108561825.23508835 27874815.86031723 0 0 0 0 282460743.58512497 -133371928.68509197 0 -133371928.68509197 129632382.27907181 0 0 0 0 44656950.652236938 -4194240.5706272125 0 -4194240.5706272125 169660085.54416609 0 0 0 0 41043925.17358017 -102165176.27619171 0 -102165176.27619171 -13995822.122441292 0 0 0 0 184831066.45778084 -188032771.3640604 0 -188032771.3640604 121534593.74879074 0 0 0 0 276351472.80667496 -65022637.862181664 0 -65022637.862181664 -8554642.6905479431 0 0 0 0 425731451.37769127 -211059786.35605431 0 -211059786.35605431 -104218181.87650299 0 0 0 0 86465406.160123646 -323437102.1735673 0 -323437102.1735673 -141441551.95015717 0 0 0 0 -398501036.70398712 -81608070.066839218 0 -81608070.066839218 -224679042.92717743 0 0 0 0 58529920.036519051 -25384760.682211041 0 -25384760.682211041 -150191301.78119278 0 0 0 0 44975029.625389338 -124604469.88062763 0 -124604469.88062763 -220920161.2241745 0 0 0 0 72168171.710601807 -142202715.66023636 0 -142202715.66023636 -296472355.54602814 0 0 0 0 34451240.514579773 -67305469.785768509 0 -67305469.785768509 -131437866.84237051 0 0 0 0 97096179.94519043 -41079103.76061821 0 -41079103.76061821 -143541964.30405045 0 0 0 0 3198400.7535172971 686107.85102153849 0 686107.85102153849 -494075.10073310882 0 0 0 0 -17572460.665279388 -21921313.481933594 0 -21921313.481933594 -30212438.434928894 0 0 0 0 2857980.4977505207 -6653073.6223545074 0 -6653073.6223545074 -20262038.443405151 0 0 0 0 -969293425.78444088 -763752049.60615492 0 -763752049.60615492 -195778112.8117981 0 0 0 0 -338829875.4561367 -511487672.79315948 0 -511487672.79315948 -81139123.042224884 0 0 0 0 -569489163.3188076 -264106477.49263382 0 -264106477.49263382 -266235474.42424822 0 0 0 0 5904508.5527191162 -789905341.43659782 0 -789905341.43659782 119218814.15626335 0 0 0 0 -4616048.6566275377 -12272593.799507566 0 -12272593.799507566 -379168.14785333537 0 0 0 0 30543244.790319443 5658789.360622406 0 5658789.360622406 16694287.786842346 0 0 0 0 36963228.425913811 43780734.617084503 0 43780734.617084503 -20496853.801181793 0 0 0 0 -86930652.358459473 -89388238.321220398 0 -89388238.321220398 -98766888.543563843 0 0 0 0 -22436270.015049934 -31093904.985064507 0 -31093904.985064507 -47091221.332752228 0 0 0 0 -2337486.2146658897 -48528740.740679741 0 -48528740.740679741 -113076958.89849472 0 0 0 0 -49679300.898202896 -43983013.548625946 0 -43983013.548625946 -43441052.025343895 0 0 0 0 -17017748.954999447 -59070832.077110291 0 -59070832.077110291 -119531587.95183945 0 0 0 0 -12904154.156753877 -38113894.233554497 0 -38113894.233554497 15474209.431313042 0 0 0 0 -25247003.477576256 -56053143.902053833 0 -56053143.902053833 -114463428.17808533 0 0 0 0 -82396243.379836082 -127720359.38647008 0 -127720359.38647008 -121312199.57303619 0 0 0 0 860821.4931368418 261454.43875279464 0 261454.43875279464 -75942.952418169007 0 0 0 0 -9934499.4401245117 -108472387.20366669 0 -108472387.20366669 -178086517.83908081 0 0 0 0 -13602019.205320358 -60153354.922092438 0 -60153354.922092438 -175421086.9236145 0 0 0 0 -34544806.502016068 -63146348.923629761 0 -63146348.923629761 -138386611.48991394 0 0 0 0 -17623137.162267685 -68877455.77256012 0 -68877455.77256012 -152556474.53035736 0 0 0 0 -35785351.956260681 -99513609.831374645 0 -99513609.831374645 -204091983.96000099 0 0 0 0 -85093071.127099991 -196923947.25883484 0 -196923947.25883484 -217198089.72360277 0 0 0 0 5183095.3733039312 -24888499.120158352 0 -24888499.120158352 -20331068.041980684 0 0 0 0 -22716614.813838959 -287569867.33492947 0 -287569867.33492947 -332878257.70056319 0 0 0 0 -33423135.300677776 -42538251.386735916 0 -42538251.386735916 -92952619.918308258 0 0 0 0 38155563.506751388 -37643703.927042961 0 -37643703.927042961 -113307505.77307129 0 0 0 0 -17708245.73007575 -39048897.895098649 0 -39048897.895098649 18498480.690818291 0 0 0 0 -44125368.968250275 -72026770.09677124 0 -72026770.09677124 -164982431.74667358 0 0 0 0 -24408360.211864471 -57194705.531860352 0 -57194705.531860352 -153833964.54278564 0 0 0 0 -8770888.4866834953 -48045035.251405776 0 -48045035.251405776 12902246.13571923 0 0 0 0 6354577.8932304811 -10240458.834373929 0 -10240458.834373929 -20563553.307960972 0 0 0 0 911402681.84157753 84824128.82983017 0 84824128.82983017 -1039858077.0315018 0 0 0 0 16592451.674003601 -276595314.3821106 0 -276595314.3821106 -318388671.3477478 0 0 0 0 -79348079.482395172 -170001779.59394836 0 -170001779.59394836 -216389788.57870483 0 0 0 0 51981283.338752747 -116474685.05662537 0 -116474685.05662537 -160368110.40203857 0 0 0 0 160660205.96939468 -189387304.63340759 0 -189387304.63340759 -276248122.32342529 0 0 0 0 297498684.08626556 -171141071.34448242 0 -171141071.34448242 -383542713.24807739 0 0 0 0 71032864.153652191 -85972623.030490875 0 -85972623.030490875 -173966996.20950317 0 0 0 0 787717.0061340332 -82535808.904205322 0 -82535808.904205322 -176443137.07220459 0 0 0 0 4992565.6259441376 -86228001.145793915 0 -86228001.145793915 -95235227.700317383 0 0 0 0 44795893.234336853 -108313856.5434494 0 -108313856.5434494 -126033778.75717163 0 0 0 0 61081925.600868225 -87110712.984161377 0 -87110712.984161377 -99681877.603393555 0 0 0 0 23020088.417495728 -54173460.585151672 0 -54173460.585151672 -140404446.28076172 0 0 0 0 69623889.678817749 -78238564.150817871 0 -78238564.150817871 -102605642.08050537 0 0 0 0 49846947.492580414 -107724802.34317017 0 -107724802.34317017 -146212159.98965454 0 0 0 0 107072072.1447525 -102543470.32913208 0 -102543470.32913208 -109350610.18182373 0 0 0 0 63052507.019369125 -111723987.49123478 0 -111723987.49123478 -61247619.607543945 0 0 0 0 138350041.68437958 -77440744.967658997 0 -77440744.967658997 -64835106.254272461 0 0 0 0 112346777.61294556 -83933791.469116211 0 -83933791.469116211 -65410313.618438721 0 0 0 0 177613096.77390766 -83214296.549730301 0 -83214296.549730301 -117414988.52294922 0 0 0 0 178860524.19730377 -61490116.748168945 0 -61490116.748168945 -110095162.21264648 0 0 0 0 138468802.14577484 -118629861.33251953 0 -118629861.33251953 -160638600.11136246 0 0 0 0 -25476839.674879074 -137616275.40272522 0 -137616275.40272522 -230057616.29553223 0 0 0 0 -4391189.9892120361 -41555531.805007935 0 -41555531.805007935 -214768607.82965088 0 0 0 0 -4039785.9407067299 -63618856.868871689 0 -63618856.868871689 -181528688.83331299 0 0 0 0 -57860258.119915009 -67498685.747116089 0 -67498685.747116089 -143164536.39729309 0 0 0 0 10369266.845525742 -82573444.057235718 0 -82573444.057235718 -173200243.24215698 0 0 0 0 -42618282.754034519 -118447906.57467079 0 -118447906.57467079 -155536962.18670654 0 0 0 0 -158337012.19270897 -124487635.73866272 0 -124487635.73866272 -147379341.26501465 0 0 0 0 591294.02004024456 1547500.2110191416 0 1547500.2110191416 -895277.43642249703 0 0 0 0 -142050074.63526726 -202220178.43525696 0 -202220178.43525696 -140772551.79745483 0 0 0 0 -19857540.446464062 -142914373.08599091 0 -142914373.08599091 -336080165.65853882 0 0 0 0 -126778742.43719482 -62736336.995758057 0 -62736336.995758057 -263071643.95762634 0 0 0 0 -110881201.17972159 -174072633.36084652 0 -174072633.36084652 -279563695.52243042 0 0 0 0 -21980657.274961233 -97786158.936401367 0 -97786158.936401367 -251349871.33642578 0 0 0 0 -73717369.252045631 -246643333.36872864 0 -246643333.36872864 -346220185.85047913 0 0 0 0 91460049.460982323 -125144799.27258301 0 -125144799.27258301 -318102626.67550659 0 0 0 0 89012258.272652894 6000635.2602120638 0 6000635.2602120638 -238310633.54275513 0 0 0 0 242344394.99293733 -13663142.670368195 0 -13663142.670368195 -237568154.41824341 0 0 0 0 102388619.17072868 70903321.746284485 0 70903321.746284485 -73761249.683578491 0 0 0 0 17988190.999786854 11801525.355407715 0 11801525.355407715 -140812046.19719315 0 0 0 0 18611928.306247234 -31650056.992843628 0 -31650056.992843628 -156731454.69012451 0 0 0 0 -54536452.537498951 -89804078.204559326 0 -89804078.204559326 -176443041.64604187 0 0 0 0 -49866684.729764313 -32325835.796937466 0 -32325835.796937466 -169399574.10578918 0 0 0 0 9411430.1845443249 -53922100.038818359 0 -53922100.038818359 -162635707.43666458 0 0 0 0 13899090.014940739 -93635451.82611084 0 -93635451.82611084 -266562225.01922607 0 0 0 0 -25029532.603424311 -90921740.051651001 0 -90921740.051651001 -109629071.39660645 0 0 0 0 -23123944.203744888 -83519773.78780365 0 -83519773.78780365 -134902016.19883728 0 0 0 0 -23555858.652088165 -51280368.114974976 0 -51280368.114974976 -146307278.89117432 0 0 0 0 -9857296.4049258959 -34499808.818874389 0 -34499808.818874389 13882898.634118039 0 0 0 0 -27822446.19035399 -56232604.961479187 0 -56232604.961479187 -57028976.446517944 0 0 0 0 5932037.5730085373 -79516114.102676392 0 -79516114.102676392 -102367425.36193657 0 0 0 0 20747645.127820015 -56563064.191497803 0 -56563064.191497803 -121739715.32775879 0 0 0 0 -8904291.3188733421 -39381418.458131991 0 -39381418.458131991 14915898.45544821 0 0 0 0 6448022.5151755009 -17224534.882221267 0 -17224534.882221267 -26192393.751130909 0 0 0 0 -22006182.781502724 -78701447.853263855 0 -78701447.853263855 -127186797.10858154 0 0 0 0 1311324.1281170845 -25975970.578830719 0 -25975970.578830719 -69367989.912994385 0 0 0 0 73567677.360881448 42468615.697731018 0 42468615.697731018 -102532261.13183594 0 0 0 0 60461471.355869293 -7769828.9585876465 0 -7769828.9585876465 -160685302.60845947 0 0 0 0 -67294231.631379604 -112104313.5417099 0 -112104313.5417099 -151221829.03172302 0 0 0 0 -474974.09320234461 -4211690.8278178908 0 -4211690.8278178908 -5517222.2993581593 0 0 0 0 -19508710.736921191 -71452226.328649521 0 -71452226.328649521 -121511639.75421143 0 0 0 0 -2610374072.257843 -2647833478.8225327 0 -2647833478.8225327 -1986790486.627594 0 0 0 0 -2926851533.786377 -157276733.19351196 0 -157276733.19351196 -547084137.37792969 0 0 0 0 1223645.4834415019 -2299134.39385847 0 -2299134.39385847 -2131742.8714049608 0 0 0 0 -1623035743.2288971 -1034512362.9435425 0 -1034512362.9435425 -181139543.44297791 0 0 0 0 -1854118971.7051697 -1248215445.6495285 0 -1248215445.6495285 -1066860013.478447 0 0 0 0 -1028154.5550689697 -1074577854.9331169 0 -1074577854.9331169 -1571979828.8578796 0 0 0 0 -830523311.80729675 -1940078343.6597137 0 -1940078343.6597137 -2470474360.5159454 0 0 0 0 -672735734.6477356 -636982661.42784119 0 -636982661.42784119 -915179444.95048141 0 0 0 0 2353824.6010699719 -4213387.9588756859 0 -4213387.9588756859 -3638260.7214143202 0 0 0 0 -670161263.51222229 -613289354.63477135 0 -613289354.63477135 -712293172.7102356 0 0 0 0 -759662934.17623901 -715333171.11281586 0 -715333171.11281586 -723978704.17762756 0 0 0 0 -758909947.80056763 -700019507.3417511 0 -700019507.3417511 -529791732.71543884 0 0 0 0 -1113530480.2303391 -580512213.81181908 0 -580512213.81181908 98396988.463195801 0 0 0 0 -1141543527.9918728 -817529278.04980946 0 -817529278.04980946 -187540374.03118896 0 0 0 0 -606144737.5196228 -448376644.59719849 0 -448376644.59719849 -104587830.98254395 0 0 0 0 -1005988687.4893494 -470423763.08892059 0 -470423763.08892059 152837291.69235229 0 0 0 0 -825533828.11068726 -649712369.5582428 0 -649712369.5582428 -256631861.31271362 0 0 0 0 -183033013.24526978 -377863677.77050018 0 -377863677.77050018 -219617830.27896118 0 0 0 0 -635713065.01495361 -304351334.83804321 0 -304351334.83804321 -19833929.958099365 0 0 0 0 3874207.5744171143 -232760445.75852203 0 -232760445.75852203 -204411896.21594238 0 0 0 0 -83178208.454681396 -223612533.72224426 0 -223612533.72224426 -96151589.496578217 0 0 0 0 -70750369.452148438 -299576663.75628662 0 -299576663.75628662 -118695678.96524811 0 0 0 0 23434293.460296631 -71381786.285331726 0 -71381786.285331726 112662218.02685547 0 0 0 0 -76604318.551742554 -229258438.51264954 0 -229258438.51264954 115184663.97140503 0 0 0 0 118639613.74847412 125140306.91864777 0 125140306.91864777 335796785.67595309 0 0 0 0 -269311398.03785706 492575237.21636963 0 492575237.21636963 1031578552.1648293 0 0 0 0 -317977428.4972229 -378051017.28115845 0 -378051017.28115845 -74970563.530090332 0 0 0 0 -995546568.14997864 -142453323.46405792 0 -142453323.46405792 775286981.78622437 0 0 0 0 -245057328.14692688 -203270196.9440155 0 -203270196.9440155 337468558.32369995 0 0 0 0 -1286524455.2988586 -3395918237.9691162 0 -3395918237.9691162 -3208142385.9571228 0 0 0 0 -1521153.3461033851 -374438.32611184567 0 -374438.32611184567 -1495796.4855076224 0 0 0 0 -1965515687.0587769 -2222448017.8457718 0 -2222448017.8457718 -3446865083.6517487 0 0 0 0 21263452.368621826 111991251.1000824 0 111991251.1000824 270842338.84086609 0 0 0 0 64042754.041374207 -112166903.51737404 0 -112166903.51737404 151909545.16098022 0 0 0 0 -51939954.141296387 -74486344.286514282 0 -74486344.286514282 185326076.45405579 0 0 0 0 -5474678.5870361328 -114643429.77516937 0 -114643429.77516937 219833195.06306458 0 0 0 0 -2481521828.6755867 -3091646176.025095 0 -3091646176.025095 -3314727006.1817932 0 0 0 0 -7703661.6119360626 -552028.092681624 0 -552028.092681624 -1833850.2411664054 0 0 0 0 -1955217300.5272064 -2180634784.1832428 0 -2180634784.1832428 -3380508991.6361389 0 0 0 0 -1815902099.0325928 -2411795819.86026 0 -2411795819.86026 -2829501550.5451965 0 0 0 0 -1942944855.6130371 -1876889074.9510422 0 -1876889074.9510422 -2357045034.0013237 0 0 0 0 -2765309832.407608 -2326325328.0244255 0 -2326325328.0244255 -2688153388.4254761 0 0 0 0 -1845509208.6040344 -2558555710.051712 0 -2558555710.051712 -2642130554.420063 0 0 0 0 -1033065733.8850403 -1971475113.7872238 0 -1971475113.7872238 -2885122638.7613983 0 0 0 0 -498384.97557067871 -1642590004.6708832 0 -1642590004.6708832 -2671802898.7080803 0 0 0 0 -913001121.77963638 -2258162731.7819691 0 -2258162731.7819691 -2435144700.6768799 0 0 0 0 -961689719.89178467 -1765196444.7011566 0 -1765196444.7011566 -2322166394.8246078 0 0 0 0 -738075.08239746094 -2755597716.4363403 0 -2755597716.4363403 -1323201297.9001465 0 0 0 0 -1063859603.1695004 -2508547468.6716323 0 -2508547468.6716323 -1903172874.2643585 0 0 0 0 -1369519150.516983 -1364778983.8651161 0 -1364778983.8651161 -1534447601.4084167 0 0 0 0 -1793803.6890573949 -3480698.5961849093 0 -3480698.5961849093 -974119.23362455517 0 0 0 0 -1548398035.4486542 -1322503811.0877686 0 -1322503811.0877686 537561728.46761322 0 0 0 0 -2020398825.393364 -3205575139.1492882 0 -3205575139.1492882 2559803.1271514893 0 0 0 0 -3172083.3352919314 -3671965398.9871387 0 -3671965398.9871387 -3106394716.1279297 0 0 0 0 -5217768070.2619247 -1431470310.4660244 0 -1431470310.4660244 2319058084.5994263 0 0 0 0 -3463393.8372696564 -3822795.2129885312 0 -3822795.2129885312 -614938.51089400053 0 0 0 0 -4865400643.1038818 -3368094548.4136047 0 -3368094548.4136047 3077100694.0436096 0 0 0 0 -914564.37328833342 -2335812.1499805599 0 -2335812.1499805599 111049.04361446947 0 0 0 0 -3142279580.4783478 -3899058826.6370087 0 -3899058826.6370087 -2484177920.2139587 0 0 0 0 1096912530.1483459 -272257730.61022186 0 -272257730.61022186 -859885791.54016113 0 0 0 0 -3868288127.8164711 -1364889295.2075577 0 -1364889295.2075577 2017577187.8376465 0 0 0 0 -2167552905.8124695 -1416242846.8104362 0 -1416242846.8104362 -1229281128.1990967 0 0 0 0 -2382538837.7690353 -1766677764.1829758 0 -1766677764.1829758 -1432697068.013855 0 0 0 0 -39781289.047149658 -1542236352.2697754 0 -1542236352.2697754 -1927238861.64151 0 0 0 0 -1797463424.981781 -1772780610.4998474 0 -1772780610.4998474 -1840066448.1703529 0 0 0 0 -2162863589.7007446 -1888117333.6088715 0 -1888117333.6088715 -1457977472.1239967 0 0 0 0 -2116137441.6929626 -1644798667.0375137 0 -1644798667.0375137 -1080934780.7906418 0 0 0 0 -2400424388.7149353 -2367720262.881073 0 -2367720262.881073 -2106689067.3482666 0 0 0 0 -1873962038.407959 -1633323503.4903107 0 -1633323503.4903107 -2125366198.6158752 0 0 0 0 -2508237245.3397827 -2113739544.0945129 0 -2113739544.0945129 -2455280716.1444702 0 0 0 0 -2056920212.3306541 -2397992962.041193 0 -2397992962.041193 -2276355963.8432922 0 0 0 0 -16771203.775903746 527207.86409859359 0 527207.86409859359 -1599946.3777303025 0 0 0 0 -2053197910.4370728 -3333204685.6885376 0 -3333204685.6885376 -2323186539.7144423 0 0 0 0 -2972231569.7676697 -3039833327.4329376 0 -3039833327.4329376 -2291013694.2491264 0 0 0 0 -13543750.546463013 64975314.882205963 0 64975314.882205963 53233231.726150513 0 0 0 0 -104597304.43771362 -38342015.099899292 0 -38342015.099899292 40026824.062458515 0 0 0 0 -2522915561.9774933 -1492069326.1109924 0 -1492069326.1109924 -1422649398.4022217 0 0 0 0 -28679598.141022846 651618.44039714336 0 651618.44039714336 188969.37449742854 0 0 0 0 -81573587.453216553 2235016.474395752 0 2235016.474395752 38901332.334663868 0 0 0 0 -1981954503.6305084 -2214666121.7116241 0 -2214666121.7116241 -4783627116.3896179 0 0 0 0 -4510775903.024292 -3384009381.4759827 0 -3384009381.4759827 -1170862859.684082 0 0 0 0 -3393497151.7318687 -2494333702.6116123 0 -2494333702.6116123 -1150450954.2450867 0 0 0 0 -4539486542.4315491 -2408472399.5005798 0 -2408472399.5005798 538431614.359375 0 0 0 0 1973491356.8901367 -3270763146.1859818 0 -3270763146.1859818 -2142781443.4698181 0 0 0 0 -2289195.6398262829 -2995315.0623633042 0 -2995315.0623633042 -2082835.2000740767 0 0 0 0 -1088245955.2225952 -3764635755.2686462 0 -3764635755.2686462 -2127198360.1507568 0 0 0 0 -2128281622.5833435 -536588337.15052795 0 -536588337.15052795 1338321447.7255478 0 0 0 0 -4435821184.8152161 -2055972913.7706451 0 -2055972913.7706451 1002506779.6855774 0 0 0 0 -3422549156.269043 -2172531371.5810547 0 -2172531371.5810547 132708069.13400269 0 0 0 0 -4143378605.7456398 -1678448694.3522682 0 -1678448694.3522682 -226798157.18161011 0 0 0 0 -4098730620.6417847 -1879398894.836689 0 -1879398894.836689 673952576.62530518 0 0 0 0 -4135326838.8204041 -1962090128.8241959 0 -1962090128.8241959 -965473.01289367676 0 0 0 0 -1067245261.8733673 -368755980.69511414 0 -368755980.69511414 192972998.12283325 0 0 0 0 2420197047.6795197 -1385511108.34272 0 -1385511108.34272 -409406547.49841309 0 0 0 0 -576090513.99002075 -1848111791.7194824 0 -1848111791.7194824 2171199.6012985129 0 0 0 0 21083387.815719604 -300076303.29747772 0 -300076303.29747772 -953077.52880859375 0 0 0 0 -69481444.526947021 -83658688.551078796 0 -83658688.551078796 582239298.93649292 0 0 0 0 -14332660.072844248 -3272344.1554328427 0 -3272344.1554328427 -1750225.0219584703 0 0 0 0 -6930849374.307785 -1364311745.9189911 0 -1364311745.9189911 790023480.27388 0 0 0 0 162827867.39692688 -177239598.27297211 0 -177239598.27297211 100201951.92323303 0 0 0 0 -16039031.461761568 -6639028.8867919892 0 -6639028.8867919892 -5873317.845788449 0 0 0 0 -3488096156.7342987 -1882691077.1037216 0 -1882691077.1037216 -167056757.39619446 0 0 0 0 -11087166.321411133 -47757269.855117798 0 -47757269.855117798 15266917.533248901 0 0 0 0 -7874154.0865882859 -7986937.3321822435 0 -7986937.3321822435 865338.70943646133 0 0 0 0 -45337123.355743408 -48379077.620040894 0 -48379077.620040894 24633301.4949646 0 0 0 0 -84365371.771560669 222888344.80187988 0 222888344.80187988 82992840.2526474 0 0 0 0 -2545851.9705551341 -2498980.4178635627 0 -2498980.4178635627 439370.31573363394 0 0 0 0 -97785676.930053711 -76840663.172027588 0 -76840663.172027588 -50369595.348449707 0 0 0 0 1673808.0426025391 -133479619.615448 0 -133479619.615448 -67161670.858398438 0 0 0 0 2471768.3330078125 -58128989.745025635 0 -58128989.745025635 -79500921.306518555 0 0 0 0 74040065.676498413 -108087917.94351196 0 -108087917.94351196 -107724597.072052 0 0 0 0 104133852.09970474 31649916.277582169 0 31649916.277582169 -8829880.0640563965 0 0 0 0 -37851852.759063721 -54863091.364807129 0 -54863091.364807129 -8647435.6915893555 0 0 0 0 -36480929.013144493 -74325388.756947994 0 -74325388.756947994 -19236374.16986084 0 0 0 0 -120990755.49504089 -136875120.10578918 0 -136875120.10578918 -40215660.043060303 0 0 0 0 -65219403.020629883 -8500235.7833404541 0 -8500235.7833404541 19570216.250244141 0 0 0 0 58042348.878967285 -20912881.49042511 0 -20912881.49042511 -45492231.413360596 0 0 0 0 -6474968.8993877554 -19413615.37814413 0 -19413615.37814413 -10136015.491421267 0 0 0 0 10891333.502044678 -57989899.223190308 0 -57989899.223190308 -50127898.858001709 0 0 0 0 -23456872.22454834 -6882597.5356750488 0 -6882597.5356750488 -4409425.1329956055 0 0 0 0 -52745427.669586182 -78026792.903320312 0 -78026792.903320312 -18989337.38192749 0 0 0 0 -89067320.209259033 -49749960.285079956 0 -49749960.285079956 -10144477.571334839 0 0 0 0 -61977706.534576416 -91001831.647605896 0 -91001831.647605896 -26649144.309204102 0 0 0 0 -53312194.599731445 -59081071.795318604 0 -59081071.795318604 -9466906.689956665 0 0 0 0 -49832638.131835938 -67539161.544891357 0 -67539161.544891357 7130591.4940185547 0 0 0 0 20630066.199676514 -89129968.294052124 0 -89129968.294052124 -131450276.00256348 0 0 0 0 -4537482.6659522131 -4540617.8197283782 0 -4540617.8197283782 1204570.9065846503 0 0 0 0 -60246802.015991211 -119913041.45135498 0 -119913041.45135498 1135735.8916625977 0 0 0 0 -68236677.428390503 -95827738.035507202 0 -95827738.035507202 -21788316.061065674 0 0 0 0 -53365122.188919067 -106588287.89254761 0 -106588287.89254761 -74162571.688720703 0 0 0 0 -3185731.2119959742 36211.8263053298 0 36211.8263053298 3702722.3311329335 0 0 0 0 -25516540.982299805 23552468.319351196 0 23552468.319351196 52736907.203826904 0 0 0 0 -34578559.76940918 -70793032.648284912 0 -70793032.648284912 -76382936.012004852 0 0 0 0 -12251810.874252319 17925504.59161377 0 17925504.59161377 29221531.900512695 0 0 0 0 -15951739.807040215 -23601576.865231857 0 -23601576.865231857 -3906259.3955997564 0 0 0 0 -119545142.03155518 -41123094.954620361 0 -41123094.954620361 18155901.74017334 0 0 0 0 -57414828.80280304 -40496115.186172485 0 -40496115.186172485 23420064.679199219 0 0 0 0 -7655948.3585473448 -25727669.785731524 0 -25727669.785731524 -5027571.3874711096 0 0 0 0 -4464127.2124328613 -14519437.3777771 0 -14519437.3777771 280899.5641784668 0 0 0 0 -6448575.8606872559 -14511271.677368164 0 -14511271.677368164 2598083.3548049927 0 0 0 0 -6819131.1038360596 -13501346.025093079 0 -13501346.025093079 -94970.548461914062 0 0 0 0 -5959563.671004355 -10878385.131881163 0 -10878385.131881163 -2426884.7679259181 0 0 0 0 -7682379.0249919891 -14110921.48231411 0 -14110921.48231411 528509.49938964844 0 0 0 0 -7234872.767074585 -11030596.3256073 0 -11030596.3256073 -2713612.6326599121 0 0 0 0 -55112563.379425049 -54692187.631057739 0 -54692187.631057739 -996950.31018066406 0 0 0 0 -9707589.2811279297 -12584376.834793091 0 -12584376.834793091 -4382009.8327636719 0 0 0 0 -1351002.3360900879 -59632503.043014526 0 -59632503.043014526 -25254187.093643188 0 0 0 0 545016.09140024707 -23397893.163260892 0 -23397893.163260892 -4720072.5484679639 0 0 0 0 2965655.3863372803 -18598860.899276733 0 -18598860.899276733 2614543.6663208008 0 0 0 0 -96561.262492597103 -202469.67385305464 0 -202469.67385305464 130545.95884688944 0 0 0 0 -12442586.399414062 -16647336.220458984 0 -16647336.220458984 -8768461.8350830078 0 0 0 0 -56012162.977600098 -152423624.2196579 0 -152423624.2196579 -38303418.057907104 0 0 0 0 -101302321.05249023 -25464011.215835571 0 -25464011.215835571 25042730.399459839 0 0 0 0 -46617247.421325684 -94370678.922901154 0 -94370678.922901154 89435634.33996582 0 0 0 0 -4146574.198235767 -4055681.3200888932 0 -4055681.3200888932 -368561.27454133332 0 0 0 0 -4714471.8812465798 -19929744.179922409 0 -19929744.179922409 -13781236.560587764 0 0 0 0 -1254425.6053504944 -39886363.594314575 0 -39886363.594314575 -27417342.879333496 0 0 0 0 -47862350.238431931 -55250357.331511497 0 -55250357.331511497 -29665852.275939941 0 0 0 0 -58678333.232208252 -28865070.720588684 0 -28865070.720588684 -7809688.3831787109 0 0 0 0 -45632345.700285435 -17055885.018469267 0 -17055885.018469267 10527457.401131257 0 0 0 0 -57503342.184143066 -13614064.50881958 0 -13614064.50881958 10851896.425125122 0 0 0 0 -214324291.11428833 -7806799.7551994324 0 -7806799.7551994324 76739165.864852905 0 0 0 0 -37307888.751312256 -99534503.40296936 0 -99534503.40296936 -109646896.16108704 0 0 0 0 -23140213.187849045 -52742610.454274178 0 -52742610.454274178 50531933.299484253 0 0 0 0 -3139512.493963778 -8481331.3082969859 0 -8481331.3082969859 -1096854.1841493603 0 0 0 0 34519755.402404785 -25871134.683509827 0 -25871134.683509827 -2164212.8990478516 0 0 0 0 -198128862.64526367 -88412866.57396698 0 -88412866.57396698 125323858.2048111 0 0 0 0 -53211167.2734375 -140910328.49834442 0 -140910328.49834442 29663657.078094482 0 0 0 0 -208256106.45129395 -57647719.614280701 0 -57647719.614280701 53703023.889007568 0 0 0 0 -215619519.05102539 -53106015.54888916 0 -53106015.54888916 99904571.750595093 0 0 0 0 -193161920.30880737 -5368669.496673584 0 -5368669.496673584 67779419.693313599 0 0 0 0 -187621842.36309814 -14427860.880584717 0 -14427860.880584717 6717340.3325042725 0 0 0 0 -150007052.75146484 -166564827.45066071 0 -166564827.45066071 -116991479.96561432 0 0 0 0 -144080450.42871857 -119505035.88000298 0 -119505035.88000298 38402516.153930664 0 0 0 0 -35376419.799682617 -211619842.22772217 0 -211619842.22772217 -43327820.039733887 0 0 0 0 -13864428.900146484 -96054364.657814026 0 -96054364.657814026 -68056652.692604065 0 0 0 0 8694730.1126098633 -198727466.17221832 0 -198727466.17221832 -113796647.396492 0 0 0 0 -28091844.454345703 -217571341.85956573 0 -217571341.85956573 -116448414.57673645 0 0 0 0 -302956756.45594788 -204511625.57567596 0 -204511625.57567596 -14537743.850906372 0 0 0 0 -196176494.26193237 -122211720.64378357 0 -122211720.64378357 -61252261.140411377 0 0 0 0 1925119.7900426947 -2045226.5672884583 0 -2045226.5672884583 -1288759.7131396979 0 0 0 0 40390428.795959473 -2345672.4203643799 0 -2345672.4203643799 2075402.4262046814 0 0 0 0 99373392.909614563 -7277516.1057929993 0 -7277516.1057929993 -44567447.960998535 0 0 0 0 528759.84839896858 -15357474.290539388 0 -15357474.290539388 -2982743.9831586778 0 0 0 0 -9256178.1083605289 -20952112.242501706 0 -20952112.242501706 -4208682.2454809844 0 0 0 0 -26776331.302993774 -20909520.145629883 0 -20909520.145629883 -1465012.334148407 0 0 0 0 23533577.872711182 -24813601.381954193 0 -24813601.381954193 -25723896.537628174 0 0 0 0 -6850898.9460487366 -18721527.99764061 0 -18721527.99764061 14248588.062805176 0 0 0 0 -11052383.938049316 -6631097.2665863037 0 -6631097.2665863037 1992138.1762542725 0 0 0 0 -21131076.78088323 -16983931.198832497 0 -16983931.198832497 -546598.59027463198 0 0 0 0 41431353.474456787 -75797343.136108398 0 -75797343.136108398 -125536241.16255188 0 0 0 0 21670434.625732422 -39319045.978935242 0 -39319045.978935242 -8355413.3667831421 0 0 0 0 4655936.7781677246 -59648398.210983276 0 -59648398.210983276 -3525324.0065307617 0 0 0 0 12664612.735900879 -45188098.59576416 0 -45188098.59576416 18178961.644592285 0 0 0 0 1011110.7225036621 -27335278.574920654 0 -27335278.574920654 17001515.741535187 0 0 0 0 34356068.046798706 -38300624.267074585 0 -38300624.267074585 -1300485.9875183105 0 0 0 0 3046490.0585708125 -3681977.7252025343 0 -3681977.7252025343 617958.3029487282 0 0 0 0 -36853951.376342773 -18719439.792831421 0 -18719439.792831421 22761941.556121826 0 0 0 0 31727190.564453125 -26783838.737411499 0 -26783838.737411499 -4968703.6181793213 0 0 0 0 1219507.7149963379 -24453405.329772949 0 -24453405.329772949 -13105210.118652344 0 0 0 0 -22324987.248855591 -37241344.812690735 0 -37241344.812690735 19372875.561569214 0 0 0 0 -74829099.990859985 1348599.6147003174 0 1348599.6147003174 -3981024.4627075195 0 0 0 0 -142371956.25907898 -31563012.318519592 0 -31563012.318519592 34500837.579040527 0 0 0 0 1095614.0150292488 -295147.12110511214 0 -295147.12110511214 -776.3822705000639 0 0 0 0 89179597.885803223 -24852706.888595581 0 -24852706.888595581 -30298843.44921875 0 0 0 0 -25954846.374053955 -18186370.871032715 0 -18186370.871032715 333539.08310317993 0 0 0 0 -7985349.3437957764 -53663484.028564453 0 -53663484.028564453 69198632.314231873 0 0 0 0 -27707063.64616394 -63897166.978874207 0 -63897166.978874207 17988952.783355713 0 0 0 0 22638071.114440918 -50112741.805740356 0 -50112741.805740356 -13792917.135528564 0 0 0 0 23917165.231517792 -55457033.828012466 0 -55457033.828012466 -21380335.674987793 0 0 0 0 78176391.028289795 -94145782.934783936 0 -94145782.934783936 5317413.1268157959 0 0 0 0 133653390.32914734 -24883099.152397156 0 -24883099.152397156 -68018281.414764404 0 0 0 0 1504651.472451061 -1574963.7965385541 0 -1574963.7965385541 -1424221.4709983617 0 0 0 0 446461655.0269165 -1052945591.4071732 0 -1052945591.4071732 132811023.71369934 0 0 0 0 -277363679.91073608 -125781511.01544189 0 -125781511.01544189 717259165.54231262 0 0 0 0 511505972.84352875 774343928.56361675 0 774343928.56361675 -709384481.4552002 0 0 0 0 444989615.50115967 -518533438.63023376 0 -518533438.63023376 203375263.92883301 0 0 0 0 150751232.04342651 -168703519.95019531 0 -168703519.95019531 -108183423.53707886 0 0 0 0 -591965409.62246704 -335591754.64978027 0 -335591754.64978027 -96066716.727462769 0 0 0 0 116676333.78343201 -370574258.57705688 0 -370574258.57705688 -597151739.10743713 0 0 0 0 42515280.433929443 14903359.257980347 0 14903359.257980347 -62882750.870485306 0 0 0 0 32426841.691589355 -43541500.003463745 0 -43541500.003463745 -10443528.846755981 0 0 0 0 78308936.414625168 -590137734.08409023 0 -590137734.08409023 -16767557.229156494 0 0 0 0 859928.72742275894 -1100347.9813933782 0 -1100347.9813933782 772239.90540288389 0 0 0 0 243219105.73233032 -14437298.362136841 0 -14437298.362136841 85046588.806209564 0 0 0 0 215089118.55667877 208155993.71753311 0 208155993.71753311 125726543.50494385 0 0 0 0 -3688428.4805457965 -19418816.934458137 0 -19418816.934458137 1660692.2263287678 0 0 0 0 264484035.58865356 252764115.2794342 0 252764115.2794342 -422979899.76354218 0 0 0 0 -614356412.60232544 39804457.986740112 0 39804457.986740112 494626598.05831146 0 0 0 0 -5567229.5151514634 -18581235.817166522 0 -18581235.817166522 5278056.8087958768 0 0 0 0 23957528.584274292 -45612964.438491821 0 -45612964.438491821 -79569855.321716309 0 0 0 0 4660695.1610717773 -13232713.261825562 0 -13232713.261825562 -54146342.117645264 0 0 0 0 -8400340.6011314392 -30736708.067272186 0 -30736708.067272186 -57185539.03793335 0 0 0 0 -2623985.3171844482 -14165664.898704529 0 -14165664.898704529 -38646781.757369995 0 0 0 0 -3628581.5174789429 -20033701.33265686 0 -20033701.33265686 -48378345.231338501 0 0 0 0 1949509.7326585576 -10693972.742528263 0 -10693972.742528263 -13819256.956048101 0 0 0 0 -791630.36528002471 -2600416.5402247384 0 -2600416.5402247384 -3508678.8088169992 0 0 0 0 243569516.21472168 12880000.128768921 0 12880000.128768921 20853514.245803833 0 0 0 0 3448704.1504516602 -20871020.200653076 0 -20871020.200653076 -58034489.779830933 0 0 0 0 95517.84035491664 -3672994.5479904786 0 -3672994.5479904786 547752.62231785059 0 0 0 0 691782.83427587897 -3201621.2167529799 0 -3201621.2167529799 4977527.4771692678 0 0 0 0 4142531.315536499 -8495337.704864502 0 -8495337.704864502 926306.99331665039 0 0 0 0 2524561.7767945677 -7278611.7967200987 0 -7278611.7967200987 -724217.85358214378 0 0 0 0 -7146311.3559417725 -10074272.976768494 0 -10074272.976768494 -2192482.6686859131 0 0 0 0 305640.45240718126 -14538791.358157083 0 -14538791.358157083 -3572615.9979523085 0 0 0 0 5953810.7496795654 -12483523.316184998 0 -12483523.316184998 -7547752.9365234375 0 0 0 0 2406521.8311711103 -12514905.344446994 0 -12514905.344446994 -6551096.3286345974 0 0 0 0 4784678.1688404307 -8026498.5560448263 0 -8026498.5560448263 1214689.111629203 0 0 0 0 5617507.0738677979 -12128978.050537109 0 -12128978.050537109 1808906.8179321289 0 0 0 0 7705444.6811523438 -9841462.8840332031 0 -9841462.8840332031 1443681.7256469727 0 0 0 0 -2052508.2216659263 -9810167.9306982979 0 -9810167.9306982979 7241607.5697878525 0 0 0 0 1449399.4680175781 -10238264.752441406 0 -10238264.752441406 4743160.2637939453 0 0 0 0 -6276281.8595170714 -12110946.991642948 0 -12110946.991642948 3968886.6616380066 0 0 0 0 4977689.5097961426 -12271662.03503418 0 -12271662.03503418 3444333.3879699707 0 0 0 0 152946.20694212615 -8211719.6949587911 0 -8211719.6949587911 -10264890.185785383 0 0 0 0 6108814.1658935547 -11012490.742858887 0 -11012490.742858887 -1420140.8553771973 0 0 0 0 -4716870.4592539817 -13834864.215617843 0 -13834864.215617843 -10705156.085684856 0 0 0 0 1098899.0484619141 -9819912.0932617188 0 -9819912.0932617188 5112152.7829589844 0 0 0 0 -5922783.8520512143 -12056964.847492561 0 -12056964.847492561 3537826.8814754039 0 0 0 0 1714322.7987060547 -9017289.4284057617 0 -9017289.4284057617 1698231.1773071289 0 0 0 0 -103276388.71751404 -57783416.448394775 0 -57783416.448394775 -23501156.098937988 0 0 0 0 -1440278.612663703 -3304911.1248559467 0 -3304911.1248559467 739368.14857307076 0 0 0 0 -29639559.15045929 -45164213.438251495 0 -45164213.438251495 -22630063.540283203 0 0 0 0 1047001.9749168567 -5326663.9168667197 0 -5326663.9168667197 -8669440.6707022339 0 0 0 0 -2133981.4353790283 -5690648.3766403198 0 -5690648.3766403198 -3182321.1985778809 0 0 0 0 -5184969.3603901677 -5466856.0243019238 0 -5466856.0243019238 684820.72493030131 0 0 0 0 -6056337.7955627441 -8800663.9135742188 0 -8800663.9135742188 -19771619.585205078 0 0 0 0 -3173056.0138320923 -3702370.7049713135 0 -3702370.7049713135 -24131128.208679199 0 0 0 0 -1693402.1461639404 -9032958.3332443237 0 -9032958.3332443237 -29424978.518569946 0 0 0 0 -6741913.6742858887 -3885600.0315322876 0 -3885600.0315322876 -10457778.480621338 0 0 0 0 -9918167.9609527588 978141.08207702637 0 978141.08207702637 -11526097.552276611 0 0 0 0 -2927790.0944213867 961454.7393951416 0 961454.7393951416 -19505951.225738525 0 0 0 0 -3046442.5556439422 -785009.80521401018 0 -785009.80521401018 -1047623.7258199155 0 0 0 0 -2270493.4002838135 -7597432.1391830444 0 -7597432.1391830444 -22505965.404327393 0 0 0 0 -335493688.60983276 -129796519.15364075 0 -129796519.15364075 -18296237.65852356 0 0 0 0 -138420092.52282715 -28235676.901031494 0 -28235676.901031494 -9198465.1692352295 0 0 0 0 -337274.86261789501 -1022690.3641238138 0 -1022690.3641238138 -728849.34447385371 0 0 0 0 -140576020.70429993 -191148168.77584076 0 -191148168.77584076 -285001097.96026611 0 0 0 0 -1613495.9822235107 -862832.64848327637 0 -862832.64848327637 4212661.6380233765 0 0 0 0 -79022735.076202393 247931190.08288574 0 247931190.08288574 -324656126.63313866 0 0 0 0 -18326791.275283813 -1418080.6416778564 0 -1418080.6416778564 8186019.8397521973 0 0 0 0 -4721907.1645202637 -11424663.7918396 0 -11424663.7918396 -14201009.046333313 0 0 0 0 -2499470.9764328003 -4693955.5113372803 0 -4693955.5113372803 3179261.4310302734 0 0 0 0 2004002.8579788208 -8388696.5434875488 0 -8388696.5434875488 3485018.1647644043 0 0 0 0 -6497559.6001548767 -18651488.732189178 0 -18651488.732189178 8545209.8717193604 0 0 0 0 -2428488.7698516846 144282.72522163391 0 144282.72522163391 6604686.6195831299 0 0 0 0 -1033995.6222216785 -3963474.821940951 0 -3963474.821940951 -548119.92575220577 0 0 0 0 2214909.2053833008 -3835620.1042785645 0 -3835620.1042785645 99215.071107633223 0 0 0 0 -1029429962.9996643 -165113507.01776123 0 -165113507.01776123 1198129160.2363281 0 0 0 0 -2193774.0761443097 1420167.206810303 0 1420167.206810303 1314579.1134516448 0 0 0 0 -692856875.6114502 267453939.10913086 0 267453939.10913086 -451670943.40765381 0 0 0 0 2096723.5063211396 1681754.4616051801 0 1681754.4616051801 -476105.42941077054 0 0 0 0 9670252.3479614258 -727945244.56869507 0 -727945244.56869507 154075902.00238037 0 0 0 0 6039570.9919645041 -3968922.9109335896 0 -3968922.9109335896 -1304742.0612570643 0 0 0 0 18664946.094085693 -14359247.298664093 0 -14359247.298664093 1641674.1897125244 0 0 0 0 -789921585.31275177 -2884250521.1674919 0 -2884250521.1674919 -1291096281.3208618 0 0 0 0 12687034797.917252 27311599495.797218 0 27311599495.797218 -9263845027.4488564 0 0 0 0 -58729319.029018283 22921142.820537366 0 22921142.820537366 4067932.4751316793 0 0 0 0 -308706.66422687471 -949805.32163929194 0 -949805.32163929194 -2454634.7655520849 0 0 0 0 6712996.4558410645 -4179227.1114501953 0 -4179227.1114501953 5606769.958322525 0 0 0 0 -6955686.6490287781 8099251.4594211578 0 8099251.4594211578 322849428.70054626 0 0 0 0 7611945.10496521 -5453210.1664657593 0 -5453210.1664657593 -13519756.551879883 0 0 0 0 7130662.3072052002 -5744056.3960723877 0 -5744056.3960723877 3713108.3784198761 0 0 0 0 29723748.512676239 -23568851.429143906 0 -23568851.429143906 -4073792.968170166 0 0 0 0 22858903.579204559 -2925804.5321846008 0 -2925804.5321846008 -15224460.081665039 0 0 0 0 -846266.57426071167 -6751459.0927581787 0 -6751459.0927581787 -12020232.635650635 0 0 0 0 -2546740.1807861328 -1161773.7782363892 0 -1161773.7782363892 -17083565.795715332 0 0 0 0 1096753.1086578369 -12514904.743476868 0 -12514904.743476868 -19449200.038452148 0 0 0 0 19666853.095657349 -1332982.4362564087 0 -1332982.4362564087 -61611409.584442139 0 0 0 0 17308943.18944931 687704.90383148193 0 687704.90383148193 -10858576.43548584 0 0 0 0 2321293.8686477207 739209.28004388884 0 739209.28004388884 -1624685.642826423 0 0 0 0 34770592.310134888 15062875.280830383 0 15062875.280830383 -113496400.76062965 0 0 0 0 2709271.8173828125 -81298697.599029541 0 -81298697.599029541 -53292424.966094971 0 0 0 0 -146258528.24082947 -113764665.88111115 0 -113764665.88111115 -5595405.4606933594 0 0 0 0 19645499.389953613 -195481175.97893143 0 -195481175.97893143 -215646800.47337341 0 0 0 0 -37319420.106811523 82108712.18535614 0 82108712.18535614 -183283636.60035896 0 0 0 0 4830369.9335344359 767405.08490277082 0 767405.08490277082 -1002963.0776243657 0 0 0 0 52512770.068603516 -2471122624.1833649 0 -2471122624.1833649 -3526998699.6221066 0 0 0 0 130423559.8712616 424507001.46337891 0 424507001.46337891 -3205120289.9341431 0 0 0 0 109141181.33586884 -229397930.96582794 0 -229397930.96582794 -1337503505.5242157 0 0 0 0 -244026800.74220276 -992640090.68722534 0 -992640090.68722534 -3178673.5337762805 0 0 0 0 -164061416.53263474 -1365311763.0357389 0 -1365311763.0357389 -952799111.10780334 0 0 0 0 -80930137.478618622 -1758165054.1989384 0 -1758165054.1989384 -1686939767.8528748 0 0 0 0 -1095044078.972702 -2225552680.6769409 0 -2225552680.6769409 5099229.8344169771 0 0 0 0 -603840899.55293083 -524340505.35143924 0 -524340505.35143924 -179312759.13595581 0 0 0 0 -397163516.38279724 -717338427.90812683 0 -717338427.90812683 883794.60894775391 0 0 0 0 -312633763.86643982 -823559827.07655334 0 -823559827.07655334 -418158183.8731842 0 0 0 0 -154084059.13912964 -495803865.60191345 0 -495803865.60191345 -627018065.77223969 0 0 0 0 74453738.397022247 -210449040.18835449 0 -210449040.18835449 -365913084.72210693 0 0 0 0 -157140541.00704956 -361337809.40322876 0 -361337809.40322876 -120426579.11463928 0 0 0 0 -99572683.815040588 -23565491.571739197 0 -23565491.571739197 5034264.0849533081 0 0 0 0 -31684666.351333618 -281859245.27495575 0 -281859245.27495575 -251309354.84375763 0 0 0 0 -69960880.299530029 -27326808.000640869 0 -27326808.000640869 23010174.290679932 0 0 0 0 -16224825.15536499 20010501.434844971 0 20010501.434844971 5536965.8515014648 0 0 0 0 -1137400.2296773046 -1832124.9165528491 0 -1832124.9165528491 1773819.617117241 0 0 0 0 35021440.776756287 -22345030.376037598 0 -22345030.376037598 37273398.680221558 0 0 0 0 -35035390.600921631 3245801.3205413818 0 3245801.3205413818 145862079.56850433 0 0 0 0 10024987.647457123 -59670520.46955204 0 -59670520.46955204 -87564852.554656982 0 0 0 0 51851820.273574829 -24973960.160354614 0 -24973960.160354614 -62714979.008659363 0 0 0 0 36152176.509292603 30327448.230285645 0 30327448.230285645 -256905353.62060547 0 0 0 0 30393112.294235229 -232699485.56658173 0 -232699485.56658173 -189335839.084198 0 0 0 0 -5112498.4680224955 -19331112.42467276 0 -19331112.42467276 7870475.6495076679 0 0 0 0 -14232519.91481781 -134299269.21806335 0 -134299269.21806335 111666199.72422791 0 0 0 0 -98751887.946502686 -36037769.126327515 0 -36037769.126327515 8175460.1233901978 0 0 0 0 -203378523.51637268 181842366.35612488 0 181842366.35612488 223736508.59192657 0 0 0 0 -6088870.8123261482 -18819394.965428315 0 -18819394.965428315 7101976.7161078341 0 0 0 0 26635333.660919189 -62257059.78288269 0 -62257059.78288269 -126816474.95362091 0 0 0 0 199678900.49069214 -67657350.047763824 0 -67657350.047763824 -491858539.31945801 0 0 0 0 1416249.4431935996 160499.16117559373 0 160499.16117559373 -1742140.1907878965 0 0 0 0 -62568323.742126465 -325402800.61678314 0 -325402800.61678314 -163433080.19184113 0 0 0 0 -11412999.810340881 18821842.822647095 0 18821842.822647095 -24559743.151351929 0 0 0 0 15608701.459037781 -9387213.4690914154 0 -9387213.4690914154 -16669006.856506348 0 0 0 0 12045376.263880067 -8499684.0129845403 0 -8499684.0129845403 -2387015.9255279638 0 0 0 0 -252018227.69634247 173633331.15255356 0 173633331.15255356 -93715537.575119019 0 0 0 0 9591697.630434677 -9530286.9748947322 0 -9530286.9748947322 3455091.5328952521 0 0 0 0 -339420.8653119579 -4712182.8308666945 0 -4712182.8308666945 -152858.08546253294 0 0 0 0 -512417708.03088379 142149666.9458313 0 142149666.9458313 -32872084.374671936 0 0 0 0 43737080.039581299 33916571.148231506 0 33916571.148231506 -55685611.432896614 0 0 0 0 10539906.740631104 -27302225.21723175 0 -27302225.21723175 -52017466.989395142 0 0 0 0 11098451.167953491 -2437231.1504898071 0 -2437231.1504898071 -24721853.607198715 0 0 0 0 8510359.7749481201 2835835.9958953857 0 2835835.9958953857 -24742645.659962654 0 0 0 0 8970628.0760345459 746073.46502685547 0 746073.46502685547 -20462187.264980078 0 0 0 0 7217311.0021896362 -1295969.5494155884 0 -1295969.5494155884 -13838124.633224487 0 0 0 0 12277905.826660156 -4907713.7815551758 0 -4907713.7815551758 -20609630.900016308 0 0 0 0 1239161.9112701416 -4626582.7038497925 0 -4626582.7038497925 -15687001.44329071 0 0 0 0 7251226.1857111976 -8707795.4291029535 0 -8707795.4291029535 -2095923.1746677104 0 0 0 0 15853458.519119263 -13659707.593524456 0 -13659707.593524456 -59959456.374938965 0 0 0 0 9229924.5037765503 -7378721.1920852661 0 -7378721.1920852661 -15641616.054550171 0 0 0 0 1403713.9743804932 -22795651.704547882 0 -22795651.704547882 13919202.193908691 0 0 0 0 5074073.9097480774 -24079092.564502716 0 -24079092.564502716 -13931025.730438232 0 0 0 0 -212551.55297851562 -31448365.16305542 0 -31448365.16305542 -16005705.717910767 0 0 0 0 -2192387.2992401123 -26798069.523971558 0 -26798069.523971558 -21336049.605712891 0 0 0 0 -15971623.358772278 -34301617.26738739 0 -34301617.26738739 -5544093.9496917725 0 0 0 0 -417940.08624219149 -379291.78755432367 0 -379291.78755432367 -187586.4967873171 0 0 0 0 -11938046.928199768 -22436926.94859314 0 -22436926.94859314 -1266116.135099411 0 0 0 0 767043.92877854407 -2014794.1593996659 0 -2014794.1593996659 -715704.42486578971 0 0 0 0 7238955.0137634277 -5052062.9764556885 0 -5052062.9764556885 -6896456.1505279541 0 0 0 0 240083.88733396679 -738750.46940451115 0 -738750.46940451115 -124183.3558510989 0 0 0 0 10873333.161296844 21150733.500473022 0 21150733.500473022 14930440.541564941 0 0 0 0 -4122817.2431259155 -7221265.1709060669 0 -7221265.1709060669 35537372.511657715 0 0 0 0 4130070.5862579346 -38325723.630584717 0 -38325723.630584717 92642711.499771118 0 0 0 0 60196876.658943176 -78617104.629226685 0 -78617104.629226685 52185324.30947876 0 0 0 0 166036728.98596191 -20707531.905799866 0 -20707531.905799866 -13111289.352935791 0 0 0 0 29070914.459121704 -3809034.0146789551 0 -3809034.0146789551 -8074673.7165679932 0 0 0 0 69734388.05789566 -55349441.19821167 0 -55349441.19821167 4028709.5828552246 0 0 0 0 29958857.639190674 -29507253.444442749 0 -29507253.444442749 -15932583.660545349 0 0 0 0 39016661.026184082 -29369092.947967529 0 -29369092.947967529 -16159231.708740234 0 0 0 0 29984818.895477295 -5179642.1306762695 0 -5179642.1306762695 -24000773.09387207 0 0 0 0 55298724.356491089 -7138375.2702407837 0 -7138375.2702407837 -16228115.095153809 0 0 0 0 23030320.893463135 -10785159.021392822 0 -10785159.021392822 -15468855.416687012 0 0 0 0 22081572.011901855 -13924441.935974121 0 -13924441.935974121 -23297126.473022461 0 0 0 0 9370485.5439910889 -39058160.415771484 0 -39058160.415771484 31885512.564346313 0 0 0 0 23473757.628448486 -38288748.120269775 0 -38288748.120269775 33627681.648681641 0 0 0 0 21278374.386856079 -30445331.590065002 0 -30445331.590065002 13054567.340393066 0 0 0 0 35492909.084726334 -45431802.55947876 0 -45431802.55947876 2364363.0961608887 0 0 0 0 23832246.760559082 -31098624.099105835 0 -31098624.099105835 -10618757.86819458 0 0 0 0 25584473.519317627 -37801944.411529541 0 -37801944.411529541 -20364688.142410278 0 0 0 0 12060386.208068848 -33645034.996871948 0 -33645034.996871948 -21349437.085540771 0 0 0 0 17721625.011245728 -28819598.691917419 0 -28819598.691917419 -27260420.511871338 0 0 0 0 36858057.933929443 -33795325.151046753 0 -33795325.151046753 -26135205.696105957 0 0 0 0 6071055.1759033203 -34390477.884483337 0 -34390477.884483337 -31228113.5128479 0 0 0 0 24598195.101982117 -34051664.113540649 0 -34051664.113540649 -31256216.451751709 0 0 0 0 2791502.4818115234 -17249880.6690979 0 -17249880.6690979 -41303055.146270752 0 0 0 0 7250503.922744751 -10269524.387237549 0 -10269524.387237549 -30407679.812011719 0 0 0 0 29165562.915222168 -8048001.6014099121 0 -8048001.6014099121 -31713094.824798584 0 0 0 0 18035081.216247559 -5071359.6275939941 0 -5071359.6275939941 -42521647.310638428 0 0 0 0 22178256.696716309 -21132145.91619873 0 -21132145.91619873 -32457974.027866364 0 0 0 0 40865258.604545593 -27043791.006320953 0 -27043791.006320953 -33623623.29989624 0 0 0 0 2063082.6674499512 -14565423.310165405 0 -14565423.310165405 -33136541.966407776 0 0 0 0 30898129.408203125 -21652504.230690002 0 -21652504.230690002 -35478192.262084961 0 0 0 0 13823219.780944824 -10059949.472045898 0 -10059949.472045898 -48260721.692077637 0 0 0 0 8078699.2597045898 -1041510.3909320831 0 -1041510.3909320831 -40890245.699707031 0 0 0 0 -6888075.5479888916 -45460218.547401428 0 -45460218.547401428 -11657944.006858826 0 0 0 0 34241786.696472168 -10910245.100215912 0 -10910245.100215912 -37290837.747825623 0 0 0 0 45960376.494916916 -68013821.394943237 0 -68013821.394943237 -3635035.6795501709 0 0 0 0 3507237.297418423 -23099107.95070434 0 -23099107.95070434 -9264578.973941233 0 0 0 0 18010256.934295654 -25557756.127700806 0 -25557756.127700806 -26463341.063354492 0 0 0 0 5936481.3859710693 -26218245.218536377 0 -26218245.218536377 -26272494.885437012 0 0 0 0 4875652.4806027189 -22938492.746152434 0 -22938492.746152434 -10526315.953365989 0 0 0 0 2548752.5498021618 -20308898.462464899 0 -20308898.462464899 -11192129.765224185 0 0 0 0 6191907.0900611877 -27748892.693897247 0 -27748892.693897247 -19411738.924072266 0 0 0 0 5518574.6631774902 -23095751.12273407 0 -23095751.12273407 -13426687.682067871 0 0 0 0 -2304469.3001899719 -30213332.407623291 0 -30213332.407623291 -8703580.349822998 0 0 0 0 -538885.53858947754 -20689768.544998169 0 -20689768.544998169 856950.52012634277 0 0 0 0 1206571.7563908398 -20829667.608734921 0 -20829667.608734921 -9174140.293285735 0 0 0 0 -2669190.9467315674 -32784502.283737183 0 -32784502.283737183 -21705797.672584534 0 0 0 0 -32683890.606964111 -48252761.821746826 0 -48252761.821746826 -15430231.647216797 0 0 0 0 -27795393.84085083 -23356412.02520752 0 -23356412.02520752 -13079822.101631165 0 0 0 0 11522897.787255287 -38372395.333286285 0 -38372395.333286285 -39935081.637756348 0 0 0 0 11457086.959320068 -6868191.3837585449 0 -6868191.3837585449 -14257605.992282867 0 0 0 0 10135463.345508102 -7890019.1826224774 0 -7890019.1826224774 -17358967.460489258 0 0 0 0 -19914234.822639465 -50739817.355102539 0 -50739817.355102539 -33594041.274780273 0 0 0 0 17519320.913665771 -21610048.759643555 0 -21610048.759643555 -55009734.411399841 0 0 0 0 1522265.480122976 -838557.91922790185 0 -838557.91922790185 364679.10041412711 0 0 0 0 6977366.0834943466 -23277299.744657114 0 -23277299.744657114 -20295457.213885933 0 0 0 0 5897333.1352539062 -26278366.375110626 0 -26278366.375110626 5452668.8203887939 0 0 0 0 52754219.549253464 -3536227.9875411987 0 -3536227.9875411987 -33764196.219116211 0 0 0 0 590134.35079193115 -19726050.167648315 0 -19726050.167648315 5802299.4745149612 0 0 0 0 15678630.23324585 -23185459.463897705 0 -23185459.463897705 -27178586.675819397 0 0 0 0 129712.44206237793 -22191105.754394531 0 -22191105.754394531 13763250.797424316 0 0 0 0 -1498427.8535461426 -15383053.734794617 0 -15383053.734794617 5107337.1857681274 0 0 0 0 -3855515.7449365333 -14681154.194288027 0 -14681154.194288027 7737192.7925323397 0 0 0 0 -23762062.947402954 -15914642.627427101 0 -15914642.627427101 64559977.37478447 0 0 0 0 143022.39663686603 -3668155.643328052 0 -3668155.643328052 -358046.9747945366 0 0 0 0 -19809558.481887817 -41377082.356201172 0 -41377082.356201172 58851820.295291901 0 0 0 0 5908726.0838394165 -12379694.136943817 0 -12379694.136943817 21009624.716522217 0 0 0 0 -626105.7555963099 -20738810.143846482 0 -20738810.143846482 -5001452.5269280002 0 0 0 0 -549269.1679264307 -14642500.134825736 0 -14642500.134825736 -8085136.4322637357 0 0 0 0 -5386907.7666015625 -12485155.114654541 0 -12485155.114654541 19074833.875144958 0 0 0 0 -5795616.9265891463 -8577889.3938914072 0 -8577889.3938914072 25700136.265185393 0 0 0 0 -5339828.4657649994 -24347453.991672516 0 -24347453.991672516 40579371.499019623 0 0 0 0 -75322625.476531982 -17868356.712104797 0 -17868356.712104797 41514040.603398323 0 0 0 0 7063677.1465682983 -13202922.590467453 0 -13202922.590467453 27265858.886566162 0 0 0 0 1446491.7878848016 -4098750.0212795269 0 -4098750.0212795269 1396489.3148149848 0 0 0 0 -25841212.632987976 -10995262.181781769 0 -10995262.181781769 28376430.558729172 0 0 0 0 -22702869.281684875 -18874105.647049904 0 -18874105.647049904 8647108.7474784851 0 0 0 0 -28328081.650619507 -23047954.504429817 0 -23047954.504429817 57185860.174787045 0 0 0 0 525235.49909210205 -8239431.2700881958 0 -8239431.2700881958 48925599.294145584 0 0 0 0 -3627223.0474571139 -8210625.6305362098 0 -8210625.6305362098 12272371.883367965 0 0 0 0 3483185.4345474243 -50245245.245030403 0 -50245245.245030403 66302567.091514587 0 0 0 0 33764168.497528076 -65583726.104488373 0 -65583726.104488373 -264541.53601837158 0 0 0 0 15557280.690567017 -26368804.328567505 0 -26368804.328567505 -45289785.650161743 0 0 0 0 515546.22957834601 -19989908.018077001 0 -19989908.018077001 -414171.61507029831 0 0 0 0 -14107793.11668396 -16384020.781470776 0 -16384020.781470776 53776397.982833862 0 0 0 0 -19978423.21105957 -40628479.910087585 0 -40628479.910087585 21935075.188041687 0 0 0 0 -4852625.3052745387 -15150196.467715062 0 -15150196.467715062 8166623.884217076 0 0 0 0 -261494.31639479101 -1618082.2914653271 0 -1618082.2914653271 -4362613.1001585871 0 0 0 0 -13254519.368881226 -96050021.611434937 0 -96050021.611434937 -4266764.320602417 0 0 0 0 -75566891.845474243 -66300915.453285217 0 -66300915.453285217 32975241.096435547 0 0 0 0 -46542018.587682724 -56338965.314800262 0 -56338965.314800262 5122153.8209075928 0 0 0 0 -2056675.220543012 -18142887.972119682 0 -18142887.972119682 9234515.5007965863 0 0 0 0 -12312814.342605591 26266615.688262939 0 26266615.688262939 -48750825.83473587 0 0 0 0 -14638172.812255859 -58719742.561187744 0 -58719742.561187744 -17204769.492576599 0 0 0 0 -6249794.3683776855 -44598528.431575775 0 -44598528.431575775 6035252.085357666 0 0 0 0 6732336.5524539948 29011756.071791649 0 29011756.071791649 -57912042.177459717 0 0 0 0 -3001857.7906336188 -2650965.5236295033 0 -2650965.5236295033 7919890.8151454367 0 0 0 0 -41346576.420646667 -12040443.055850983 0 -12040443.055850983 45562429.39781189 0 0 0 0 -12244196.841705322 -28405291.390786171 0 -28405291.390786171 55515009.831006527 0 0 0 0 -3197515.4767281413 -21784782.223467819 0 -21784782.223467819 9900567.2140309848 0 0 0 0 1809483.3896713257 -23902913.517170906 0 -23902913.517170906 44249994.449935913 0 0 0 0 21800857.568817139 -57998824.318668365 0 -57998824.318668365 -22299781.596679688 0 0 0 0 51854344.232452393 -60783807.593168259 0 -60783807.593168259 -27880605.133520126 0 0 0 0 827657.99093058705 -15881502.571711645 0 -15881502.571711645 15585149.354004471 0 0 0 0 48605413.188751221 -5061091.933380127 0 -5061091.933380127 6424747.3642234802 0 0 0 0 17013974.499053955 -30825131.299575806 0 -30825131.299575806 -10071449.433896065 0 0 0 0 -5572863.5043959394 -25844513.399983637 0 -25844513.399983637 15033826.773445154 0 0 0 0 -10984453.373046875 -34483434.32975769 0 -34483434.32975769 13188562.680145264 0 0 0 0 -2794891.1449966431 -23735916.272678375 0 -23735916.272678375 62720159.076025009 0 0 0 0 -19482610.862998962 -14275822.905967712 0 -14275822.905967712 -20472910.531204224 0 0 0 0 2799843.7480676323 -27925670.65496007 0 -27925670.65496007 15427208.757219538 0 0 0 0 -1231287.5292816162 -10630933.873657227 0 -10630933.873657227 5505877.9155960083 0 0 0 0 -746736.49670200795 -25762225.128695518 0 -25762225.128695518 16615352.079238378 0 0 0 0 -39367187.031791687 -57712191.453918457 0 -57712191.453918457 34997767.506195068 0 0 0 0 -9500150.9594573975 -12421618.496559143 0 -12421618.496559143 10017715.784240723 0 0 0 0 -13178896.596572131 -15518104.318896912 0 -15518104.318896912 755518.95073640347 0 0 0 0 31754257.7837677 -45350581.292315483 0 -45350581.292315483 -28199527.46031189 0 0 0 0 7449973.2261352539 -76648693.265371323 0 -76648693.265371323 -41931189.791969299 0 0 0 0 -1120016.6349003762 -25749536.254270077 0 -25749536.254270077 26400826.355375987 0 0 0 0 4965181.7689044178 -2106505.1399651691 0 -2106505.1399651691 -6514387.6269761473 0 0 0 0 16996140.932067871 -51891197.470275879 0 -51891197.470275879 -12547587.246398926 0 0 0 0 11549189.659667969 -103443653.13098145 0 -103443653.13098145 67336852.01222229 0 0 0 0 6131143.7857623249 -26511389.839736179 0 -26511389.839736179 -29165.567734971642 0 0 0 0 -184088341.66000366 -6920746.7575302124 0 -6920746.7575302124 23581427.997924805 0 0 0 0 5770674.0917242765 -1112439.7794045694 0 -1112439.7794045694 -1383913.9290277213 0 0 0 0 -6394706.5553827584 -17670882.313515745 0 -17670882.313515745 1867956.3960612863 0 0 0 0 -6786221.45652771 -42291164.817131042 0 -42291164.817131042 -2495961.707611084 0 0 0 0 -1342303.169052124 -39444565.752624512 0 -39444565.752624512 -16654591.042137146 0 0 0 0 -26625937.511749268 -45085531.127128601 0 -45085531.127128601 -11448807.96144104 0 0 0 0 -43693851.644851685 -35608609.389144897 0 -35608609.389144897 -2042497.7197341919 0 0 0 0 2469469.1488059647 -35735962.184451587 0 -35735962.184451587 -4581409.8398665413 0 0 0 0 13400234.937004089 -50943317.337791443 0 -50943317.337791443 -18052331.038757324 0 0 0 0 -78385433.710754395 -74489142.627067566 0 -74489142.627067566 6900102.0414428711 0 0 0 0 -12085376.531410217 -50021630.773284912 0 -50021630.773284912 7554029.7619476318 0 0 0 0 77462644.993293762 -65792477.287754059 0 -65792477.287754059 -19584005.409324646 0 0 0 0 32639.323413824663 -29743309.818389956 0 -29743309.818389956 -11136795.947572246 0 0 0 0 1003119.6146621704 -87221301.391197205 0 -87221301.391197205 -3721789.0685577393 0 0 0 0 79347612.460029602 -13555090.64597702 0 -13555090.64597702 -11020503.51322937 0 0 0 0 -66195672.529838562 -48607897.135848999 0 -48607897.135848999 23444351.943511963 0 0 0 0 -90282411.893798828 -61682958.071929932 0 -61682958.071929932 17950962.41204834 0 0 0 0 -85152325.900604248 -157693487.28674316 0 -157693487.28674316 -115432905.24981689 0 0 0 0 -161487074.07504272 -65987116.956970215 0 -65987116.956970215 45819236.26171875 0 0 0 0 -38781160.476501465 -89156875.132263184 0 -89156875.132263184 -21601694.274208069 0 0 0 0 -2408785.7317047119 -97576037.699768066 0 -97576037.699768066 -24309622.810705185 0 0 0 0 -42827255.629699707 -53117899.498970032 0 -53117899.498970032 23928107.241546631 0 0 0 0 -12301760.037460327 -48575477.402557373 0 -48575477.402557373 -1602185.2867736816 0 0 0 0 -29244305.507507324 -19556337.112541199 0 -19556337.112541199 17688713.901428223 0 0 0 0 -49262966.227523804 -41066278.734275818 0 -41066278.734275818 4228154.3204703331 0 0 0 0 372308.16883214563 -22671940.766004041 0 -22671940.766004041 11469307.145893697 0 0 0 0 -7060418.7577514648 -45940606.10602951 0 -45940606.10602951 31422942.406250954 0 0 0 0 -16283412.76374054 7923964.6280136108 0 7923964.6280136108 -40648133.140014648 0 0 0 0 -19441521.030944824 4817869.048324585 0 4817869.048324585 -8242516.4416809082 0 0 0 0 -21468401.206665039 12410947.9140625 0 12410947.9140625 -44273125.75440979 0 0 0 0 358597.45862407982 -507402.32407941669 0 -507402.32407941669 -1044907.3956155851 0 0 0 0 -20665123.059753418 7967438.8112335205 0 7967438.8112335205 -16939002.486480713 0 0 0 0 -8539075.3776202127 -11900447.654060908 0 -11900447.654060908 9772959.2811404243 0 0 0 0 -37762520.107421875 -25051603.634109497 0 -25051603.634109497 18687509.307752609 0 0 0 0 -51330358.599105835 46274543.121025085 0 46274543.121025085 50493438.960693359 0 0 0 0 -72152477.911773682 -20512361.267875671 0 -20512361.267875671 -6241360.4970006943 0 0 0 0 -357079142.39537621 -2432074.3944206238 0 -2432074.3944206238 6575544.798034668 0 0 0 0 -194331646.53478289 -337951558.37139988 0 -337951558.37139988 -295942335.79475403 0 0 0 0 8847741.9970840141 -8056202.331572637 0 -8056202.331572637 -2718364.8872610331 0 0 0 0 -1284863.640730761 65312.381977885962 0 65312.381977885962 991893.23754160106 0 0 0 0 457236.96327941865 -467556.52586977556 0 -467556.52586977556 -82372.12651964277 0 0 0 0 -337121977.72003174 -144727472.15042877 0 -144727472.15042877 -135867752.09326172 0 0 0 0 -201908306.03030396 -200791600.20228577 0 -200791600.20228577 -425409928.05729675 0 0 0 0 -45005522.943618774 48448138.448104858 0 48448138.448104858 28051772.967895508 0 0 0 0 9669063.3743782043 15129119.973285675 0 15129119.973285675 -19258070.032989502 0 0 0 0 39146041.213226318 5832344.8210449219 0 5832344.8210449219 -16646673.856330872 0 0 0 0 -1646700.1888198853 -171756100.19062996 0 -171756100.19062996 26663583.366592407 0 0 0 0 32753794.68397522 62132740.588623047 0 62132740.588623047 8164932.8453216553 0 0 0 0 -532710168.83387756 -124011523.98684692 0 -124011523.98684692 96274519.15687561 0 0 0 0 9452233.1773674265 -9133152.621292904 0 -9133152.621292904 1910229.3579764068 0 0 0 0 -168517924.95066833 -125717568.07365417 0 -125717568.07365417 -105057592.07485962 0 0 0 0 -36545195.795791626 -74648514.46446228 0 -74648514.46446228 -166733486.90142822 0 0 0 0 67256195.845794678 -270026299.61721802 0 -270026299.61721802 -418069736.83129883 0 0 0 0 142668392.0852356 -101754065.62626648 0 -101754065.62626648 -386936590.32546997 0 0 0 0 205543113.10317612 110278789.16315651 0 110278789.16315651 -180807627.59176636 0 0 0 0 -67770969.393280029 148332854.66477203 0 148332854.66477203 218979921.31929016 0 0 0 0 4398756.0916862935 -6392741.5018615127 0 -6392741.5018615127 -4310244.8553870209 0 0 0 0 -125807181.76455688 11135688.205108643 0 11135688.205108643 17926137.988952637 0 0 0 0 14485783.805908203 -63840083.244659424 0 -63840083.244659424 52783803.289916992 0 0 0 0 29988047.819030762 -15916362.704345703 0 -15916362.704345703 -43221725.123605728 0 0 0 0 144747495.59054565 21781274.331039429 0 21781274.331039429 -39699680.699871063 0 0 0 0 4117519.8378368169 -18292565.162406206 0 -18292565.162406206 -5947972.841155827 0 0 0 0 -19824715.351470947 -25735423.068710327 0 -25735423.068710327 -15251933.432861328 0 0 0 0 78432832.231414795 67669734.812431335 0 67669734.812431335 53605299.516723633 0 0 0 0 -11248153.017120361 -36855106.605667114 0 -36855106.605667114 -4723576.063873291 0 0 0 0 -51162144.863685608 -84767460.39251709 0 -84767460.39251709 -43633766.30291748 0 0 0 0 73649661.979858398 54730453.732879639 0 54730453.732879639 -14693145.728759766 0 0 0 0 128348471.21710587 79029432.761894226 0 79029432.761894226 -24699498.664611816 0 0 0 0 94258457.646550417 -18368435.505562425 0 -18368435.505562425 -105021394.79119873 0 0 0 0 132164554.04568481 -21981762.510856628 0 -21981762.510856628 -59771904.496765137 0 0 0 0 94590645.317043424 -761814.48707342148 0 -761814.48707342148 28159735.079620361 0 0 0 0 35457485.427536011 -88351241.621940613 0 -88351241.621940613 -121123781.53417969 0 0 0 0 42531953.738433838 -23698096.365066528 0 -23698096.365066528 -75731066.050872803 0 0 0 0 31719724.88394165 -81543100.066802979 0 -81543100.066802979 -230551705.6711731 0 0 0 0 -69790310.902038574 -99861349.39263916 0 -99861349.39263916 -106405800.06360626 0 0 0 0 -368026474.48940849 -237996778.02865028 0 -237996778.02865028 -84037512.166931152 0 0 0 0 -99454514.679199219 -192388741.20153809 0 -192388741.20153809 -369552665.00622559 0 0 0 0 -78633968.853775024 -49824047.615036011 0 -49824047.615036011 -121208520.85235596 0 0 0 0 -101771557.69842529 15729082.179351807 0 15729082.179351807 -304246020.68001556 0 0 0 0 41464864.324035645 -2328498.4879150391 0 -2328498.4879150391 -138595431.98928833 0 0 0 0 -5146255.4578383937 -9753475.3482024446 0 -9753475.3482024446 -175068.20577742159 0 0 0 0 -32128122.389282227 -34375481.454185486 0 -34375481.454185486 -15223889.227817535 0 0 0 0 -113648.98768011853 -30040566.0435558 0 -30040566.0435558 -16050442.063860483 0 0 0 0 -5653794.8704223633 -13829914.267311096 0 -13829914.267311096 -7558731.7111167908 0 0 0 0 -23239594.68120575 -20761898.416923523 0 -20761898.416923523 2069119.8708190918 0 0 0 0 -24973672.070744261 -20232233.596849397 0 -20232233.596849397 2588402.8852057233 0 0 0 0 -1806241.6658707708 -18215368.622203 0 -18215368.622203 -7570493.7054991722 0 0 0 0 20162576.779464722 -15301289.586914062 0 -15301289.586914062 4308804.2005338669 0 0 0 0 -788630.16880778223 -19770006.990717933 0 -19770006.990717933 -4412576.3989704847 0 0 0 0 -51217844.879486084 -78691589.418884277 0 -78691589.418884277 -76109983.117050171 0 0 0 0 31680259.466995239 -10945266.672676086 0 -10945266.672676086 -5422905.5280151367 0 0 0 0 5314463.0153182819 -3422481.5674228296 0 -3422481.5674228296 -2770783.1412638873 0 0 0 0 104174810.65183258 26598690.639041901 0 26598690.639041901 -27759558.225318909 0 0 0 0 1443585.1200604141 -319629.24102267623 0 -319629.24102267623 -1317955.8054766953 0 0 0 0 -20927066.876678467 -22080974.993469238 0 -22080974.993469238 -9852752.3429412842 0 0 0 0 -1163928.6945157349 -12809271.338654272 0 -12809271.338654272 -3023565.8191910684 0 0 0 0 -33846993.098419189 -29633638.370136261 0 -29633638.370136261 -7973406.5484771729 0 0 0 0 647196.41970513016 -5351654.5462606847 0 -5351654.5462606847 -324262.49674132466 0 0 0 0 -11566824.29498291 -10003242.014671326 0 -10003242.014671326 -26494921.350799561 0 0 0 0 75028225.124015808 -150678083.69843864 0 -150678083.69843864 267269624.96710968 0 0 0 0 322972221.34187317 -304288294.42646027 0 -304288294.42646027 29250680.174682617 0 0 0 0 888856351.83400726 -296927232.11484909 0 -296927232.11484909 -104651413.13143921 0 0 0 0 357940.01244557649 -1904754.7407897338 0 -1904754.7407897338 -89641.091747649014 0 0 0 0 100804445.80163574 -603206672.71504974 0 -603206672.71504974 115678321.98693848 0 0 0 0 -126723190.03894043 -100159530.92177582 0 -100159530.92177582 -17700118.854560852 0 0 0 0 -98656141.731796265 -64354755.221374512 0 -64354755.221374512 49210987.12059021 0 0 0 0 -2639775.1094243154 -4551347.7315629721 0 -4551347.7315629721 1014347.1081579179 0 0 0 0 -51576465.995513916 -49712224.469772339 0 -49712224.469772339 -72327662.455238342 0 0 0 0 -56333960.418395996 -30561872.220306396 0 -30561872.220306396 19920135.029975891 0 0 0 0 -8647655.3780517578 -63669632.884025574 0 -63669632.884025574 -39927118.247001648 0 0 0 0 -48510058.210990906 -46283196.517625809 0 -46283196.517625809 -26060868.460174561 0 0 0 0 -85701277.662963867 -38759912.901832581 0 -38759912.901832581 -14640834.828903198 0 0 0 0 -43914284.362121582 -35741124.455955505 0 -35741124.455955505 -9637923.1183624268 0 0 0 0 -14162050.072814941 -22896655.31533432 0 -22896655.31533432 -28571194.191246033 0 0 0 0 -9986895.7867736816 -15716161.542030334 0 -15716161.542030334 -18929788.291954041 0 0 0 0 -84417842.229476929 -26491807.011733055 0 -26491807.011733055 82465257.240539551 0 0 0 0 47511132.665222168 -25073921.525085449 0 -25073921.525085449 -21222270.701328278 0 0 0 0 -7782118.9468994141 -34734847.525375366 0 -34734847.525375366 22958712.190307617 0 0 0 0 179192517.63137817 -60116938.91632843 0 -60116938.91632843 20992141.611572266 0 0 0 0 14828055.018310547 52810790.801025391 0 52810790.801025391 130016935.11845398 0 0 0 0 3251551.5772705078 -94382190.394821167 0 -94382190.394821167 80529734.026657104 0 0 0 0 -147516680.85858154 -53793453.767555237 0 -53793453.767555237 105721205.40946579 0 0 0 0 -22939592.874404907 -161046671.70035934 0 -161046671.70035934 180749119.92843628 0 0 0 0 -145449245.75738525 -34054748.383150101 0 -34054748.383150101 279703812.81973267 0 0 0 0 -75803634.646759033 -139776341.53224945 0 -139776341.53224945 130632607.02116394 0 0 0 0 -40006334.730834961 -183609014.86667633 0 -183609014.86667633 184277640.9309082 0 0 0 0 -72984975.213623047 -129973679.88005829 0 -129973679.88005829 9070281.830291748 0 0 0 0 -309715984.08978271 -167531740.1383667 0 -167531740.1383667 184989863.88333893 0 0 0 0 -258070498.37838745 36961019.735305786 0 36961019.735305786 -125819432.57556152 0 0 0 0 2328022.7026367188 -232954298.20010376 0 -232954298.20010376 -57491445.790481567 0 0 0 0 -407283524.22058105 -94742013.205284119 0 -94742013.205284119 136446314.34683228 0 0 0 0 473453475.7849884 -36067503.670963287 0 -36067503.670963287 -94188485.756347656 0 0 0 0 5442681.4795223027 -4020446.9402359426 0 -4020446.9402359426 -2323375.2085745633 0 0 0 0 245145050.36364746 -273493720.23396301 0 -273493720.23396301 29792558.00327301 0 0 0 0 -78834651.136352539 -157689593.81765747 0 -157689593.81765747 50729078.837219238 0 0 0 0 210237778.81689453 8265115.9446105957 0 8265115.9446105957 -11067398.46492672 0 0 0 0 240949072.57396698 -192207958.72268486 0 -192207958.72268486 19838610.547302246 0 0 0 0 15263476.066955566 -93082642.239593506 0 -93082642.239593506 5799989.9723510742 0 0 0 0 32704969.14633894 -39611050.783547528 0 -39611050.783547528 3108819.5539129069 0 0 0 0 79725134.428833008 -60844714.795593262 0 -60844714.795593262 -30535260.214324951 0 0 0 0 82135986.43371582 -59814261.858428955 0 -59814261.858428955 -30412131.335863113 0 0 0 0 29318502.994087219 -65539962.337836266 0 -65539962.337836266 -58543215.481021881 0 0 0 0 99174184.639282227 -102981549.67330933 0 -102981549.67330933 2969540.9264793396 0 0 0 0 85542392.056777954 -59271276.150489807 0 -59271276.150489807 -32119531.093688965 0 0 0 0 90106866.916748047 -21343839.781082153 0 -21343839.781082153 -12519802.080089569 0 0 0 0 84165392.208557129 -60877091.093017578 0 -60877091.093017578 -33827169.150878906 0 0 0 0 172766850.12658691 -62118815.793663025 0 -62118815.793663025 -33829230.316070557 0 0 0 0 53308622.623535156 -47615306.869667053 0 -47615306.869667053 -10321322.01991272 0 0 0 0 31219181.165863037 -362953107.90350342 0 -362953107.90350342 263012274.72805786 0 0 0 0 174658604.54394531 -241119106.87384033 0 -241119106.87384033 -301172594.15071869 0 0 0 0 19508799.69477234 -16044024.10771469 0 -16044024.10771469 -9944517.5092176497 0 0 0 0 -11737237.954956055 -303849594.29204559 0 -303849594.29204559 44966626.724029541 0 0 0 0 -26083535.789245605 -280004810.27412415 0 -280004810.27412415 20955514.138122559 0 0 0 0 -55697884.908843994 -266884569.04920959 0 -266884569.04920959 39479507.442382812 0 0 0 0 -46771722.032043457 -277142896.92259979 0 -277142896.92259979 38905837.256807327 0 0 0 0 -10843822.249607086 62609258.096243382 0 62609258.096243382 -94623247.69871521 0 0 0 0 11595301.868241906 -837062.81001667678 0 -837062.81001667678 -12044640.325520262 0 0 0 0 -54777733.615234375 -129664010.05235195 0 -129664010.05235195 -22787906.228618622 0 0 0 0 130140705.63421631 -80438508.495584488 0 -80438508.495584488 -55786389.456878662 0 0 0 0 18148361.292614929 -17125370.77714945 0 -17125370.77714945 -11911267.080404211 0 0 0 0 29717754.857200325 -35296786.9961669 0 -35296786.9961669 17961121.692471027 0 0 0 0 -25145451.254821777 1433341.7047538757 0 1433341.7047538757 -54154442.74407196 0 0 0 0 8596761.2515716553 -68880659.108041763 0 -68880659.108041763 -31872648.595691681 0 0 0 0 47867425.516464233 -80767645.22049427 0 -80767645.22049427 -57675018.741111755 0 0 0 0 9280383.9349833578 -11004807.641677544 0 -11004807.641677544 3398530.1644565975 0 0 0 0 89867824.705459595 20743665.585849762 0 20743665.585849762 -215712421.72103882 0 0 0 0 3096748.5298614502 -9785705.008808136 0 -9785705.008808136 209602.30334663391 0 0 0 0 2010639.0525845289 -14708846.730623357 0 -14708846.730623357 15523910.167704232 0 0 0 0 9257286.6592627168 -16396572.434391312 0 -16396572.434391312 10078499.864511104 0 0 0 0 2992275.2491760254 -9133405.4225616455 0 -9133405.4225616455 -3862132.801448822 0 0 0 0 12192905.674017906 -20471481.900381021 0 -20471481.900381021 17004615.496560991 0 0 0 0 29404884.781154633 -169773751.8796258 0 -169773751.8796258 -44320134.72637558 0 0 0 0 129992343.90249634 -118225070.42739868 0 -118225070.42739868 -287338564.58501816 0 0 0 0 -46953691.10147953 -84502589.948006392 0 -84502589.948006392 -124531219.60342407 0 0 0 0 267914785.93286133 -233006574.59571838 0 -233006574.59571838 -57189873.997161865 0 0 0 0 245574986.23001099 3848456.4613800049 0 3848456.4613800049 -135838993.33015442 0 0 0 0 -19263954.076080322 -1437013.2228851318 0 -1437013.2228851318 -128101193.09365845 0 0 0 0 27484618.090194702 111503930.18360138 0 111503930.18360138 56724477.176071167 0 0 0 0 90009691.412857056 70046837.554077148 0 70046837.554077148 52234239.796981812 0 0 0 0 289564634.30403137 294943245.0171051 0 294943245.0171051 231643423.12846375 0 0 0 0 6587659.2078857422 -265039843.19205093 0 -265039843.19205093 180935225.33190918 0 0 0 0 141404350.49417114 -37509882.064605713 0 -37509882.064605713 -61038943.894958496 0 0 0 0 749640326.67089844 -127681043.89237976 0 -127681043.89237976 -53893030.0586586 0 0 0 0 188255333.53561401 -450837431.95529938 0 -450837431.95529938 464831502.44543457 0 0 0 0 -9154643.7313842773 -155401945.39037323 0 -155401945.39037323 121263745.29283142 0 0 0 0 -160934387.63110352 -52385200.823337555 0 -52385200.823337555 297342250.03039551 0 0 0 0 838896495.45054626 -256177765.54139328 0 -256177765.54139328 -6505279.318359375 0 0 0 0 -686230.09927637875 -1451832.9367995635 0 -1451832.9367995635 449672.99944880605 0 0 0 0 -117508882.76455688 28231898.509078979 0 28231898.509078979 79247564.299224854 0 0 0 0 317199303.31637573 201150748.85136032 0 201150748.85136032 -285399003.54164124 0 0 0 0 747025077.25686646 -338130036.07043457 0 -338130036.07043457 265297640.07500362 0 0 0 0 -312860781.6322937 -93498108.639980316 0 -93498108.639980316 177297519.4249115 0 0 0 0 -1140659.9660974294 1482866.2510006428 0 1482866.2510006428 -498491.06316111051 0 0 0 0 -72036605.191192627 -85201791.523788452 0 -85201791.523788452 -98755603.197382927 0 0 0 0 46392816.561157227 -27890591.861343384 0 -27890591.861343384 -376388393.09218693 0 0 0 0 -10901032.51574707 -2691660.674949646 0 -2691660.674949646 -3065167.9434738159 0 0 0 0 -78733378.924751282 8849497.2805995941 0 8849497.2805995941 -4297203.867477417 0 0 0 0 -101525719.97390747 38207521.145252228 0 38207521.145252228 57592182.300308228 0 0 0 0 1383924.5045471191 134040018.83385468 0 134040018.83385468 144697236.34585953 0 0 0 0 34966635.821723938 99242300.199342728 0 99242300.199342728 -56341907.643669128 0 0 0 0 -37985973.05255127 63824891.710784912 0 63824891.710784912 -61456487.894415855 0 0 0 0 751605.29690481722 -9251926.7349274345 0 -9251926.7349274345 5316829.1021162048 0 0 0 0 466974.9172000587 -4661422.9970124941 0 -4661422.9970124941 2996622.4209806472 0 0 0 0 15841462.401733398 -20619671.538377762 0 -20619671.538377762 10636615.018371582 0 0 0 0 23930990.561050415 -36682364.924987793 0 -36682364.924987793 32448298.80406189 0 0 0 0 -1018355.028670311 -2989034.1516680941 0 -2989034.1516680941 2570868.9244800061 0 0 0 0 -12194636.893859863 -21558214.607086182 0 -21558214.607086182 85341711.256578445 0 0 0 0 2464293.8055725098 -26370586.313415527 0 -26370586.313415527 36945250.410591125 0 0 0 0 63819.941558837891 -27117875.132770538 0 -27117875.132770538 40496888.602478027 0 0 0 0 2633618.904083252 -32347969.576713562 0 -32347969.576713562 55684440.903465271 0 0 0 0 14075330.130950928 -27416743.416389465 0 -27416743.416389465 29023881.784612656 0 0 0 0 6919623.1441650391 -27444061.80581665 0 -27444061.80581665 38820221.146270752 0 0 0 0 -10468.056549072266 -22034522.345367432 0 -22034522.345367432 34982348.353843689 0 0 0 0 11253870.291885376 -23737056.56394577 0 -23737056.56394577 29773846.480148315 0 0 0 0 5932067.5308532715 -18833158.72416687 0 -18833158.72416687 29592534.964924812 0 0 0 0 -166246.93680107594 -1367506.2082214318 0 -1367506.2082214318 3529776.3557538316 0 0 0 0 -3450665.344262287 4157877.2059653364 0 4157877.2059653364 -1491976.5112429708 0 0 0 0 -8609841.4623413086 35364012.818916321 0 35364012.818916321 -318820957.53290176 0 0 0 0 -19002387.640403748 4942123.195526123 0 4942123.195526123 -3362329.9637298584 0 0 0 0 410290.36909429729 3884512.6544854641 0 3884512.6544854641 -1704490.7956784503 0 0 0 0 5947057.9316711426 -16796068.540084839 0 -16796068.540084839 38230458.874664307 0 0 0 0 -7882060.2784118652 104804055.9238739 0 104804055.9238739 -968073606.44894409 0 0 0 0 2394.9840698242188 -5005450.9626846313 0 -5005450.9626846313 -625043.35780239105 0 0 0 0 -4120052.0476554185 -367826.79238487408 0 -367826.79238487408 3743082.0627135411 0 0 0 0 -73523222.282272339 -354652200.43777466 0 -354652200.43777466 -209426205.164505 0 0 0 0 922069.6633605957 -566925626.77633667 0 -566925626.77633667 -811874230.72383881 0 0 0 0 -352283505.15000916 -511411544.97348022 0 -511411544.97348022 -277680105.01425171 0 0 0 0 -3586101.8402557373 -749596344.43621826 0 -749596344.43621826 -120796939.20918274 0 0 0 0 -234061649.86433411 -301035322.63367462 0 -301035322.63367462 15042469.962097168 0 0 0 0 -318618146.13348389 -384019084.27980804 0 -384019084.27980804 -36213895.029586792 0 0 0 0 -109521557.3302002 -185056049.7492218 0 -185056049.7492218 -526129930.54240417 0 0 0 0 -24966485.831237793 -1459475.0923728943 0 -1459475.0923728943 -146207602.4055481 0 0 0 0 -116508987.12155151 39854435.053756714 0 39854435.053756714 -21073998.133590698 0 0 0 0 386437665.52203369 -220228216.60808563 0 -220228216.60808563 -43743978.460756302 0 0 0 0 56999673.571014404 21382776.92232132 0 21382776.92232132 78623559.116989136 0 0 0 0 -174723521.19100952 -229545467.07858276 0 -229545467.07858276 -193077528.57733727 0 0 0 0 -319379652.70056152 -301432517.37106323 0 -301432517.37106323 -58430311.246337891 0 0 0 0 143558262.83621216 -481285479.13359833 0 -481285479.13359833 9532241.7045669556 0 0 0 0 -315381232.55764771 -207704966.42461395 0 -207704966.42461395 273738677.81556702 0 0 0 0 344498588.01078796 -154573103.96648026 0 -154573103.96648026 -221912072.55058289 0 0 0 0 119211154.51950073 -162062792.49286652 0 -162062792.49286652 -172824495.43803406 0 0 0 0 -310192998.85900879 -282157136.91244507 0 -282157136.91244507 -176940127.5895462 0 0 0 0 10774356.297813416 -400373591.61890221 0 -400373591.61890221 -194323994.81744385 0 0 0 0 -1011589047.1094971 -259830693.42556 0 -259830693.42556 -215438467.9356308 0 0 0 0 -535790103.33966064 -491712253.72528076 0 -491712253.72528076 -214266474.05917358 0 0 0 0 -698683680.11340332 -377725170.67752075 0 -377725170.67752075 -201586712.43413544 0 0 0 0 -316688877.50962067 -275198713.36740112 0 -275198713.36740112 -218572109.52659607 0 0 0 0 -746629072.70729446 -551876480.59981918 0 -551876480.59981918 -583132960.83578491 0 0 0 0 -1380679607.5376282 -785949851.51905823 0 -785949851.51905823 32784597.393417358 0 0 0 0 -684971.05070495605 -150523319.25036621 0 -150523319.25036621 -150047381.56668091 0 0 0 0 2230470.4492081106 -4106661.6241795123 0 -4106661.6241795123 -3767150.5455545187 0 0 0 0 -705362321.82000732 -831043244.61805725 0 -831043244.61805725 -19205544.894088745 0 0 0 0 -604329454.28482056 -323567245.42950439 0 -323567245.42950439 3371013.0355072021 0 0 0 0 -701463283.13969421 -506893388.46298981 0 -506893388.46298981 -76165183.13772583 0 0 0 0 7331766.3396911621 -67833876.959320068 0 -67833876.959320068 124483628.80781555 0 0 0 0 -1853801.4837341309 -83666312.157382965 0 -83666312.157382965 154683789.8080368 0 0 0 0 1146485.2827453613 -68736824.695436478 0 -68736824.695436478 189965973.12915802 0 0 0 0 19308456.756500244 -109181406.3908577 0 -109181406.3908577 167948082.8995018 0 0 0 0 13359720.826751709 -91148331.559753418 0 -91148331.559753418 142999278.72402191 0 0 0 0 10708106.02394104 -76331664.044965744 0 -76331664.044965744 106290905.1593895 0 0 0 0 -20625.386703491211 -87778270.263975143 0 -87778270.263975143 144667191.25081253 0 0 0 0 3846529.9656066895 -46795356.287403107 0 -46795356.287403107 93281771.288829803 0 0 0 0 -22509931.959289551 -69915433.026567459 0 -69915433.026567459 79028949.603910446 0 0 0 0 -13915607.627105713 -65622611.759391785 0 -65622611.759391785 129940274.34698486 0 0 0 0 30238549.892700195 -84475392.459514618 0 -84475392.459514618 57661043.448944092 0 0 0 0 -6540304.1508483887 -69299217.530319214 0 -69299217.530319214 54012114.858201027 0 0 0 0 19277099.628692627 -82659135.175338745 0 -82659135.175338745 62827166.80471611 0 0 0 0 55063530.608306885 -120688674.10668945 0 -120688674.10668945 85791780.053611755 0 0 0 0 54465020.328735352 -43677985.080280304 0 -43677985.080280304 111549316.85834503 0 0 0 0 -13371440.383392334 -49302784.641963959 0 -49302784.641963959 101076047.72794151 0 0 0 0 23730324.949920654 -94894403.162998199 0 -94894403.162998199 445101.57968139648 0 0 0 0 -17811082.301994979 -5864108.3228944615 0 -5864108.3228944615 3694112.2337720878 0 0 0 0 -14613171.360359192 -74366673.021959305 0 -74366673.021959305 112022974.33795166 0 0 0 0 -4064204.1613616943 -7145869.9111976624 0 -7145869.9111976624 1930497.914226532 0 0 0 0 -9209027.8418579102 -10762269.471658707 0 -10762269.471658707 10331311.486949921 0 0 0 0 -13544679.182289481 -8898201.0604000017 0 -8898201.0604000017 7716415.7980357409 0 0 0 0 -2751028.4789574593 -1228587.2886391282 0 -1228587.2886391282 1391418.1359974667 0 0 0 0 -17753168.281799316 -59674209.818668365 0 -59674209.818668365 236373105.25813293 0 0 0 0 90160490.389709473 -91231924.799861908 0 -91231924.799861908 52390608.023735046 0 0 0 0 -15296477.602233887 -20934084.916366577 0 -20934084.916366577 -7263898.3245239258 0 0 0 0 -10398033.951913774 -10921257.942918334 0 -10921257.942918334 -818953.34815491363 0 0 0 0 -2357805.2777709961 -21876511.691581726 0 -21876511.691581726 -37381465.26448822 0 0 0 0 13819796.566650391 52789459.143356323 0 52789459.143356323 -5317030.3831176758 0 0 0 0 -41661.907040566206 -3102212.273585692 0 -3102212.273585692 -669040.80723603908 0 0 0 0 -4005383.2735595703 -12123076.293525696 0 -12123076.293525696 -25779645.006462097 0 0 0 0 -20155161.143615723 -26038106.432975769 0 -26038106.432975769 -12595471.958770752 0 0 0 0 -15128984.673164368 -15559492.518844604 0 -15559492.518844604 -6405069.3210754395 0 0 0 0 -16819929.227096558 -6471271.6418113708 0 -6471271.6418113708 24840168.417724609 0 0 0 0 -46613964.70123291 -37841183.157394409 0 -37841183.157394409 -8183841.0138530731 0 0 0 0 -15226801.989173457 -4891028.1511286721 0 -4891028.1511286721 7338288.3647753 0 0 0 0 70224057.01818049 15690804.764552653 0 15690804.764552653 9173461.4934921265 0 0 0 0 351594.33715128899 1037346.3120315224 0 1037346.3120315224 1105592.3451929092 0 0 0 0 38566186.320251465 -183109246.37983322 0 -183109246.37983322 598993012.80865669 0 0 0 0 73309905.272872925 218963665.25703812 0 218963665.25703812 324564014.79920578 0 0 0 0 -158346706.84951782 30983074.29498291 0 30983074.29498291 436754652.84609997 0 0 0 0 -136141263.07436371 254433925.48952007 0 254433925.48952007 638472950.51477814 0 0 0 0 -171811735.79443359 165748006.98941422 0 165748006.98941422 439378035.17052388 0 0 0 0 -62290158.121612549 84370215.396112442 0 84370215.396112442 383317125.48015594 0 0 0 0 68569926.382965088 213410212.15618896 0 213410212.15618896 439963017.85279083 0 0 0 0 -149922410.11517334 83353359.472011566 0 83353359.472011566 537123605.77392197 0 0 0 0 -386704.58030517399 -5667775.7188872211 0 -5667775.7188872211 -2050455.4750918427 0 0 0 0 1462074.2794189453 -2019895.2510681152 0 -2019895.2510681152 -3444222.1262359619 0 0 0 0 -77845676.041137695 -302102088.6922226 0 -302102088.6922226 -213021889.28603363 0 0 0 0 2182437.4910583496 -84552955.60502243 0 -84552955.60502243 139590446.88164139 0 0 0 0 -4254211.189865604 -5707218.3073031818 0 -5707218.3073031818 162936.01398351416 0 0 0 0 2595243.8212585449 -1880732.3015441895 0 -1880732.3015441895 -9899370.1786346436 0 0 0 0 9591264.5769195557 -58958226.686079979 0 -58958226.686079979 191280444.54006958 0 0 0 0 808305.43218356371 -3501657.6164509654 0 -3501657.6164509654 960419.76670748927 0 0 0 0 56906.905944824219 -16604582.622253418 0 -16604582.622253418 -2133292.107817173 0 0 0 0 111255.79336088896 -2659700.2187628299 0 -2659700.2187628299 -2673637.6087955856 0 0 0 0 4439104716.7407532 1591579033.9781418 0 1591579033.9781418 -2331376031.4099579 0 0 0 0 -1755952.2094573975 -1223705723.5934639 0 -1223705723.5934639 1155109194.0931473 0 0 0 0 -146345191.55175781 780231580.66613388 0 780231580.66613388 1321619903.5728292 0 0 0 0 2137178.3252454773 -3384284.1507419124 0 -3384284.1507419124 4065295.739846386 0 0 0 0 -1078725616.6853638 -395031772.79030991 0 -395031772.79030991 1581180246.6295395 0 0 0 0 523768502.81058121 -85050388.860768318 0 -85050388.860768318 -53782732.654624939 0 0 0 0 11491641.736984253 -51388763.421588898 0 -51388763.421588898 19318215.229549408 0 0 0 0 7221856.9199110866 -10308783.357044645 0 -10308783.357044645 10663575.428438656 0 0 0 0 13164396.83654213 -44613292.88274765 0 -44613292.88274765 -17133120.090042114 0 0 0 0 866175.46908569336 -36802714.70647049 0 -36802714.70647049 4029897.5559616089 0 0 0 0 10636834.774475098 -24406733.284858704 0 -24406733.284858704 10697212.377077103 0 0 0 0 7295575.4233856201 -28238963.942726135 0 -28238963.942726135 12248694.387588501 0 0 0 0 9862743.1458435059 -32615091.502961159 0 -32615091.502961159 -3370139.2223052979 0 0 0 0 24919285.687255859 -13995987.407222748 0 -13995987.407222748 34474372.900966644 0 0 0 0 6271474.9382629395 -31030385.908078194 0 -31030385.908078194 22976340.030883789 0 0 0 0 -229709.61540222168 -28504273.815750122 0 -28504273.815750122 36141748.589042664 0 0 0 0 -11180743.772594452 -43991655.662373543 0 -43991655.662373543 20177626.001815796 0 0 0 0 -3705417.098815918 -24529408.062667847 0 -24529408.062667847 18564243.146606445 0 0 0 0 -5032991.1812591553 -21440710.86706543 0 -21440710.86706543 22262586.341674805 0 0 0 0 6666128.4591369629 -48929112.885818481 0 -48929112.885818481 41144063.486915588 0 0 0 0 2164016.6280517578 -17006312.763023376 0 -17006312.763023376 9743635.7732696533 0 0 0 0 8490278.5156555176 -40920805.360687733 0 -40920805.360687733 -13258485.889579773 0 0 0 0 -13487360.07824707 -54570291.31735611 0 -54570291.31735611 -9234570.4248981476 0 0 0 0 -174005933.35737324 1490840.5467224121 0 1490840.5467224121 103153838.37570953 0 0 0 0 -153221479.84288025 -446668157.81388104 0 -446668157.81388104 -241962351.58123779 0 0 0 0 12943098.622433186 -17014025.891688243 0 -17014025.891688243 14846346.982565861 0 0 0 0 -11289798.286376953 -22765875.096561432 0 -22765875.096561432 -7538283.4107666016 0 0 0 0 -296819313.67092896 -312545064.86315918 0 -312545064.86315918 304665535.13608551 0 0 0 0 -360217157.6473732 -165588584.22619677 0 -165588584.22619677 814020767.270401 0 0 0 0 -57027593.243537903 204555168.4445467 0 204555168.4445467 882752837.60990906 0 0 0 0 281944509.89375305 -8203424.4602661133 0 -8203424.4602661133 -209821777.69865274 0 0 0 0 -113388888.03434753 115884022.37849712 0 115884022.37849712 612985286.58797455 0 0 0 0 -50311405.153701782 78998645.725093842 0 78998645.725093842 343643982.9645834 0 0 0 0 -108510834.74026489 143829008.99430466 0 143829008.99430466 746741884.22967148 0 0 0 0 -34999336.263763428 310048127.36597443 0 310048127.36597443 1063132562.5252056 0 0 0 0 -2072800.3575804755 -1599364.0919084027 0 -1599364.0919084027 2704275.2700144164 0 0 0 0 -22946943.270874023 232740499.50463867 0 232740499.50463867 593563740.06753159 0 0 0 0 1083540.9826316833 -92236563.642709017 0 -92236563.642709017 373619336.06358337 0 0 0 0 -4379243.3936080933 -89507173.589023352 0 -89507173.589023352 947311544.2583313 0 0 0 0 185112156.58345032 -104409786.78230953 0 -104409786.78230953 -21633970.778530121 0 0 0 0 204514623.93965149 -256238248.22214222 0 -256238248.22214222 438061157.29788589 0 0 0 0 -126639539.45611572 -126481471.67618942 0 -126481471.67618942 259278315.03888321 0 0 0 0 -14163513.002685547 -107968522.41157722 0 -107968522.41157722 382629577.27938843 0 0 0 0 8382037.3042449951 -116537341.67383385 0 -116537341.67383385 30752954.822696686 0 0 0 0 19250230.723038934 -23683734.716246668 0 -23683734.716246668 15795510.281220019 0 0 0 0 -108031971.56668091 -271171219.19518089 0 -271171219.19518089 -221563498.86657715 0 0 0 0 -35054287.465377808 12725645.391014099 0 12725645.391014099 -87442289.261333466 0 0 0 0 -27913275.772155762 -254390912.82189941 0 -254390912.82189941 -242892559.90347481 0 0 0 0 74890885.749809265 -38159682.85650444 0 -38159682.85650444 -124732678.27626801 0 0 0 0 -202027098.10333252 -164084867.3025589 0 -164084867.3025589 -151021678.88903809 0 0 0 0 96799352.020751953 -89211375.646324158 0 -89211375.646324158 -23870439.95643425 0 0 0 0 297753790.17541504 -106534784.78745651 0 -106534784.78745651 -210331619.11498642 0 0 0 0 61537398.630523682 -125977840.68719673 0 -125977840.68719673 -92383238.847290039 0 0 0 0 -264955111.93023682 -214786370.87002563 0 -214786370.87002563 -107454702.1543026 0 0 0 0 400847552.81196594 110653546.66134357 0 110653546.66134357 -122679615.89035797 0 0 0 0 162434986.51318359 48948817.387454987 0 48948817.387454987 -226447717.77717972 0 0 0 0 29840068.914878845 -102326591.21147919 0 -102326591.21147919 9135977.1607246399 0 0 0 0 -106910364.37488604 -196456849.49183291 0 -196456849.49183291 -402373217.39923096 0 0 0 0 334158.07463622838 -1486361.1833381988 0 -1486361.1833381988 2413030.9865450487 0 0 0 0 89592316.248718262 -86723353.08124733 0 -86723353.08124733 -38904403.200216293 0 0 0 0 37707029.668148041 -78832062.508405209 0 -78832062.508405209 10290128.264873505 0 0 0 0 50265749.208461761 -104372588.99303579 0 -104372588.99303579 -42250521.65039444 0 0 0 0 3294734.7197234668 -1803259.0776510462 0 -1803259.0776510462 -1525634.8263229486 0 0 0 0 -11132147.656829834 -157237897.62211418 0 -157237897.62211418 75484302.403644562 0 0 0 0 -215986975.44082642 -76269103.524147034 0 -76269103.524147034 70373730.611186981 0 0 0 0 186198951.63880157 83555.657551765442 0 83555.657551765442 967572.99741363525 0 0 0 0 -195907951.40984344 333450167.59355545 0 333450167.59355545 213464115.13887787 0 0 0 0 78007731.609024048 45202938.168346405 0 45202938.168346405 61568880.172086 0 0 0 0 398075981.96166992 238856698.15713882 0 238856698.15713882 166142685.77870941 0 0 0 0 -60396181.68019104 3860827.5906925201 0 3860827.5906925201 741510830.67538452 0 0 0 0 -36966435.113666534 -34470874.681687355 0 -34470874.681687355 -9283367.1879081726 0 0 0 0 2628403.3125801086 -204152603.77156305 0 -204152603.77156305 157364229.59373474 0 0 0 0 3733093.1557102203 -212714420.28229833 0 -212714420.28229833 170639182.15349579 0 0 0 0 -48037116.886947632 -73029506.771709442 0 -73029506.771709442 82018731.762316227 0 0 0 0 135455654.69856262 -166105842.88684082 0 -166105842.88684082 73407276.150622845 0 0 0 0 368001622.31965637 -218511420.81627464 0 -218511420.81627464 9552615.8232574463 0 0 0 0 213344109.11526489 -428749038.51974106 0 -428749038.51974106 379239150.45378494 0 0 0 0 53970893.638961792 -73517409.695671082 0 -73517409.695671082 51197282.290527344 0 0 0 0 258359952.45596313 -35821917.766433716 0 -35821917.766433716 -30885152.547950745 0 0 0 0 -76034947.726416826 -27218904.840754211 0 -27218904.840754211 39420268.607322693 0 0 0 0 -25055732.52331543 202427622.57212257 0 202427622.57212257 509188620.84164429 0 0 0 0 48034745.867080688 -127946199.22335434 0 -127946199.22335434 312914913.16791916 0 0 0 0 -5488366.7750907019 -4593037.226326298 0 -4593037.226326298 6616541.9933627322 0 0 0 0 -75846835.984291196 -6844629.0679269433 0 -6844629.0679269433 4118315.6566390991 0 0 0 0 -6205631.2891693115 -7147103.9536437988 0 -7147103.9536437988 2421006.3737182617 0 0 0 0 -6032134.1488037109 -5518925.3324661255 0 -5518925.3324661255 2185457.1923217773 0 0 0 0 -3413016.1325424165 -4770380.1305251345 0 -4770380.1305251345 -933507.93323142827 0 0 0 0 -25072564.467315674 -6665235.413520813 0 -6665235.413520813 2544777.9129247665 0 0 0 0 -2573530.1146053225 1051215.1686471775 0 1051215.1686471775 -295057.2366803959 0 0 0 0 -65394921.244796753 197728.35471534729 0 197728.35471534729 47051673.926280975 0 0 0 0 100551839.67617798 -9549169.0094566345 0 -9549169.0094566345 -30343699.607662201 0 0 0 0 -4665251.8318481445 -5713399.7213172913 0 -5713399.7213172913 1766031.9979095459 0 0 0 0 -13334961.374975234 -14192646.815052595 0 -14192646.815052595 -3246557.6697121393 0 0 0 0 -111135.83810424805 -11109771.289913177 0 -11109771.289913177 5204175.5769443512 0 0 0 0 9222152.5028991699 -85017871.429821014 0 -85017871.429821014 44486295.508865356 0 0 0 0 34939039.311340332 11753105.404508591 0 11753105.404508591 -35552142.289909363 0 0 0 0 5122197.1918687224 79475.977830912918 0 79475.977830912918 -3278828.2951120809 0 0 0 0 -15470447.12067055 -7240664.3187237829 0 -7240664.3187237829 -1750355.0120423101 0 0 0 0 -119492548.53143311 28370567.520133972 0 28370567.520133972 3070777.5655593872 0 0 0 0 -70632631.787033081 -43724683.412799835 0 -43724683.412799835 -23042156.958607674 0 0 0 0 -19827847.898910522 -51476291.41050148 0 -51476291.41050148 -36176788.858146667 0 0 0 0 -102429260.87367249 -48555634.737121582 0 -48555634.737121582 74283625.989494324 0 0 0 0 -42119511.151550293 -115383414.09529209 0 -115383414.09529209 204468754.33792877 0 0 0 0 -7224383.2241744995 -101608830.3465538 0 -101608830.3465538 42621343.954574585 0 0 0 0 11358502.887535095 -32321538.605127335 0 -32321538.605127335 -10455972.852581024 0 0 0 0 -21446919.08996582 -35975026.376014709 0 -35975026.376014709 111959624.39969826 0 0 0 0 -29958225.194725037 -152599806.73040199 0 -152599806.73040199 322069597.18903351 0 0 0 0 16068675.40222168 -103687919.23053741 0 -103687919.23053741 61952053.455715179 0 0 0 0 -36827134.604293823 -63610298.083026886 0 -63610298.083026886 77556407.404859543 0 0 0 0 -9384957.9677734375 -78299135.134914398 0 -78299135.134914398 98005811.204083443 0 0 0 0 -15096334.504821777 -88795370.67685318 0 -88795370.67685318 59305828.674236298 0 0 0 0 -56943714.997962952 -20908709.188508987 0 -20908709.188508987 121936513.65147591 0 0 0 0 -51182500.612819672 -24386987.841936111 0 -24386987.841936111 42725097.695144653 0 0 0 0 -23202152.245193481 -106464444.84178543 0 -106464444.84178543 223946116.57375717 0 0 0 0 -324923820.40444946 66071750.203954697 0 66071750.203954697 187653080.02628708 0 0 0 0 -185229806.19638062 7444446.8515920639 0 7444446.8515920639 483233713.19221115 0 0 0 0 -183098973.10031128 -42738223.746200562 0 -42738223.746200562 245139379.85868168 0 0 0 0 -78407670.570835114 -261230855.75829744 0 -261230855.75829744 58993853.415328979 0 0 0 0 -12505306.683227539 -149555536.49389839 0 -149555536.49389839 90026180.623448372 0 0 0 0 220270555.13152313 -327771548.26431847 0 -327771548.26431847 260768064.90773773 0 0 0 0 1656965.5357448086 941320.6531171836 0 941320.6531171836 -1394598.9823577143 0 0 0 0 42122748.122001648 -149683659.79711151 0 -149683659.79711151 189205379.28820038 0 0 0 0 2021173.4923400879 -204003344.1843605 0 -204003344.1843605 157409365.96166039 0 0 0 0 -96840035.030555725 -213879830.82512093 0 -213879830.82512093 282015128.26444244 0 0 0 0 -135287956.12408447 -92071547.720300674 0 -92071547.720300674 177580824.64219904 0 0 0 0 2765028.4957402162 1649501.4421916902 0 1649501.4421916902 -2140357.1562446095 0 0 0 0 -25320393.168478012 -146048300.48495007 0 -146048300.48495007 91963890.617343903 0 0 0 0 -50348463.65473175 -79184778.485824585 0 -79184778.485824585 125994661.2253952 0 0 0 0 40060121.393920898 -78916820.513495445 0 -78916820.513495445 125055951.86938 0 0 0 0 17095746.297195435 -118781148.85675955 0 -118781148.85675955 145752097.11238098 0 0 0 0 1735581.8671506196 1046134.319462318 0 1046134.319462318 -1366741.4440789223 0 0 0 0 119348592.13865662 -205716687.3398447 0 -205716687.3398447 304059409.5177803 0 0 0 0 64541377.86668396 65590490.620782852 0 65590490.620782852 256671736.55229712 0 0 0 0 56208975.877807617 -41487072.33965826 0 -41487072.33965826 27841487.905513763 0 0 0 0 45537044.762096405 -46501831.082826614 0 -46501831.082826614 112338377.76971817 0 0 0 0 98634907.791778564 -16214420.016584396 0 -16214420.016584396 5273746.3870601654 0 0 0 0 -6945992.443107605 -24736099.330182552 0 -24736099.330182552 23528638.038892746 0 0 0 0 28147858.9766922 -15050166.725187302 0 -15050166.725187302 84320328.257835388 0 0 0 0 5352118.6748821996 -6424750.6425050236 0 -6424750.6425050236 2084067.3085848317 0 0 0 0 -24393184.130851746 -15235502.850845337 0 -15235502.850845337 42261319.219406128 0 0 0 0 54238608.129760742 -133532833.99758244 0 -133532833.99758244 141361101.83858871 0 0 0 0 37074493.930114746 -103828123.70789337 0 -103828123.70789337 156730479.4601326 0 0 0 0 -71006886.785186768 -11829297.534923553 0 -11829297.534923553 22205996.283857346 0 0 0 0 4407266.7205828317 -2434056.6607116759 0 -2434056.6607116759 -1423777.8274006303 0 0 0 0 25056859.944549561 -122357350.39539528 0 -122357350.39539528 138707815.03262997 0 0 0 0 32980467.882141113 -110487357.00229836 0 -110487357.00229836 113046824.15348053 0 0 0 0 179334272.99011612 -226461435.37093067 0 -226461435.37093067 40321470.414409637 0 0 0 0 124610597.19923401 -115313644.03000069 0 -115313644.03000069 -87720893.323643684 0 0 0 0 -145330187.68703461 -222389467.15618515 0 -222389467.15618515 -18836260.785293579 0 0 0 0 -346794700.45167542 -43701908.646586418 0 -43701908.646586418 3095988.7834358215 0 0 0 0 1980433.8694320247 -494377.55244885944 0 -494377.55244885944 -1236497.3409270644 0 0 0 0 -21939293.486366272 -31605842.072704315 0 -31605842.072704315 2470421.6439856887 0 0 0 0 -84748801.929731369 -157991999.8218646 0 -157991999.8218646 -93267862.511951447 0 0 0 0 36782412.102275848 -105852082.2241621 0 -105852082.2241621 39700148.560995102 0 0 0 0 62330573.398300171 -32686934.751649857 0 -32686934.751649857 -4229294.2555570602 0 0 0 0 -179595936.36150599 20892833.521481633 0 20892833.521481633 21923350.457374573 0 0 0 0 -365789816.16824341 9339575.8337345123 0 9339575.8337345123 22773813.171896935 0 0 0 0 1097728.5588980988 -1272699.372379547 0 -1272699.372379547 -551749.57249668986 0 0 0 0 80489302.339791298 -108932740.72899199 0 -108932740.72899199 -254214305.98892593 0 0 0 0 -221146771.17462158 -329042982.17016029 0 -329042982.17016029 -179044829.28653049 0 0 0 0 63972.956703186035 -97473917.009620667 0 -97473917.009620667 177780160.69796562 0 0 0 0 -796267.34899375588 -1209468.5983116217 0 -1209468.5983116217 782982.72851010505 0 0 0 0 16164974.563406467 -168002889.09683466 0 -168002889.09683466 -80943316.074855804 0 0 0 0 19579152.81452179 -212671965.76134682 0 -212671965.76134682 -67791201.431507111 0 0 0 0 -18490165.192016602 -48831294.775232315 0 -48831294.775232315 251403212.41786385 0 0 0 0 -19756648.230993271 38229474.793152332 0 38229474.793152332 371849246.76996994 0 0 0 0 35587037.04019165 -52267043.163425922 0 -52267043.163425922 248959274.30251312 0 0 0 0 354554542.05562592 -415261413.21617317 0 -415261413.21617317 465688863.22442341 0 0 0 0 -37825356.287757874 35357865.441310883 0 35357865.441310883 501615903.94832993 0 0 0 0 129532194.20186615 84987207.015333176 0 84987207.015333176 131592519.75268173 0 0 0 0 -73241356.741443634 -383497824.38472462 0 -383497824.38472462 372019532.75251007 0 0 0 0 302304.19218234718 1090745.6394717488 0 1090745.6394717488 289566.94430964813 0 0 0 0 -159739923.9552002 155685431.39738083 0 155685431.39738083 153090991.05607986 0 0 0 0 -65472625.449508667 -38701916.211112976 0 -38701916.211112976 36740807.482297897 0 0 0 0 -65017262.275238037 -47872874.738616943 0 -47872874.738616943 60670296.065990448 0 0 0 0 -89602420.292617798 -41321309.699119568 0 -41321309.699119568 44683425.671516418 0 0 0 0 -107169301.61675453 -18945793.308730602 0 -18945793.308730602 31980487.890380859 0 0 0 0 -101410779.50285339 15535478.678226471 0 15535478.678226471 21380903.782333374 0 0 0 0 -6064236.6314475983 -776363.35598760284 0 -776363.35598760284 6905644.57023203 0 0 0 0 153175558.70547485 -314055307.07021141 0 -314055307.07021141 453224412.29776764 0 0 0 0 129235214.38479614 -210398474.90720749 0 -210398474.90720749 241126325.58784825 0 0 0 0 367735382.02719116 -238162703.98900795 0 -238162703.98900795 123161842.89466095 0 0 0 0 143422126.02503967 -104192209.55979156 0 -104192209.55979156 440262351.83763885 0 0 0 0 159869411.39837646 -100542613.97700119 0 -100542613.97700119 71799809.534202576 0 0 0 0 188351498.98749542 -222135953.96300125 0 -222135953.96300125 241488128.71420288 0 0 0 0 36671733.938278198 9525158.6524162292 0 9525158.6524162292 6446972.6406326294 0 0 0 0 41775300.576049805 8990623.896027565 0 8990623.896027565 -8296287.2869262695 0 0 0 0 19094903.885580063 2198063.5487518311 0 2198063.5487518311 10357547.256576538 0 0 0 0 42897843.815818787 4706048.6520652771 0 4706048.6520652771 -14048245.605400085 0 0 0 0 43117629.49395752 14521774.538665771 0 14521774.538665771 13610823.423858643 0 0 0 0 -1184754.4431089908 -1984442.5562505946 0 -1984442.5562505946 -79166.575797205791 0 0 0 0 40175188.17767334 20592687.56539917 0 20592687.56539917 24949160.389312744 0 0 0 0 40874958.650543213 4849105.5396842957 0 4849105.5396842957 -11735871.615447998 0 0 0 0 10804604.774497677 1677732.9041004665 0 1677732.9041004665 -7721984.58285271 0 0 0 0 84076742.260284424 -15140199.747329712 0 -15140199.747329712 45357163.272249222 0 0 0 0 401440830.10577393 -122102226.54022026 0 -122102226.54022026 -29509349.237922668 0 0 0 0 375808377.51396942 -419341962.9369278 0 -419341962.9369278 243146493.82423401 0 0 0 0 142927691.14073944 -304209430.01394844 0 -304209430.01394844 187877424.63092041 0 0 0 0 533961223.50786591 -187976099.5603199 0 -187976099.5603199 -1212803.5082855225 0 0 0 0 -2588831.3609639034 -1793042.0736917853 0 -1793042.0736917853 -165395.76251722872 0 0 0 0 -13357198.78061676 16133607.041576385 0 16133607.041576385 11539363.718162537 0 0 0 0 39190910.018737793 -32566637.094970703 0 -32566637.094970703 -27083315.617004395 0 0 0 0 -22816460.276637178 -23501747.032377567 0 -23501747.032377567 -13032241.058860037 0 0 0 0 -62140584.549415588 -32493781.533912659 0 -32493781.533912659 23370350.291500092 0 0 0 0 -63736595.03868103 -27627829.996589661 0 -27627829.996589661 30915286.167816162 0 0 0 0 -52294651.364624023 -42799678.340179443 0 -42799678.340179443 22542955.68980217 0 0 0 0 -66531752.920578003 -39912040.649917603 0 -39912040.649917603 21957332.384269714 0 0 0 0 -46977424.81375885 -40002226.409011841 0 -40002226.409011841 -15277336.449050903 0 0 0 0 36769637.881103516 23427465.945404053 0 23427465.945404053 -9946529.1181259155 0 0 0 0 -98132006.300537109 -81680304.060708046 0 -81680304.060708046 -40955750.874814034 0 0 0 0 -42523439.374471486 -22414326.160483964 0 -22414326.160483964 10818292.766008303 0 0 0 0 14757670.140570059 -13021838.288011707 0 -13021838.288011707 -31713725.719006434 0 0 0 0 32240320.111701965 10059492.473690033 0 10059492.473690033 -3994009.7715339661 0 0 0 0 47786076.768859863 883043.55456924438 0 883043.55456924438 -42572661.78918457 0 0 0 0 47168148.867675781 -2130255.0934448242 0 -2130255.0934448242 -39778041.257034302 0 0 0 0 -105564494.07971191 -115119308.54912567 0 -115119308.54912567 -99154421.219799042 0 0 0 0 13615412.175381728 -11541788.069339994 0 -11541788.069339994 -31281674.359148655 0 0 0 0 -1750779.0769195557 -43771254.683166027 0 -43771254.683166027 -105997641.31772137 0 0 0 0 -129881994.35180664 -130485644.44590187 0 -130485644.44590187 -79737887.902370453 0 0 0 0 -105618437.54711914 -117958304.86738586 0 -117958304.86738586 -133970449.61062622 0 0 0 0 45934158.767520905 3484692.0955581665 0 3484692.0955581665 -38375379.535675049 0 0 0 0 44800502.951469421 -7375925.7910785675 0 -7375925.7910785675 -46897417.612579346 0 0 0 0 42114011.913673401 -9417452.6597862244 0 -9417452.6597862244 -29536327.272872925 0 0 0 0 476577.48893475905 867171.83637599647 0 867171.83637599647 -122744.48344818503 0 0 0 0 46209401.034454346 7294227.5200576782 0 7294227.5200576782 -60358167.709625244 0 0 0 0 44130336.794769287 623755.93598175049 0 623755.93598175049 -40762607.499534607 0 0 0 0 45654157.186187744 3891828.5946578979 0 3891828.5946578979 -46292395.516677856 0 0 0 0 49898100.779983521 -11834063.060611725 0 -11834063.060611725 -52652336.41027832 0 0 0 0 44605013.221694946 -8492291.5266132355 0 -8492291.5266132355 -53071296.556091309 0 0 0 0 49505938.107879639 -14622321.949073792 0 -14622321.949073792 -72449973.915042877 0 0 0 0 40559759.33744812 623701.7412109375 0 623701.7412109375 -50503881.766902924 0 0 0 0 23758704.406272888 26453070.124229431 0 26453070.124229431 -81670967.143218994 0 0 0 0 35504406.616577148 19719374.978546143 0 19719374.978546143 -44971178.581837654 0 0 0 0 14150995.525894165 8069575.8825187683 0 8069575.8825187683 -14157521.732719421 0 0 0 0 4313080.0457806475 359864.573311124 0 359864.573311124 -3516298.2711583711 0 0 0 0 5529990.1794013977 28002107.232606888 0 28002107.232606888 -53827916.332771301 0 0 0 0 18569206.921743393 8647912.0987820625 0 8647912.0987820625 -68673665.488128662 0 0 0 0 -3002919.3337402344 46673329.99710083 0 46673329.99710083 -97543536.237007141 0 0 0 0 81526497.646896362 577539.97671890259 0 577539.97671890259 -269522931.7556839 0 0 0 0 92977890.925872803 -42259781.074447632 0 -42259781.074447632 -109318627.46434784 0 0 0 0 63845872.819038391 -57370919.573329926 0 -57370919.573329926 -75617477.436264038 0 0 0 0 66056892.417175293 -9933070.2521290779 0 -9933070.2521290779 -130151449.55871582 0 0 0 0 15648755.449996948 -154680661.25914383 0 -154680661.25914383 85879307.301437378 0 0 0 0 16044622.843510926 -98754655.560291588 0 -98754655.560291588 -39725909.505813599 0 0 0 0 181721856.28121185 -185133145.35642242 0 -185133145.35642242 -146622185.7253952 0 0 0 0 109291903.98625565 16023172.863739014 0 16023172.863739014 -211169888.59210968 0 0 0 0 112186742.89666748 -192706124.76587105 0 -192706124.76587105 231199062.54424286 0 0 0 0 721511.04774590582 -2270307.4447177947 0 -2270307.4447177947 -5789296.158712469 0 0 0 0 -55428331.263961792 -45917976.105270386 0 -45917976.105270386 47264953.306371689 0 0 0 0 2286614.8115736991 -5619501.3596740477 0 -5619501.3596740477 -4250921.0691381171 0 0 0 0 -11692077.793197632 -65210990.974403381 0 -65210990.974403381 1919837.2657241821 0 0 0 0 2500846.865020752 -47907450.021095276 0 -47907450.021095276 -44559920.669677734 0 0 0 0 187913111.04564667 -13152328.617634773 0 -13152328.617634773 -115629252.24584198 0 0 0 0 9027769.685531728 -27463485.263956185 0 -27463485.263956185 -7509798.1790222051 0 0 0 0 -368172651.55954838 -260477364.51746082 0 -260477364.51746082 -901053204.3655014 0 0 0 0 363952569.88395691 -144213221.3735702 0 -144213221.3735702 -26658761.601252556 0 0 0 0 5297649.5122123063 9573874.9237824529 0 9573874.9237824529 -39731452.769979537 0 0 0 0 -911905481.48796082 -701969940.53532028 0 -701969940.53532028 -424101026.36586761 0 0 0 0 -1763908383.1635132 -798850035.79502869 0 -798850035.79502869 -736243831.6486969 0 0 0 0 -506315326.03535461 -1114763171.1930466 0 -1114763171.1930466 -995784338.83091736 0 0 0 0 -38558154.091827393 -61593595.546494007 0 -61593595.546494007 -1833454.0632016659 0 0 0 0 -1243047.0861135423 -39100281.348637633 0 -39100281.348637633 -4446795.9357344545 0 0 0 0 -54806997.832394838 -84227793.144360274 0 -84227793.144360274 96115131.5311203 0 0 0 0 -54659063.660369873 -88552784.538338661 0 -88552784.538338661 116568022.48061562 0 0 0 0 3087391.1615600586 -37847953.24641037 0 -37847953.24641037 -61559719.556700706 0 0 0 0 -16334312.204195023 -47176599.29974556 0 -47176599.29974556 -43772034.719848633 0 0 0 0 2151538.788230896 -42213264.565692902 0 -42213264.565692902 -47488821.12613678 0 0 0 0 8434879.4441808052 -24263621.208467327 0 -24263621.208467327 -38227877.815029912 0 0 0 0 11431639.772483826 -37290185.572971344 0 -37290185.572971344 -45527375.454349518 0 0 0 0 42774787.08946228 -28467803.174785614 0 -28467803.174785614 -53029721.677211761 0 0 0 0 26718582.491439819 -64570001.732852936 0 -64570001.732852936 -37137724.048404694 0 0 0 0 22398626.658058167 -81048450.015880585 0 -81048450.015880585 -81453003.079498291 0 0 0 0 42228364.90284729 -42138211.711090088 0 -42138211.711090088 -83732060.906784058 0 0 0 0 42746518.924025536 -30748816.433766723 0 -30748816.433766723 -56947053.794845581 0 0 0 0 46701535.643432617 -23141264.432296753 0 -23141264.432296753 -65798822.966796875 0 0 0 0 63187685.115392685 -21421379.550143719 0 -21421379.550143719 -70318272.699737549 0 0 0 0 10101935.002761044 -16903379.916125514 0 -16903379.916125514 -38922900.081870735 0 0 0 0 39186018.023895264 -25954945.54882431 0 -25954945.54882431 -50189910.463851929 0 0 0 0 42844503.813552856 -22571512.925758362 0 -22571512.925758362 -45840268.171088219 0 0 0 0 44171865.151824951 -18905132.96333313 0 -18905132.96333313 -40229975.749511719 0 0 0 0 5003897.6324138641 -33081376.827404499 0 -33081376.827404499 -55980198.810585022 0 0 0 0 -5663461.5628122091 -8910443.2246296704 0 -8910443.2246296704 -7178575.8645294653 0 0 0 0 -58044734.706542969 -201773934.40219116 0 -201773934.40219116 -52788841.041049719 0 0 0 0 -107849077.55279541 -121227594.94336891 0 -121227594.94336891 -90617174.041955471 0 0 0 0 -8545066.4955444336 -181997631.98934937 0 -181997631.98934937 -148007766.39241123 0 0 0 0 233186932.29470825 -130000873.80716801 0 -130000873.80716801 -194000513.5958972 0 0 0 0 20046718.021598816 -301153190.29272819 0 -301153190.29272819 -94284586.164716721 0 0 0 0 89589028.760681152 -392263050.01365829 0 -392263050.01365829 -245223858.79367638 0 0 0 0 -46391751.558837891 -128770843.13337708 0 -128770843.13337708 49262653.164834976 0 0 0 0 -2122982.2156081796 -2697503.1686151102 0 -2697503.1686151102 -1650716.2536951001 0 0 0 0 134667082.3692627 -330961241.74746656 0 -330961241.74746656 46808071.520436704 0 0 0 0 99020599.017251968 -4299954.6137006879 0 -4299954.6137006879 -55442079.276008606 0 0 0 0 -43404554.631652832 -36454433.842018604 0 -36454433.842018604 -9655796.7808771133 0 0 0 0 153621078.81164551 -78617757.030489922 0 -78617757.030489922 -13399724.071816057 0 0 0 0 81509910.175439835 -17155788.867830545 0 -17155788.867830545 -58871578.151633263 0 0 0 0 432893850.76219177 19697564.345853925 0 19697564.345853925 -222467802.3892135 0 0 0 0 135088030.55177879 -186670644.44124469 0 -186670644.44124469 -254799774.93752289 0 0 0 0 -129022163.04812622 362439004.77409172 0 362439004.77409172 223956123.68608373 0 0 0 0 211001060.9360733 -835949447.54535842 0 -835949447.54535842 -177638544.30541706 0 0 0 0 231960116.0171051 -214444665.94885015 0 -214444665.94885015 94090632.665211439 0 0 0 0 -1647472.8344548196 -14968681.416634968 0 -14968681.416634968 -2290817.62456204 0 0 0 0 188584950.46069336 100846051.52269137 0 100846051.52269137 70378330.981514335 0 0 0 0 -449845658.39663696 -93335612.468740106 0 -93335612.468740106 -57757480.499743819 0 0 0 0 -155082365.614151 96652632.842902422 0 96652632.842902422 39456305.323153496 0 0 0 0 1261635.5151046813 -393892.57195259631 0 -393892.57195259631 -1284928.6272508448 0 0 0 0 -1934348461.496582 -562794746.90139508 0 -562794746.90139508 509032440.20598215 0 0 0 0 9902.8277180842124 1253067.5793338716 0 1253067.5793338716 -1757559.7876553198 0 0 0 0 384053097.65805054 -191045322.06846523 0 -191045322.06846523 -330465322.13077712 0 0 0 0 -584895839.65161133 -385743529.85858488 0 -385743529.85858488 -98966637.389513493 0 0 0 0 -674103462.61613464 36871160.856026649 0 36871160.856026649 -360592659.45750427 0 0 0 0 -25135164.953445435 7107417.3600819111 0 7107417.3600819111 96654901.393438339 0 0 0 0 26922047.364990234 -30529007.85197258 0 -30529007.85197258 -908537.60279273987 0 0 0 0 -16225915.205825806 -7004423.3722634315 0 -7004423.3722634315 33882128.271590233 0 0 0 0 -7081638.7609896511 -5600141.0946073718 0 -5600141.0946073718 7221621.6842163103 0 0 0 0 -17092433.700622559 -4981462.478644371 0 -4981462.478644371 29255233.348556042 0 0 0 0 742263.85923466366 -333936.8764250204 0 -333936.8764250204 -6048263.5702987723 0 0 0 0 -919261848.27017212 -179519558.0261445 0 -179519558.0261445 188135152.16365433 0 0 0 0 -764881.99749487638 -422874.506813474 0 -422874.506813474 368158.15452913661 0 0 0 0 -638304162.45605469 -119619611.08712006 0 -119619611.08712006 220684868.91657925 0 0 0 0 -704938200.72784424 -323589602.84475422 0 -323589602.84475422 -326523908.62967682 0 0 0 0 -261416706.38360596 -78189405.137369156 0 -78189405.137369156 -4828941.6930675507 0 0 0 0 60246540.714672089 49643782.431797564 0 49643782.431797564 -7905577.6758937836 0 0 0 0 -2723411.2632849673 -442020.4727370739 0 -442020.4727370739 2084494.1554395156 0 0 0 0 -656471308.70172119 147643950.56229401 0 147643950.56229401 115369056.16950607 0 0 0 0 -359164646.55395508 -429966755.1456604 0 -429966755.1456604 -135937953.18910503 0 0 0 0 -72254412.641845703 149962194.67772102 0 149962194.67772102 -41112244.210504532 0 0 0 0 -217289238.07250977 -244298703.93655396 0 -244298703.93655396 -60690227.799882889 0 0 0 0 -273055728.74291992 -77317339.890489578 0 -77317339.890489578 9238374.8894004822 0 0 0 0 -21506798.348846436 -15160704.422451019 0 -15160704.422451019 45597997.937850952 0 0 0 0 -16978820.743179321 -11353667.184480429 0 -11353667.184480429 29521157.601603508 0 0 0 0 -16269452.983642578 3355013.5389432907 0 3355013.5389432907 34283308.236768723 0 0 0 0 -30938261.636962891 -2985009.2056245804 0 -2985009.2056245804 47492843.455511093 0 0 0 0 -40805101.774505615 -13035019.207772255 0 -13035019.207772255 55875980.146817207 0 0 0 0 -65653230.060546875 -2032834.5944347382 0 -2032834.5944347382 55438395.488957405 0 0 0 0 -19652760.118530273 -34463812.814925194 0 -34463812.814925194 57601576.533454478 0 0 0 0 -71911503.018749237 116833584.93296766 0 116833584.93296766 81496941.935498238 0 0 0 0 -76263420.205749512 -92568738.969145298 0 -92568738.969145298 -17492995.852706909 0 0 0 0 -5966706.5226087719 -412536.60935632512 0 -412536.60935632512 10231094.546425689 0 0 0 0 -57765388.154022217 -21035771.780807495 0 -21035771.780807495 -13495728.213008881 0 0 0 0 -32894903.961109757 -26731258.449326485 0 -26731258.449326485 8706407.7078765891 0 0 0 0 -46555123.080703735 -17590241.986083984 0 -17590241.986083984 -12474523.525436401 0 0 0 0 207480141.26158142 273675010.2662797 0 273675010.2662797 24368396.439541817 0 0 0 0 -18399894.888397217 -44401511.568649292 0 -44401511.568649292 -69880509.912586212 0 0 0 0 -42859246.475112915 -29246047.745689392 0 -29246047.745689392 -42463603.877876282 0 0 0 0 153066824.29647827 135854633.38665295 0 135854633.38665295 106896927.24936295 0 0 0 0 -98802361.093811035 -96397367.154373646 0 -96397367.154373646 265278725.30312157 0 0 0 0 46372993.606265068 -134497022.38525745 0 -134497022.38525745 45699909.062519073 0 0 0 0 -850155.16834013537 102889.78985983133 0 102889.78985983133 656900.80447995989 0 0 0 0 -162927459.31018066 -85122225.507674217 0 -85122225.507674217 575794740.28638458 0 0 0 0 -119490106.79440308 -86781644.036465645 0 -86781644.036465645 61174059.034966946 0 0 0 0 -108790500.27545166 -44461680.941512108 0 -44461680.941512108 8421674.7418761849 0 0 0 0 -105917948.39276886 -82094021.297334909 0 -82094021.297334909 -6294902.7786722183 0 0 0 0 -75482267.035308838 -68559878.732449532 0 -68559878.732449532 -7508251.3243121728 0 0 0 0 -69014342.510803223 -192452698.51875019 0 -192452698.51875019 -6083393.5930156708 0 0 0 0 -187991339.87674904 -132007336.64914924 0 -132007336.64914924 -118062335.03571606 0 0 0 0 -121805241.20062256 -173914766.53880787 0 -173914766.53880787 -117092259.80179787 0 0 0 0 -149998806.35855103 -74669756.182995081 0 -74669756.182995081 -47159788.752304077 0 0 0 0 -80079780.812408447 -81740552.347548485 0 -81740552.347548485 -131512631.9504528 0 0 0 0 -105875292.730896 -62859088.281643867 0 -62859088.281643867 -2675273.7018890381 0 0 0 0 -104088119.87197876 -9290445.057656765 0 -9290445.057656765 25689030.661865234 0 0 0 0 -65727444.073287964 -51481928.098038197 0 -51481928.098038197 -58553563.324451447 0 0 0 0 -33182191.957629882 -21072910.629736584 0 -21072910.629736584 10134963.651690152 0 0 0 0 -29597649.608016968 -3994140.7307457924 0 -3994140.7307457924 6632363.0194664001 0 0 0 0 12666284.798034668 5683777.2446746826 0 5683777.2446746826 -79272937.859323502 0 0 0 0 -4394350.3689117432 -28976043.392848969 0 -28976043.392848969 -65918838.134353638 0 0 0 0 -62810578.886398315 -40544953.564779282 0 -40544953.564779282 -20994795.639358521 0 0 0 0 -36685667.705210969 -19687898.226254571 0 -19687898.226254571 10671376.45275571 0 0 0 0 -28528379.759475708 -62812005.718940735 0 -62812005.718940735 -40525449.71352005 0 0 0 0 -42527588.745330811 -65475113.687110901 0 -65475113.687110901 22271589.650047302 0 0 0 0 -41645634.105032444 -46810507.543619752 0 -46810507.543619752 17111288.360321045 0 0 0 0 6831720.397769928 -55715379.131385803 0 -55715379.131385803 3394831.008605957 0 0 0 0 -8259172.9488067627 -60696690.165878296 0 -60696690.165878296 -15828974.068309784 0 0 0 0 -30792360.869064331 -44003740.982089996 0 -44003740.982089996 2996399.9786758423 0 0 0 0 -21162179.799713135 -16395948.454406738 0 -16395948.454406738 -25718694.451857567 0 0 0 0 22335885.279308319 -63149235.347133636 0 -63149235.347133636 -38398601.786361694 0 0 0 0 -20198781.847518921 -22197931.111194611 0 -22197931.111194611 -45841111.848167419 0 0 0 0 -68392723.714859009 4552544.0449447632 0 4552544.0449447632 -24771842.092712402 0 0 0 0 -31689533.988937378 -1942135.4055938721 0 -1942135.4055938721 -53042242.792938232 0 0 0 0 -28958918.785308838 -27214643.015136719 0 -27214643.015136719 -43385291.486661911 0 0 0 0 -12884489.617195129 -20798492.253658295 0 -20798492.253658295 -44815203.318756104 0 0 0 0 7787497.0726013184 -34919893.821414948 0 -34919893.821414948 -42276888.699905396 0 0 0 0 -27602188.138183594 -78808647.607341766 0 -78808647.607341766 -91698050.376792908 0 0 0 0 -130293217.58068848 -55738520.449951172 0 -55738520.449951172 6704605.4285049438 0 0 0 0 11400134.756500244 -18691333.481067657 0 -18691333.481067657 -1878931.9616241455 0 0 0 0 -16263898.066802979 -90413799.850799561 0 -90413799.850799561 34518284.941423416 0 0 0 0 -13163990.279418945 -33600670.998413086 0 -33600670.998413086 -5427623.6197891235 0 0 0 0 -128833225.85179138 24382069.477828979 0 24382069.477828979 -19065732.560829163 0 0 0 0 -57707846.590576172 -19977985.354949951 0 -19977985.354949951 4949408.8690795898 0 0 0 0 -33111528.796169281 18913202.29853344 0 18913202.29853344 -137261666.88540649 0 0 0 0 -114782076.86633301 -88953498.760475159 0 -88953498.760475159 -49010725.611049652 0 0 0 0 -130983373.45649719 19656036.874816895 0 19656036.874816895 -38318032.937405586 0 0 0 0 7602716.0702346563 -5932526.7019562339 0 -5932526.7019562339 -7459848.1021440253 0 0 0 0 -131826637.32885742 22244144.728782654 0 22244144.728782654 -32532843.964351654 0 0 0 0 29306357.149902344 -40884264.752662659 0 -40884264.752662659 -97452497.786476135 0 0 0 0 40426270.845153809 -27645035.17150116 0 -27645035.17150116 -82672893.913833618 0 0 0 0 52680284.250396729 -35890197.854383469 0 -35890197.854383469 -68313406.482143402 0 0 0 0 -19972575.332417097 -21664877.910510752 0 -21664877.910510752 -12781753.676564943 0 0 0 0 -35469258.102294922 -54848734.402170181 0 -54848734.402170181 37366823.908535004 0 0 0 0 -38834033.359619141 -74715350.119861603 0 -74715350.119861603 55924838.298248291 0 0 0 0 -4701638.9850463867 -118445379.32048607 0 -118445379.32048607 -8728674.8239212036 0 0 0 0 8801751.6956350654 -3523034.3883266896 0 -3523034.3883266896 -6509487.1301117353 0 0 0 0 25759923.577560425 -13730220.837007523 0 -13730220.837007523 30546458.358306885 0 0 0 0 237520.775390625 -96988870.63092041 0 -96988870.63092041 48006641.254774094 0 0 0 0 -2731161.6048752964 -1932853.7835977152 0 -1932853.7835977152 374104.78200837225 0 0 0 0 39176710.057434082 -5683673.2560119629 0 -5683673.2560119629 127517220.30415535 0 0 0 0 -45033725.591335297 -76051107.645289421 0 -76051107.645289421 189985580.47663879 0 0 0 0 -1742893.8471090794 1320573.7554713264 0 1320573.7554713264 1438004.5889999 0 0 0 0 -48508594.465576172 -100297300.64468765 0 -100297300.64468765 188722524.70586395 0 0 0 0 -35753768.572563171 -62433828.683170319 0 -62433828.683170319 128377638.83414841 0 0 0 0 85770264.748046875 -69680792.309427261 0 -69680792.309427261 56125811.76331687 0 0 0 0 -17776309.43347168 87524079.239833832 0 87524079.239833832 16318842.27148056 0 0 0 0 -39388811.298492432 -2789093.0623588562 0 -2789093.0623588562 147603692.91022491 0 0 0 0 23762693.815917969 -40971339.079463959 0 -40971339.079463959 -137290117.79662704 0 0 0 0 61311754.821533203 -17609317.569353104 0 -17609317.569353104 -142869041.84929657 0 0 0 0 4607447.7799835205 -113482645.79066944 0 -113482645.79066944 -171843985.32323456 0 0 0 0 -228632098.59039307 -134757132.7320137 0 -134757132.7320137 -165630902.30990982 0 0 0 0 -133021871.84240723 -63016653.458648682 0 -63016653.458648682 -118560333.03964615 0 0 0 0 -34509161.342712402 -158397298.30631638 0 -158397298.30631638 -234057667.282547 0 0 0 0 40560767.654720306 -38693618.199111938 0 -38693618.199111938 -382599771.22581482 0 0 0 0 -109151612.10870361 -239115726.07458878 0 -239115726.07458878 -406443606.84103394 0 0 0 0 -78483350.912780762 -162885162.52260399 0 -162885162.52260399 -232845243.46878052 0 0 0 0 41811960.636051178 -85843221.168444037 0 -85843221.168444037 -541534270.86434937 0 0 0 0 -538.07504686713219 -495011.54787257314 0 -495011.54787257314 636391.97772314958 0 0 0 0 -198447808.54199219 -241158166.34653473 0 -241158166.34653473 -272810600.19906425 0 0 0 0 -316019706.83148193 -172338938.92274475 0 -172338938.92274475 -64272265.22252655 0 0 0 0 -770956.54732821882 -1023187.9102332182 0 -1023187.9102332182 1288814.885932127 0 0 0 0 -64049943.993041992 678018.03749847412 0 678018.03749847412 -315841343.35502625 0 0 0 0 -65835867.272506714 -19009498.196445465 0 -19009498.196445465 -127253337.3522644 0 0 0 0 -92400961.887695312 -102709797.96949387 0 -102709797.96949387 -98456868.261192322 0 0 0 0 20274813.983520508 -94142252.698623657 0 -94142252.698623657 -242728606.18341064 0 0 0 0 -4868298.0679779053 -72390976.346560478 0 -72390976.346560478 -168109154.16926575 0 0 0 0 -6357375.6684875488 -143274782.52127457 0 -143274782.52127457 -166682611.86323929 0 0 0 0 -1993741.7805175781 -11556921.018192768 0 -11556921.018192768 19534690.863563538 0 0 0 0 9163348.6989290267 -14442811.190562613 0 -14442811.190562613 -3082778.0993875642 0 0 0 0 7829074.5858154297 -124979975.41116142 0 -124979975.41116142 -197103729.79749298 0 0 0 0 51995061.518188477 -170481433.98322678 0 -170481433.98322678 -192230151.72546768 0 0 0 0 -23828005.540893555 -130660974.95195007 0 -130660974.95195007 -174871882.31212997 0 0 0 0 -4119782.0752868652 -19492926.871660709 0 -19492926.871660709 20048125.378566742 0 0 0 0 -35464537.566684723 29476733.617527962 0 29476733.617527962 -38855288.838867188 0 0 0 0 9662750.6141118109 -24059204.372166019 0 -24059204.372166019 -2242723.5101278415 0 0 0 0 -6142537.6902770996 -17324434.818082809 0 -17324434.818082809 22420698.235610485 0 0 0 0 28257660.240394592 -135766579.27957153 0 -135766579.27957153 -16248737.726898193 0 0 0 0 -30572616.743286133 -104722075.02002144 0 -104722075.02002144 140161298.26652527 0 0 0 0 -27195617.776960656 -27915946.957241964 0 -27915946.957241964 -3439165.2204585858 0 0 0 0 -39120805.547065735 -69502925.358353138 0 -69502925.358353138 124843996.24454498 0 0 0 0 -35879880.507949829 -53471764.186386108 0 -53471764.186386108 21706656.961572647 0 0 0 0 -79185946.305267334 -18671605.396629333 0 -18671605.396629333 13969229.596237183 0 0 0 0 -35782039.130805671 -31689807.955651633 0 -31689807.955651633 3896902.1933442205 0 0 0 0 -4757536.2146606445 -20201629.859421015 0 -20201629.859421015 23423401.281831264 0 0 0 0 -5610488.176864624 -28845070.101746321 0 -28845070.101746321 40138770.215402603 0 0 0 0 -6274727.2929077148 -19023831.953980446 0 -19023831.953980446 27738863.13254261 0 0 0 0 -11761689.753845215 -11002526.132677317 0 -11002526.132677317 30725917.928312719 0 0 0 0 -6686889.303817749 -7409227.8940823674 0 -7409227.8940823674 13797868.789385796 0 0 0 0 -855672.88168334961 -13203107.406787157 0 -13203107.406787157 20352040.784836769 0 0 0 0 -3345264.9858703613 -12350126.583885193 0 -12350126.583885193 20676654.18526268 0 0 0 0 -10120667.515091226 -6628318.481632784 0 -6628318.481632784 8759125.9781889394 0 0 0 0 -12257685.982480764 -3881873.9023717511 0 -3881873.9023717511 14777776.637849331 0 0 0 0 -11377763.488555908 -5856815.8826107979 0 -5856815.8826107979 15502258.191839218 0 0 0 0 -12108790.78527832 -10715686.070063084 0 -10715686.070063084 11182367.076666653 0 0 0 0 -12334929.391204193 -5785379.2210711651 0 -5785379.2210711651 10345092.187973432 0 0 0 0 -22288244.603286743 4644418.3978238106 0 4644418.3978238106 20256750.128451109 0 0 0 0 -907735.06371147931 -777035.22396339476 0 -777035.22396339476 2775454.1810219977 0 0 0 0 1169307.3857062757 -7271329.1205863357 0 -7271329.1205863357 4600742.9052941184 0 0 0 0 -24835922.983261108 -30097594.837648869 0 -30097594.837648869 8269942.2718486786 0 0 0 0 39440208.22833252 -146743983.63414717 0 -146743983.63414717 745961452.95143533 0 0 0 0 -546329302.46327972 701926285.771451 0 701926285.771451 1592257399.696228 0 0 0 0 88468596.010837555 -1429716444.1716893 0 -1429716444.1716893 1022798734.7623868 0 0 0 0 1040637090.6239014 21046282.99765157 0 21046282.99765157 690051516.84313452 0 0 0 0 1316291.6048978865 -1254194.0976345539 0 -1254194.0976345539 490592.29033331887 0 0 0 0 225758046.5866394 6025113.8715567589 0 6025113.8715567589 -88292179.44407177 0 0 0 0 65684769.795135498 1127407301.4532394 0 1127407301.4532394 1574607720.5915258 0 0 0 0 -32950581.747283936 -9489226.7418341637 0 -9489226.7418341637 94774211.821112633 0 0 0 0 380769530.05240631 -221438728.37589431 0 -221438728.37589431 62726169.664224625 0 0 0 0 57377214.178161621 -48052618.902477384 0 -48052618.902477384 65129549.287511826 0 0 0 0 50683599.338348389 -71711428.270284653 0 -71711428.270284653 31970552.23402977 0 0 0 0 72775655.187202454 -30718910.791389227 0 -30718910.791389227 16569941.655721664 0 0 0 0 -3495995.4814453125 14698271.169818878 0 14698271.169818878 2438135.5510597229 0 0 0 0 -3272894.9967346191 -10870962.221296787 0 -10870962.221296787 20077970.683621407 0 0 0 0 -27926860.72277832 9551867.6802387238 0 9551867.6802387238 2959276.414150238 0 0 0 0 -8550426.2002829462 -1871963.138523519 0 -1871963.138523519 12955967.330029942 0 0 0 0 50010285.676208496 -79795200.224639893 0 -79795200.224639893 -34157567.220129013 0 0 0 0 6001834.8456115723 -96715876.381880283 0 -96715876.381880283 20783017.730594635 0 0 0 0 34091924.401092529 -22449922.152406216 0 -22449922.152406216 -228886.88052368164 0 0 0 0 -94633525.597290039 -37993954.247028351 0 -37993954.247028351 151766.53167057037 0 0 0 0 -26152023.96389389 23792415.181934595 0 23792415.181934595 -3749032.5357589722 0 0 0 0 -38538642.767211914 -122415178.74639893 0 -122415178.74639893 -101107384.06819916 0 0 0 0 -34555058.672210693 -104354713.76095676 0 -104354713.76095676 -40281867.458053589 0 0 0 0 54767980.199890137 -96037027.512813568 0 -96037027.512813568 -138442270.6500473 0 0 0 0 51657631.748535156 -100597177.4602356 0 -100597177.4602356 -52676617.677074432 0 0 0 0 78894151.965087891 -103607003.28546715 0 -103607003.28546715 -63282082.761922836 0 0 0 0 31438742.027648926 -114660658.53548622 0 -114660658.53548622 6414072.6587104797 0 0 0 0 69193211.126922607 -102603925.50285149 0 -102603925.50285149 -16130196.535766602 0 0 0 0 70297393.908317566 -127781254.72508788 0 -127781254.72508788 31331980.717702866 0 0 0 0 72235906.62361145 -196008789.05849457 0 -196008789.05849457 108363880.93290901 0 0 0 0 101244797.60592651 -154370086.40634346 0 -154370086.40634346 31358840.058947563 0 0 0 0 134382865.85375977 -214877532.05956125 0 -214877532.05956125 107689111.01413369 0 0 0 0 120461096.41903687 -128739098.33377266 0 -128739098.33377266 -2963728.1755657196 0 0 0 0 79438875.325042725 -158257934.82398891 0 -158257934.82398891 85264979.827436447 0 0 0 0 175892641.69644165 -107023765.98826122 0 -107023765.98826122 37877427.237083077 0 0 0 0 107784297.36709595 -172365937.42034388 0 -172365937.42034388 162179859.21378422 0 0 0 0 213477116.23945618 -387049866.6700815 0 -387049866.6700815 388495147.18159151 0 0 0 0 77978776.835651398 -256174223.6108138 0 -256174223.6108138 251511683.37519264 0 0 0 0 48346040.520874023 -130656545.10665369 0 -130656545.10665369 266943124.34587502 0 0 0 0 -8900330.6527709961 -122865965.12685752 0 -122865965.12685752 323570935.08083439 0 0 0 0 70414990.621353149 -16150249.479326487 0 -16150249.479326487 858710013.00699186 0 0 0 0 -31907628.081420898 -146966209.30729067 0 -146966209.30729067 300397996.65241742 0 0 0 0 -32892948.493591309 -116064281.034145 0 -116064281.034145 216025777.28896594 0 0 0 0 -10497.698181152344 -122173616.53525555 0 -122173616.53525555 132930827.52589965 0 0 0 0 12741522.061355591 -182850495.61063957 0 -182850495.61063957 223940332.312343 0 0 0 0 -507.15219116210938 -139673191.86848021 0 -139673191.86848021 142048012.33401299 0 0 0 0 14132193.754547119 -164751240.16136265 0 -164751240.16136265 156456404.0802536 0 0 0 0 38693721.15707016 -126641061.22251606 0 -126641061.22251606 57678686.965892792 0 0 0 0 49429060.008117676 -142732255.97368431 0 -142732255.97368431 81733658.192074776 0 0 0 0 24416803.817581177 -153555544.62382603 0 -153555544.62382603 133537979.03761339 0 0 0 0 36477.163095698357 -124611500.21263531 0 -124611500.21263531 100384224.45679092 0 0 0 0 -4611246.2602844238 -90665939.874891281 0 -90665939.874891281 157169911.53379965 0 0 0 0 -671660.15182495117 -78009753.214643478 0 -78009753.214643478 -69255391.340295792 0 0 0 0 1444724.9252779633 3525199.6893480867 0 3525199.6893480867 -1367903.9003919279 0 0 0 0 -26555832.217559814 -36837027.296831131 0 -36837027.296831131 29793379.268117905 0 0 0 0 9692694.1452026367 -87129365.310230255 0 -87129365.310230255 74333038.104131699 0 0 0 0 49503723.12890625 -52893275.185209274 0 -52893275.185209274 -23611741.316474915 0 0 0 0 61412316.730773926 -72252769.108779907 0 -72252769.108779907 -7733409.1320524216 0 0 0 0 69288644.484222412 -43908790.424951553 0 -43908790.424951553 -22589858.198787689 0 0 0 0 45751669.011703491 -52380739.708028793 0 -52380739.708028793 -14496187.666023254 0 0 0 0 46368688.170471191 -49348361.434337616 0 -49348361.434337616 -14354963.089428186 0 0 0 0 66016135.630828857 -60264398.758777618 0 -60264398.758777618 -134885489.53891754 0 0 0 0 26552563.767929077 -64609382.539488792 0 -64609382.539488792 -106697063.35424042 0 0 0 0 71049933.329223633 -46487294.860874176 0 -46487294.860874176 -97669525.483200073 0 0 0 0 74853569.504150391 -63615221.17718792 0 -63615221.17718792 -40767556.212257385 0 0 0 0 65440448.043579102 -31779193.453861237 0 -31779193.453861237 -60820178.648126602 0 0 0 0 39861409.085464478 -37112302.828630447 0 -37112302.828630447 2029560.2034759521 0 0 0 0 30544924.794898987 10391130.097358465 0 10391130.097358465 -65925526.829040527 0 0 0 0 34417829.206665039 -22801917.093811035 0 -22801917.093811035 -27591975.680488586 0 0 0 0 2157093.2705078125 -107401641.75938034 0 -107401641.75938034 111917331.35168076 0 0 0 0 -2936515.1233301312 2228672.59754581 0 2228672.59754581 2443150.7333345655 0 0 0 0 -20584536.647460938 -60907108.411514282 0 -60907108.411514282 140866521.5339241 0 0 0 0 14603195.307189941 -8596867.9540500641 0 -8596867.9540500641 22642872.483695984 0 0 0 0 6827961.3629150391 7653664.11784935 0 7653664.11784935 -8243691.3384552002 0 0 0 0 41860890.419250488 -69761099.225006104 0 -69761099.225006104 75831932.493541718 0 0 0 0 37366303.611175537 -55211478.40164566 0 -55211478.40164566 47890472.325531006 0 0 0 0 44400845.551513672 -62245286.410629272 0 -62245286.410629272 80558979.564167023 0 0 0 0 24647303.989318848 -84343126.495635986 0 -84343126.495635986 96842985.194816589 0 0 0 0 60608596.901611328 -28385704.215202332 0 -28385704.215202332 139000127.29084015 0 0 0 0 36571493.433013916 -21414340.868787766 0 -21414340.868787766 -51271033.96194458 0 0 0 0 815012.82970015705 1916033.6706824731 0 1916033.6706824731 -744540.64792107791 0 0 0 0 -1402644.1448974609 -86543939.183326721 0 -86543939.183326721 166138981.64565277 0 0 0 0 57516897.360473633 -60520932.762676239 0 -60520932.762676239 -67926331.653116226 0 0 0 0 52329257.125015259 -44715024.951826096 0 -44715024.951826096 -23067718.325920105 0 0 0 0 49434802.540527344 -38038086.63419342 0 -38038086.63419342 -21619725.661880493 0 0 0 0 88236491.777160645 -61170687.615600586 0 -61170687.615600586 173111397.48378754 0 0 0 0 44563087.68536377 -86797171.977844238 0 -86797171.977844238 12307912.570049286 0 0 0 0 822348.01480102539 -79378506.524143219 0 -79378506.524143219 175275088.69886112 0 0 0 0 -1657602.1998358369 1377001.5707356408 0 1377001.5707356408 1465247.2464667046 0 0 0 0 60441915.759536743 -47688462.516130447 0 -47688462.516130447 -177879059.01229477 0 0 0 0 42569046.109069824 -99695112.094558716 0 -99695112.094558716 -81836596.535303116 0 0 0 0 -5528808.3255615234 -72548738.125114441 0 -72548738.125114441 100576879.77950287 0 0 0 0 42345565.276321411 -35164168.52986908 0 -35164168.52986908 -78668937.545547485 0 0 0 0 42107071.353546143 -48933969.466978073 0 -48933969.466978073 20677288.584060669 0 0 0 0 44673807.029663086 -56507867.21931076 0 -56507867.21931076 -101279929.69748116 0 0 0 0 43663085.826324463 -75827770.397014618 0 -75827770.397014618 -10499840.425666809 0 0 0 0 14681064.114990234 -138458117.00869942 0 -138458117.00869942 -126578836.30345154 0 0 0 0 24360681.858840942 -81977441.265794754 0 -81977441.265794754 -33277355.018661499 0 0 0 0 41405065.158355713 -101352395.29050064 0 -101352395.29050064 -75304507.540184736 0 0 0 0 28772558.092010498 -114873368.97006989 0 -114873368.97006989 -20112095.0740242 0 0 0 0 21447470.341110229 -79827061.525997162 0 -79827061.525997162 -20385958.452625275 0 0 0 0 -62004665.737365723 -79987930.845821381 0 -79987930.845821381 -19561657.48851347 0 0 0 0 20955.239229307888 -81671690.739263579 0 -81671690.739263579 -4177096.4823226929 0 0 0 0 -970617.80877685547 -58302152.385383606 0 -58302152.385383606 -23594074.736200333 0 0 0 0 -19539.535439738462 -81041311.769099161 0 -81041311.769099161 -61944072.56036377 0 0 0 0 -20103580.727722168 -89112886.834630966 0 -89112886.834630966 177810841.74948502 0 0 0 0 -18190834.372406006 -85306601.526159286 0 -85306601.526159286 -59792289.494949341 0 0 0 0 3258658.6215629578 -69023755.566946983 0 -69023755.566946983 -76687323.267349243 0 0 0 0 -826811713.66377306 -560490423.98915052 0 -560490423.98915052 192038936.29272461 0 0 0 0 -525931929.5272913 -218598792.65832901 0 -218598792.65832901 112530849.69930267 0 0 0 0 -2341258.2729458092 1089933.8690368393 0 1089933.8690368393 3470125.6718293168 0 0 0 0 -638907952.81912756 56710640.928453445 0 56710640.928453445 821923146.6185379 0 0 0 0 157031019.09431458 -574979174.59280396 0 -574979174.59280396 37912094.326808929 0 0 0 0 105650527.25844693 -183164499.72130871 0 -183164499.72130871 -604882047.53761292 0 0 0 0 75541108.177151859 -124745899.52763462 0 -124745899.52763462 -340656733.10662842 0 0 0 0 -114771608.264709 -522004763.99880219 0 -522004763.99880219 -420875266.75461769 0 0 0 0 -32407155.416647911 -363283296.77319336 0 -363283296.77319336 -316248301.95848465 0 0 0 0 -478253519.63570023 -275359980.12268257 0 -275359980.12268257 78257165.486667633 0 0 0 0 -493275983.4909935 -334958001.57263947 0 -334958001.57263947 239543902.53961182 0 0 0 0 -17901071.600517273 -364382750.26175117 0 -364382750.26175117 88392551.713342667 0 0 0 0 -200612604.02872849 -23294956.885372162 0 -23294956.885372162 12322503.462726593 0 0 0 0 -822345.65476307273 59923804.58285743 0 59923804.58285743 31748341.703838348 0 0 0 0 -442701777.82915497 -62513220.64289093 0 -62513220.64289093 -68459400.158430099 0 0 0 0 -162351913.24795151 12115644.456119537 0 12115644.456119537 -54675836.355232239 0 0 0 0 -295542733.05302429 -267496639.42750549 0 -267496639.42750549 61624135.28030014 0 0 0 0 -492600460.2116518 -128847730.65237427 0 -128847730.65237427 -28725027.569763184 0 0 0 0 -476265228.13482499 -241082374.03725767 0 -241082374.03725767 -121185406.73567963 0 0 0 0 -421648547.8889122 -60502823.402393341 0 -60502823.402393341 -81171525.080915451 0 0 0 0 -2656425.5664751576 1504743.2854609191 0 1504743.2854609191 3214501.0521081798 0 0 0 0 -404235319.95206964 82115588.259278893 0 82115588.259278893 -92750607.470329285 0 0 0 0 -424195390.75821245 -93780191.920940638 0 -93780191.920940638 -157083723.09841919 0 0 0 0 -561501321.81264448 195985685.62220192 0 195985685.62220192 -295791072.32164001 0 0 0 0 -618217033.67928386 -110242339.63008976 0 -110242339.63008976 -142960317.85773468 0 0 0 0 -584895175.52419567 -153367069.62727737 0 -153367069.62727737 -51767279.542255402 0 0 0 0 -580841437.29626322 -41490768.734594345 0 -41490768.734594345 -737707807.21253967 0 0 0 0 -531443623.02565479 64055452.964383125 0 64055452.964383125 -72410125.906066895 0 0 0 0 -624259618.20669746 -49116812.804626465 0 -49116812.804626465 -136533240.06259346 0 0 0 0 -348562848.12629008 -232243766.50084114 0 -232243766.50084114 -65009814.888687134 0 0 0 0 3136497.4891640441 -287072738.69866562 0 -287072738.69866562 -83109101.074897766 0 0 0 0 -305017625.94528675 -138358970.35534668 0 -138358970.35534668 136367279.70717621 0 0 0 0 -263148919.82481432 -102017890.65943146 0 -102017890.65943146 -259447733.08782196 0 0 0 0 -326486202.58902156 -244766026.77194595 0 -244766026.77194595 -79299472.152503967 0 0 0 0 -853420383.40813541 -246067342.29395676 0 -246067342.29395676 -290855291.95777893 0 0 0 0 -127507026.92662311 -463695925.02376175 0 -463695925.02376175 -1134204476.7478333 0 0 0 0 11936431.335650623 -137100608.71250343 0 -137100608.71250343 -426079184.84042358 0 0 0 0 165198561.01166308 -49944953.048542023 0 -49944953.048542023 -355154600.98529053 0 0 0 0 165199170.76350439 -46677535.367248535 0 -46677535.367248535 -711636481.49731445 0 0 0 0 99337213.121240675 -260437115.7463913 0 -260437115.7463913 -526918696.40434647 0 0 0 0 199720651.88966942 -180012626.75837708 0 -180012626.75837708 -402701135.39804268 0 0 0 0 164288713.21171284 -64203074.089683533 0 -64203074.089683533 -385355983.83292866 0 0 0 0 104407198.92430878 -103049783.80405235 0 -103049783.80405235 -302617773.59841156 0 0 0 0 153877077.24030304 -124467091.2199173 0 -124467091.2199173 -330607353.37361145 0 0 0 0 168105107.93534732 -88467017.095600128 0 -88467017.095600128 -342707087.05561829 0 0 0 0 144449511.95528507 -204402241.37947083 0 -204402241.37947083 -104505679.94129944 0 0 0 0 134330024.98140049 -305624081.59973145 0 -305624081.59973145 136100465.03877258 0 0 0 0 265961903.38569832 -215739573.93323517 0 -215739573.93323517 -109311806.46956158 0 0 0 0 -69532496.252720833 -167950540.51375103 0 -167950540.51375103 600808295.68808746 0 0 0 0 227592390.05594206 -71999505.557014465 0 -71999505.557014465 -1190163.8933506012 0 0 0 0 92797871.915096879 -254222612.81470966 0 -254222612.81470966 -99689800.468955994 0 0 0 0 28559957.398832321 -232744330.83157349 0 -232744330.83157349 -361425303.88196182 0 0 0 0 -25773366.688331604 -141400634.18036652 0 -141400634.18036652 -282673690.69548035 0 0 0 0 -102876204.98273849 -208214385.4787674 0 -208214385.4787674 -55562293.010292053 0 0 0 0 -93421360.150389194 -127785307.46830583 0 -127785307.46830583 -167716551.05537415 0 0 0 0 -32497201.97990036 -261263992.14844513 0 -261263992.14844513 -233017878.9552536 0 0 0 0 -40131097.018770218 -226604871.68864822 0 -226604871.68864822 -152522033.76165009 0 0 0 0 -32298611.202785492 -276459683.86084747 0 -276459683.86084747 -175027432.37797451 0 0 0 0 -1206520.3202533722 -293107457.61851501 0 -293107457.61851501 -268346714.23236847 0 0 0 0 90737150.754753113 -142377293.29845047 0 -142377293.29845047 -123542983.96250534 0 0 0 0 38822411.986351013 -169868677.99268341 0 -169868677.99268341 -14973305.926635742 0 0 0 0 218030232.99742126 -145863737.04818726 0 -145863737.04818726 77041124.0234375 0 0 0 0 99584334.058189392 -23873797.501976013 0 -23873797.501976013 -41364594.096254349 0 0 0 0 101016200.43624878 -96774244.160751343 0 -96774244.160751343 -195085667.53671265 0 0 0 0 22826442.179676056 -241529572.32472229 0 -241529572.32472229 -169356833.21976852 0 0 0 0 57405045.170194149 -273288786.45219612 0 -273288786.45219612 -140948119.83764648 0 0 0 0 -37937640.160573959 -425912845.80220032 0 -425912845.80220032 -302050856.06227112 0 0 0 0 1193982.6351117548 -7589667.1382604102 0 -7589667.1382604102 -2470555.4297911339 0 0 0 0 73241745.202503204 -116933139.42906189 0 -116933139.42906189 -515904669.05200005 0 0 0 0 38711794.956588745 -319880544.6474762 0 -319880544.6474762 -466946782.54297638 0 0 0 0 -42063841.593185425 -317129564.60784912 0 -317129564.60784912 -209283277.43460083 0 0 0 0 -1376025.7005157471 -248645111.84133911 0 -248645111.84133911 -200768748.3285675 0 0 0 0 17895739.207151413 -243301366.69950676 0 -243301366.69950676 -234107642.43341064 0 0 0 0 -73644529.455917358 6749705.3219909668 0 6749705.3219909668 -95136152.740905762 0 0 0 0 54668401.685691833 -55169076.523483276 0 -55169076.523483276 -230441963.65071106 0 0 0 0 -83464141.235168457 -339099849.54171753 0 -339099849.54171753 -68792547.619342804 0 0 0 0 269985617.22087097 -387933597.92214775 0 -387933597.92214775 185080247.35028076 0 0 0 0 164253796.47945786 -352565898.57902908 0 -352565898.57902908 207693865.12797546 0 0 0 0 21454105.755240679 -19120991.510042191 0 -19120991.510042191 -35257325.627132416 0 0 0 0 -13225068.15218842 -27941249.178451538 0 -27941249.178451538 -16895426.505210876 0 0 0 0 -10163931.910066605 -163945859.22024536 0 -163945859.22024536 366683063.29965591 0 0 0 0 893478.59089058219 -2888734.9292402621 0 -2888734.9292402621 -2921078.2759354375 0 0 0 0 -396639459.35952759 -94718307.931762695 0 -94718307.931762695 466754446.43725586 0 0 0 0 34530.330352192046 -93034.28666345682 0 -93034.28666345682 50296.095061868429 0 0 0 0 82191947.577377319 172374549.00413704 0 172374549.00413704 284820471.04150391 0 0 0 0 -8214959.8162991665 4177142.830329895 0 4177142.830329895 -26517354.483505249 0 0 0 0 904036755.1812973 695815150.04668427 0 695815150.04668427 -267757585.03462219 0 0 0 0 784654921.02753448 781364503.07857513 0 781364503.07857513 14280745.977966309 0 0 0 0 -546319764.77359772 -397651695.02092171 0 -397651695.02092171 103509186.18205643 0 0 0 0 -489270.44794171304 390846.82835453656 0 390846.82835453656 391144.06397245824 0 0 0 0 894515296.70287132 -479608968.51428127 0 -479608968.51428127 252585396.20189667 0 0 0 0 1446443635.9990845 -75060176.218559265 0 -75060176.218559265 -171310890.39529419 0 0 0 0 549130937.13039398 -336193331.89929199 0 -336193331.89929199 151517801.44552612 0 0 0 0 6652801.2184331417 -118779274.93039703 0 -118779274.93039703 -305858865.30011845 0 0 0 0 -187867263.81642103 -618889186.16365051 0 -618889186.16365051 905982276.56998825 0 0 0 0 2462405.3255129517 -1836977.6696859468 0 -1836977.6696859468 -974603.7554621473 0 0 0 0 7713419.9288044088 -4348188.7644627467 0 -4348188.7644627467 -2917664.7855730196 0 0 0 0 -54832507.386791319 -23894777.323020935 0 -23894777.323020935 -11000007.418933868 0 0 0 0 -125637785.59340096 -204903252.02235794 0 -204903252.02235794 -124461112.4762845 0 0 0 0 -547074.32303237915 -67068036.371841431 0 -67068036.371841431 -122299345.70503998 0 0 0 0 -137115437.10843736 -58840472.395088196 0 -58840472.395088196 -416897.30796718597 0 0 0 0 -210512470.49637675 -258262056.87733746 0 -258262056.87733746 228546902.18923187 0 0 0 0 -112477455.76988626 -327151365.52866268 0 -327151365.52866268 -197209998.46029663 0 0 0 0 -216810798.5641706 -216830119.09828949 0 -216830119.09828949 15956653.603149414 0 0 0 0 -99548595.302408218 -272855700.72282696 0 -272855700.72282696 5805372.1229934692 0 0 0 0 -100547899.42074364 -148748361.6248455 0 -148748361.6248455 -7430658.705078125 0 0 0 0 -252966301.85798258 -147688925.5268898 0 -147688925.5268898 -7215297.818775177 0 0 0 0 -311316238.69007659 -34891346.708389282 0 -34891346.708389282 -19274557.504375458 0 0 0 0 -183883716.04568136 -85068214.871015549 0 -85068214.871015549 -1989080.7416267395 0 0 0 0 -362918929.05502295 -161053233.50888443 0 -161053233.50888443 69241397.34765625 0 0 0 0 -177432169.97826564 -218073470.31587076 0 -218073470.31587076 1390116.1591873169 0 0 0 0 -216302456.38643456 -204651308.39461517 0 -204651308.39461517 50852162.643981934 0 0 0 0 38349741.135700226 -28439805.124401093 0 -28439805.124401093 84341068.673362732 0 0 0 0 1032627946.5287764 125532392.68380737 0 125532392.68380737 -68669649.247505188 0 0 0 0 -5177.6678414810449 -1570373.1076638931 0 -1570373.1076638931 935140.06852613762 0 0 0 0 98831.384772738675 -3029893.745906549 0 -3029893.745906549 -1891548.1339567862 0 0 0 0 1180021811.927166 -912732493.54093933 0 -912732493.54093933 178651206.1534996 0 0 0 0 739226449.33936787 -429448780.4682579 0 -429448780.4682579 11823833.061264038 0 0 0 0 -187147155.50267959 -82188412.810146332 0 -82188412.810146332 -1176138.836101532 0 0 0 0 568229548.22393417 -326730121.74352264 0 -326730121.74352264 239257930.29874039 0 0 0 0 335034980.26915359 15244451.739711761 0 15244451.739711761 -35675161.836277008 0 0 0 0 264144032.33735085 -12418284.111192703 0 -12418284.111192703 -43480328.281776428 0 0 0 0 36059.660955738276 -2055606.1657775044 0 -2055606.1657775044 -475876.42160253413 0 0 0 0 255507471.53513908 -23053491.280670166 0 -23053491.280670166 84191370.742301941 0 0 0 0 18376.585122033517 -2135389.480424345 0 -2135389.480424345 -2346885.6676755063 0 0 0 0 1130961545.6704836 -451056052.65358829 0 -451056052.65358829 -274939513.18465042 0 0 0 0 571903140.25551796 179165055.06812477 0 179165055.06812477 60681201.650463104 0 0 0 0 1342090406.0017548 -173353910.15967941 0 -173353910.15967941 -136379723.47276306 0 0 0 0 93278487.788448334 -267795748.10608673 0 -267795748.10608673 78013908.735961914 0 0 0 0 36569413.787967682 -123160986.2688179 0 -123160986.2688179 -276638610.28105831 0 0 0 0 -179962508.98881316 -224673539.39574099 0 -224673539.39574099 -4429342.6298065186 0 0 0 0 -463105577.10716766 -195685642.75142097 0 -195685642.75142097 61846875.520893097 0 0 0 0 -431195959.76967371 -126713949.36117935 0 -126713949.36117935 -34382036.197399139 0 0 0 0 -611927065.72657907 -59779201.404785156 0 -59779201.404785156 75795107.847612381 0 0 0 0 287731.20172277535 -313753.61833886616 0 -313753.61833886616 -2010704.2352057286 0 0 0 0 -1134193553.4303186 87721604.876396179 0 87721604.876396179 101128528.79074097 0 0 0 0 -573135721.88873744 -112732441.32978249 0 -112732441.32978249 41434933.854179382 0 0 0 0 -163777390.72204041 -338285333.24632835 0 -338285333.24632835 5727187.0376205444 0 0 0 0 -270122943.63201523 -453456291.26324272 0 -453456291.26324272 334415782.1366272 0 0 0 0 -154993877.62913489 -303666118.30755901 0 -303666118.30755901 7995541.6146850586 0 0 0 0 52928367.415468216 -266101144.93047523 0 -266101144.93047523 -10621582.732624054 0 0 0 0 375569389.17177129 -17317120.098643303 0 -17317120.098643303 220312535.82539368 0 0 0 0 522102509.31149006 -634545036.92273331 0 -634545036.92273331 246966483.01485443 0 0 0 0 68193373.910095215 -102705802.66411591 0 -102705802.66411591 -71155775.252382278 0 0 0 0 -85284417.72221005 -287546297.89653158 0 -287546297.89653158 290507956.79367065 0 0 0 0 372267087.74319077 -121525135.54081345 0 -121525135.54081345 -111499495.99920273 0 0 0 0 115902637.09085798 -266576561.8854866 0 -266576561.8854866 -70603289.800197601 0 0 0 0 161827391.57709932 -115404440.3205719 0 -115404440.3205719 -158389954.35701752 0 0 0 0 -13416986.938264847 -130100870.91278839 0 -130100870.91278839 48547851.265483856 0 0 0 0 -31958917.741678238 -265280437.88766479 0 -265280437.88766479 217409975.89680862 0 0 0 0 -149328341.48893738 -93840159.073324203 0 -93840159.073324203 7807004.5043735504 0 0 0 0 -167965002.98741376 116479139.54325879 0 116479139.54325879 -10332988.745544434 0 0 0 0 -701121233.24693406 -76432350.543271065 0 -76432350.543271065 388909935.49031067 0 0 0 0 -539274432.01463938 214137940.38612604 0 214137940.38612604 215358003.47943497 0 0 0 0 -997566.15490325051 426103.33667072095 0 426103.33667072095 1587187.0852669775 0 0 0 0 -419593074.38029671 -30205945.48164463 0 -30205945.48164463 -512483811.38775635 0 0 0 0 -102498938.34350491 -418671839.25265884 0 -418671839.25265884 -127454215.86386108 0 0 0 0 -147404785.97628593 -381481854.82957268 0 -381481854.82957268 124437499.27223206 0 0 0 0 25341238.852020264 -320014996.4478879 0 -320014996.4478879 248394458.66186142 0 0 0 0 -110874656.20402908 -15539256.746856689 0 -15539256.746856689 252436152.17741394 0 0 0 0 249268.01374010975 -1195396.987483019 0 -1195396.987483019 -1291358.3139051069 0 0 0 0 -359582220.36056042 190677940.00186157 0 190677940.00186157 214186549.48252296 0 0 0 0 176473.06008718628 -2199369.4037922742 0 -2199369.4037922742 -2231385.2530041821 0 0 0 0 -48530657.242359161 -137909044.79620361 0 -137909044.79620361 276887489.32601833 0 0 0 0 -657811409.08564281 -117193027.93538332 0 -117193027.93538332 227527964.30505371 0 0 0 0 115525752.40258098 -100483404.53358126 0 -100483404.53358126 -503005947.90335846 0 0 0 0 -129547669.14280415 304098401.72564888 0 304098401.72564888 -281855767.24525642 0 0 0 0 -451618909.69504929 -384971438.19542313 0 -384971438.19542313 24583465.50623703 0 0 0 0 -610107071.83125925 19192556.479605198 0 19192556.479605198 253001545.20212555 0 0 0 0 -101073315.57314062 58090488.335621834 0 58090488.335621834 -584444086.6464386 0 0 0 0 -1386789.4255626807 -2180276.5735319965 0 -2180276.5735319965 1386006.7278098715 0 0 0 0 104223628.81370163 -528293156.95340729 0 -528293156.95340729 139605604.28279114 0 0 0 0 239378037.94828415 22299764.792499542 0 22299764.792499542 -455719273.52451611 0 0 0 0 125565182.5422678 -305059238.21198845 0 -305059238.21198845 14438303.025831223 0 0 0 0 436496.57794580236 -1297603.9105894836 0 -1297603.9105894836 -1468183.7957147565 0 0 0 0 49881728.098011017 294256602.45601463 0 294256602.45601463 -393426451.88121796 0 0 0 0 -137713373.49508286 -212669073.61640167 0 -212669073.61640167 -16888027.550239563 0 0 0 0 255000215.67487907 757796105.76079941 0 757796105.76079941 424504669.67611122 0 0 0 0 -4563724.7158832438 -9337139.9427445233 0 -9337139.9427445233 5157310.8520542737 0 0 0 0 -12906599.524238586 -12955655.95697403 0 -12955655.95697403 4130011.4363594055 0 0 0 0 1175040.2914428711 -10396777.366146088 0 -10396777.366146088 -4381141.3260307312 0 0 0 0 184771.6187106967 -16081557.158759143 0 -16081557.158759143 -787111.36196521856 0 0 0 0 4707338.8814182281 -6837585.758928299 0 -6837585.758928299 -1404148.6884613037 0 0 0 0 228505026.79812622 180954185.63089943 0 180954185.63089943 -358024293.36038208 0 0 0 0 -384109414.39496613 -189863042.65270424 0 -189863042.65270424 180795882.05984497 0 0 0 0 -4091858.8898797408 -10559260.483348601 0 -10559260.483348601 4159765.0604449585 0 0 0 0 -45279341.767602444 -76536144.370353699 0 -76536144.370353699 65497954.978614807 0 0 0 0 -184087708.81200027 33349462.509241104 0 33349462.509241104 1955673.1212997437 0 0 0 0 -5756974.4987349026 -8091487.8406631909 0 -8091487.8406631909 2789127.5058300458 0 0 0 0 2660190.757724762 -15852054.547981262 0 -15852054.547981262 2882753.1983776093 0 0 0 0 1626946.448497694 -9848862.5042234622 0 -9848862.5042234622 -5862475.8291283548 0 0 0 0 -22344584.664398193 11734902.292388916 0 11734902.292388916 34290724.197742462 0 0 0 0 -8123674.5603225436 -11315121.456021929 0 -11315121.456021929 -706193.52418543771 0 0 0 0 6996273.5952987671 -29555171.713005066 0 -29555171.713005066 -45456857.694480896 0 0 0 0 -79492877.891273499 -48669554.176404953 0 -48669554.176404953 17298351.398143768 0 0 0 0 8444043.8577255979 -2760475.458649606 0 -2760475.458649606 -5053029.2760360613 0 0 0 0 -185149030.65924263 42280462.153560638 0 42280462.153560638 103045701.46884155 0 0 0 0 -133050593.82620239 95841854.663085938 0 95841854.663085938 109341512.03114271 0 0 0 0 16679542.236909866 -61297285.595979691 0 -61297285.595979691 140982297.57619286 0 0 0 0 -293955642.62392044 77058123.834104538 0 77058123.834104538 87370580.291778564 0 0 0 0 -82966362.580497742 75544550.07926178 0 75544550.07926178 80141454.148441315 0 0 0 0 -22810813.681213379 49326941.749555588 0 49326941.749555588 -42912815.590696335 0 0 0 0 41383307.341659546 100650273.97168159 0 100650273.97168159 -485389474.07752991 0 0 0 0 -305602642.94286156 -249066067.02726912 0 -249066067.02726912 -127114166.36875534 0 0 0 0 -102381158.19267273 -119468654.09395027 0 -119468654.09395027 -44752914.054149628 0 0 0 0 -201916226.91990376 -163648066.69894576 0 -163648066.69894576 35005013.690361023 0 0 0 0 -75885920.031402588 -119721272.2206192 0 -119721272.2206192 4151093.1401443481 0 0 0 0 -96541396.121101379 -99573722.999946594 0 -99573722.999946594 18841088.702079773 0 0 0 0 -51315597.007392883 -135176094.12819862 0 -135176094.12819862 -28776859.596290588 0 0 0 0 31738160.082717896 -90562928.455160141 0 -90562928.455160141 -4852445.6357727051 0 0 0 0 -70704890.508354187 -94913180.927347183 0 -94913180.927347183 91865841.495559692 0 0 0 0 53409268.032577515 -41202118.858348846 0 -41202118.858348846 74208595.410428047 0 0 0 0 158040812.60653687 -141641059.84640598 0 -141641059.84640598 -21407981.486991882 0 0 0 0 31218499.334197521 -74863668.876894653 0 -74863668.876894653 -10871926.159080505 0 0 0 0 33440027.398773193 -693639.05424118042 0 -693639.05424118042 -175477891.29790306 0 0 0 0 224383958.89034271 -6089970.7685375214 0 -6089970.7685375214 -186520648.88715172 0 0 0 0 103965891.58432007 -116811059.1475544 0 -116811059.1475544 -15470853.15618515 0 0 0 0 -412961.04059499502 -1037876.3994496576 0 -1037876.3994496576 625932.33848343976 0 0 0 0 157944679.85151672 -129888636.17786026 0 -129888636.17786026 -32630900.783908844 0 0 0 0 -10056571.170860559 -12941041.9065334 0 -12941041.9065334 -1150865.9389401339 0 0 0 0 149575557.20526123 -79085247.922142029 0 -79085247.922142029 -57695532.95293808 0 0 0 0 165748774.42438507 -144869236.09120083 0 -144869236.09120083 2453231.717300415 0 0 0 0 298882311.23817444 -71359904.888671875 0 -71359904.888671875 8572856.8902931213 0 0 0 0 149798826.97418213 -150286856.05984497 0 -150286856.05984497 741436.94438934326 0 0 0 0 165544597.02570915 -150751814.1609683 0 -150751814.1609683 -24521552.026161194 0 0 0 0 13255413.583938599 -18556398.467308044 0 -18556398.467308044 3454214.8859958649 0 0 0 0 -1828565.3231163025 -11186859.39418602 0 -11186859.39418602 7241230.1268157959 0 0 0 0 -4227998.8147697803 -10636560.478935933 0 -10636560.478935933 -4421525.1979670897 0 0 0 0 99670258.388183594 35749575.285453796 0 35749575.285453796 65776132.935203552 0 0 0 0 15211697.589893341 -23237254.485774994 0 -23237254.485774994 3901665.8251571655 0 0 0 0 141624949.7477417 -129825809.8812294 0 -129825809.8812294 -11975380.720729828 0 0 0 0 143911615.53643799 -51535483.793956757 0 -51535483.793956757 -53669441.174346924 0 0 0 0 186222002.55797958 23523480.754812241 0 23523480.754812241 -82842414.533958435 0 0 0 0 42199114.953033447 -42082735.195213318 0 -42082735.195213318 -43607109.763275146 0 0 0 0 95012585.57654953 37396261.901255608 0 37396261.901255608 -69100126.302986145 0 0 0 0 273894174.76705933 124577250.23167801 0 124577250.23167801 -29642570.357212067 0 0 0 0 -123536463.09134483 133797161.15559006 0 133797161.15559006 161251312.0583725 0 0 0 0 457844454.13398743 362287572.73187256 0 362287572.73187256 80451346.64730072 0 0 0 0 199305278.82331848 -57964778.996948242 0 -57964778.996948242 104595775.08836617 0 0 0 0 691605115.0789032 -250429571.11117935 0 -250429571.11117935 105856676.13316971 0 0 0 0 -64576064.639906883 -251362519.62663102 0 -251362519.62663102 733640431.79919434 0 0 0 0 90534582.326244354 80216054.442322254 0 80216054.442322254 -61855702.401004791 0 0 0 0 -48563563.845787048 -147073188.79588509 0 -147073188.79588509 156474281.72125626 0 0 0 0 -88404910.601333618 -58319695.501983643 0 -58319695.501983643 506016782.66568756 0 0 0 0 12070453.056747437 71107523.871952057 0 71107523.871952057 282170165.11414337 0 0 0 0 102433.70166778564 -123816054.26452446 0 -123816054.26452446 278526226.81385612 0 0 0 0 -99389899.955200195 24133786.73368454 0 24133786.73368454 162620806.7148571 0 0 0 0 -958648.46744444966 -1877435.3117698245 0 -1877435.3117698245 1161296.8070308845 0 0 0 0 88466963.075332642 -149116619.95927048 0 -149116619.95927048 -140362209.32258224 0 0 0 0 -92642621.039237976 190695824.14325333 0 190695824.14325333 194355365.57281303 0 0 0 0 117946266.17115784 -127222565.20813942 0 -127222565.20813942 88436791.703342438 0 0 0 0 144586.35931983357 1271751.976890333 0 1271751.976890333 361764.11509913951 0 0 0 0 -74554945.892044067 -131998226.27119255 0 -131998226.27119255 466580116.21960735 0 0 0 0 -43365656.493087769 28528416.282972336 0 28528416.282972336 -5754.9498386383057 0 0 0 0 -56745418.343055725 -5076905.3422641754 0 -5076905.3422641754 24787020.244476318 0 0 0 0 -47317229.496528625 -17509920.109508514 0 -17509920.109508514 -63287806.98500061 0 0 0 0 -213668099.84502411 105552000.29916 0 105552000.29916 152691861.81887817 0 0 0 0 -154112113.707901 -72916236.730493546 0 -72916236.730493546 639202449.06869507 0 0 0 0 89759023.127891541 -810620538.34069443 0 -810620538.34069443 508110228.36206055 0 0 0 0 -24264727.961364746 -726939580.73245621 0 -726939580.73245621 790765512.38236618 0 0 0 0 7875024.1986038685 -184940586.21472865 0 -184940586.21472865 217598898.63375854 0 0 0 0 810027310.83078384 -396657833.94968224 0 -396657833.94968224 243624497.45844269 0 0 0 0 422083.445017647 1213619.5074495003 0 1213619.5074495003 1779034.9360955618 0 0 0 0 226432430.10359955 -1062358926.9469767 0 -1062358926.9469767 499112155.77488708 0 0 0 0 856938283.86077881 -1208193227.3744831 0 -1208193227.3744831 212002001.01282501 0 0 0 0 -323609207.4617939 756833956.71102238 0 756833956.71102238 489637578.22956848 0 0 0 0 -139656227.44552422 -21849954.224471092 0 -21849954.224471092 1743544.5448684692 0 0 0 0 1052095.3803327959 2968717.4301562738 0 2968717.4301562738 2873997.0981046483 0 0 0 0 -77622731.571327209 24618625.059484482 0 24618625.059484482 36475013.439548492 0 0 0 0 -92029828.746589661 -3396173.8251991272 0 -3396173.8251991272 -19958350.72725296 0 0 0 0 216244.66390574351 2027749.4508872442 0 2027749.4508872442 770976.1567550227 0 0 0 0 -72466806.15348053 -15395331.275115967 0 -15395331.275115967 -12609016.586578369 0 0 0 0 171160933.40351868 -119219262.19532013 0 -119219262.19532013 -48912008.069511414 0 0 0 0 -269891496.50834656 -11928658.521158218 0 -11928658.521158218 172320302.19143295 0 0 0 0 27962889.39046979 15887588.509454727 0 15887588.509454727 9557589.9515800476 0 0 0 0 -178029569.81756592 144373031.51975441 0 144373031.51975441 -51640733.14531517 0 0 0 0 4035703.3680085307 -872340.23883512337 0 -872340.23883512337 -3201449.3797015324 0 0 0 0 -153151823.10844231 95727737.874763489 0 95727737.874763489 -92224426.688266754 0 0 0 0 -120422094.25581646 88104709.16480732 0 88104709.16480732 -95636602.589378357 0 0 0 0 -98088176.282206535 69426873.717865944 0 69426873.717865944 -45485048.310283661 0 0 0 0 20879017.80752182 -12805262.699233055 0 -12805262.699233055 -4472974.1333122253 0 0 0 0 4526755.7702837698 -1508684.0478640608 0 -1508684.0478640608 -3614588.8234767132 0 0 0 0 1612032365.0186996 -687048057.0420742 0 -687048057.0420742 -25474460.301166534 0 0 0 0 -2534263.839799257 -1793025.2760837451 0 -1793025.2760837451 1709064.6062368229 0 0 0 0 -18193046.49546051 -27862192.551534653 0 -27862192.551534653 628190675.11455536 0 0 0 0 39676406.867336273 -28026440.144140244 0 -28026440.144140244 -1202594.8086605072 0 0 0 0 -7312537.3094320074 -11840377.513798747 0 -11840377.513798747 -7567127.1819523945 0 0 0 0 262174111.34138489 -486365035.55645752 0 -486365035.55645752 529303479.56197739 0 0 0 0 100993841.45796967 -422645839.50230026 0 -422645839.50230026 623782942.39277387 0 0 0 0 316421411.16786385 -424451928.02372169 0 -424451928.02372169 289091108.97339249 0 0 0 0 194665119.81739807 -25139855.821079254 0 -25139855.821079254 -188492752.105896 0 0 0 0 56911403.091140747 -231284875.69053268 0 -231284875.69053268 703538227.09783745 0 0 0 0 114154336.22488022 -106401813.30099773 0 -106401813.30099773 312838109.81491852 0 0 0 0 -49891278.571151733 -190456781.74135208 0 -190456781.74135208 1116768351.3001213 0 0 0 0 -7454650.7597319297 -10777323.941692237 0 -10777323.941692237 -8674415.3347783759 0 0 0 0 55314250.134967804 -152744211.66368103 0 -152744211.66368103 -32008146.372001648 0 0 0 0 206327490.4360013 -750751233.3029592 0 -750751233.3029592 1085619718.658947 0 0 0 0 1760460.1553225648 60847.357335746754 0 60847.357335746754 -1632267.0639583133 0 0 0 0 -381467058.70531368 33017774.900014877 0 33017774.900014877 -153730824.21677399 0 0 0 0 -5141877.4953063857 -9114424.9883515891 0 -9114424.9883515891 -9474725.8830713816 0 0 0 0 -85181073.772182465 -405612036.30879211 0 -405612036.30879211 -245405860.13077545 0 0 0 0 56923595.06716156 116056693.67560196 0 116056693.67560196 189546099.65734482 0 0 0 0 540364003.80593109 -1359365262.2851562 0 -1359365262.2851562 706181695.16851044 0 0 0 0 79353199.542472839 -1657567325.5685425 0 -1657567325.5685425 1917741558.5470886 0 0 0 0 206013630.39759064 96940445.244278908 0 96940445.244278908 324839662.15876007 0 0 0 0 -183850494.21363831 -1459189474.3169184 0 -1459189474.3169184 -1144014819.6475525 0 0 0 0 1082554590.6830711 -1034053691.8929634 0 -1034053691.8929634 -3957593513.0692291 0 0 0 0 -1450839527.6929474 -1533697206.1439629 0 -1533697206.1439629 -1161762669.517765 0 0 0 0 -141219614.017313 38547780.344578743 0 38547780.344578743 -1932318258.7037888 0 0 0 0 -1279082776.2674866 484730839.94153595 0 484730839.94153595 -267532985.99099159 0 0 0 0 268124707.08996391 9198661.6717886925 0 9198661.6717886925 441780675.85980225 0 0 0 0 -27292164.820884705 -297183467.34105873 0 -297183467.34105873 124838541.71739197 0 0 0 0 69658384.292003632 326873077.21621513 0 326873077.21621513 -284535236.86020279 0 0 0 0 -322923116.8213501 181857590.95319366 0 181857590.95319366 352582935.47381926 0 0 0 0 53441579.276168823 279825498.99776649 0 279825498.99776649 -97636005.053133488 0 0 0 0 -193371894.49655914 66265957.714160919 0 66265957.714160919 -87586873.009147644 0 0 0 0 -292872765.69949341 -484025352.20970154 0 -484025352.20970154 -272077293.37281799 0 0 0 0 5966236.2222595215 -515198654.29100227 0 -515198654.29100227 -595314013.05639839 0 0 0 0 790864.58193543181 1560526.2011103928 0 1560526.2011103928 -358318.0505213663 0 0 0 0 -414183457.37836456 -651998133.61608505 0 -651998133.61608505 -194363836.77636337 0 0 0 0 -540203734.33657837 -485234032.04689026 0 -485234032.04689026 -14231410.649795532 0 0 0 0 -637289238.18405151 -559682375.75534821 0 -559682375.75534821 -66301740.137435913 0 0 0 0 -1094306841.2741241 -751279214.9251709 0 -751279214.9251709 -64126154.204512477 0 0 0 0 -555825444.06642151 -460883616.25423431 0 -460883616.25423431 -17073651.16607666 0 0 0 0 -766614766.96714401 -415828082.67540359 0 -415828082.67540359 184706412.03829956 0 0 0 0 -585738315.05426025 -288014729.22380066 0 -288014729.22380066 163996514.93735981 0 0 0 0 -2348449.9810263515 -4561640.1952113435 0 -4561640.1952113435 -1912349.3686395995 0 0 0 0 290907621.10194397 -56849140.406536102 0 -56849140.406536102 -70280769.415893555 0 0 0 0 -240636595.53704834 11668967.198169708 0 11668967.198169708 91279863.53112793 0 0 0 0 443103714.40110779 -87541177.993835449 0 -87541177.993835449 167628638.0186615 0 0 0 0 -252327253.46385193 327167856.55079174 0 327167856.55079174 -81573607.935668945 0 0 0 0 -5877554.1927705407 -4877736.3253069017 0 -4877736.3253069017 3281936.9226164455 0 0 0 0 -1366617189.6857529 170897051.49920654 0 170897051.49920654 467845020.95162964 0 0 0 0 -837595405.31855774 -1364003356.7843857 0 -1364003356.7843857 -1341066063.7785072 0 0 0 0 -397096507.86925888 -743723363.40381432 0 -743723363.40381432 -785143130.13920593 0 0 0 0 -787527411.7127533 -353928204.59189606 0 -353928204.59189606 158817.94781494141 0 0 0 0 -1879758541.1394157 -974585188.15325356 0 -974585188.15325356 -145627605.09352112 0 0 0 0 72726961.629966736 -100038361.40005112 0 -100038361.40005112 248253492.79369402 0 0 0 0 171744678.20098686 -136949411.53869724 0 -136949411.53869724 28964978.740161896 0 0 0 0 84835588.902671814 -298492199.15148544 0 -298492199.15148544 250839397.52886581 0 0 0 0 124255876.50993347 -293873483.45861244 0 -293873483.45861244 225984245.8653717 0 0 0 0 135419.67789902119 1110667.0647252612 0 1110667.0647252612 354138.82388998196 0 0 0 0 -106264627.61149406 43727337.473384619 0 43727337.473384619 83048423.835212708 0 0 0 0 170055968.13679504 -217972376.70682907 0 -217972376.70682907 158078100.16990662 0 0 0 0 -115107239.82331848 -52046550.298694611 0 -52046550.298694611 294615358.23897362 0 0 0 0 -88770193.210823059 -34467540.147109985 0 -34467540.147109985 57181593.320697784 0 0 0 0 1340308.5329712462 3106772.9749505222 0 3106772.9749505222 839371.83712121844 0 0 0 0 -26925601.263126373 -99775043.723549843 0 -99775043.723549843 117095997.72280121 0 0 0 0 255796026.34760666 -186001886.54887962 0 -186001886.54887962 -129584940.91905212 0 0 0 0 -168305584.9597168 -391574653.48056412 0 -391574653.48056412 -205637963.01573181 0 0 0 0 -65640234.250236511 -187380044.26950073 0 -187380044.26950073 90167013.745657921 0 0 0 0 8415101.6272449493 -328695639.4973793 0 -328695639.4973793 -306014841.31285858 0 0 0 0 -75128357.33599782 -88437317.684668422 0 -88437317.684668422 91278422.57510376 0 0 0 0 127757609.97189331 -126484072.30771637 0 -126484072.30771637 -4058605.7389831543 0 0 0 0 -155453284.19709015 -108844233.62154388 0 -108844233.62154388 4931203.1812000275 0 0 0 0 48774449.206615448 -55199063.710361481 0 -55199063.710361481 36594299.154582977 0 0 0 0 -411521944.50927734 -117968096.849823 0 -117968096.849823 -197258380.91175842 0 0 0 0 -112475576.61919403 -220711329.98740578 0 -220711329.98740578 -448290156.42868042 0 0 0 0 -60057296.9491539 172882259.09219933 0 172882259.09219933 -369685129.95600128 0 0 0 0 1526049.9608197734 283943.22891013511 0 283943.22891013511 -1483801.420847971 0 0 0 0 -121071949.46364594 -328039237.83945465 0 -328039237.83945465 -198467198.68107605 0 0 0 0 -488501355.76316071 -309565027.82460785 0 -309565027.82460785 -498718787.6815834 0 0 0 0 -154326360.0723877 -140674040.2964325 0 -140674040.2964325 -413702319.33846664 0 0 0 0 -226370833.74155617 -411079184.08170605 0 -411079184.08170605 -448183042.24550629 0 0 0 0 -199716895.73345947 -304427028.10472488 0 -304427028.10472488 -578321535.91679382 0 0 0 0 -259809989.61000061 -332247632.12767792 0 -332247632.12767792 -305529510.17065573 0 0 0 0 -131843826.54836273 -357195753.68932533 0 -357195753.68932533 -479404804.20289612 0 0 0 0 -147035197.8321228 -295639281.35022354 0 -295639281.35022354 -719841011.40786743 0 0 0 0 -262443222.02908325 -404005564.16376495 0 -404005564.16376495 -495219828.87392426 0 0 0 0 -11869794.521280937 5204179.2049305253 0 5204179.2049305253 11768543.759355376 0 0 0 0 -186359798.76675797 -466719238.33342934 0 -466719238.33342934 -832437740.00302887 0 0 0 0 -400538884.27513123 271838591.17425156 0 271838591.17425156 356055016.07427597 0 0 0 0 -473582032.49621201 -137227447.25213337 0 -137227447.25213337 49238295.302963257 0 0 0 0 -710789337.48357391 469763005.92150497 0 469763005.92150497 -43425655.842086792 0 0 0 0 519896077.33485413 56161750.24458313 0 56161750.24458313 -989469996.92115784 0 0 0 0 48079896.8256073 10145253.082305908 0 10145253.082305908 231410211.80835724 0 0 0 0 302545433.09951782 3612473.4343910217 0 3612473.4343910217 307934261.6559906 0 0 0 0 196888654.52674866 228883584.5567627 0 228883584.5567627 -145699387.94565201 0 0 0 0 652352809.16549683 -431536761.96923828 0 -431536761.96923828 84224004.686815262 0 0 0 0 -258605279.31817627 -275688138.8306179 0 -275688138.8306179 -690467563.30543518 0 0 0 0 -350003089.32382202 -390878167.49333572 0 -390878167.49333572 -615343859.07692909 0 0 0 0 -517557136.65488434 -810515238.01931 0 -810515238.01931 -1093681770.0009842 0 0 0 0 -5971443.1405533925 2225007.1600268669 0 2225007.1600268669 4534673.1989299171 0 0 0 0 31633417.686218262 -11966174.440193176 0 -11966174.440193176 309044202.76371765 0 0 0 0 -182429040.88827515 147470111.82273865 0 147470111.82273865 982930625.76353455 0 0 0 0 -1257528.9140795842 709604.18912650272 0 709604.18912650272 838488.113933146 0 0 0 0 420884697.42442322 -464230097.67126465 0 -464230097.67126465 -2063132604.5869045 0 0 0 0 -326883022.13400269 -1621041681.4537239 0 -1621041681.4537239 -2259040666.6289492 0 0 0 0 -735707887.23131561 -382493586.05936718 0 -382493586.05936718 -294386206.33078003 0 0 0 0 -214230510.11576843 -384324051.97464752 0 -384324051.97464752 119361017.56794357 0 0 0 0 -205880611.78471375 -369432305.21854782 0 -369432305.21854782 -509898646.89591217 0 0 0 0 22374381.807720661 -224122413.28075171 0 -224122413.28075171 -145595263.70976257 0 0 0 0 12145688.1460495 55544087.53623414 0 55544087.53623414 -211644614.43261719 0 0 0 0 -181023524.62097168 -92991238.646347046 0 -92991238.646347046 -144916744.09649658 0 0 0 0 -22119471.874834061 -52842812.500986576 0 -52842812.500986576 -528558.2154083252 0 0 0 0 -11285128.712008473 -30499061.342684161 0 -30499061.342684161 -25347554.305306844 0 0 0 0 -3301675.6129188854 -66425248.913779058 0 -66425248.913779058 -16411851.035483046 0 0 0 0 -50768730.580924325 -20495420.567095008 0 -20495420.567095008 66600307.416123256 0 0 0 0 -222905808.19145203 -88291509.375694275 0 -88291509.375694275 11589122.294906616 0 0 0 0 -246097809.82446289 -137986486.3168335 0 -137986486.3168335 39475450.726501465 0 0 0 0 -140480789.05221558 -156413052.71286011 0 -156413052.71286011 -386851789.05097198 0 0 0 0 1108817.0139638484 2098667.7479938455 0 2098667.7479938455 3410527.3370754905 0 0 0 0 -22585900.047340393 -54386863.157536983 0 -54386863.157536983 14801278.798145771 0 0 0 0 -27274707.549734116 -55330963.074351072 0 -55330963.074351072 34078188.91793251 0 0 0 0 -7353742.1912107468 -68815885.215088755 0 -68815885.215088755 -14525096.210345268 0 0 0 0 -9081931.7071723938 -72937938.290207148 0 -72937938.290207148 -4811908.4545147419 0 0 0 0 -11735863.240463257 -67328762.490121603 0 -67328762.490121603 -12628191.265151978 0 0 0 0 -8156727.1239776611 -120035974.38909149 0 -120035974.38909149 -195893831.89064026 0 0 0 0 -6436187.6412567645 -33566142.237241007 0 -33566142.237241007 9442580.9400094524 0 0 0 0 -11102117.534984589 -68221239.79791081 0 -68221239.79791081 -12278757.418255717 0 0 0 0 -12960920.297779083 -64295915.950828731 0 -64295915.950828731 -14001545.867806435 0 0 0 0 -215946157.80827332 -249964557.91934967 0 -249964557.91934967 -170991593.84535217 0 0 0 0 -2757128.7540516555 -21162595.853870768 0 -21162595.853870768 -12618814.047112808 0 0 0 0 -9135221.3329847157 -9528238.4943463597 0 -9528238.4943463597 9855646.7661187127 0 0 0 0 -619574760.65612793 -319111335.85682678 0 -319111335.85682678 -78751153.311233521 0 0 0 0 -519977573.39337921 -390045540.43644905 0 -390045540.43644905 -141422321.340271 0 0 0 0 -282096449.22874451 -473883095.98261261 0 -473883095.98261261 -326081742.12113953 0 0 0 0 -325601942.16221619 -448197839.96368408 0 -448197839.96368408 -195436408.4978447 0 0 0 0 -310497106.38352203 -441799309.26196289 0 -441799309.26196289 -240563362.00691223 0 0 0 0 -60114996.227645874 -374090421.36362457 0 -374090421.36362457 -328056533.17666626 0 0 0 0 -68836992.243087769 -569072738.67237091 0 -569072738.67237091 -283919799.8596344 0 0 0 0 -190713216.36923981 -438748832.25611496 0 -438748832.25611496 -359654578.48866272 0 0 0 0 -122684762.45362854 -417515667.84579086 0 -417515667.84579086 -471354574.34960175 0 0 0 0 -159666852.03926468 -447949062.94396973 0 -447949062.94396973 -326061504.50271606 0 0 0 0 -206737389.66888428 -318576664.1838913 0 -318576664.1838913 -465250235.3480463 0 0 0 0 -181306071.89214325 -358583204.02600098 0 -358583204.02600098 -402441832.89521408 0 0 0 0 -17677857.333096102 9121027.9471894652 0 9121027.9471894652 27972297.022144262 0 0 0 0 -234778212.90853119 -367366079.80431747 0 -367366079.80431747 -403836173.99086761 0 0 0 0 -260103071.1368103 -315218013.87957764 0 -315218013.87957764 -282181461.17291832 0 0 0 0 84713164.205230713 -204414339.37564087 0 -204414339.37564087 -276754981.9944458 0 0 0 0 -3864216.2534755431 -8930103.8087916523 0 -8930103.8087916523 -7388114.265256837 0 0 0 0 -18730732.366529271 -33212290.35310781 0 -33212290.35310781 41807308.032603145 0 0 0 0 -204220621.59515381 -313537146.00933838 0 -313537146.00933838 -137418657.1424408 0 0 0 0 325601982.87579346 80499456.227027893 0 80499456.227027893 -140466161.01363754 0 0 0 0 -110087214.96310425 -60083089.536705017 0 -60083089.536705017 279085484.52700806 0 0 0 0 -277225470.44778442 -204721701.31016159 0 -204721701.31016159 -142688742.62200165 0 0 0 0 -262059618.78430176 -326825532.28355408 0 -326825532.28355408 -265337500.21286774 0 0 0 0 -9448760.1670720726 -30612304.37113465 0 -30612304.37113465 46093269.302382231 0 0 0 0 -68258819.400344849 -221857906.89453888 0 -221857906.89453888 -248240163.75504303 0 0 0 0 -146206246.48796082 -138816899.82201385 0 -138816899.82201385 -116783949.1160419 0 0 0 0 51687054.595984459 -17274969.75932312 0 -17274969.75932312 -69967881.69386673 0 0 0 0 -84412760.930511475 -213911227.77069092 0 -213911227.77069092 -176114321.70283508 0 0 0 0 41754825.859974965 -30117874.415212486 0 -30117874.415212486 -25197486.193500578 0 0 0 0 -246854580.77871704 -235592072.12794685 0 -235592072.12794685 -5860078.5114440918 0 0 0 0 -274262133.25672913 -288188767.67474365 0 -288188767.67474365 -105869496.32676315 0 0 0 0 -275093283.3491745 -142007853.34068108 0 -142007853.34068108 -11269596.689239502 0 0 0 0 8442299.3031616211 -102309137.50772095 0 -102309137.50772095 -118680550.30056763 0 0 0 0 23151880.723403141 -5123498.324435398 0 -5123498.324435398 -19706879.004204243 0 0 0 0 -365781293.76892281 -116369114.531147 0 -116369114.531147 -705644.43844604492 0 0 0 0 -343264140.01077652 -234899707.39915371 0 -234899707.39915371 34710138.559906006 0 0 0 0 -22924116.93223381 -41249528.483967543 0 -41249528.483967543 39866019.53915596 0 0 0 0 -25445739.694324493 -53382531.057448864 0 -53382531.057448864 26482318.886672974 0 0 0 0 28935205.219970703 -3712317.0849380493 0 -3712317.0849380493 -15760987.2059021 0 0 0 0 25422849.237387642 -34957223.308089577 0 -34957223.308089577 -28960598.045280121 0 0 0 0 23672825.985308491 -25535115.142891604 0 -25535115.142891604 -23574818.483132087 0 0 0 0 2743704.5718003958 -17207453.051240958 0 -17207453.051240958 -22622958.917504907 0 0 0 0 -30467180.859809875 -18568549.436820984 0 -18568549.436820984 -24544383.323740005 0 0 0 0 36094277.565372467 -12876192.981964111 0 -12876192.981964111 -10337462.182462692 0 0 0 0 36192889.613998413 -16212907.136426926 0 -16212907.136426926 -14724320.131006241 0 0 0 0 30738184.10276854 -15673975.32179416 0 -15673975.32179416 -25260050.493918788 0 0 0 0 30437838.895128272 -4563397.5196717083 0 -4563397.5196717083 -17305009.920516111 0 0 0 0 132712400.90943146 13807345.151924133 0 13807345.151924133 -9544371.9994819164 0 0 0 0 202816.5461769104 -15090930.856771469 0 -15090930.856771469 -30390057.82951355 0 0 0 0 -284412584.50022125 -12709607.683932066 0 -12709607.683932066 62666583.380700111 0 0 0 0 -91529581.007873535 -233621126.21858597 0 -233621126.21858597 -50162405.226416707 0 0 0 0 92965906.315940857 -136132474.50076342 0 -136132474.50076342 -379396518.16693115 0 0 0 0 -202609641.84695625 -75607782.261075974 0 -75607782.261075974 75525402.619329453 0 0 0 0 -10267858.275749207 -99698431.202091217 0 -99698431.202091217 -55283554.277664185 0 0 0 0 92831791.052158356 28462782.21392107 0 28462782.21392107 -44196166.479778767 0 0 0 0 191470669.97385406 -108908551.41147137 0 -108908551.41147137 -164251112.82746601 0 0 0 0 6187478.6155383643 -33836131.199227102 0 -33836131.199227102 -18508921.012618903 0 0 0 0 -1649568.8627296109 -3916349.2454611785 0 -3916349.2454611785 -5956122.3574813781 0 0 0 0 60553471.414901733 -146589303.47303009 0 -146589303.47303009 -2252484.0118494034 0 0 0 0 39958694.902053833 -92760015.579606056 0 -92760015.579606056 63214977.207222939 0 0 0 0 -29693531.199066162 -19163192.53722477 0 -19163192.53722477 -29997446.081681728 0 0 0 0 -7506327.2176747285 -1230327.4501969032 0 -1230327.4501969032 5721839.7788158059 0 0 0 0 -2989081.4188168654 -3778863.9606905617 0 -3778863.9606905617 645999.73900024313 0 0 0 0 -4048461.3751983643 -211166578.80493641 0 -211166578.80493641 -40475090.078884125 0 0 0 0 -116473371.99954796 -345247869.65696049 0 -345247869.65696049 -200356609.21224403 0 0 0 0 25093085.154291153 -126670260.76437688 0 -126670260.76437688 162647332.35366249 0 0 0 0 -10606302.899568558 -231751998.35124326 0 -231751998.35124326 -17332110.841650009 0 0 0 0 -801138.34921264648 -186272106.60482168 0 -186272106.60482168 55005357.902095795 0 0 0 0 104465283.02103424 -123439237.98636723 0 -123439237.98636723 -543435215.67857075 0 0 0 0 -61480758.429321289 -283620052.58434927 0 -283620052.58434927 98395049.395158768 0 0 0 0 -41185127.660989761 -353184068.41856277 0 -353184068.41856277 -36038895.365674973 0 0 0 0 77737424.530975342 -163949677.74300337 0 -163949677.74300337 -94777666.420570374 0 0 0 0 102087415.38218784 -88346287.81059286 0 -88346287.81059286 38984030.283691406 0 0 0 0 228388188.67643738 155023987.687006 0 155023987.687006 -149015793.07301855 0 0 0 0 -227203676.42538452 160945249.67609215 0 160945249.67609215 -33755968.01346302 0 0 0 0 25924063.72303009 -61700345.992910385 0 -61700345.992910385 -33446756.007171631 0 0 0 0 -1670726.1050643921 -83600422.291852474 0 -83600422.291852474 6819851.3902995586 0 0 0 0 -21827768.357532501 -66189406.740102768 0 -66189406.740102768 53763588.124092102 0 0 0 0 1737199.8887863159 -93392073.381197214 0 -93392073.381197214 34695358.141636252 0 0 0 0 159342257.81529236 87270696.651438713 0 87270696.651438713 71003384.960647732 0 0 0 0 14717214.216447208 -29354383.003455061 0 -29354383.003455061 -13623945.028056912 0 0 0 0 -177534558.29047394 -24280734.742317498 0 -24280734.742317498 130624592.12469757 0 0 0 0 19715323.722484965 -28311865.14423392 0 -28311865.14423392 -10824722.267023694 0 0 0 0 -70271663.002985001 -48718299.284337997 0 -48718299.284337997 -22190504.408990383 0 0 0 0 5009795.9011116028 -55602695.619326353 0 -55602695.619326353 -35756493.345560312 0 0 0 0 -24088120.165950775 -31142518.277752519 0 -31142518.277752519 -41581571.041435719 0 0 0 0 -28531817.311763763 -42752180.415360451 0 -42752180.415360451 -35890546.712517709 0 0 0 0 2059310.2991140485 -27253853.928480633 0 -27253853.928480633 9377986.2594085205 0 0 0 0 322944.18006134033 -332478747.45842934 0 -332478747.45842934 -110455974.99893188 0 0 0 0 200839808.2234726 -340369174.25382042 0 -340369174.25382042 53334756.204696655 0 0 0 0 -227096415.5432663 -22043828.368309021 0 -22043828.368309021 149823268.26072693 0 0 0 0 89636725.205200195 -180962763.54331207 0 -180962763.54331207 -168630621.2830658 0 0 0 0 -169858136.04193878 -194084705.47486115 0 -194084705.47486115 490975600.69820404 0 0 0 0 -45126333.426464081 -44104926.097222328 0 -44104926.097222328 -16934016.609823704 0 0 0 0 -207769080.18994904 -18882176.573066711 0 -18882176.573066711 57763467.259838104 0 0 0 0 -5869595.5730693452 -26986986.126638662 0 -26986986.126638662 14062490.225805249 0 0 0 0 -29949124.764510155 -56274343.755426474 0 -56274343.755426474 -24817002.655162811 0 0 0 0 69320070.38609314 5893599.6219773293 0 5893599.6219773293 43635992.371736526 0 0 0 0 -27125451.267379761 46278018.555183411 0 46278018.555183411 94894328.643715858 0 0 0 0 -107095515.02382088 -119224560.64508319 0 -119224560.64508319 114462591.04879189 0 0 0 0 42581403.186626434 -16525683.054146767 0 -16525683.054146767 35789010.880899429 0 0 0 0 86812280.910606384 35175963.723428726 0 35175963.723428726 87638203.085474968 0 0 0 0 -47881706.519061089 -53707629.10998404 0 -53707629.10998404 -20479609.592111588 0 0 0 0 24790062.153869025 -30934844.774028972 0 -30934844.774028972 -10784859.146714948 0 0 0 0 2490653.8345794678 -40234709.749786377 0 -40234709.749786377 -8271513.4444122314 0 0 0 0 -24023008.446735382 -30401454.37959671 0 -30401454.37959671 -9124968.7047821283 0 0 0 0 -23917666.629596706 -33747100.918782815 0 -33747100.918782815 23668326.279888112 0 0 0 0 818232654.11619949 123744481.27922058 0 123744481.27922058 -336325338.6378479 0 0 0 0 -8739081.8826465663 -21332676.272778019 0 -21332676.272778019 8112554.6633187979 0 0 0 0 31173204.764696844 -19391465.230430089 0 -19391465.230430089 -13114635.624322332 0 0 0 0 28210175.576721191 -14226140.581083298 0 -14226140.581083298 -15382613.17738235 0 0 0 0 66742228.172346622 -25817156.78263855 0 -25817156.78263855 -87263070.460678101 0 0 0 0 -17611584.699064255 -25290386.138856888 0 -25290386.138856888 10871177.002639771 0 0 0 0 29133577.932456627 -11854906.702281179 0 -11854906.702281179 -15069577.038505539 0 0 0 0 728558.32968372852 -649663.84442428476 0 -649663.84442428476 -678681.09186339378 0 0 0 0 55104013.525138855 128675336.65887451 0 128675336.65887451 -6435449.4345397949 0 0 0 0 8273660.2272365093 -5511914.8654022217 0 -5511914.8654022217 -43847605.668823242 0 0 0 0 15246468.583851814 41735304.936813354 0 41735304.936813354 -88279849.093460083 0 0 0 0 1508315.3853167566 43286.678922977298 0 43286.678922977298 -1643912.1268795878 0 0 0 0 945845.16834912263 -2945871.3786229221 0 -2945871.3786229221 1035942.8187978975 0 0 0 0 -535527355.36796856 -753004229.67131424 0 -753004229.67131424 -303730754.32955933 0 0 0 0 -335737131.5718689 249605495.02134705 0 249605495.02134705 -201470058.3684082 0 0 0 0 24148400.569672585 259627461.941185 0 259627461.941185 -884472510.93878746 0 0 0 0 2559154.2861330509 165696554.14702606 0 165696554.14702606 -196226921.39837646 0 0 0 0 -543721014.87011147 -449043770.68896866 0 -449043770.68896866 -400768549.76834869 0 0 0 0 -647457522.92718887 -585422094.53508759 0 -585422094.53508759 -96468163.184410095 0 0 0 0 -515016645.38450623 -512899593.40838623 0 -512899593.40838623 -336697497.43115234 0 0 0 0 -454650669.71146011 -634149686.95067596 0 -634149686.95067596 -737369838.96740794 0 0 0 0 -1506646705.266798 -59490419.976074219 0 -59490419.976074219 48418316.553215027 0 0 0 0 -564044184.77613306 -405686159.63973427 0 -405686159.63973427 25499356.093811035 0 0 0 0 -1482596.4422912109 938417.07979894243 0 938417.07979894243 1442008.0138514005 0 0 0 0 -2950984633.4876251 -909980016.22103882 0 -909980016.22103882 32406106.239595652 0 0 0 0 -923163928.22323513 752997161.33093834 0 752997161.33093834 -228173227.80303955 0 0 0 0 201043468.02154541 151622156.96032715 0 151622156.96032715 -386702273.01803589 0 0 0 0 1417709653.2040863 414878714.7182579 0 414878714.7182579 950357488.33961487 0 0 0 0 665825652.31664181 -1179947097.2199554 0 -1179947097.2199554 -371827107.19846344 0 0 0 0 -2259313566.8937836 808233346.22677612 0 808233346.22677612 108125272.56192017 0 0 0 0 1313313989.9713802 -1604883160.4189625 0 -1604883160.4189625 -854047393.50540161 0 0 0 0 -897813.15701082535 -3868683.6270394707 0 -3868683.6270394707 -5643947.472340785 0 0 0 0 1788058058.8274994 -1163456636.9683838 0 -1163456636.9683838 -1538087443.2637939 0 0 0 0 1225366600.860672 190597116.55384827 0 190597116.55384827 -2098014511.7440872 0 0 0 0 452513481.1384201 -630491889.39251709 0 -630491889.39251709 -987299056.10492706 0 0 0 0 1068535503.5598373 -1155154814.6615953 0 -1155154814.6615953 -1630079563.2146454 0 0 0 0 -18997432.23864685 -15027797.853745235 0 -15027797.853745235 12507572.724491369 0 0 0 0 -4113813190.6013031 -1214812842.554184 0 -1214812842.554184 -132454527.90831757 0 0 0 0 -2254954896.5110474 -4407700974.0671692 0 -4407700974.0671692 -2742159908.975769 0 0 0 0 -4033691568.9195976 -751861388.49430847 0 -751861388.49430847 630051801.94448853 0 0 0 0 -894981646.15686798 -771329343.54737663 0 -771329343.54737663 -81835182.846187592 0 0 0 0 -600751034.22427368 -951945166.94270706 0 -951945166.94270706 -613521345.38243103 0 0 0 0 15326286.65212822 -41419894.603775024 0 -41419894.603775024 -72885713.060564995 0 0 0 0 25399619.069240332 -17490060.190764315 0 -17490060.190764315 3912589.3245094866 0 0 0 0 -452188612.22738647 -335865161.08078384 0 -335865161.08078384 -487875814.21760368 0 0 0 0 -728999750.92045593 -191163731.54617691 0 -191163731.54617691 537058690.00997162 0 0 0 0 852489829.79470825 186012670.04496002 0 186012670.04496002 51464528.816436768 0 0 0 0 -700680496.92637634 94410429.02872467 0 94410429.02872467 948465419.76401901 0 0 0 0 -537461.97282930464 -5924845.5456988029 0 -5924845.5456988029 1702390.0868231512 0 0 0 0 -13452940.918807983 -46099005.673717499 0 -46099005.673717499 50332883.705135345 0 0 0 0 22604787.66186545 -11427835.17107147 0 -11427835.17107147 597253.7165799737 0 0 0 0 521481115.43560028 -1358428658.4862292 0 -1358428658.4862292 -1332774289.7892265 0 0 0 0 -88132065.71450901 -149494221.17143631 0 -149494221.17143631 -85175608.191970825 0 0 0 0 65251739.218744278 -164318259.57928467 0 -164318259.57928467 -305568948.53072739 0 0 0 0 131454045.19669724 -48795955.254852295 0 -48795955.254852295 -304225624.07096863 0 0 0 0 66304978.639543533 -70317147.146362305 0 -70317147.146362305 -209995460.79318428 0 0 0 0 112934089.13596916 -97055545.244762421 0 -97055545.244762421 -215385968.21147156 0 0 0 0 31184371.358243704 198857492.34282684 0 198857492.34282684 -312727055.46502686 0 0 0 0 139779210.43116093 -37354531.994506836 0 -37354531.994506836 -360820260.79180145 0 0 0 0 64996009.535678864 -23504881.509857178 0 -23504881.509857178 -193134635.42017365 0 0 0 0 65579582.999998093 55384705.624710083 0 55384705.624710083 -255027718.91120911 0 0 0 0 35946410.9246068 35566642.988723755 0 35566642.988723755 -158595021.67172241 0 0 0 0 56455666.04423219 5880213.0136566162 0 5880213.0136566162 -163639623.65983391 0 0 0 0 32987065.884370685 79185124.730916977 0 79185124.730916977 -266891451.65866089 0 0 0 0 13679758.606833458 -22745340.71975708 0 -22745340.71975708 3744332.1158294678 0 0 0 0 39041278.559295923 -15200798.138952354 0 -15200798.138952354 -8822550.1779775005 0 0 0 0 32454602.61429882 -20029562.212120056 0 -20029562.212120056 -95039333.528320312 0 0 0 0 48030893.015414238 13462836.912094116 0 13462836.912094116 -76911247.875350952 0 0 0 0 3238999.6571102142 -82925278.551052094 0 -82925278.551052094 -86755490.572494507 0 0 0 0 40847129.456710815 -53581534.223243713 0 -53581534.223243713 -98208051.590866089 0 0 0 0 63576405.470602989 -30331987.190496445 0 -30331987.190496445 -104580565.26246643 0 0 0 0 -326079886.09553528 -368727022.26295853 0 -368727022.26295853 -288040846.79553986 0 0 0 0 37580863.598400593 -5869131.4964315891 0 -5869131.4964315891 -3412054.6028594971 0 0 0 0 28730841.933853433 -20828389.849818517 0 -20828389.849818517 3010610.6780005135 0 0 0 0 -477321206.88611984 -165769751.62946415 0 -165769751.62946415 51734667.622467041 0 0 0 0 -268615151.54386902 -104694981.20307159 0 -104694981.20307159 11597467.9412117 0 0 0 0 -121571948.80374146 -167339834.65000725 0 -167339834.65000725 -35792226.160984039 0 0 0 0 -194001443.49716187 -187022524.51111984 0 -187022524.51111984 -38588328.353240967 0 0 0 0 6750866.7212186791 2988138.7487585358 0 2988138.7487585358 -5227348.1687375326 0 0 0 0 -290474893.30886841 -97475545.155841827 0 -97475545.155841827 84756785.51285553 0 0 0 0 2502455.5750350952 -33087832.598075867 0 -33087832.598075867 -13360848.171739578 0 0 0 0 97452420.672271729 -18581906.5050354 0 -18581906.5050354 -18156547.936653137 0 0 0 0 19454868.816478413 -9128369.2055626325 0 -9128369.2055626325 -4987899.7391867861 0 0 0 0 107114546.89090729 -97962729.594759464 0 -97962729.594759464 95519780.728225708 0 0 0 0 13278565.960472107 -58941522.449648857 0 -58941522.449648857 -25315794.687023163 0 0 0 0 -164897387.07209778 -24877299.510543823 0 -24877299.510543823 21723144.421382904 0 0 0 0 -156091754.58351898 19124173.896878242 0 19124173.896878242 56128969.503707886 0 0 0 0 -220614178.57595825 -73034681.030601501 0 -73034681.030601501 77528538.700276852 0 0 0 0 -284924515.6309166 10834249.421416283 0 10834249.421416283 154435514.43201447 0 0 0 0 -127819540.94937897 135280524.0217247 0 135280524.0217247 136314043.10790825 0 0 0 0 -158090949.65179443 85910902.298566818 0 85910902.298566818 84354393.162733078 0 0 0 0 -236706862.72227478 80144009.916309357 0 80144009.916309357 238116119.27119446 0 0 0 0 -390019495.32815933 -51785636.026260376 0 -51785636.026260376 173310677.42502213 0 0 0 0 -130287641.33213043 143738611.87402534 0 143738611.87402534 214571581.53455162 0 0 0 0 -125632275.14574432 93831511.681386948 0 93831511.681386948 449496046.01804161 0 0 0 0 -55060373.575836182 19873548.691386223 0 19873548.691386223 16608768.397092819 0 0 0 0 295107135.66358185 196283081.28996754 0 196283081.28996754 87736934.523298264 0 0 0 0 141773318.61776018 89182282.518031955 0 89182282.518031955 -102623711.78157234 0 0 0 0 -271553395.54043961 70771561.203539371 0 70771561.203539371 11663304.340658188 0 0 0 0 -35301367.836074829 -72701075.991576195 0 -72701075.991576195 -284506191.09841919 0 0 0 0 -229096297.01889038 -258372202.06027126 0 -258372202.06027126 -443975165.00787163 0 0 0 0 -22447294.703872681 -33237482.796153069 0 -33237482.796153069 -183073962.03071785 0 0 0 0 151404732.58074951 -11761983.911181927 0 -11761983.911181927 -317531399.54166412 0 0 0 0 298407654.09140778 -112008687.65488911 0 -112008687.65488911 -121488195.2613554 0 0 0 0 -129748825.52166891 -351320819.67738289 0 -351320819.67738289 -255182475.52245522 0 0 0 0 7321271.6101414543 -5748516.6734783053 0 -5748516.6734783053 -2761405.573690339 0 0 0 0 -163763205.10336304 35323097.394210815 0 35323097.394210815 22860532.862781525 0 0 0 0 1778382.4862728994 -1972534.4824381545 0 -1972534.4824381545 -990980.04277077131 0 0 0 0 -416324747.53050232 -77578384.616879463 0 -77578384.616879463 -108579574.03203106 0 0 0 0 112658579.40389252 338608521.59114122 0 338608521.59114122 -352677371.63145256 0 0 0 0 -510909.59709690139 -727023.63751407713 0 -727023.63751407713 -563481.89104570821 0 0 0 0 117749211.13226318 355843850.1389122 0 355843850.1389122 -453395667.88164067 0 0 0 0 224617589.68995667 -186044027.57824612 0 -186044027.57824612 -122402215.7918129 0 0 0 0 227172345.72085571 -112000375.61003399 0 -112000375.61003399 41862255.803315163 0 0 0 0 -1450053.6908932924 -1884838.3439877555 0 -1884838.3439877555 -923638.6999442298 0 0 0 0 -372169116.14057922 465726902.57953453 0 465726902.57953453 -189708783.77560425 0 0 0 0 239164998.10076904 -570725461.4910183 0 -570725461.4910183 -492073689.72257149 0 0 0 0 -2552498.3855919987 -2679617.587146027 0 -2679617.587146027 -22640.604662589729 0 0 0 0 87250575.578491211 -474181888.73251247 0 -474181888.73251247 201591463.50536919 0 0 0 0 192135548.50217438 -394959614.34347057 0 -394959614.34347057 -106937326.72558784 0 0 0 0 49517837.848239899 -171951287.37342811 0 -171951287.37342811 36857768.624671936 0 0 0 0 129243868.66627502 -265205835.00561142 0 -265205835.00561142 132898455.38066483 0 0 0 0 131359818.26126099 -257948555.78696632 0 -257948555.78696632 121815001.65210915 0 0 0 0 61223651.808601379 72664579.032258034 0 72664579.032258034 -270895284.80449677 0 0 0 0 130700320.68066406 88287791.023569107 0 88287791.023569107 -706119226.15432835 0 0 0 0 57270823.078468323 53629359.667701244 0 53629359.667701244 -351810445.09697723 0 0 0 0 -150188783.36732483 27160077.151807785 0 27160077.151807785 282706062.76039314 0 0 0 0 -159891999.56564331 250598062.36388969 0 250598062.36388969 -144758689.39399338 0 0 0 0 31026838.746147156 -175560863.8530302 0 -175560863.8530302 213534631.09194255 0 0 0 0 -39394585.890434265 100179143.82051659 0 100179143.82051659 -78432541.813955307 0 0 0 0 17029431.432319641 9157670.0573234558 0 9157670.0573234558 30313135.310268402 0 0 0 0 -44111932.966712952 33374132.915112495 0 33374132.915112495 85565007.865918159 0 0 0 0 -7089788.6406097412 -12740744.97790432 0 -12740744.97790432 64973588.555655479 0 0 0 0 -6889457.9474284053 15703259.360892728 0 15703259.360892728 38866609.583021164 0 0 0 0 -4313283.8052215576 13716254.315324783 0 13716254.315324783 40385722.033193588 0 0 0 0 -33602267.188459396 -379684568.25533605 0 -379684568.25533605 -39862368.019285202 0 0 0 0 139134502.74719238 -58748308.43504405 0 -58748308.43504405 5867362.6369010061 0 0 0 0 -125258585.69743633 -37707771.488004237 0 -37707771.488004237 9502217.942858696 0 0 0 0 -3480125.1343358457 -3963341.6698671039 0 -3963341.6698671039 441221.27249483764 0 0 0 0 2486248.6339153871 -3358461.078435747 0 -3358461.078435747 -1468296.3772474676 0 0 0 0 -297007.18522592634 -4222224.2144552004 0 -4222224.2144552004 -2808754.8029910251 0 0 0 0 42931216.67124939 -61120584.396306872 0 -61120584.396306872 216962210.90656281 0 0 0 0 -26585781.777915955 -135239272.32564592 0 -135239272.32564592 519822137.63121128 0 0 0 0 383657631.82643127 160912674.91332626 0 160912674.91332626 61276557.857150555 0 0 0 0 450841746.6484375 624170766.17904472 0 624170766.17904472 373436786.38575745 0 0 0 0 8193272.0603027344 -401706648.1255722 0 -401706648.1255722 408865182.63594532 0 0 0 0 760371499.46246147 14428980.658508182 0 14428980.658508182 -178358384.02904224 0 0 0 0 617278820.35125732 -526330070.46140909 0 -526330070.46140909 -203665724.31536293 0 0 0 0 399105524.10913086 -192950195.10891771 0 -192950195.10891771 -123514534.70098925 0 0 0 0 363679208.58174133 -181957310.58244729 0 -181957310.58244729 -125293088.97147554 0 0 0 0 330709869.00764465 -110832841.80846477 0 -110832841.80846477 -161423988.92722702 0 0 0 0 432691212.57162476 2189273.2808651924 0 2189273.2808651924 -54007072.026068687 0 0 0 0 -4816460.1555480957 46763344.293208122 0 46763344.293208122 39200750.414060354 0 0 0 0 -83273304.462249756 32517968.018064857 0 32517968.018064857 87299672.668616772 0 0 0 0 -5588709.5631713597 -11171973.350538062 0 -11171973.350538062 -7392408.0587343192 0 0 0 0 93051057.762084961 -76612985.866657436 0 -76612985.866657436 -50606612.846228957 0 0 0 0 119743957.54850769 -62560110.438528299 0 -62560110.438528299 -65856664.257162631 0 0 0 0 40154193.703613281 -15255695.293173552 0 -15255695.293173552 -27343341.585941315 0 0 0 0 -9664362.2422026135 -8006453.2686615568 0 -8006453.2686615568 7643951.9132810347 0 0 0 0 6936951.4789619446 -13097576.01889801 0 -13097576.01889801 -1551740.5176010132 0 0 0 0 -13577800.548110962 -64157478.68421936 0 -64157478.68421936 29889343.34444046 0 0 0 0 -4768910.6594296098 -12569204.785842611 0 -12569204.785842611 -13708043.556220837 0 0 0 0 399755379.51998138 -346488298.90729141 0 -346488298.90729141 15931288.584584236 0 0 0 0 15441948.645172119 -181003071.22557425 0 -181003071.22557425 8591443.1658401489 0 0 0 0 360959114.09525299 -174759102.4344348 0 -174759102.4344348 -61728770.271345377 0 0 0 0 -96357996.023742676 -224284300.87257195 0 -224284300.87257195 -140075993.5046463 0 0 0 0 -3073923.7544298396 -7300402.6327573098 0 -7300402.6327573098 -8731661.6000290569 0 0 0 0 190396736.83416748 197577737.95464611 0 197577737.95464611 289256662.07135582 0 0 0 0 39620350.42212677 44723356.902616501 0 44723356.902616501 53716873.480142593 0 0 0 0 20929.40089330636 -183182.96421991847 0 -183182.96421991847 -12153039.176926743 0 0 0 0 5613450.1850713044 163741.91247159662 0 163741.91247159662 -4435859.998614816 0 0 0 0 73934588.16942215 54968961.952038765 0 54968961.952038765 13820581.790687561 0 0 0 0 213728119.55672073 -162851453.70051765 0 -162851453.70051765 114532619.75694275 0 0 0 0 -238415844.90391541 -587335373.38323164 0 -587335373.38323164 -489488021.8436718 0 0 0 0 -938987147.95588684 -1212307698.7617795 0 -1212307698.7617795 -874009016.29849482 0 0 0 0 -1873805.744360283 -1811159.6235638335 0 -1811159.6235638335 526105.53355192917 0 0 0 0 -36973105.828691006 -180012146.05808389 0 -180012146.05808389 -972569634.64797926 0 0 0 0 -6994306.329782486 158702100.27692378 0 158702100.27692378 -162398855.9785285 0 0 0 0 2758662.0068404302 -3298476.1252512615 0 -3298476.1252512615 -1773639.3924209517 0 0 0 0 167007770.34050751 -47390291.167007267 0 -47390291.167007267 -65249239.117565393 0 0 0 0 1216070.4365210794 -1108404.7042628508 0 -1108404.7042628508 -876777.06417964632 0 0 0 0 725924819.92997742 39545376.626807213 0 39545376.626807213 -63847056.69495865 0 0 0 0 -142227790.01675606 -252042066.55247676 0 -252042066.55247676 257616403.44783688 0 0 0 0 340625668.56108856 -239708614.54148722 0 -239708614.54148722 -66236481.184131622 0 0 0 0 -529946009.55960083 -624116677.9943552 0 -624116677.9943552 196940947.50832748 0 0 0 0 -401359445.5826416 -739903252.2665019 0 -739903252.2665019 188670211.2494483 0 0 0 0 -369837735.36556911 -795898572.22303665 0 -795898572.22303665 -105194671.12420273 0 0 0 0 -661754831.09742737 -981081632.46606445 0 -981081632.46606445 -129508708.48295593 0 0 0 0 -389483502.53720093 -688387696.84034586 0 -688387696.84034586 37099007.966293335 0 0 0 0 -1041049950.5928497 -573443490.80418611 0 -573443490.80418611 -175975286.97085762 0 0 0 0 -440770863.76048279 -919589183.35264969 0 -919589183.35264969 -721578879.95408201 0 0 0 0 -1361338329.7439804 -1396004798.7201505 0 -1396004798.7201505 480097470.24313068 0 0 0 0 -453604431.84401131 -1153928601.8717611 0 -1153928601.8717611 -7113895.6350460052 0 0 0 0 -2572576.5703324731 -5036574.5046627149 0 -5036574.5046627149 2041917.2673088424 0 0 0 0 -64097628.71496582 -44253822.23658371 0 -44253822.23658371 2392494.2347888947 0 0 0 0 123774925.91340637 1165625897.8468113 0 1165625897.8468113 -1696191703.5382576 0 0 0 0 -344711741.7126236 -1251192972.4251742 0 -1251192972.4251742 -852560387.94300556 0 0 0 0 475826381.74047852 -555450709.13679123 0 -555450709.13679123 -2469744508.1695595 0 0 0 0 393705083.16278839 -604026003.62161684 0 -604026003.62161684 -1179827686.3975792 0 0 0 0 -33421961.771102905 30266175.667556763 0 30266175.667556763 -1453936098.3535919 0 0 0 0 -1680240200.5274277 -641542970.38548708 0 -641542970.38548708 302346130.43759584 0 0 0 0 -880767.11183100194 -2356818.4495507926 0 -2356818.4495507926 -3334088.6897882689 0 0 0 0 -1274430239.474411 113538269.23684978 0 113538269.23684978 -143123980.47285271 0 0 0 0 2871711.7296303026 -83480.57802912686 0 -83480.57802912686 -2530286.6991216689 0 0 0 0 -108392532.08719635 -230277477.86135197 0 -230277477.86135197 -924209679.25694847 0 0 0 0 -138264290.69276428 425048687.79484177 0 425048687.79484177 101179280.29943848 0 0 0 0 -776015.58403682709 162391744.43583226 0 162391744.43583226 -99624248.506755829 0 0 0 0 -978375798.84867477 -1034775011.5522962 0 -1034775011.5522962 -924931060.43033504 0 0 0 0 621701.46595156426 2106628.9431430455 0 2106628.9431430455 -5286704.3395561315 0 0 0 0 834769372.49454451 -255567083.95756996 0 -255567083.95756996 -1709279387.2243443 0 0 0 0 -408228486.82000732 -482277019.5345726 0 -482277019.5345726 -400821770.81036615 0 0 0 0 -279132334.04723358 -852264233.51193619 0 -852264233.51193619 -1038152221.4676151 0 0 0 0 16555881.694900513 -658339568.88975906 0 -658339568.88975906 -946457917.27349746 0 0 0 0 105808011.14108276 -752814655.80816698 0 -752814655.80816698 -1291564387.744962 0 0 0 0 102828037.62888336 -818944632.72260571 0 -818944632.72260571 -1293316699.3927345 0 0 0 0 21085210.485397339 175432830.70791435 0 175432830.70791435 -848237776.33008242 0 0 0 0 77997441.534446716 -583284513.05845833 0 -583284513.05845833 -791221954.83761215 0 0 0 0 136257491.43680191 -674548969.55119908 0 -674548969.55119908 -2286345742.1950932 0 0 0 0 -252287042.10509491 839320428.19219589 0 839320428.19219589 -1675193506.270956 0 0 0 0 -179162298.87004471 443233196.71087205 0 443233196.71087205 187294078.49755287 0 0 0 0 -192819722.96269989 57013380.406169176 0 57013380.406169176 -73993456.397353172 0 0 0 0 -292333635.95505524 -44157290.356915951 0 -44157290.356915951 244140260.9910121 0 0 0 0 -171608783.17585373 245334014.66870368 0 245334014.66870368 343488211.94311714 0 0 0 0 1008972550.0973587 -424658453.05569029 0 -424658453.05569029 -1534366077.5459023 0 0 0 0 863446930.22496414 -802029691.19518566 0 -802029691.19518566 -2192662334.7493887 0 0 0 0 -1026138883.5583954 -1038390593.5098791 0 -1038390593.5098791 -617724097.1957531 0 0 0 0 -1487126200.1449432 459711383.04946899 0 459711383.04946899 170532431.02310944 0 0 0 0 -334929897.13822174 -81993549.115810871 0 -81993549.115810871 228656614.1083107 0 0 0 0 -511867991.28262329 -243785368.49350822 0 -243785368.49350822 1398029024.214325 0 0 0 0 -752202923.07627869 226644082.15718997 0 226644082.15718997 1985371072.0185275 0 0 0 0 320045179.57756042 -27612206.781464219 0 -27612206.781464219 87743147.39778626 0 0 0 0 239256922.37872696 -74747263.354035616 0 -74747263.354035616 936426698.76195097 0 0 0 0 -5880224.3223506566 -7982198.6776547348 0 -7982198.6776547348 -908098.4955374687 0 0 0 0 -107745125.67726135 -310687556.84477425 0 -310687556.84477425 901413309.35650349 0 0 0 0 -425616045.31548119 211815943.73840886 0 211815943.73840886 51248498.828971356 0 0 0 0 15337727.972900391 9182656.0103235245 0 9182656.0103235245 26748325.486352921 0 0 0 0 -2813227.8233731836 1286356.1797283757 0 1286356.1797283757 4760963.852695806 0 0 0 0 -437545659.05361938 -886419500.76467848 0 -886419500.76467848 2101922297.3866487 0 0 0 0 -18501564.42195246 -8482897.2802158799 0 -8482897.2802158799 18086699.314999498 0 0 0 0 -18963172.991035461 -27422544.042232513 0 -27422544.042232513 507120.37859725952 0 0 0 0 9415455.673248291 -7207396.0346250534 0 -7207396.0346250534 332622032.46534348 0 0 0 0 89296107.367126465 86481060.850432634 0 86481060.850432634 432731163.75832605 0 0 0 0 -9181018.9230541363 -22587671.078621656 0 -22587671.078621656 -921689.03560023173 0 0 0 0 266360673.29718018 -215731951.35924774 0 -215731951.35924774 656742408.24411023 0 0 0 0 3262785.1997680664 -753615490.69187784 0 -753615490.69187784 657417210.31180382 0 0 0 0 -270856520.72258377 138524816.77805567 0 138524816.77805567 799838308.80718672 0 0 0 0 248393368.44877625 -606881576.29107738 0 -606881576.29107738 1176617822.4170718 0 0 0 0 428305530.2166748 191141469.73436499 0 191141469.73436499 1600004671.3415918 0 0 0 0 -22442.504388019443 -508924.30808300339 0 -508924.30808300339 -484270.36143585935 0 0 0 0 -19280666.126003265 -26012302.634846687 0 -26012302.634846687 13886834.421081543 0 0 0 0 -44077421.210086823 -12532856.318869591 0 -12532856.318869591 9605967.9098377228 0 0 0 0 -7309901.1373792551 -12041583.177307863 0 -12041583.177307863 7876444.2528448673 0 0 0 0 119848814.01009369 317365556.71424723 0 317365556.71424723 396868598.02190542 0 0 0 0 -56878163.524604797 -27550123.293575287 0 -27550123.293575287 -2330287.010175705 0 0 0 0 -273291178.55546951 -735325091.99455118 0 -735325091.99455118 250149128.79398155 0 0 0 0 -157233386.12017822 223874244.6070466 0 223874244.6070466 577648107.29412961 0 0 0 0 46550192.784861565 -303079895.10078621 0 -303079895.10078621 -201190949.39836502 0 0 0 0 -160975775.26323128 420001759.42751074 0 420001759.42751074 497521918.64226532 0 0 0 0 599895537.65895653 -246463289.43523169 0 -246463289.43523169 -1200762471.0688429 0 0 0 0 499301591.84632444 345454565.65920687 0 345454565.65920687 397289226.55581856 0 0 0 0 -2928133.8716234881 3256161.3888383061 0 3256161.3888383061 1358107.9615903459 0 0 0 0 -267067876.10345125 -626478912.53855824 0 -626478912.53855824 -507261926.44295835 0 0 0 0 -39260153.174167633 -579672685.18693054 0 -579672685.18693054 -219638962.83283415 0 0 0 0 176268221.31720352 -265584986.27159491 0 -265584986.27159491 -225541143.47659752 0 0 0 0 -269739646.80299759 222928082.94516152 0 222928082.94516152 186752509.62879598 0 0 0 0 -331997114.48232269 89469130.976070642 0 89469130.976070642 -76008469.26612854 0 0 0 0 67967.189334373921 -663027.99972331617 0 -663027.99972331617 -2774651.5358616104 0 0 0 0 -54267685.887825012 -456986356.01695919 0 -456986356.01695919 -763832194.39315701 0 0 0 0 -1587393502.6716957 -140033708.1974926 0 -140033708.1974926 -159731799.41831589 0 0 0 0 -653378201.76489258 194786430.02498627 0 194786430.02498627 -104985602.84301186 0 0 0 0 -795835598.08627224 -616195032.69548798 0 -616195032.69548798 -348415544.41294289 0 0 0 0 78878211.131567001 -463592363.64702475 0 -463592363.64702475 -475686720.19765854 0 0 0 0 -54382743.412519455 -459746455.83729553 0 -459746455.83729553 -370467861.60314369 0 0 0 0 453091119.99664783 -303733822.04031944 0 -303733822.04031944 -778459397.81569862 0 0 0 0 -23746919.704647541 381125558.86003971 0 381125558.86003971 116570006.87398529 0 0 0 0 94133734.057415009 456836172.53144836 0 456836172.53144836 -1364193907.8717461 0 0 0 0 -954669699.73627472 -1167058975.0563469 0 -1167058975.0563469 -1276093606.6602287 0 0 0 0 -761615534.27469635 -36317146.889350891 0 -36317146.889350891 414140692.21411514 0 0 0 0 -86403199.395523071 -158294589.86980057 0 -158294589.86980057 408228197.44813561 0 0 0 0 478667180.01366425 272796568.91386414 0 272796568.91386414 124948220.59026146 0 0 0 0 15228034.647935867 -181057664.05005264 0 -181057664.05005264 -242821564.545578 0 0 0 0 -5052255.3071235865 5829896.1927199578 0 5829896.1927199578 1928668.8425806537 0 0 0 0 84661689.983827576 -437921886.58182335 0 -437921886.58182335 -166395663.64198303 0 0 0 0 528587526.74366856 -213298269.86795044 0 -213298269.86795044 -386962868.49499512 0 0 0 0 236340724.03991318 -413803793.31148911 0 -413803793.31148911 -543976621.03943634 0 0 0 0 875095488.95991707 552556354.72142124 0 552556354.72142124 -271309550.07833481 0 0 0 0 -5172237.1280224621 6140599.7513317429 0 6140599.7513317429 1587647.2639393266 0 0 0 0 636624073.46573257 41739572.632167816 0 41739572.632167816 -479047004.03836155 0 0 0 0 454227884.76736867 -48092100.092561722 0 -48092100.092561722 -304686727.12650299 0 0 0 0 391124131.31280613 249095986.53447437 0 249095986.53447437 -1505606749.7387466 0 0 0 0 -641326443.5806942 -1140113249.1144943 0 -1140113249.1144943 -987589952.53359604 0 0 0 0 34594934.289792091 -435327993.40794373 0 -435327993.40794373 -270529695.34494781 0 0 0 0 32651611.693638563 -374765840.7580719 0 -374765840.7580719 -241723975.53079224 0 0 0 0 -32146364.402826428 -314409451.95684052 0 -314409451.95684052 -431992878.26978302 0 0 0 0 82476671.055847168 -459578515.75471497 0 -459578515.75471497 -269083609.45369339 0 0 0 0 -43828891.654801041 -406941468.67157745 0 -406941468.67157745 -280698122.37295532 0 0 0 0 -118620015.25468731 -162966221.09316254 0 -162966221.09316254 277941651.58474731 0 0 0 0 -235874265.10310078 -128007070.78316498 0 -128007070.78316498 -197482564.75577164 0 0 0 0 -379468685.10383719 -11965390.436067581 0 -11965390.436067581 423966989.86967468 0 0 0 0 -1585035.9387136647 -3043389.0175665021 0 -3043389.0175665021 2205756.5815160051 0 0 0 0 -54160060.7539711 -193632493.85992432 0 -193632493.85992432 292379133.71759033 0 0 0 0 22487102.477081299 -552848068.16955566 0 -552848068.16955566 -622809603.57056832 0 0 0 0 191511485.82434464 -335189408.98313141 0 -335189408.98313141 -630316905.16049957 0 0 0 0 8886651.4423370361 -341159868.85388184 0 -341159868.85388184 -28353905.261688232 0 0 0 0 -3220750.2171231466 -1881304.516389912 0 -1881304.516389912 2497692.0304608997 0 0 0 0 -446559231.59919548 -444692839.16091919 0 -444692839.16091919 -250990826.44173849 0 0 0 0 85156315.649655581 -25171791.132019043 0 -25171791.132019043 322779502.47093201 0 0 0 0 62075946.262121201 -109292395.30838394 0 -109292395.30838394 105356606.55691528 0 0 0 0 -28435403.860855103 -217247932.70523071 0 -217247932.70523071 291668355.4302206 0 0 0 0 6966605.4112548828 -176542192.5874939 0 -176542192.5874939 -28405709.134307861 0 0 0 0 -24716267.945906043 -307547960.82631993 0 -307547960.82631993 -59675698.145874023 0 0 0 0 -24633372.147301674 -303362585.00239301 0 -303362585.00239301 134782150.77886963 0 0 0 0 49688353.690841675 -124383712.79473877 0 -124383712.79473877 181478055.27890015 0 0 0 0 52757422.514442444 -129309039.17993164 0 -129309039.17993164 19813947.625091553 0 0 0 0 -54021263.717708588 41852656.467330933 0 41852656.467330933 -5930188.0415086746 0 0 0 0 4811278.804265976 -97770914.658374786 0 -97770914.658374786 188258777.56069946 0 0 0 0 -104500824.49938011 51863177.246572495 0 51863177.246572495 583718692.47486877 0 0 0 0 -16064077.270427704 15343596.247776031 0 15343596.247776031 -50633979.10263443 0 0 0 0 -1234798.3376884549 -9935507.7581170797 0 -9935507.7581170797 -3966551.6109894589 0 0 0 0 -170465074.10841942 -118491426.74153137 0 -118491426.74153137 471878275.05628204 0 0 0 0 -271560197.43415499 12517881.996414661 0 12517881.996414661 261356434.59393311 0 0 0 0 -1386196.7031958969 1144067.1522417162 0 1144067.1522417162 331641.73255295306 0 0 0 0 60192733.120979309 -310390.81940460205 0 -310390.81940460205 -33576580.912414551 0 0 0 0 -589517522.31349373 -665105939.09365845 0 -665105939.09365845 -252811173.6138916 0 0 0 0 691146114.46233368 127035174.29426575 0 127035174.29426575 106172929.82456207 0 0 0 0 -2727494.8595236908 2888335.4078901988 0 2888335.4078901988 1633486.177079998 0 0 0 0 338857294.3440516 224843652.03126383 0 224843652.03126383 153668394.32033539 0 0 0 0 509838008.80703354 -383256327.8188858 0 -383256327.8188858 -773827577.16918945 0 0 0 0 -59412937.838568628 -464252669.73205012 0 -464252669.73205012 -673521106.54302979 0 0 0 0 -257619756.47619629 -661727245.09339523 0 -661727245.09339523 -454033467.21720886 0 0 0 0 -714898648.49494553 -186886340.40081787 0 -186886340.40081787 322897736.45643616 0 0 0 0 -69675097.435592651 -130228643.96453857 0 -130228643.96453857 -53856410.18027401 0 0 0 0 -110093035.69249916 -95149319.512891769 0 -95149319.512891769 -196970042.17971802 0 0 0 0 -16353460.207267761 337814867.13597107 0 337814867.13597107 -52589932.147392273 0 0 0 0 358502036.23558807 6715584.7266159058 0 6715584.7266159058 -830756730.73539734 0 0 0 0 251574092.53404236 554779404.93082428 0 554779404.93082428 -228891624.85107422 0 0 0 0 8446574.2451171875 148721334.31300354 0 148721334.31300354 565657169.69827271 0 0 0 0 3892646.2002182007 -15200503.123111725 0 -15200503.123111725 298665.80251312256 0 0 0 0 -32318802.89491272 -78205845.041217804 0 -78205845.041217804 -11008757.078667641 0 0 0 0 -6394911.0699412692 -7571746.9881727695 0 -7571746.9881727695 2418309.6595698558 0 0 0 0 -1228405.1155914441 -12614150.380293343 0 -12614150.380293343 -14939782.727387266 0 0 0 0 -84010.949100494385 -5285245.156829834 0 -5285245.156829834 487548.57120132446 0 0 0 0 -10668191.952698506 -11732441.03327141 0 -11732441.03327141 -8977036.1970069259 0 0 0 0 -1132398.204280626 -5108527.8203182323 0 -5108527.8203182323 -2948123.503142463 0 0 0 0 935193.43783569336 -12704964.88968277 0 -12704964.88968277 -780163.24607086182 0 0 0 0 1062540.9641876221 -13627812.106983185 0 -13627812.106983185 -179806.25812911987 0 0 0 0 615420.83595371246 -14326111.704139948 0 -14326111.704139948 -860149.95000457764 0 0 0 0 -7285280.0046726689 -18643963.899859123 0 -18643963.899859123 -19429287.392670244 0 0 0 0 -17694553.797833972 -35702019.248884887 0 -35702019.248884887 -17723209.27600798 0 0 0 0 -25463608.750213623 -10375593.122420311 0 -10375593.122420311 -334326.05133676529 0 0 0 0 -22010546.575918991 -22983906.020525604 0 -22983906.020525604 -16013239.554114357 0 0 0 0 -2444911.7451477051 -13101628.2172997 0 -13101628.2172997 4273291.4195709229 0 0 0 0 -15552424.123646816 -15869204.068965431 0 -15869204.068965431 1734137.3613004424 0 0 0 0 41719850.459648132 -163885702.86321259 0 -163885702.86321259 670391667.75945663 0 0 0 0 -5941618.5383038111 -19276559.657170076 0 -19276559.657170076 -5764003.9516992606 0 0 0 0 25464316.112968445 4800586.4181976318 0 4800586.4181976318 269091254.18190002 0 0 0 0 -30872926.519320011 -67504152.926065624 0 -67504152.926065624 39920141.484656334 0 0 0 0 -59192433.320724487 -53240485.819205284 0 -53240485.819205284 49812208.782189369 0 0 0 0 -19733694.503771722 -8757180.4122695439 0 -8757180.4122695439 13635436.072454188 0 0 0 0 -88496897.894674301 -28532350.664467931 0 -28532350.664467931 47383570.649435043 0 0 0 0 -3267865.2598699704 -5196575.0022846088 0 -5196575.0022846088 1389308.3445036635 0 0 0 0 -60620599.708206177 -12365914.637016773 0 -12365914.637016773 27825912.605751038 0 0 0 0 -8631498.9233322144 -14986200.441214561 0 -14986200.441214561 5689944.7764463425 0 0 0 0 -41461468.894577026 -28534965.323387146 0 -28534965.323387146 26258066.502932549 0 0 0 0 -17763595.291473389 -37642554.253488541 0 -37642554.253488541 19836819.731784821 0 0 0 0 -12634809.344827641 -14848036.171642538 0 -14848036.171642538 1760711.7776164543 0 0 0 0 -23200621.096786499 -7278252.4812393188 0 -7278252.4812393188 8210969.7641916275 0 0 0 0 -16407731.155632019 -43014195.184700012 0 -43014195.184700012 -63945885.70989418 0 0 0 0 -25801083.988556623 -96033605.863529205 0 -96033605.863529205 -169397167.29208374 0 0 0 0 17820773.26448822 -41302292.027021408 0 -41302292.027021408 -95123631.623924255 0 0 0 0 -93111497.480171204 97038468.278007507 0 97038468.278007507 245703515.25657272 0 0 0 0 37684721.998224258 -55084686.910079956 0 -55084686.910079956 -46594513.814649582 0 0 0 0 -2381580.4343817574 -19339497.395035572 0 -19339497.395035572 -10609573.089031059 0 0 0 0 28624230.317464828 -43723810.170310974 0 -43723810.170310974 -42443035.535491943 0 0 0 0 19504411.669260979 -32002238.491815567 0 -32002238.491815567 -54244131.713195801 0 0 0 0 39597425.469376564 -46296000.257400513 0 -46296000.257400513 -59385994.236410141 0 0 0 0 10899315.892242432 -3915804.6466779709 0 -3915804.6466779709 28154462.522929668 0 0 0 0 -1784100.442606926 -50166703.123790741 0 -50166703.123790741 6460234.1455841064 0 0 0 0 -8369530.0914114099 -42387597.803608909 0 -42387597.803608909 -25414365.375786144 0 0 0 0 -3641076.5829544067 -83941422.558708191 0 -83941422.558708191 9153277.694984436 0 0 0 0 -12809354.684383392 -81964870.213356018 0 -81964870.213356018 -81095115.735809326 0 0 0 0 -313173.0415149699 -2213058.2354972269 0 -2213058.2354972269 1964284.8120578602 0 0 0 0 -90780426.281827927 -60096857.611637115 0 -60096857.611637115 7813903.8461151123 0 0 0 0 21646158.98498106 -32226500.038957596 0 -32226500.038957596 14079156.185821533 0 0 0 0 -10506635.938770805 -28051807.00809234 0 -28051807.00809234 1535483.4691285528 0 0 0 0 49231627.531752586 -17470153.902820587 0 -17470153.902820587 -21783289.015357971 0 0 0 0 -77655727.326913834 -116873057.16874695 0 -116873057.16874695 -96443641.719261169 0 0 0 0 4167688.7885114858 -3648426.4425419862 0 -3648426.4425419862 -4339509.3908404186 0 0 0 0 65102195.922945976 39406283.733707428 0 39406283.733707428 -47757068.65826416 0 0 0 0 141049812.29656601 -99189351.906227112 0 -99189351.906227112 -146148019.46383667 0 0 0 0 73847285.042024612 28104025.449398041 0 28104025.449398041 -128036390.17625332 0 0 0 0 78448668.130986452 -848268.656208992 0 -848268.656208992 -60068573.168685913 0 0 0 0 -147075487.36981201 -193418662.55433655 0 -193418662.55433655 -244959571.00454807 0 0 0 0 42426777.662811138 -17913488.137009509 0 -17913488.137009509 -22104922.298606902 0 0 0 0 -156890213.05810738 -277097538.23383665 0 -277097538.23383665 -290478840.61262512 0 0 0 0 38938535.40811602 -9795178.1136097107 0 -9795178.1136097107 -23136427.18632108 0 0 0 0 51520876.205531359 -112479075.71050406 0 -112479075.71050406 -95058995.093284607 0 0 0 0 4823085.2620372772 -30857714.731716156 0 -30857714.731716156 -39880225.225795746 0 0 0 0 167861545.44620705 -230955414.56613541 0 -230955414.56613541 144546749.94235229 0 0 0 0 -37553904.106388569 -102786906.51140356 0 -102786906.51140356 30325966.787174225 0 0 0 0 -35185618.971979141 10900796.553663254 0 10900796.553663254 43264874.948730469 0 0 0 0 -32773399.665578842 57098077.941568375 0 57098077.941568375 75795727.494328022 0 0 0 0 -73010174.133901596 31195997.664850235 0 31195997.664850235 68918279.432701111 0 0 0 0 -111488671.01095438 28107413.420554161 0 28107413.420554161 435941964.80745697 0 0 0 0 55767665.718080521 -601707225.43196106 0 -601707225.43196106 286198149.19573593 0 0 0 0 92823042.701833725 367980742.41937256 0 367980742.41937256 75062402.803606033 0 0 0 0 -54358959.043479919 -252856532.29423523 0 -252856532.29423523 718905096.20854187 0 0 0 0 219396288.45861626 -121238992.08949852 0 -121238992.08949852 -291559199.08473396 0 0 0 0 329032847.42345428 -398148763.67297363 0 -398148763.67297363 -324883882.34848213 0 0 0 0 -2178033.5176960593 -4800374.7970863916 0 -4800374.7970863916 3360712.5888222903 0 0 0 0 -306205448.2397151 305829587.84800911 0 305829587.84800911 157364555.54859924 0 0 0 0 212587936.49534798 272039588.83361816 0 272039588.83361816 -215877948.580019 0 0 0 0 -934129.81638045982 -3502173.2155426908 0 -3502173.2155426908 -492488.57843199745 0 0 0 0 86373991.567142487 18860504.133865356 0 18860504.133865356 23518548.326770782 0 0 0 0 22123872.117757797 403775840.9179306 0 403775840.9179306 815387638.03257179 0 0 0 0 214325023.31235695 97694692.890991211 0 97694692.890991211 233306614.1660347 0 0 0 0 20022172.388557434 31147900.824440002 0 31147900.824440002 -182896542.29534912 0 0 0 0 -85389909.721159935 -51860384.336523056 0 -51860384.336523056 -4662167.314743042 0 0 0 0 233987056.60298777 -43854381.815718651 0 -43854381.815718651 -115914993.21443176 0 0 0 0 -464659862.91170883 -63552037.855863571 0 -63552037.855863571 -312629371.65431976 0 0 0 0 160547090.39215088 -115937103.4956665 0 -115937103.4956665 -77895406.155591011 0 0 0 0 -6517221.9945983887 -97730320.849502563 0 -97730320.849502563 -73602980.424495697 0 0 0 0 5986269.3219235688 -3292492.7741415054 0 -3292492.7741415054 -4414673.6994011663 0 0 0 0 77020179.885650635 80126017.718643188 0 80126017.718643188 -36456578.668777466 0 0 0 0 29936861.363769531 -41018040.84928894 0 -41018040.84928894 349191198.94813538 0 0 0 0 15236279.325141907 -188264833.25230312 0 -188264833.25230312 486709311.55783081 0 0 0 0 -105947477.82241821 167176495.31212616 0 167176495.31212616 929095938.24069214 0 0 0 0 -107543991.0241394 86591585.59683609 0 86591585.59683609 512534445.79227829 0 0 0 0 -50444798.981708527 -27194869.038541794 0 -27194869.038541794 662118358.10838318 0 0 0 0 -35508034.233566284 40461589.788170815 0 40461589.788170815 536385646.29267883 0 0 0 0 -263982275.04105568 -440209009.16145182 0 -440209009.16145182 -461587189.95013428 0 0 0 0 152955546.91830444 -765321998.12160873 0 -765321998.12160873 -361096563.90901947 0 0 0 0 -4299627.9934212267 -28273811.420992769 0 -28273811.420992769 47734473.310826182 0 0 0 0 -171544155.70502186 -321117725.5964644 0 -321117725.5964644 -341959506.96801758 0 0 0 0 -274577760.91763306 -287917579.38304901 0 -287917579.38304901 -319486469.73286438 0 0 0 0 2973986.0255850032 -668517.27499371395 0 -668517.27499371395 -2298026.3407169655 0 0 0 0 276372224.33331299 -312940694.0185585 0 -312940694.0185585 661891467.4003067 0 0 0 0 -5270325.6441131458 -29454837.352634028 0 -29454837.352634028 47800230.390632853 0 0 0 0 389009247.26660156 -1278138604.8438568 0 -1278138604.8438568 356189686.06451416 0 0 0 0 -928139998.19366455 15391897.976799011 0 15391897.976799011 -711708263.83512878 0 0 0 0 -244744122.78318787 -355778823.12677765 0 -355778823.12677765 -329723814.07815552 0 0 0 0 -250085028.78315735 -256031956.769104 0 -256031956.769104 -251220803.16609383 0 0 0 0 -180435281.40240479 -218127710.51403046 0 -218127710.51403046 -281456548.86026001 0 0 0 0 2106537.9435424805 31208954.754140854 0 31208954.754140854 43202669.149108887 0 0 0 0 1936328.8442382812 33525152.709428787 0 33525152.709428787 42875518.256706238 0 0 0 0 33602274.449782968 -3779195.8024388449 0 -3779195.8024388449 -26552577.79056333 0 0 0 0 -179462497.31034851 -200747930.23773956 0 -200747930.23773956 -322008744.46786499 0 0 0 0 -158257547.87568188 -299677231.81326818 0 -299677231.81326818 -443379303.03085327 0 0 0 0 -349053326.93130493 -369218077.44438171 0 -369218077.44438171 -335091389.59881926 0 0 0 0 13271152.706130981 -125801399.86381531 0 -125801399.86381531 -350717696.81948709 0 0 0 0 -230474539.61985397 -616956228.65093994 0 -616956228.65093994 -634171642.17010498 0 0 0 0 -233929923.49073792 -374931152.24989319 0 -374931152.24989319 -525376227.10457611 0 0 0 0 -37995061.604057312 -355903633.17211914 0 -355903633.17211914 -237421887.75865984 0 0 0 0 -5669440.9724658504 -27100083.6612003 0 -27100083.6612003 47204964.221987307 0 0 0 0 101604039.62973976 129949715.75542831 0 129949715.75542831 -89764688.44764328 0 0 0 0 18494828.813136838 1868982.980802129 0 1868982.980802129 -37809847.86796014 0 0 0 0 -13035291.822267532 -481726288.69421148 0 -481726288.69421148 -485838778.49130249 0 0 0 0 -168163986.28215027 -211134609.88354492 0 -211134609.88354492 -16913010.602264404 0 0 0 0 26971882.794597246 457848.19459126052 0 457848.19459126052 -31512477.247664925 0 0 0 0 49733732.470813751 80178223.292802811 0 80178223.292802811 74578679.658351898 0 0 0 0 3312402.0843658447 49777749.758926392 0 49777749.758926392 61914445.797221184 0 0 0 0 13962609.635543823 48706811.81595993 0 48706811.81595993 -287359332.13077545 0 0 0 0 -1455894.2491357513 -1452816.8171793073 0 -1452816.8171793073 1146835.2633634824 0 0 0 0 30197346.031963348 28991492.144405365 0 28991492.144405365 47147588.644367218 0 0 0 0 5393980.2489280701 28601156.309267044 0 28601156.309267044 51362889.862033844 0 0 0 0 60137476.027303696 28721367.568387985 0 28721367.568387985 28711794.901889801 0 0 0 0 9576887.1437735558 23921327.040464401 0 23921327.040464401 -6897119.2431945801 0 0 0 0 -2609135.7278216593 -2874585.4178959392 0 -2874585.4178959392 2225488.2345962524 0 0 0 0 -103836122.47155762 -263823265.66506386 0 -263823265.66506386 -401438482.48814774 0 0 0 0 84719823.420864105 -121629130.17972755 0 -121629130.17972755 -459603452.89874268 0 0 0 0 -181036060.28068542 -207205721.28055 0 -207205721.28055 -447023296.08313751 0 0 0 0 -198968232.87569427 -135573795.31031132 0 -135573795.31031132 -597696749.86198425 0 0 0 0 -267368360.50856686 -278077477.72108698 0 -278077477.72108698 -467123405.93524933 0 0 0 0 -2571826.4372607954 -1621193.260071924 0 -1621193.260071924 -1357167.3660940491 0 0 0 0 168339300.84173203 136995452.07883263 0 136995452.07883263 -155932713.69090271 0 0 0 0 -360446686.52702713 -340931271.62236023 0 -340931271.62236023 -281792842.94130135 0 0 0 0 -721430045.54598999 -550434015.51902008 0 -550434015.51902008 -347154684.59597015 0 0 0 0 -161390233.95652008 -347755824.92634201 0 -347755824.92634201 -713730162.44394684 0 0 0 0 -260358794.43298721 -246293406.89236164 0 -246293406.89236164 -372999937.01199341 0 0 0 0 -117288034.90219879 -195330251.57559967 0 -195330251.57559967 -365110712.45437241 0 0 0 0 -132902381.47026062 -135098620.85349274 0 -135098620.85349274 -185559193.96772385 0 0 0 0 -14606541.852846146 -9865952.4343671799 0 -9865952.4343671799 -270458165.08359528 0 0 0 0 63721436.844803333 47589722.485129833 0 47589722.485129833 -368866952.02355194 0 0 0 0 -39605696.906715393 -96966239.715595245 0 -96966239.715595245 -518766162.77122116 0 0 0 0 -66351858.419883728 -102024849.34900475 0 -102024849.34900475 -403945296.9989624 0 0 0 0 33131363.523525238 7323670.3338718414 0 7323670.3338718414 -335463835.379179 0 0 0 0 -1087699.8733482361 -135070840.08363533 0 -135070840.08363533 -311861590.34917688 0 0 0 0 -1565782.6484508514 -115839886.19823003 0 -115839886.19823003 -98110452.848758698 0 0 0 0 179044624.51903534 -45310352.714468956 0 -45310352.714468956 -139877950.88090944 0 0 0 0 36442916.827170372 33201480.288498402 0 33201480.288498402 -153065222.60445786 0 0 0 0 55818983.657616615 416039927.80962753 0 416039927.80962753 -178442776.19097137 0 0 0 0 37114964.486890793 -266600013.34753799 0 -266600013.34753799 -498086039.62695789 0 0 0 0 -166562139.36736488 -675907489.50938797 0 -675907489.50938797 -1175348884.3584576 0 0 0 0 391778571.99662018 296381573.72431183 0 296381573.72431183 -1410259071.2442541 0 0 0 0 -783829073.12942791 -50843125.540258408 0 -50843125.540258408 449239007.14788055 0 0 0 0 -6245627.4082243051 -2702972.7367186248 0 -2702972.7367186248 4023813.0300656557 0 0 0 0 -258352498.37705612 -44244078.523368835 0 -44244078.523368835 -44027630.504585266 0 0 0 0 -1545030299.5069571 -475141565.07998466 0 -475141565.07998466 393270987.25157928 0 0 0 0 -5442017.3311360739 -1969082.4383422043 0 -1969082.4383422043 3104800.0978991855 0 0 0 0 212553619.41855812 -173002498.5247879 0 -173002498.5247879 -262424854.88797188 0 0 0 0 85677948.252225876 38838162.0938797 0 38838162.0938797 -289766708.63578796 0 0 0 0 -228970483.93865585 24273691.937530518 0 24273691.937530518 51485060.386302948 0 0 0 0 -2336732.0709466618 -3924811.883238405 0 -3924811.883238405 2826382.6016761912 0 0 0 0 -33784121.663114548 49390029.494922638 0 49390029.494922638 34026779.297756195 0 0 0 0 130643669.31333923 -216587570.72135925 0 -216587570.72135925 -243320275.80517578 0 0 0 0 -186670162.80827713 135954860.3243885 0 135954860.3243885 -21161608.856725693 0 0 0 0 71996310.611022949 -165539897.78001213 0 -165539897.78001213 -671017565.53137779 0 0 0 0 -2317019.346974019 -1070365.1175297275 0 -1070365.1175297275 1487209.5339359269 0 0 0 0 101631102.45487213 -223060007.91810608 0 -223060007.91810608 -577165009.27225113 0 0 0 0 -6735446.6841678619 -241227204.14695358 0 -241227204.14695358 -561979200.60455322 0 0 0 0 -181800304.17710876 -210257884.01997757 0 -210257884.01997757 -434501054.38299179 0 0 0 0 -123105974.58147049 -99675969.97851181 0 -99675969.97851181 -540094481.58763504 0 0 0 0 36825334.224006653 -130063692.55035019 0 -130063692.55035019 -536105751.6165123 0 0 0 0 89946656.696212769 -152473327.85754013 0 -152473327.85754013 -595441752.91364384 0 0 0 0 -6145175.9833755493 -295579394.96313477 0 -295579394.96313477 -601375691.53249359 0 0 0 0 -62431953.074195862 -177598823.88462448 0 -177598823.88462448 -433515979.24259949 0 0 0 0 65760219.313323975 -17529321.947509766 0 -17529321.947509766 -390382426.37950325 0 0 0 0 5885619.0673818588 -113760645.50488043 0 -113760645.50488043 -228616208.36184692 0 0 0 0 117210865.66690826 -55086071.2772789 0 -55086071.2772789 -200131389.62997246 0 0 0 0 39375338.043823242 -182098100.56946182 0 -182098100.56946182 -75910082.594138145 0 0 0 0 -5604212.3110485077 -138503594.1111002 0 -138503594.1111002 -365169614.83724594 0 0 0 0 1238290.9045372009 -129557087.76465034 0 -129557087.76465034 -409493706.58767319 0 0 0 0 -90730456.11894989 -145623406.37457657 0 -145623406.37457657 -222239498.10822678 0 0 0 0 29217703.852140903 -22670468.769281864 0 -22670468.769281864 -285358861.27368164 0 0 0 0 -30600998.653141022 -121860938.13266754 0 -121860938.13266754 -176636429.69324875 0 0 0 0 -51277203.690990448 -64145265.558864594 0 -64145265.558864594 -174856019.9227829 0 0 0 0 -259010950.40957832 -162423532.87119484 0 -162423532.87119484 -116682385.77489853 0 0 0 0 -96036098.759007931 -168682252.15348911 0 -168682252.15348911 -317932264.03115082 0 0 0 0 -45148773.604290009 -235660226.06919098 0 -235660226.06919098 -333449696.64359522 0 0 0 0 -191250695.17667675 -440889927.24180412 0 -440889927.24180412 -595880401.10157013 0 0 0 0 46626454.77290535 -241729322.56784344 0 -241729322.56784344 -597333332.41949463 0 0 0 0 -1223278.0284083262 2448481.1805251827 0 2448481.1805251827 -5276012.1886697132 0 0 0 0 -136267174.88172197 521644750.64920139 0 521644750.64920139 -133648970.7825613 0 0 0 0 -957860011.28709984 -564063902.81814289 0 -564063902.81814289 -350807396.29349327 0 0 0 0 -460902151.93307495 -178732211.83194876 0 -178732211.83194876 -71537557.315441132 0 0 0 0 -198082399.39900208 -12383232.767307281 0 -12383232.767307281 -53777546.863815308 0 0 0 0 -109170000.51528931 -22735958.218614578 0 -22735958.218614578 -86101907.319404602 0 0 0 0 -116779789.96633339 -28494008.756655693 0 -28494008.756655693 -24907161.3829422 0 0 0 0 -5551078.3067606939 619572.86396060791 0 619572.86396060791 -13709906.960690865 0 0 0 0 -115784036.8688159 14086792.931310177 0 14086792.931310177 13954088.87436676 0 0 0 0 -46750747.88488102 -20707548.127919197 0 -20707548.127919197 31424800.86262846 0 0 0 0 -29255005.29460144 -64651707.708764076 0 -64651707.708764076 34838444.868537664 0 0 0 0 -99623759.525485992 -43587447.342895508 0 -43587447.342895508 31362653.683691025 0 0 0 0 -174387729.3190403 -53810038.014517784 0 -53810038.014517784 -402947.75212860107 0 0 0 0 -83424257.616019249 -55751876.544921875 0 -55751876.544921875 -2017695.6582832336 0 0 0 0 -110579694.36305428 -61213953.966629028 0 -61213953.966629028 -82070029.770148277 0 0 0 0 -123889934.99122572 -123864513.56096625 0 -123864513.56096625 -60346988.297855377 0 0 0 0 -66593629.336566925 -65129746.555429459 0 -65129746.555429459 -10136693.577749252 0 0 0 0 -19009808.381847382 -160746405.01163149 0 -160746405.01163149 31841030.081268311 0 0 0 0 7102250.2277336121 -109899878.92249298 0 -109899878.92249298 39584829.179771423 0 0 0 0 -6934427.5230979919 -13001216.919214249 0 -13001216.919214249 -31550665.505664825 0 0 0 0 166496018.07446671 -109078126.70497894 0 -109078126.70497894 -12142291.537944794 0 0 0 0 -2605937.1042481558 -6407649.861390749 0 -6407649.861390749 -1971979.9278466217 0 0 0 0 89019.021751403809 -17145587.746822357 0 -17145587.746822357 3351781.4484863281 0 0 0 0 -17388697.947400656 -26216740.474267535 0 -26216740.474267535 -14353060.49434326 0 0 0 0 3464148.718957901 -106437354.76163769 0 -106437354.76163769 -10399831.706666708 0 0 0 0 2291655.5723457336 -5722976.1774559021 0 -5722976.1774559021 -6554558.9309539795 0 0 0 0 -16357619.931614771 -20871431.148817822 0 -20871431.148817822 -3341000.7902491912 0 0 0 0 -160613.74117279053 -80291586.2766819 0 -80291586.2766819 26251272.559602737 0 0 0 0 -71442138.069941998 -113516393.75381851 0 -113516393.75381851 14169041.272735596 0 0 0 0 -61044290.535545349 -81111854.406498909 0 -81111854.406498909 54843424.267359734 0 0 0 0 -96179335.964195251 -4695614.1470413208 0 -4695614.1470413208 74699469.370307922 0 0 0 0 -36269192.987353578 -32192552.729745604 0 -32192552.729745604 -20713221.240395248 0 0 0 0 -19759987.96895805 -9403148.8695096374 0 -9403148.8695096374 13102389.475879535 0 0 0 0 -30336481.268707275 -21753507.981895447 0 -21753507.981895447 13990079.518920898 0 0 0 0 -8549662.4870526195 -15598956.3035414 0 -15598956.3035414 -6682669.3485966697 0 0 0 0 -43410122.143768311 -35990336.6561203 0 -35990336.6561203 3762057.9921875 0 0 0 0 -11575549.516408175 -14742103.079239629 0 -14742103.079239629 -14482712.382548036 0 0 0 0 -41768630.213516235 -18883137.152908325 0 -18883137.152908325 -7414855.1128158569 0 0 0 0 -15907840.646497726 -49612801.962537766 0 -49612801.962537766 -1091555.5787658691 0 0 0 0 -44442685.723052979 -43721663.089050293 0 -43721663.089050293 12111939.231956482 0 0 0 0 -46218882.420188904 -58391549.873336792 0 -58391549.873336792 48427632.784897804 0 0 0 0 103743558.43284607 -157546742.94928741 0 -157546742.94928741 -14612238.731292725 0 0 0 0 -43244025.188271224 -35490438.133981816 0 -35490438.133981816 -18942036.181076884 0 0 0 0 -70300652.339789867 -19584984.977416515 0 -19584984.977416515 62613706.481868744 0 0 0 0 -90530663.052238464 -89456206.178256989 0 -89456206.178256989 71583344.579414368 0 0 0 0 -3928800.7462331653 -27438893.808824684 0 -27438893.808824684 -51620306.582488142 0 0 0 0 -59151.602803420275 -20721914.222124428 0 -20721914.222124428 -56195481.616843656 0 0 0 0 199760776.2911911 -158028945.23750305 0 -158028945.23750305 -182209823.87301445 0 0 0 0 -58470776.582019806 -116626040.01314354 0 -116626040.01314354 -104511927.1626873 0 0 0 0 -66568592.336023331 -147242721.32248354 0 -147242721.32248354 -133213102.25999832 0 0 0 0 7949390.1794548035 -172845541.37788963 0 -172845541.37788963 -102753901.5906778 0 0 0 0 -51503363.620235443 -110929419.63671637 0 -110929419.63671637 -93282311.920776367 0 0 0 0 -15098132.738797069 -11889806.063118085 0 -11889806.063118085 8606409.1721607037 0 0 0 0 -225744254.24789953 -190067453.22833943 0 -190067453.22833943 -100598396.77971268 0 0 0 0 -158682871.82554626 -118765500.26439667 0 -118765500.26439667 -91388550.54545784 0 0 0 0 -894709.6544206813 2778086.3850388955 0 2778086.3850388955 2832723.4700590475 0 0 0 0 -223122924.75875092 -165500263.2183857 0 -165500263.2183857 -89461540.605323792 0 0 0 0 -181581419.84597778 -188393051.96569824 0 -188393051.96569824 -106282474.91896057 0 0 0 0 -194150188.26802063 -185421897.42948914 0 -185421897.42948914 -101565916.05317688 0 0 0 0 -179334817.47585297 -212322614.41883087 0 -212322614.41883087 -165638406.1450386 0 0 0 0 -328506552.97975922 -226677138.7279377 0 -226677138.7279377 -173317312.7966156 0 0 0 0 -179395972.14877424 -164113978.22418562 0 -164113978.22418562 -147466539.90724182 0 0 0 0 322211.95529937744 -15415643.51027298 0 -15415643.51027298 -7573572.855758667 0 0 0 0 -2393493.2837371826 -24018545.697792053 0 -24018545.697792053 -9823084.1728668213 0 0 0 0 -12814596.69631318 -19939557.231251858 0 -19939557.231251858 -13986652.593728203 0 0 0 0 -12731815.004230306 -5639056.2891538329 0 -5639056.2891538329 11175547.800394312 0 0 0 0 -658375.85011291504 -9509621.9486618042 0 -9509621.9486618042 -11409886.444721222 0 0 0 0 -3751660.834197998 -9912648.9273757935 0 -9912648.9273757935 35541.916709899902 0 0 0 0 -4134911.5088195801 -13337818.790893555 0 -13337818.790893555 -9512462.5070648193 0 0 0 0 -13536247.557680428 -12029901.774149604 0 -12029901.774149604 -1983211.6913253237 0 0 0 0 -13199750.088104248 -21912010.879089355 0 -21912010.879089355 -10350651.058685303 0 0 0 0 69164.326151110232 -782815.4689919455 0 -782815.4689919455 -2364976.4484145641 0 0 0 0 -16025164.372541428 -23225481.941208839 0 -23225481.941208839 -30043993.621612549 0 0 0 0 -25227000.238006592 -28896271.899246216 0 -28896271.899246216 -18364835.09495163 0 0 0 0 -10086702.720657349 -12605869.612533569 0 -12605869.612533569 -22258218.125297546 0 0 0 0 -7495288.068572998 -29081752.738540649 0 -29081752.738540649 -77641212.428421021 0 0 0 0 -47504895.154342651 -37428389.897354126 0 -37428389.897354126 -27862488.029678345 0 0 0 0 -4687861.7240798436 -12617441.821666954 0 -12617441.821666954 -19606502.073451079 0 0 0 0 -25877914.940841675 -31326238.259864807 0 -31326238.259864807 -27120699.690872192 0 0 0 0 -16972619.833285406 -16804379.547500033 0 -16804379.547500033 20494708.720975876 0 0 0 0 -14918928.997566223 -89683463.914104462 0 -89683463.914104462 -59124257.352142334 0 0 0 0 -106830827.28398895 -105436117.67071438 0 -105436117.67071438 -62725928.415639639 0 0 0 0 -147245078.87384033 -70537819.253295898 0 -70537819.253295898 -56714618.300064087 0 0 0 0 -85754816.088703156 -101025668.77186584 0 -101025668.77186584 -85936455.411987305 0 0 0 0 -31395859.544952393 95134334.401817322 0 95134334.401817322 -149438812.1005249 0 0 0 0 -4653867.6812987216 -4478152.2478815662 0 -4478152.2478815662 -7812630.7267855778 0 0 0 0 -5601855.6545100734 -5179505.1280635856 0 -5179505.1280635856 -4742629.5221197456 0 0 0 0 27645453.064170837 -220493648.97571182 0 -220493648.97571182 -180063183.74290466 0 0 0 0 -194761298.31472778 34784233.780273438 0 34784233.780273438 -261523656.46795654 0 0 0 0 -137906154.89991379 -95668427.092899323 0 -95668427.092899323 -30095386.143829346 0 0 0 0 347917639.99439621 54275692.006357193 0 54275692.006357193 -86542866.679595947 0 0 0 0 -2502332.1013677251 -2454044.7048992999 0 -2454044.7048992999 1718981.549932234 0 0 0 0 -19500710.660804749 -774929677.42991257 0 -774929677.42991257 1146442509.6612549 0 0 0 0 759858361.8790741 -578903235.83778381 0 -578903235.83778381 204260526.6807518 0 0 0 0 254048393.69859314 87565560.927352905 0 87565560.927352905 232472579.2045598 0 0 0 0 51387393.848892212 17093902.38684082 0 17093902.38684082 33970325.257324219 0 0 0 0 -1746311.3053139932 -1115131.9303857237 0 -1115131.9303857237 -2056877.7649062052 0 0 0 0 340616911.16475677 -198940635.26657486 0 -198940635.26657486 -201011976.99813843 0 0 0 0 -11497671.144813538 -97031719.404571533 0 -97031719.404571533 148543907.28656006 0 0 0 0 -213869986.99163055 -289938133.92750549 0 -289938133.92750549 101922955.84060669 0 0 0 0 5944718.1924438477 -50368385.024230957 0 -50368385.024230957 -146494883.56858826 0 0 0 0 -61796613.96421814 34428777.997980118 0 34428777.997980118 -41976309.276702881 0 0 0 0 50544715.11315918 -64862978.880516052 0 -64862978.880516052 40871357.431655884 0 0 0 0 648722810.80984497 -263689097.15856934 0 -263689097.15856934 108762849.82582855 0 0 0 0 148649229.62070847 33116342.26097393 0 33116342.26097393 134470405.04696655 0 0 0 0 209654407.69807434 -376536702.55888367 0 -376536702.55888367 113328013.13699341 0 0 0 0 219708864.36697388 -113105227.99203491 0 -113105227.99203491 209851491.51927948 0 0 0 0 -24429390.710983276 -94476894.309463501 0 -94476894.309463501 145502468.86499786 0 0 0 0 29976075.464004517 41236149.769886017 0 41236149.769886017 439045722.30163574 0 0 0 0 -20904152.22354126 -20416595.696762085 0 -20416595.696762085 176706963.08143234 0 0 0 0 40565744.338839531 56542165.030662537 0 56542165.030662537 31836303.799163818 0 0 0 0 623273.4066619873 3732709.7687988281 0 3732709.7687988281 -45334626.385604858 0 0 0 0 1617031.4342041016 -11020028.53225708 0 -11020028.53225708 -26431308.003540039 0 0 0 0 3484844.6963791847 25675273.73621583 0 25675273.73621583 -6880705.7645568848 0 0 0 0 -4734773.5991612561 -5586017.5757839121 0 -5586017.5757839121 -2654994.3664357215 0 0 0 0 -31749211.447319031 -1580848.1309509277 0 -1580848.1309509277 -27852046.04119873 0 0 0 0 -24721637.156784058 -75535022.107185364 0 -75535022.107185364 91856099.032852173 0 0 0 0 -1397768.9159890758 -1686503.0552222393 0 -1686503.0552222393 -795780.826913625 0 0 0 0 -20145865.436104774 -23123919.806726456 0 -23123919.806726456 -3295549.6322784424 0 0 0 0 -129423821.68994713 -215459165.83111477 0 -215459165.83111477 -91395770.524078369 0 0 0 0 -97109201.273614883 -49431938.206608772 0 -49431938.206608772 128855535.39212036 0 0 0 0 -255405.86151134968 631728.26682769507 0 631728.26682769507 131743.60367835779 0 0 0 0 -225718515.03971863 -210263799.60152435 0 -210263799.60152435 931769668.52295685 0 0 0 0 60860126.458740234 -319621080.96392822 0 -319621080.96392822 -379107209.33372784 0 0 0 0 297437331.71774673 -370536710.05428123 0 -370536710.05428123 359587603.4730835 0 0 0 0 -37748245.865570068 -473458625.8377533 0 -473458625.8377533 404872003.12942505 0 0 0 0 -30257514.637390137 -74574790.476646423 0 -74574790.476646423 98516451.496261597 0 0 0 0 -149333875.27893066 -333984664.95825195 0 -333984664.95825195 195002032.57279968 0 0 0 0 17302441.81072998 -454236065.08361816 0 -454236065.08361816 -184325344.01608276 0 0 0 0 158289625.36773682 -401258540.74006653 0 -401258540.74006653 214831117.47858429 0 0 0 0 298996491.1673584 -606034589.779953 0 -606034589.779953 1183863438.4733429 0 0 0 0 407013920.77736664 174603278.89743042 0 174603278.89743042 558643107.45803833 0 0 0 0 455514970.73500061 -317304574.48435974 0 -317304574.48435974 225845652.86766052 0 0 0 0 123692521.4135437 -167023252.91085815 0 -167023252.91085815 216921133.52774048 0 0 0 0 806946977.27189636 -146038742.17108917 0 -146038742.17108917 -15480505.386779785 0 0 0 0 141742028.52676392 -484761939.93792725 0 -484761939.93792725 456617320.43569374 0 0 0 0 187212187.53637695 -287413537.97689819 0 -287413537.97689819 466978977.47375488 0 0 0 0 67204116.706832886 -315708762.98658752 0 -315708762.98658752 289507538.23895264 0 0 0 0 273810067.27662659 -467506026.98649597 0 -467506026.98649597 4140080.0101318359 0 0 0 0 574381174.40577698 -818167810.09370804 0 -818167810.09370804 1019261744.0778046 0 0 0 0 262876135.86000061 -443040656.46633911 0 -443040656.46633911 156162548.63399506 0 0 0 0 -3110062.7333621681 -2187354.2933207378 0 -2187354.2933207378 1815177.9832721353 0 0 0 0 459205388.2550354 -883193210.79547119 0 -883193210.79547119 1117240282.2470093 0 0 0 0 567859533.41926575 -849525693.42556763 0 -849525693.42556763 868484521.13226318 0 0 0 0 289943110.85546875 -223082767.2835083 0 -223082767.2835083 -99707276.028686523 0 0 0 0 320959449.49975586 -614044092.39624023 0 -614044092.39624023 767591102.26304626 0 0 0 0 511266378.85900879 -833851203.1081543 0 -833851203.1081543 939007702.16993713 0 0 0 0 436082692.56427002 -928807513.18597412 0 -928807513.18597412 864027145.56105042 0 0 0 0 460277576.98901367 -617845551.60025024 0 -617845551.60025024 384691958.70227051 0 0 0 0 540174335.57507324 -963705495.44213867 0 -963705495.44213867 1118181501.4196701 0 0 0 0 462728553.08328247 -926654549.71795654 0 -926654549.71795654 1147233896.6163635 0 0 0 0 530721557.00973511 -868605612.49207306 0 -868605612.49207306 1185646618.1204834 0 0 0 0 528497694.61842537 -917690507.51878929 0 -917690507.51878929 1124819108.6044006 0 0 0 0 559354976.59072876 -636927642.93283081 0 -636927642.93283081 916276388.60632324 0 0 0 0 -28719641.625732422 -35018251.889160156 0 -35018251.889160156 27651080.328414917 0 0 0 0 145977287.16369629 72479936.49584198 0 72479936.49584198 14961804.45306015 0 0 0 0 -3696075.4063696936 -3206740.095337227 0 -3206740.095337227 724360.8182194978 0 0 0 0 2062874.3674614951 -235216.52233929187 0 -235216.52233929187 -547450.91785268858 0 0 0 0 283528233.26460266 62488080.575565338 0 62488080.575565338 -1205810.5059509277 0 0 0 0 425779023.86932373 -400801692.81962585 0 -400801692.81962585 909707251.22621155 0 0 0 0 577248987.01577759 -744793632.87637329 0 -744793632.87637329 834291380.328125 0 0 0 0 -298726.21849974245 -83253.246816083789 0 -83253.246816083789 493448.75545936823 0 0 0 0 314600044.46607971 28418949.564285278 0 28418949.564285278 -73207933.47738266 0 0 0 0 16726769.454948425 -212924761.2660141 0 -212924761.2660141 -336292360.08012962 0 0 0 0 -151934012.15247726 215563931.08871269 0 215563931.08871269 62182567.04473877 0 0 0 0 341408557.9360733 -64931192.23115921 0 -64931192.23115921 -455299372.06078339 0 0 0 0 -276778804.52906609 -233269765.69231129 0 -233269765.69231129 110222356.02095032 0 0 0 0 -4344067.1780010425 -2143187.9402767271 0 -2143187.9402767271 2178192.014184095 0 0 0 0 -372483926.75432587 85525841.92603302 0 85525841.92603302 25967147.244502068 0 0 0 0 1349579.8406906128 29664670.190120697 0 29664670.190120697 -230996193.09205627 0 0 0 0 1103947.6674423218 19178202.392944336 0 19178202.392944336 -55838731.077835083 0 0 0 0 5132510.009522438 -70493415.480572701 0 -70493415.480572701 -199608993.45362854 0 0 0 0 2490783.3073883057 -79148061.235031128 0 -79148061.235031128 -54596669.019008636 0 0 0 0 -99875358.344017029 -66688397.514707565 0 -66688397.514707565 -46058774.520080566 0 0 0 0 -219611546.93344879 -141680825.61051369 0 -141680825.61051369 -36724917.286483765 0 0 0 0 15563775.264015198 -185432676.88397217 0 -185432676.88397217 -42099143.415283203 0 0 0 0 157895929.42134857 -85939238.642440796 0 -85939238.642440796 124161279.33505249 0 0 0 0 -59541062.782352448 -110360343.26058388 0 -110360343.26058388 128462699.42572021 0 0 0 0 34744595.927276611 -166085050.93878937 0 -166085050.93878937 -47864443.325080872 0 0 0 0 -390436.30383390933 1034045.8763533458 0 1034045.8763533458 202227.22408336308 0 0 0 0 69256773.207397461 -301412496.56910706 0 -301412496.56910706 94564458.632270813 0 0 0 0 -101529559.1364975 -132382260.18018341 0 -132382260.18018341 280304331.39630127 0 0 0 0 -151901.78869247437 779832.55715245754 0 779832.55715245754 102289.37862394308 0 0 0 0 209462380.36444092 -135928394.15762329 0 -135928394.15762329 -493210982.97693825 0 0 0 0 122229992.57461548 -175373184.20465088 0 -175373184.20465088 130384721.97218323 0 0 0 0 -190064737.24671936 -140613169.82641983 0 -140613169.82641983 634522570.46600342 0 0 0 0 -364089721.62013245 -82622045.433872223 0 -82622045.433872223 206926172.78878784 0 0 0 0 94500400.183296204 144998346.45062256 0 144998346.45062256 64803405.325973511 0 0 0 0 26051354.501586914 -120141219.77627563 0 -120141219.77627563 206381108.5503037 0 0 0 0 6433103.1638031006 -68547979.473358154 0 -68547979.473358154 92378043.693115234 0 0 0 0 55522332.25138855 -74811425.832702637 0 -74811425.832702637 -20592715.020202637 0 0 0 0 -14059492.752510071 -17297862.360679626 0 -17297862.360679626 -1570592.2176208496 0 0 0 0 -27493378.501861572 -41448859.384651184 0 -41448859.384651184 -27508834.710884094 0 0 0 0 -5929261.5009510554 -18455030.952739507 0 -18455030.952739507 -5475870.0997620523 0 0 0 0 -37881565.05581665 -25135859.785736084 0 -25135859.785736084 2787.5363311767578 0 0 0 0 -24041557.755691528 -24846219.991378784 0 -24846219.991378784 -1920514.3196411133 0 0 0 0 -13355491.183559418 -12556893.014293671 0 -12556893.014293671 2943717.7438049316 0 0 0 0 -8388358.928047901 -21714189.414414089 0 -21714189.414414089 -750215.14519917965 0 0 0 0 -14309952.710952759 -9233405.4373474121 0 -9233405.4373474121 5971981.8372497559 0 0 0 0 -5467106.8402780052 -10745813.72231026 0 -10745813.72231026 6960495.5876979306 0 0 0 0 -21850557.326644897 -9752525.3841094971 0 -9752525.3841094971 3648795.9726715088 0 0 0 0 -21733756.440133125 -9874053.0185076296 0 -9874053.0185076296 1416784.4955434427 0 0 0 0 -32406213.301929474 -7387615.469078064 0 -7387615.469078064 4806236.959564209 0 0 0 0 7516055.1025772095 -19801200.05216217 0 -19801200.05216217 -17650755.205383301 0 0 0 0 -56869152.138534546 -7924685.6456604004 0 -7924685.6456604004 5499909.391204834 0 0 0 0 -134464.0372649394 -559844.04534648731 0 -559844.04534648731 649966.23292788863 0 0 0 0 -17885022.647400554 -19880777.33594146 0 -19880777.33594146 -5706341.6236892939 0 0 0 0 -25244918.264160156 -19105900.557662964 0 -19105900.557662964 2333646.0299072266 0 0 0 0 -9305693.8715596627 -22099365.073932931 0 -22099365.073932931 -7822686.4508578554 0 0 0 0 -13748480.650592804 -16519294.829929352 0 -16519294.829929352 -2669142.2908325195 0 0 0 0 -95525166.177322388 -46123845.282531738 0 -46123845.282531738 -4033325.1846313477 0 0 0 0 -14269377.877587274 -9531904.1741247028 0 -9531904.1741247028 -4103552.2083166242 0 0 0 0 -19587860.741477966 -9491416.4548034668 0 -9491416.4548034668 -8332057.2257118225 0 0 0 0 -13233617.471588135 -13048309.045848846 0 -13048309.045848846 -2124928.0782165527 0 0 0 0 -25313882.888123982 -21160059.167585608 0 -21160059.167585608 -9193634.6834860593 0 0 0 0 -8921649.3553506956 -21502812.708785892 0 -21502812.708785892 -13773029.924842641 0 0 0 0 -16510427.831451416 -17882722.66192627 0 -17882722.66192627 -3342192.0313529968 0 0 0 0 -16298169.66248703 -21274370.347511292 0 -21274370.347511292 22179.508274078369 0 0 0 0 -29644246.273580551 -29627589.182350159 0 -29627589.182350159 -7462345.0322036743 0 0 0 0 -6780884.9913077056 -21883947.979870636 0 -21883947.979870636 -1450532.371317789 0 0 0 0 -8522816.9359645844 -32837447.048049927 0 -32837447.048049927 -5781969.2676391602 0 0 0 0 -19324053.509811401 -19441987.410057068 0 -19441987.410057068 -6298828.5863633156 0 0 0 0 -19285578.043477334 -25604633.379550051 0 -25604633.379550051 -6595421.3648456782 0 0 0 0 1920231.130317688 -22993787.448822021 0 -22993787.448822021 -19116894.507995605 0 0 0 0 -7454954.0823525712 -17854989.726694457 0 -17854989.726694457 -3173469.8604321405 0 0 0 0 -35148828.053163528 -25547210.856941223 0 -25547210.856941223 4045165.9715042114 0 0 0 0 -31997965.670149326 -41195997.570929527 0 -41195997.570929527 -22832387.124526978 0 0 0 0 -20542041.696908951 -23506085.361160278 0 -23506085.361160278 -2173944.3620986938 0 0 0 0 -12327811.222722247 -19902037.111585915 0 -19902037.111585915 2357848.5378807709 0 0 0 0 -40016169.599821091 -27049181.112392426 0 -27049181.112392426 -20102.546012878418 0 0 0 0 -26426175.731863976 -23902134.932945251 0 -23902134.932945251 -13610113.214752197 0 0 0 0 -14659986.871236902 -15642187.776466249 0 -15642187.776466249 -365028.62492360175 0 0 0 0 -7423958.0000032401 -13275272.874485388 0 -13275272.874485388 4213936.1866436154 0 0 0 0 -38311458.709085464 -35458263.082935333 0 -35458263.082935333 -11092442.715582848 0 0 0 0 -12663391.448362276 -15428710.265102573 0 -15428710.265102573 5189554.6886265874 0 0 0 0 -30169473.797012329 -32590668.902107239 0 -32590668.902107239 -847369.48291015625 0 0 0 0 -29482033.778217018 -23171133.413639307 0 -23171133.413639307 4113482.5539550781 0 0 0 0 -5378990.9387582382 -11953262.301526455 0 -11953262.301526455 12786573.189267136 0 0 0 0 -76186517.102750778 -80381774.445381165 0 -80381774.445381165 3790791.2732658386 0 0 0 0 684623.28172997851 -2371809.9158441052 0 -2371809.9158441052 601011.50525435805 0 0 0 0 -47679807.934329748 56543607.727815628 0 56543607.727815628 155603839.99673462 0 0 0 0 50762089.853549957 -179362085.60028076 0 -179362085.60028076 18741401.745635986 0 0 0 0 -34261534.529621124 -30403335.195293427 0 -30403335.195293427 -5810136.726890564 0 0 0 0 -52665660.791392326 -72997595.573703766 0 -72997595.573703766 18919243.366394043 0 0 0 0 -23448969.200526237 -36779233.561981201 0 -36779233.561981201 6793431.1697387695 0 0 0 0 -51256392.697020531 -46115860.748588562 0 -46115860.748588562 -11599747.289787292 0 0 0 0 -30737864.190525055 -25449241.560272217 0 -25449241.560272217 -7072013.3046417236 0 0 0 0 -54116548.671445847 -15525871.484268188 0 -15525871.484268188 -10619886.458084106 0 0 0 0 103818491.51512337 -152742988.14245987 0 -152742988.14245987 -89752154.630065918 0 0 0 0 1223898.3104866231 -829011.16719286889 0 -829011.16719286889 -790717.31769610941 0 0 0 0 106435182.50438309 -107997108.08305359 0 -107997108.08305359 -7210047.4545059204 0 0 0 0 32872255.73213768 -125082234.14405632 0 -125082234.14405632 40461567.002746582 0 0 0 0 8624708.7468128204 -35475015.22303772 0 -35475015.22303772 -41060217.678466797 0 0 0 0 594565570.74227142 -197146911.6399231 0 -197146911.6399231 276872769.57283807 0 0 0 0 -5720514.9338741302 -133924713.09057617 0 -133924713.09057617 -245018707.32046509 0 0 0 0 -1343959.5086586941 -263230.14094667137 0 -263230.14094667137 -3370053.3057320118 0 0 0 0 58648345.919211864 -227496462.34664917 0 -227496462.34664917 152307251.45718384 0 0 0 0 -224064932.82220459 594187003.00691223 0 594187003.00691223 273198706.29452515 0 0 0 0 -219323206.02289009 -134697393.61694527 0 -134697393.61694527 -11191233.395690918 0 0 0 0 76181811.77162075 -72862704.461700439 0 -72862704.461700439 -178458623.99780273 0 0 0 0 -153602794.46785545 67393965.089948654 0 67393965.089948654 30056304.588500977 0 0 0 0 60094775.19077301 88269684.871421814 0 88269684.871421814 -17103551.645889282 0 0 0 0 -5524706.1618156433 -69781344.068199158 0 -69781344.068199158 -12076799.788404584 0 0 0 0 30967407.410634995 24285549.386497498 0 24285549.386497498 -134685124.95110321 0 0 0 0 -98221611.367134094 -50953809.23248291 0 -50953809.23248291 111172690.94473267 0 0 0 0 -44484040.134204865 -38441194.332588196 0 -38441194.332588196 -5734440.6664770246 0 0 0 0 -5667247.0021708691 -14126783.399158791 0 -14126783.399158791 10830113.768686764 0 0 0 0 42378381.262718201 -114932647.6818161 0 -114932647.6818161 -54553389.336471558 0 0 0 0 -42797110.382758141 -38303342.269096375 0 -38303342.269096375 -12199225.563812256 0 0 0 0 -41346055.223968983 -34802918.548167229 0 -34802918.548167229 -15564926.627716064 0 0 0 0 -41588202.881092072 -36495578.097640991 0 -36495578.097640991 -12049821.226679802 0 0 0 0 -11400619.744516887 -15977531.089875836 0 -15977531.089875836 1334913.6284740195 0 0 0 0 -6573960.0529564274 -22661294.821479619 0 -22661294.821479619 3765818.9432466924 0 0 0 0 -28184522.398769855 -37116504.286720276 0 -37116504.286720276 -709147.16293334961 0 0 0 0 -25432714.997823715 -19931259.604423523 0 -19931259.604423523 6618332.1271820068 0 0 0 0 -23145484.742790028 -20620480.962184276 0 -20620480.962184276 16094528.128725534 0 0 0 0 -41531634.514003754 -86852349.781381607 0 -86852349.781381607 58465457.029486656 0 0 0 0 -28938633.751767412 -18290474.801528309 0 -18290474.801528309 29456493.149636231 0 0 0 0 -48197394.352151752 83879255.050594985 0 83879255.050594985 -22119578.012290955 0 0 0 0 4982652.3906974792 -39299340.932495117 0 -39299340.932495117 -36817669.08511734 0 0 0 0 4767388.3854780197 -41571552.198789597 0 -41571552.198789597 -8931898.6226882935 0 0 0 0 -30201428.103092194 -26149296.74388504 0 -26149296.74388504 -15359123.652275085 0 0 0 0 42191680.450485229 -54603493.467033386 0 -54603493.467033386 -19441516.795814514 0 0 0 0 -23926498.79779188 -25484052.190435402 0 -25484052.190435402 3319992.6055362504 0 0 0 0 -6590435.2218761444 -64599122.634967804 0 -64599122.634967804 30628865.039337158 0 0 0 0 -47415646.173782349 -64624665.505180359 0 -64624665.505180359 -6672325.8888168335 0 0 0 0 -11896539.847235508 -23466773.966367565 0 -23466773.966367565 -457851.55368297175 0 0 0 0 -642453.25131225586 -42272735.503147125 0 -42272735.503147125 -7873875.2886352539 0 0 0 0 -1869926.7567073442 -3479960.094340004 0 -3479960.094340004 -2541186.0862393677 0 0 0 0 -58132486.701843262 -41902827.751571655 0 -41902827.751571655 -30429559.414550781 0 0 0 0 -91927380.111110687 -104889683.12492752 0 -104889683.12492752 17462494.847034454 0 0 0 0 -50786428.350114822 -53596446.59200573 0 -53596446.59200573 -4204451.556930542 0 0 0 0 -1468334.2042617798 -45819567.784721375 0 -45819567.784721375 -41049397.640136719 0 0 0 0 -2930045.0165348053 -38593353.523995399 0 -38593353.523995399 -42407478.500732422 0 0 0 0 -3223381.0367507935 -38925697.723091125 0 -38925697.723091125 -42651537.220710754 0 0 0 0 12995398.380535126 -58600457.70331955 0 -58600457.70331955 -19647592.570304871 0 0 0 0 -12141228.111641897 -20009490.768732086 0 -20009490.768732086 5594406.4816111177 0 0 0 0 -19973703.833896637 -28476787.727100372 0 -28476787.727100372 -49139894.584564209 0 0 0 0 -16235862.401227951 -15270641.175854683 0 -15270641.175854683 -54064070.626998901 0 0 0 0 -13261812.923568726 -39479158.580329895 0 -39479158.580329895 -43853159.889938354 0 0 0 0 24428618.241071701 -21914405.857833862 0 -21914405.857833862 20999502.266010284 0 0 0 0 19141183.315903664 -60068923.650779724 0 -60068923.650779724 -27743561.150054932 0 0 0 0 -38309388.623527527 -75294856.865879059 0 -75294856.865879059 34796182.811893463 0 0 0 0 -28530172.821891785 -25971038.300128937 0 -25971038.300128937 93655873.045974731 0 0 0 0 -20763696.402675629 -26932236.588291168 0 -26932236.588291168 21782468.56654954 0 0 0 0 -81211862.093017578 -50499635.729568481 0 -50499635.729568481 -4682094.3026733398 0 0 0 0 -22832931.543328345 -15299375.9940979 0 -15299375.9940979 17338889.345267113 0 0 0 0 -105318955.75177002 -22169815.784378052 0 -22169815.784378052 24570631.587301254 0 0 0 0 -1889433.3623910993 -1552567.6372315381 0 -1552567.6372315381 -929932.96817114204 0 0 0 0 -46978407.297809601 -49188192.579550743 0 -49188192.579550743 -42396259.196331024 0 0 0 0 -4387478.2953479514 4864010.8711644709 0 4864010.8711644709 6230005.409434313 0 0 0 0 21543607.926086426 15574532.881958008 0 15574532.881958008 25828557.559196472 0 0 0 0 -25556243.817348532 -10233046.583000615 0 -10233046.583000615 11748514.70793058 0 0 0 0 -499153.22097396851 -13256734.270740509 0 -13256734.270740509 -11155258.953914642 0 0 0 0 -21326814.443693161 -34854057.477462769 0 -34854057.477462769 -207847.69843292236 0 0 0 0 -210111535.04351616 31944042.320904732 0 31944042.320904732 29259379.517906189 0 0 0 0 21012381.373046875 -25050826.314155579 0 -25050826.314155579 -30758449.93554306 0 0 0 0 -1598667.5593159888 -1716586.2410992868 0 -1716586.2410992868 1384123.9515311942 0 0 0 0 -17486157.587272644 10290546.449707031 0 10290546.449707031 -15507795.618844986 0 0 0 0 -89684429.803827286 4415820.1673812866 0 4415820.1673812866 37005279.519767761 0 0 0 0 -69416920.680187225 -40421637.114498138 0 -40421637.114498138 87689263.441455841 0 0 0 0 28922090.331251144 -46022239.47661972 0 -46022239.47661972 7265916.2941436768 0 0 0 0 -197072204.09844208 -298304823.68247795 0 -298304823.68247795 96054895.714981079 0 0 0 0 -7207951.3863903619 -7637427.1683491748 0 -7637427.1683491748 6567167.4527732041 0 0 0 0 -16656430.224851225 -11577721.444313549 0 -11577721.444313549 18614767.031786066 0 0 0 0 -310574217.70527649 39724391.466495514 0 39724391.466495514 -132202726.15651393 0 0 0 0 -177935197.41724014 -377386509.68572617 0 -377386509.68572617 240191429.68992615 0 0 0 0 -297048569.63267875 -94320902.419439405 0 -94320902.419439405 507615959.36992395 0 0 0 0 129000266.51408672 31061903.581885338 0 31061903.581885338 -80764894.297350883 0 0 0 0 -103741033.90662384 -99159055.253857613 0 -99159055.253857613 179113711.53995132 0 0 0 0 -50632801.133556843 790561.62207615376 0 790561.62207615376 -43268531.162453651 0 0 0 0 -5474022.9861183334 -3318993.5351390792 0 -3318993.5351390792 -164261.34885823494 0 0 0 0 -61564266.189741135 -214926.13753819466 0 -214926.13753819466 84446474.162199974 0 0 0 0 7301393.1290388107 -49354112.066535473 0 -49354112.066535473 -769984181.78992605 0 0 0 0 -90700601.10840559 -106517280.65761232 0 -106517280.65761232 44363938.217778206 0 0 0 0 -152154546.74481773 277910848.18041348 0 277910848.18041348 203315155.59217072 0 0 0 0 119754406.77817178 -198004761.80807018 0 -198004761.80807018 65912677.585151672 0 0 0 0 -17005894.956199985 -20459845.997541826 0 -20459845.997541826 -16952440.052509934 0 0 0 0 -51302041.793524742 -184986842.89915657 0 -184986842.89915657 239729654.50888228 0 0 0 0 -148371162.08832169 15158330.330284119 0 15158330.330284119 5293876.2080059052 0 0 0 0 -180081849.17102623 -63989366.436553001 0 -63989366.436553001 142144017.58091164 0 0 0 0 -48613563.608164787 -64036394.638665676 0 -64036394.638665676 -10474821.380023956 0 0 0 0 -15562450.618744591 -33942431.938584119 0 -33942431.938584119 -20956533.242092885 0 0 0 0 -55389645.23046875 -63916043.56700325 0 -63916043.56700325 54889045.341981888 0 0 0 0 56156609.578211784 -130980545.63873196 0 -130980545.63873196 31215128.800231934 0 0 0 0 -7091871.8353324868 -15026564.594913684 0 -15026564.594913684 -382098.23112562299 0 0 0 0 2444051.1097412109 -20821380.503192902 0 -20821380.503192902 -9887026.748957634 0 0 0 0 -22695731.484147344 -33716738.620340414 0 -33716738.620340414 -17894277.264316842 0 0 0 0 -8681329.8887672424 -19701438.986101151 0 -19701438.986101151 8694684.4598693848 0 0 0 0 -18544197.51247406 -20292301.442565918 0 -20292301.442565918 -2070046.3455810547 0 0 0 0 -19304652.141321182 -26319834.128314972 0 -26319834.128314972 -3828602.837562561 0 0 0 0 -18931327.03244523 -25875038.990613252 0 -25875038.990613252 -8596986.0266052894 0 0 0 0 -38758838.701586246 -37238324.732130527 0 -37238324.732130527 -2076756.6413574219 0 0 0 0 -21920015.044131741 -35225834.720539965 0 -35225834.720539965 8555596.8743251655 0 0 0 0 -17800701.730300903 -27495014.481864929 0 -27495014.481864929 -6614888.7089385986 0 0 0 0 -36721229.204177856 -17475203.269584656 0 -17475203.269584656 -21650750.625640869 0 0 0 0 -30229400.596366517 -7757591.2783830557 0 -7757591.2783830557 38315955.861515298 0 0 0 0 -1338061.3750193231 -1011265.2966353688 0 -1011265.2966353688 -741937.04971653968 0 0 0 0 -21485821.283846751 -21861476.528925911 0 -21861476.528925911 13555275.508323483 0 0 0 0 -28118912.399356842 -26800789.75220108 0 -26800789.75220108 24863433.71547699 0 0 0 0 -19211163.698841095 -47893658.087543488 0 -47893658.087543488 19802565.357820511 0 0 0 0 -54642707.149925232 -30115540.623298645 0 -30115540.623298645 -27975244.349176407 0 0 0 0 -35916051.848012924 -53503882.103784561 0 -53503882.103784561 -620005.71583557129 0 0 0 0 -4542986.460477829 -32975633.3204422 0 -32975633.3204422 -12405540.638092041 0 0 0 0 -37649270.542442322 -49509374.348266602 0 -49509374.348266602 -9630846.2932739258 0 0 0 0 -1659733.3959022583 -1411567.2956321724 0 -1411567.2956321724 -864971.05395127088 0 0 0 0 -16377837.268424261 -21911511.668344934 0 -21911511.668344934 13925466.95281424 0 0 0 0 -9007989.606625095 -20406386.393008504 0 -20406386.393008504 -11583281.5082472 0 0 0 0 -20470428.326007843 -39219046.732246399 0 -39219046.732246399 -66061484.253780365 0 0 0 0 -49201478.236114502 -159333650.40352535 0 -159333650.40352535 -104529465.09357417 0 0 0 0 -47659593.932800293 -198187411.79950333 0 -198187411.79950333 -393615128.5900898 0 0 0 0 -122780.4320526123 -152720455.07994652 0 -152720455.07994652 -350435036.6772995 0 0 0 0 5245553.912159279 -1518930.4557616375 0 -1518930.4557616375 -9469153.6064933687 0 0 0 0 -61076061.051446915 -127427762.89195824 0 -127427762.89195824 -195855073.25573349 0 0 0 0 -5967019.2571012378 -2794393.9519489086 0 -2794393.9519489086 5435672.6257803766 0 0 0 0 -635037.04290771484 -15881710.195381165 0 -15881710.195381165 -33160064.435768127 0 0 0 0 9985925.124814719 -6365070.2151754145 0 -6365070.2151754145 -8784614.6881341785 0 0 0 0 -4928101.2637939453 -20504148.756574631 0 -20504148.756574631 -37746611.331850052 0 0 0 0 -97971891.301246643 -39077947.1897192 0 -39077947.1897192 -97022559.284049988 0 0 0 0 -35987042.911743164 -145122212.48631859 0 -145122212.48631859 -264560624.24164963 0 0 0 0 9725011.2224273682 -219909628.49917221 0 -219909628.49917221 -727316470.34183025 0 0 0 0 -249095312.63543701 -388099973.91208649 0 -388099973.91208649 -303046266.1737268 0 0 0 0 -214111814.36466599 -143934528.09425628 0 -143934528.09425628 92715434.18870163 0 0 0 0 -521833.08769159019 -650271.9098822251 0 -650271.9098822251 -2891525.4050490079 0 0 0 0 -86101399.975326538 -498932138.93510485 0 -498932138.93510485 -621246896.12889481 0 0 0 0 -151265243.34281921 -54500338.457738876 0 -54500338.457738876 -516974319.6331749 0 0 0 0 7250330.7951097488 -211542370.07771993 0 -211542370.07771993 -463536393.82461166 0 0 0 0 62710.276611328125 -180840477.16296768 0 -180840477.16296768 -399446843.99997163 0 0 0 0 105241.4847869873 -159004159.89627695 0 -159004159.89627695 -259598875.95190144 0 0 0 0 38041422.285736084 -69307145.052292347 0 -69307145.052292347 -477652415.52873772 0 0 0 0 -86080.776489257812 -121989198.35679114 0 -121989198.35679114 132946896.34339952 0 0 0 0 47992606.607666016 -26252801.404397488 0 -26252801.404397488 -206222789.39164287 0 0 0 0 29210573.765207291 -133457544.05367219 0 -133457544.05367219 -105373515.27883911 0 0 0 0 955125331.52468872 320134711.5095222 0 320134711.5095222 136692403.56289935 0 0 0 0 277803579.62687683 -84018013.577543736 0 -84018013.577543736 -17534441.085730553 0 0 0 0 18121348.248718262 -155701302.09949279 0 -155701302.09949279 246346077.03859305 0 0 0 0 147056759.69160461 85592320.657481194 0 85592320.657481194 187994095.81778133 0 0 0 0 199016509.05285645 -135997948.68331146 0 -135997948.68331146 -209540686.12230015 0 0 0 0 251567670.28863144 -163110252.3044951 0 -163110252.3044951 -198081998.82942772 0 0 0 0 77456135.8409729 -278582907.40305042 0 -278582907.40305042 -344525599.5174551 0 0 0 0 83841010.248336792 -33417764.854263306 0 -33417764.854263306 -281263396.91805744 0 0 0 0 -15618824.074596405 -187045396.13060093 0 -187045396.13060093 -387737461.12280083 0 0 0 0 39713438.17276001 -234454796.01418114 0 -234454796.01418114 -391544200.66918755 0 0 0 0 -276018669.42770004 -364890232.42396212 0 -364890232.42396212 -436990474.05822754 0 0 0 0 -52741427.002487183 -391883790.29718304 0 -391883790.29718304 -494218628.06837082 0 0 0 0 -108421535.59858704 -367233718.39884281 0 -367233718.39884281 -354657162.35221291 0 0 0 0 -168131459.08602905 -482005056.90220451 0 -482005056.90220451 -295422069.1762352 0 0 0 0 -53706168.157348633 -429043509.24110031 0 -429043509.24110031 -285977738.70789337 0 0 0 0 -89754545.012420654 -305514038.66570282 0 -305514038.66570282 -195687624.84323263 0 0 0 0 -288809698.22683716 -415476514.44031429 0 -415476514.44031429 -156721914.4650383 0 0 0 0 -297167672.10708618 -603323053.01860571 0 -603323053.01860571 -270614699.00793076 0 0 0 0 49537297.812225342 -682599334.20427275 0 -682599334.20427275 -493575332.67308807 0 0 0 0 3570958.0284938812 -467865011.02784419 0 -467865011.02784419 -409273983.83890915 0 0 0 0 123845735.14041138 -415006050.99974155 0 -415006050.99974155 -388038331.67510033 0 0 0 0 228548408.68823051 -406566028.67491186 0 -406566028.67491186 -457568986.88823509 0 0 0 0 574022836.6036377 -199789374.23009992 0 -199789374.23009992 -351861939.86123681 0 0 0 0 398557035.51087952 -594686941.26273751 0 -594686941.26273751 -481194669.52081919 0 0 0 0 192531332.21084595 -507954742.32318068 0 -507954742.32318068 -441217054.0821681 0 0 0 0 -82786169.029449463 -950742902.99779606 0 -950742902.99779606 -844938339.09244251 0 0 0 0 263828464.27230835 -384501283.81006742 0 -384501283.81006742 -643755680.67019653 0 0 0 0 158088150.64310455 -323593846.1736747 0 -323593846.1736747 -74313107.562364101 0 0 0 0 688892735.16177368 -540994885.6548245 0 -540994885.6548245 13051388.130658865 0 0 0 0 -1342014943.6843567 -2190090381.1914206 0 -2190090381.1914206 -1258695404.5038562 0 0 0 0 486675117.12649536 110995475.10689116 0 110995475.10689116 -2018868871.5431242 0 0 0 0 756870466.86791229 -1031845576.8916442 0 -1031845576.8916442 -881390663.47189617 0 0 0 0 -1410362519.4310913 1480680447.044421 0 1480680447.044421 -740795586.108271 0 0 0 0 -560686733.16784668 -1497143656.217936 0 -1497143656.217936 -1853037663.5103679 0 0 0 0 -2011944217.7503357 -909170456.04718971 0 -909170456.04718971 -139608246.63605976 0 0 0 0 -974177879.48590088 -808585077.57764101 0 -808585077.57764101 -216969657.80736256 0 0 0 0 -774459679.47869873 -562492916.48283577 0 -562492916.48283577 -98030129.92650032 0 0 0 0 -1852224567.1398239 42818136.262232304 0 42818136.262232304 21301276.32934761 0 0 0 0 -778491582.45733643 -610709227.83391047 0 -610709227.83391047 -9250665.7005462646 0 0 0 0 -1453447894.1083374 674664520.76021099 0 674664520.76021099 -702646336.6124773 0 0 0 0 5074841.1487641707 -2825966.0685899705 0 -2825966.0685899705 -8055345.4479064029 0 0 0 0 35776418.931152344 272503562.32660675 0 272503562.32660675 -483540417.96009827 0 0 0 0 -1084666100.1630859 142875396.43819237 0 142875396.43819237 57184466.780693054 0 0 0 0 94040277.948013306 -71940343.200180054 0 -71940343.200180054 -110191519.74455833 0 0 0 0 -1558891.5213528126 -14518434.903304078 0 -14518434.903304078 -13145277.339416314 0 0 0 0 766007.40220348537 -1480851.3086343184 0 -1480851.3086343184 -793906.85783620272 0 0 0 0 -292862792.256073 312032798.62621355 0 312032798.62621355 58099890.228313446 0 0 0 0 -21224817.303771973 -119098617.55216026 0 -119098617.55216026 236916796.60047436 0 0 0 0 -316892772.21917725 -583909211.02226162 0 -583909211.02226162 -150346377.93080759 0 0 0 0 -696040991.47186279 -208013945.16360474 0 -208013945.16360474 49937386.450588226 0 0 0 0 -1256552228.0667114 -265993412.74333191 0 -265993412.74333191 159140390.05307388 0 0 0 0 -572463307.03637695 -149559337.94549561 0 -149559337.94549561 74646420.89680481 0 0 0 0 -135783322.52130127 -125084737.52007294 0 -125084737.52007294 -40285459.740161896 0 0 0 0 -253890937.84265137 -346814507.92483711 0 -346814507.92483711 -41801198.764637947 0 0 0 0 -608730921.00702667 -492498818.32003683 0 -492498818.32003683 -86163031.544116974 0 0 0 0 -152796098.0173645 -202447774.55892181 0 -202447774.55892181 -124545886.70947075 0 0 0 0 -366109941.10922241 -256115331.05604935 0 -256115331.05604935 -64507223.263343811 0 0 0 0 -108807128.75466919 -160256374.77068138 0 -160256374.77068138 -84085175.766557932 0 0 0 0 -84669285.669380188 -31774362.012634754 0 -31774362.012634754 27312784.01086235 0 0 0 0 -131812352.28859711 -140005031.51217449 0 -140005031.51217449 -18958804.510622025 0 0 0 0 85248025.578948975 -15278056.054095268 0 -15278056.054095268 -89850508.335978508 0 0 0 0 34120372.019561768 6816588.9383621216 0 6816588.9383621216 -61429714.188498497 0 0 0 0 -2031080.6119308472 -63527059.251939297 0 -63527059.251939297 -104316289.66042328 0 0 0 0 19213015.583618164 -61724399.448890686 0 -61724399.448890686 -89115659.80248642 0 0 0 0 -36182477.420684814 -151254647.71112442 0 -151254647.71112442 -226491693.37341309 0 0 0 0 29043434.729089051 7865307.5433114711 0 7865307.5433114711 -33892951.169890523 0 0 0 0 9971444.4298400879 21894977.386899948 0 21894977.386899948 -26563290.41444397 0 0 0 0 46340197.984909058 -18090186.337960243 0 -18090186.337960243 -164769133.51428223 0 0 0 0 6091849.9542388916 -62679355.076563835 0 -62679355.076563835 -122076119.79956818 0 0 0 0 -67348728.715606689 -132323161.61409092 0 -132323161.61409092 -169303447.91087341 0 0 0 0 -5001818.7108688354 -171284989.54297686 0 -171284989.54297686 -351767520.98254776 0 0 0 0 40454337.598220825 -95399064.964379311 0 -95399064.964379311 -250377611.95509911 0 0 0 0 50322166.898223877 -111468990.07036781 0 -111468990.07036781 -1000369531.9072828 0 0 0 0 5449946.3885109723 -10925833.191777483 0 -10925833.191777483 -16368064.57568893 0 0 0 0 -7411676.4944915771 -87523241.683093071 0 -87523241.683093071 -246818664.04859543 0 0 0 0 -27988923.53527832 -58869335.688564301 0 -58869335.688564301 -12073914.513206482 0 0 0 0 12892760.950731307 -14026564.786344528 0 -14026564.786344528 -11063871.954252079 0 0 0 0 10100020.32610321 -29113374.326088905 0 -29113374.326088905 -18040240.937984467 0 0 0 0 2239046.829498291 -34496466.405536652 0 -34496466.405536652 -39386516.000017166 0 0 0 0 4901002.8148133904 -25654269.743482605 0 -25654269.743482605 -18364975.074025061 0 0 0 0 66894494.789459229 -87952328.957277298 0 -87952328.957277298 -105513243.12817383 0 0 0 0 23286557.999176025 -10486358.998771667 0 -10486358.998771667 -102777831.05817986 0 0 0 0 -15522003.975538418 -8807413.0066837538 0 -8807413.0066837538 11979649.639156906 0 0 0 0 -10004451.274398804 -27011907.515071869 0 -27011907.515071869 -20427913.18788147 0 0 0 0 -1559505.8585185856 -36369264.711335286 0 -36369264.711335286 20292411.610365793 0 0 0 0 -10081734.433410645 -135233510.19419861 0 -135233510.19419861 -635703023.05215454 0 0 0 0 -81302456.566802979 -421003530.0606308 0 -421003530.0606308 -485799159.38198853 0 0 0 0 -936746.67827947438 -37900211.125767976 0 -37900211.125767976 5535232.6782442862 0 0 0 0 127280307.51528931 -424937143.6980896 0 -424937143.6980896 -1026776976.6272316 0 0 0 0 220826611.07501221 208879843.67863464 0 208879843.67863464 -195077142.36326599 0 0 0 0 7613523.6849365234 -23511689.909584045 0 -23511689.909584045 -10918400.089897156 0 0 0 0 8244800.119294852 -9778469.6867347881 0 -9778469.6867347881 -21108671.119166538 0 0 0 0 -37420972.886993408 29050140.980323792 0 29050140.980323792 -305435293.04137802 0 0 0 0 167417.68864034116 -43506306.72054708 0 -43506306.72054708 -5073563.0139488671 0 0 0 0 -3793779.8488693237 -29274040.02879715 0 -29274040.02879715 4725783.8295669556 0 0 0 0 32796088.192975447 14362719.254938466 0 14362719.254938466 -59375195.028417207 0 0 0 0 -3452810.9786920696 -34132798.911611751 0 -34132798.911611751 3163695.3794032494 0 0 0 0 25907877.163665771 160647285.09210205 0 160647285.09210205 -214983878.41077423 0 0 0 0 1957456.7553710938 -8154105.5547790527 0 -8154105.5547790527 -28162094.256095886 0 0 0 0 -94977180.284103394 107529412.80690384 0 107529412.80690384 229428554.38485718 0 0 0 0 2392951.6487514153 -39825420.814160936 0 -39825420.814160936 11032370.226930836 0 0 0 0 2685116.7318731546 672973.41664708406 0 672973.41664708406 -7675219.7682276517 0 0 0 0 -222742306.30334473 225159376.45782471 0 225159376.45782471 -449174540.88755798 0 0 0 0 -157901110.81771851 -358147543.93944931 0 -358147543.93944931 -271462750.93881989 0 0 0 0 -599424.66922059655 -37963248.034860462 0 -37963248.034860462 -11605334.717585623 0 0 0 0 -2248706.8499908447 -20895368.622310638 0 -20895368.622310638 12898045.696990967 0 0 0 0 -146945206.93218994 -307288780.28512192 0 -307288780.28512192 -178458211.64235687 0 0 0 0 -1825118.3335849345 -40017274.984330781 0 -40017274.984330781 15895851.289575402 0 0 0 0 -323357880.77001953 -397591827.8807373 0 -397591827.8807373 -212979791.37680054 0 0 0 0 15652955.064453125 -206517953.52285004 0 -206517953.52285004 -305086492.46897888 0 0 0 0 239496718.87776184 -442162943.66520691 0 -442162943.66520691 -674487088.85460663 0 0 0 0 210051885.97119141 -216400312.32556152 0 -216400312.32556152 -1166192803.5173111 0 0 0 0 -106118177.32611084 -55148420.356613159 0 -55148420.356613159 -879592717.28817749 0 0 0 0 135496443.04870605 -103626889.48074341 0 -103626889.48074341 -854752738.31110382 0 0 0 0 11200381.267578125 -44931386.59828186 0 -44931386.59828186 -1224126678.0876465 0 0 0 0 19374232.363510132 -246168136.887146 0 -246168136.887146 -973495896.26847839 0 0 0 0 -51969427.596588135 -105607053.73739624 0 -105607053.73739624 -1539919140.3176422 0 0 0 0 -20850419.535326004 77585127.484243393 0 77585127.484243393 -1205938514.428772 0 0 0 0 -32799507.652679443 -90284653.769836426 0 -90284653.769836426 -893301096.46626282 0 0 0 0 111983987.84100342 69566995.791358948 0 69566995.791358948 -1441005182.8980255 0 0 0 0 -1084185.684087418 -32834736.671526838 0 -32834736.671526838 16052292.218247334 0 0 0 0 163558890.05032349 -44154456.895843506 0 -44154456.895843506 -1312153251.1810818 0 0 0 0 90215074.966674805 71710259.428451538 0 71710259.428451538 -1268010295.5275116 0 0 0 0 -39264549.368621826 -4098901.0939483643 0 -4098901.0939483643 -1312164920.5490112 0 0 0 0 19151325.543968201 102967320.80474472 0 102967320.80474472 -1294601035.9100647 0 0 0 0 899997.14607543498 -30413204.743869621 0 -30413204.743869621 5773012.1789449938 0 0 0 0 238066235.99487305 -8789282.7690429688 0 -8789282.7690429688 -20446675.044116974 0 0 0 0 -64804552.094146729 19845994.360214233 0 19845994.360214233 -2045467010.7056274 0 0 0 0 -225224146.26586914 -420348829.62176514 0 -420348829.62176514 -1564048359.5717392 0 0 0 0 -31237785.593475342 196022256.98178101 0 196022256.98178101 -1798550810.0899162 0 0 0 0 -5747856.2481173426 -35498534.42345982 0 -35498534.42345982 11640809.876591392 0 0 0 0 -33241013.653320312 -78777540.507247925 0 -78777540.507247925 -78545599.325914383 0 0 0 0 48725263.596221924 -137557215.51187515 0 -137557215.51187515 -36540931.355135441 0 0 0 0 153249372.90019989 -72786885.301712036 0 -72786885.301712036 -62793814.723648071 0 0 0 0 61416544.759078979 26706206.236959457 0 26706206.236959457 -1813465.3255004883 0 0 0 0 72784056.682647705 -188610458.55563354 0 -188610458.55563354 78600758.258049011 0 0 0 0 -94163253.105575562 -35409466.280166626 0 -35409466.280166626 -31513262.105285645 0 0 0 0 -30352655.873596191 -76944935.834083557 0 -76944935.834083557 -17155090.996261597 0 0 0 0 31052139.003097534 -109336975.1207695 0 -109336975.1207695 -213177696.35934448 0 0 0 0 -13233229.258239746 -8321388.1672058105 0 -8321388.1672058105 -20451191.824375153 0 0 0 0 5150128.0160840601 -7631407.462987829 0 -7631407.462987829 -28910859.102429405 0 0 0 0 -93058277.491485596 -31482722.709625244 0 -31482722.709625244 -17919055.329612732 0 0 0 0 -660248.96966167539 -2016185.4548433777 0 -2016185.4548433777 1054501.5180610511 0 0 0 0 37735559.64035511 -67180672.000493765 0 -67180672.000493765 -193186965.57926559 0 0 0 0 6595026.1329650879 -161568706.37799072 0 -161568706.37799072 -221080585.7308197 0 0 0 0 97658428.182991028 -141838320.91556931 0 -141838320.91556931 -433739775.34822083 0 0 0 0 -54726880.295654297 -239121804.21615028 0 -239121804.21615028 -318989072.74730682 0 0 0 0 8598147.6761752144 -3830338.0417116322 0 -3830338.0417116322 -5296070.1519501591 0 0 0 0 37507087.251083374 -127028539.782341 0 -127028539.782341 -299520678.83512497 0 0 0 0 79811053.867858887 -87778902.428527832 0 -87778902.428527832 -278216920.87179565 0 0 0 0 -137035727.76730347 -110842137.1198616 0 -110842137.1198616 -109225320.44973755 0 0 0 0 7262269.1094673276 -6887249.6546001397 0 -6887249.6546001397 -9360178.016337499 0 0 0 0 14506256.770950317 -8859433.6626253128 0 -8859433.6626253128 -18205245.849813461 0 0 0 0 14861321.613117218 -189203357.66227341 0 -189203357.66227341 -354416097.98748779 0 0 0 0 -323612908.78871155 -241518483.32090569 0 -241518483.32090569 -182752058.30121613 0 0 0 0 14738655.368103027 -266470987.33535576 0 -266470987.33535576 -709534411.21353149 0 0 0 0 63650560.020858765 -99732982.146633148 0 -99732982.146633148 -292563638.28185272 0 0 0 0 -23333499.496307373 59948419.080272675 0 59948419.080272675 -64362893.238096237 0 0 0 0 31152641.836175889 -1216956.0610409901 0 -1216956.0610409901 -27009140.120868392 0 0 0 0 -34010868.165588379 -313185807.75346375 0 -313185807.75346375 -501726040.08614349 0 0 0 0 65837689.069564819 42772063.450397491 0 42772063.450397491 -454791909.71870041 0 0 0 0 9510656.9067823179 6779490.5476489626 0 6779490.5476489626 -8407508.9140285328 0 0 0 0 18470278.322601318 -14549953.754699707 0 -14549953.754699707 -15287469.802677155 0 0 0 0 51840839.110870361 -19413420.456582546 0 -19413420.456582546 -41255828.7619133 0 0 0 0 96055814.162658691 -40391657.072209358 0 -40391657.072209358 -70597603.099051476 0 0 0 0 10658937.367797852 -12591825.285660766 0 -12591825.285660766 -29462137.929765936 0 0 0 0 13027844.992965698 -7366495.7749533653 0 -7366495.7749533653 -11616323.673382282 0 0 0 0 2750110.3716278076 -9265388.0508537292 0 -9265388.0508537292 -13086044.764282227 0 0 0 0 13143484.31161499 -8845313.6098060608 0 -8845313.6098060608 -17724093.024246693 0 0 0 0 -1942421846.8770676 -540148490.7387476 0 -540148490.7387476 803340281.52715492 0 0 0 0 4801609.649597168 -12477198.822375774 0 -12477198.822375774 -15405433.748391151 0 0 0 0 3078527936.2163086 1489314584.0722046 0 1489314584.0722046 -505213127.89094925 0 0 0 0 23823252.567146301 -10930479.896486759 0 -10930479.896486759 -14490183.404582977 0 0 0 0 18490525.720061779 -11358683.548635378 0 -11358683.548635378 -12364108.755791012 0 0 0 0 277251005.97991943 -1052208459.1590824 0 -1052208459.1590824 21498151.391629219 0 0 0 0 728491193.62539673 -544329003.26489782 0 -544329003.26489782 -1133309312.9450216 0 0 0 0 730314150.73364258 -585146780.30202341 0 -585146780.30202341 -484154370.28708553 0 0 0 0 1564590661.3511124 682169626.12654161 0 682169626.12654161 -58746857.370521545 0 0 0 0 1737530575.2405396 -604556889.02347803 0 -604556889.02347803 -787280550.51609993 0 0 0 0 3866708.2528830171 -7686758.6541005028 0 -7686758.6541005028 1892294.1697021555 0 0 0 0 126620386.69090271 842842535.95220184 0 842842535.95220184 987438624.30295277 0 0 0 0 -151474301.54144287 -43274838.051029205 0 -43274838.051029205 -100554172.35075024 0 0 0 0 -590001748.57538223 -910395011.12657344 0 -910395011.12657344 -1168526589.9105177 0 0 0 0 -529810976.37080383 -755720820.03273726 0 -755720820.03273726 -1323531732.8335671 0 0 0 0 -455179596.03088379 409674011.90669692 0 409674011.90669692 -492785580.79894394 0 0 0 0 350011071.02426147 350482099.93771183 0 350482099.93771183 -534973009.77393818 0 0 0 0 -773854102.00509644 -1056330105.4999254 0 -1056330105.4999254 -948560822.73071384 0 0 0 0 975881442.89587688 -2120711316.2037673 0 -2120711316.2037673 -876797030.92288315 0 0 0 0 631368003.93151855 -974848265.13863277 0 -974848265.13863277 -468933483.20978498 0 0 0 0 569502539.44911575 -820389008.73421526 0 -820389008.73421526 -719566743.2596302 0 0 0 0 555671943.10586548 -116107067.05364668 0 -116107067.05364668 -634445346.77305794 0 0 0 0 -44658801.922996521 -18839963.698101759 0 -18839963.698101759 21871582.511940002 0 0 0 0 652904269.47816467 -96926461.219317079 0 -96926461.219317079 -343248675.46606588 0 0 0 0 267485634.27687073 198754569.96924973 0 198754569.96924973 -306825587.2988047 0 0 0 0 56292517.822601318 189576622.56318331 0 189576622.56318331 521665168.77043056 0 0 0 0 14428555.321424901 -18508522.15850734 0 -18508522.15850734 2270057.7289183363 0 0 0 0 174788864.74842834 -357669770.03341961 0 -357669770.03341961 -468229889.92289025 0 0 0 0 277870609.4363327 77280024.525106907 0 77280024.525106907 20947642.248138428 0 0 0 0 -188263055.83998108 -618352693.90728188 0 -618352693.90728188 557891817.02937317 0 0 0 0 266957629.72706604 -143779571.32058144 0 -143779571.32058144 -286226140.96820068 0 0 0 0 263040349.93260193 -175572158.85077477 0 -175572158.85077477 -484522939.35351944 0 0 0 0 10425396.695635378 -14998737.906019455 0 -14998737.906019455 -9614649.8716938868 0 0 0 0 1326792.8100318909 -18401429.246581376 0 -18401429.246581376 -24708535.355466843 0 0 0 0 5026308.4182128906 -9089924.3496465683 0 -9089924.3496465683 -18417918.768384933 0 0 0 0 -982512.21676024795 -17622097.720223404 0 -17622097.720223404 -7723392.883251437 0 0 0 0 -1953529.0728225708 -17812653.506443977 0 -17812653.506443977 -21193885.159790993 0 0 0 0 9739534.3917094395 -1539609.4598943032 0 -1539609.4598943032 -3272443.7591027711 0 0 0 0 254565574.88935852 274520656.8404007 0 274520656.8404007 -72015665.900093079 0 0 0 0 223964781.86213684 391168085.60571861 0 391168085.60571861 -505206975.30343628 0 0 0 0 1112536760.4197388 -667411788.77844238 0 -667411788.77844238 334401632.25325012 0 0 0 0 172653842.13827515 802121216.59157372 0 802121216.59157372 2311883951.7684937 0 0 0 0 3207440.5093409047 -3649995.6728184838 0 -3649995.6728184838 -2865393.1132558985 0 0 0 0 -927824.17648802698 -1972930.6232520491 0 -1972930.6232520491 168041.75850523077 0 0 0 0 168409910.70127869 -243930425.56270218 0 -243930425.56270218 2093882609.8888931 0 0 0 0 -2421568359.6979904 -1418783944.7702332 0 -1418783944.7702332 655750341.44416809 0 0 0 0 -2036449.1413716711 3907333.2462399825 0 3907333.2462399825 -4658003.689639084 0 0 0 0 -1578149308.3169479 -1821727543.0488777 0 -1821727543.0488777 493362705.84039307 0 0 0 0 1079476087.6310425 1810228417.0647507 0 1810228417.0647507 -810509190.26741791 0 0 0 0 997211146.81797409 509480551.38325143 0 509480551.38325143 -347506582.10666275 0 0 0 0 1145483075.9469604 -457957599.26550436 0 -457957599.26550436 985678243.06737518 0 0 0 0 570237828.94671631 418145220.59399796 0 418145220.59399796 -357093936.40582752 0 0 0 0 70089780.607009888 -517374655.903965 0 -517374655.903965 351866904.22523499 0 0 0 0 67597628.981613159 -303693731.92426682 0 -303693731.92426682 2566437146.9690781 0 0 0 0 1320026005.831089 -594658300.95362568 0 -594658300.95362568 34471468.882293701 0 0 0 0 -109550343.02243042 312013264.76283932 0 312013264.76283932 -482094032.57615089 0 0 0 0 -457432252.44885254 -1055184169.4676104 0 -1055184169.4676104 -8027014.2638835907 0 0 0 0 74004867.829681396 76462319.946719646 0 76462319.946719646 -1578245867.4327869 0 0 0 0 1345872.6539351861 -352341.09449626878 0 -352341.09449626878 -963635.17245186819 0 0 0 0 243142107.3321991 -204590785.62651157 0 -204590785.62651157 -700201092.29121637 0 0 0 0 -9187222.1489358246 -14860390.565446837 0 -14860390.565446837 7539377.8795891805 0 0 0 0 520532541.84356689 -120472076.11224174 0 -120472076.11224174 -1527044430.7064667 0 0 0 0 -446878003.10264206 -888709375.70355535 0 -888709375.70355535 -1352288848.9879417 0 0 0 0 404096428.44517517 209417167.29055238 0 209417167.29055238 -657379280.7417382 0 0 0 0 191698005.84580994 -103627013.54698157 0 -103627013.54698157 -897958957.98672771 0 0 0 0 -134011034.58297729 261467222.36935639 0 261467222.36935639 -252206117.51707941 0 0 0 0 -3215134.6753990799 -5479484.6367879491 0 -5479484.6367879491 2676540.0680044941 0 0 0 0 -71075753.853157043 -21597715.750065565 0 -21597715.750065565 170798564.67228222 0 0 0 0 -69771907.349212646 -6604539.3973147869 0 -6604539.3973147869 76120379.734693527 0 0 0 0 -46467272.48223877 5357536.8209862709 0 5357536.8209862709 8431254.4324402809 0 0 0 0 -165449.15010879282 -18104876.954561893 0 -18104876.954561893 5108833.3774718037 0 0 0 0 -16058903.177232742 -30231784.466187418 0 -30231784.466187418 40652693.588020325 0 0 0 0 31368205.705352783 -117615735.9099443 0 -117615735.9099443 148723376.33409119 0 0 0 0 -577420633.54089355 -231963903.9641037 0 -231963903.9641037 237183392.90115738 0 0 0 0 655334.7800405249 -2511087.4059768431 0 -2511087.4059768431 -2390681.2118722163 0 0 0 0 -890048577.29174805 -644243208.06936646 0 -644243208.06936646 133777846.77302551 0 0 0 0 -1100942913.6091614 -632220212.87781525 0 -632220212.87781525 1112898626.2408142 0 0 0 0 -866283180.28479004 -723570466.98097992 0 -723570466.98097992 -322556844.15136719 0 0 0 0 -683454884.65106201 -381811993.35044861 0 -381811993.35044861 -846713195.97396851 0 0 0 0 -725977599.57110596 -395454305.42930794 0 -395454305.42930794 -220688247.82229614 0 0 0 0 79873802.688201904 -442582287.69634748 0 -442582287.69634748 527732367.109869 0 0 0 0 -76488105.894287109 -66334752.481356621 0 -66334752.481356621 101378547.23517466 0 0 0 0 -799695238.739151 142379642.89720201 0 142379642.89720201 1401481307.9464922 0 0 0 0 -1128822082.4591827 -378425953.84612274 0 -378425953.84612274 48093983.267223358 0 0 0 0 -989968034.48880005 -491646633.25291443 0 -491646633.25291443 -67156374.793518066 0 0 0 0 -1407754292.3843079 -841114342.86677933 0 -841114342.86677933 -76147278.489303589 0 0 0 0 -1100455641.3400879 -440050497.72505188 0 -440050497.72505188 71519435.043834686 0 0 0 0 132993690.42037964 647946974.04461622 0 647946974.04461622 -617662785.13863754 0 0 0 0 -1846403.4146306999 9066425.1359205768 0 9066425.1359205768 -19549009.131366782 0 0 0 0 -987944431.96624756 -718421711.50803375 0 -718421711.50803375 -828687705.82008362 0 0 0 0 -1079213647.3119507 -664011443.23169327 0 -664011443.23169327 136403361.1205368 0 0 0 0 78932598.858901978 -46639283.375053406 0 -46639283.375053406 -38856955.64415741 0 0 0 0 -55774063.446014404 -475968.95962524414 0 -475968.95962524414 -50227356.697738647 0 0 0 0 -619037864.62561035 -695140946.37921524 0 -695140946.37921524 -46688382.226760864 0 0 0 0 -15456911.66506958 2796635.3754348755 0 2796635.3754348755 -50595967.751485825 0 0 0 0 -28444823.52130127 -6963903.0377655029 0 -6963903.0377655029 -57129222.801258087 0 0 0 0 4271041.6528056227 -8656904.2783817425 0 -8656904.2783817425 -3830174.558096312 0 0 0 0 -482086310.05189514 -46453297.22876358 0 -46453297.22876358 -852338937.70193481 0 0 0 0 1322308.0411748141 -8468866.1844268404 0 -8468866.1844268404 -7031154.60246104 0 0 0 0 -707285981.70251465 -207020702.66010284 0 -207020702.66010284 -1305733356.2205505 0 0 0 0 -801056497.16314697 -157906856.84519196 0 -157906856.84519196 -373355291.73921204 0 0 0 0 -442853971.22831726 -873134775.17136765 0 -873134775.17136765 -199771219.0975647 0 0 0 0 -1374064041.4482269 114673149.96204376 0 114673149.96204376 -1069713221.0238762 0 0 0 0 -74212108.891944885 -157183678.21107388 0 -157183678.21107388 -122660896.84171176 0 0 0 0 127304269.0990448 24562023.983371735 0 24562023.983371735 44840301.146263123 0 0 0 0 -235487929.33532715 -56149152.355407715 0 -56149152.355407715 1048336427.9311066 0 0 0 0 -111962.78234349191 77394.249552872032 0 77394.249552872032 1003726.7866822202 0 0 0 0 -10424674.287626971 -26152354.782228269 0 -26152354.782228269 47612371.866991505 0 0 0 0 -152497415.07450867 -68098370.750160217 0 -68098370.750160217 -131633048.09690475 0 0 0 0 -788945718.52709961 -520228193.13449097 0 -520228193.13449097 -126503619.40203857 0 0 0 0 -422976218.45855713 -687245745.29426575 0 -687245745.29426575 -589332491.90020752 0 0 0 0 98175555.326851845 -17040968.146947861 0 -17040968.146947861 -961659850.2059021 0 0 0 0 -104455217.88244629 -320662500.72483826 0 -320662500.72483826 -1001660020.5203552 0 0 0 0 -177772896.00665283 -514426841.80665588 0 -514426841.80665588 -559676872.01167297 0 0 0 0 -384893294.14691162 -1084790937.1020927 0 -1084790937.1020927 -1916793143.2923584 0 0 0 0 69907189.016708374 251230750.7692337 0 251230750.7692337 -414134596.78820801 0 0 0 0 -49853714.215332031 334370086.00943756 0 334370086.00943756 -191680203.5424614 0 0 0 0 5700618.5856049061 7613810.1190790832 0 7613810.1190790832 -6782251.4626900777 0 0 0 0 -739871145.66635132 -719751640.51306152 0 -719751640.51306152 -455186315.57361603 0 0 0 0 -392458897.75104606 -1577838303.4003413 0 -1577838303.4003413 -871202223.59150696 0 0 0 0 369859794.04493713 -1629231663.254837 0 -1629231663.254837 50340720.084091187 0 0 0 0 997149692.42930603 330005854.55542755 0 330005854.55542755 57191797.884719849 0 0 0 0 -393543993.98080444 -896883769.67704773 0 -896883769.67704773 -1655502330.3253174 0 0 0 0 -72847596.742698073 -85393947.46107091 0 -85393947.46107091 -87541550.277446747 0 0 0 0 407082.67647646181 -37893863.962445915 0 -37893863.962445915 -14630608.383562822 0 0 0 0 -23882146.847743221 -7624049.5249292227 0 -7624049.5249292227 55544289.519217953 0 0 0 0 -2968897.0629123226 802565.31466473639 0 802565.31466473639 13480695.993684597 0 0 0 0 -1752834671.4328613 -838639300.80847168 0 -838639300.80847168 -1521097263.4004517 0 0 0 0 -3561905.1260835454 -20114592.524303168 0 -20114592.524303168 27405395.860904008 0 0 0 0 -34260274.872528076 -49078742.297546387 0 -49078742.297546387 -38945976.184814453 0 0 0 0 -1092535420.8032265 -1432625635.2971401 0 -1432625635.2971401 -903610255.06420135 0 0 0 0 538756045.05523682 25576318.948566437 0 25576318.948566437 -1985130491.9653091 0 0 0 0 -64732595.318222046 -227930375.87823486 0 -227930375.87823486 -59572824.748748779 0 0 0 0 1316629591.0641174 660392340.16177368 0 660392340.16177368 -1901324997.7018127 0 0 0 0 -26432838.085754395 -65629479.503746033 0 -65629479.503746033 -68788192.727088928 0 0 0 0 -12153406.551474348 -30532502.403145056 0 -30532502.403145056 34124304.182692103 0 0 0 0 5433986.8554077148 -26498277.046463013 0 -26498277.046463013 -88779650.337604523 0 0 0 0 -5564297.8818634599 -2026084.6254024059 0 -2026084.6254024059 4846678.4887745455 0 0 0 0 -676264252.02238464 -620682599.89430237 0 -620682599.89430237 -908672868.26742411 0 0 0 0 7111510.0658255108 -28503264.954138834 0 -28503264.954138834 -36535418.141014978 0 0 0 0 -1922451020.8851471 -1280706472.5331192 0 -1280706472.5331192 103087391.09515381 0 0 0 0 -7814473.8331940956 -29552344.220834941 0 -29552344.220834941 23099742.432824772 0 0 0 0 -1028471072.0547543 -688239091.98929977 0 -688239091.98929977 -310731495.35452271 0 0 0 0 -1790058173.4074402 -865529595.90605164 0 -865529595.90605164 -267746275.94694519 0 0 0 0 -57880717.998447418 4641530.1529836655 0 4641530.1529836655 19124105.037628174 0 0 0 0 -72330601.493652344 -12176733.724388123 0 -12176733.724388123 24311380.699783325 0 0 0 0 64166688.838104248 -50788900.979576111 0 -50788900.979576111 -51811171.456466675 0 0 0 0 -1624202631.5680695 -464449336.7106781 0 -464449336.7106781 -322165105.7562561 0 0 0 0 -15185614.504589356 -22668891.47279752 0 -22668891.47279752 37069643.252747491 0 0 0 0 -30396254.252044678 78073564.395256042 0 78073564.395256042 76967380.008682251 0 0 0 0 -127163388.55123901 -68492791.659912109 0 -68492791.659912109 55807992.152137756 0 0 0 0 -2068723.2571716383 -641458.69680262357 0 -641458.69680262357 1834396.1946302429 0 0 0 0 -123957322.07546997 34878920.860500336 0 34878920.860500336 120865238.47042084 0 0 0 0 -59756927.220947266 -610761649.42541504 0 -610761649.42541504 -5582998119.1269073 0 0 0 0 -2958765741.8441162 -670860797.89071655 0 -670860797.89071655 353966095.34805298 0 0 0 0 -1578781767.5311127 -1194842673.025589 0 -1194842673.025589 -1931628928.7662659 0 0 0 0 -1045924.9374078363 -1023302.6784452349 0 -1023302.6784452349 3407866.7834401503 0 0 0 0 -1680442396.542038 347300553.25809479 0 347300553.25809479 -1893448943.9697266 0 0 0 0 -2056163058.1655884 -216037323.40570068 0 -216037323.40570068 -1464792812.9242859 0 0 0 0 -3202886033.3812866 -1181722646.9360046 0 -1181722646.9360046 -1969667749.8117065 0 0 0 0 -1714337873.9133301 -1958407516.509079 0 -1958407516.509079 -4354395166.1264648 0 0 0 0 -882701982.60479736 -709151513.81509399 0 -709151513.81509399 -2666583372.6681519 0 0 0 0 280711981.53741455 149925401.4329071 0 149925401.4329071 -3886961363.019043 0 0 0 0 -729544342.04772949 -810977572.87295532 0 -810977572.87295532 -2919996926.8596191 0 0 0 0 -877434340.53125 -556074406.47360229 0 -556074406.47360229 -1739836690.8451538 0 0 0 0 -1424856468.1468201 -1189442842.4757538 0 -1189442842.4757538 -2465703497.1444092 0 0 0 0 -587875149.20599365 -629043488.068573 0 -629043488.068573 -1937279145.0164185 0 0 0 0 -683291494.097229 -740934578.57495117 0 -740934578.57495117 -2032178880.7257738 0 0 0 0 -26625466.656616211 273106579.96447754 0 273106579.96447754 -2527884576.7366943 0 0 0 0 -389415317.31054688 -263042424.27252197 0 -263042424.27252197 -2041892756.7197819 0 0 0 0 -269634319.71583557 -402403283.63508606 0 -402403283.63508606 -1272975006.1638489 0 0 0 0 -1049179553.7803345 -276482490.54595947 0 -276482490.54595947 -425225995.11990738 0 0 0 0 -761767701.08570862 -209950061.84089661 0 -209950061.84089661 -1660787966.2117004 0 0 0 0 -624177493.41003418 157570896.77764893 0 157570896.77764893 -785304753.3792572 0 0 0 0 -151252606.133461 -81302097.556549072 0 -81302097.556549072 -402945772.34155273 0 0 0 0 776445257.55888367 -27116599.131210327 0 -27116599.131210327 -854179133.18464661 0 0 0 0 908917631.07020569 -726583864.02092743 0 -726583864.02092743 -221661450.78521061 0 0 0 0 566272843.16290283 -194805731.87483215 0 -194805731.87483215 -150059253.37126732 0 0 0 0 6506151.6089473683 -16287516.341634858 0 -16287516.341634858 -58378795.773514703 0 0 0 0 388462239.94343185 -485383860.27923203 0 -485383860.27923203 497691286.80949402 0 0 0 0 4096515.6840804741 -3092259.9262569081 0 -3092259.9262569081 -7322389.5962476432 0 0 0 0 -1076032385.7497311 -408267580.8225708 0 -408267580.8225708 931591138.51434326 0 0 0 0 1029957791.031723 112783333.46221161 0 112783333.46221161 -470404122.66702271 0 0 0 0 21699407.938171387 187791592.41851807 0 187791592.41851807 -318716112.99106598 0 0 0 0 -25968294.803421021 324594540.30303955 0 324594540.30303955 -232196195.4778595 0 0 0 0 191097226.91764832 200377786.46336365 0 200377786.46336365 -162865112.99884033 0 0 0 0 309084696.35154724 130351362.39823914 0 130351362.39823914 -229209948.34468269 0 0 0 0 875277230.28055954 -139330888.27656364 0 -139330888.27656364 -445505035.1139679 0 0 0 0 462149926.06484985 -59606144.603477478 0 -59606144.603477478 -174690463.040411 0 0 0 0 393335912.52474785 281456196.86917019 0 281456196.86917019 -633353074.24221802 0 0 0 0 65975787.289321899 185095016.79541016 0 185095016.79541016 -496459385.27450562 0 0 0 0 -503959040.06292725 317909120.77462769 0 317909120.77462769 -612693389.12207031 0 0 0 0 80779907.89679718 201545225.04159355 0 201545225.04159355 -1031338438.6506653 0 0 0 0 -1150892913.4406128 455730335.2361145 0 455730335.2361145 -1037951589.9804688 0 0 0 0 -495106897.36199951 214724046.14303589 0 214724046.14303589 -963282104.59194946 0 0 0 0 -568284002.81491089 272430795.30880737 0 272430795.30880737 -535506346.56329727 0 0 0 0 -1017192713.8198547 227668920.60926819 0 227668920.60926819 -522694283.89694214 0 0 0 0 -18149092.750286102 332705220.19944 0 332705220.19944 -623930740.37286377 0 0 0 0 -654103485.67987061 -428792858.82745361 0 -428792858.82745361 -1743326651.6505365 0 0 0 0 -1518758987.1574097 -418197672.4309082 0 -418197672.4309082 -971781232.24551392 0 0 0 0 -900575130.90213013 -338638346.65847778 0 -338638346.65847778 -970474793.77986908 0 0 0 0 -1192293422.100769 -302952659.92892456 0 -302952659.92892456 -1502351446.7653503 0 0 0 0 -1563306194.42099 -106517181.71836853 0 -106517181.71836853 -866061111.08630371 0 0 0 0 -883031417.57281494 108739108.76358032 0 108739108.76358032 -853967088.86309433 0 0 0 0 -889165236.10687256 13713450.577590942 0 13713450.577590942 -243016426.99249268 0 0 0 0 -745662219.00952148 33870352.833007812 0 33870352.833007812 -506843204.20261383 0 0 0 0 -1238569346.1524658 -120565110.58300781 0 -120565110.58300781 -551566372.77770996 0 0 0 0 -741892230.8607254 -120012270.82909775 0 -120012270.82909775 -282524807.17559814 0 0 0 0 -835285781.94415283 -161120511.94795227 0 -161120511.94795227 -681289718.18994141 0 0 0 0 -841698259.62347412 -318662797.53320312 0 -318662797.53320312 -562548550.41311646 0 0 0 0 -554377253.92689514 -372100578.55966949 0 -372100578.55966949 -717911451.56884766 0 0 0 0 -823477355.46334648 -446584516.86588955 0 -446584516.86588955 -732007013.24530029 0 0 0 0 -520678049.16854477 -102808939.38045025 0 -102808939.38045025 -281344440.05038452 0 0 0 0 -604868194.91265869 -213396242.62561035 0 -213396242.62561035 -18689754.392547607 0 0 0 0 -642027273.20953369 59685340.150970459 0 59685340.150970459 2056494.0197143555 0 0 0 0 -515079914.22125244 24871837.537750244 0 24871837.537750244 -243209315.7237854 0 0 0 0 -518576141.19337463 -54173639.482421875 0 -54173639.482421875 282256537.75598145 0 0 0 0 -386210560.52194214 -53910977.827072144 0 -53910977.827072144 46588440.160751343 0 0 0 0 -384737176.59240723 -78117434.10723877 0 -78117434.10723877 57812077.055221558 0 0 0 0 -463858065.12796783 -258365578.16429901 0 -258365578.16429901 215280292.5552063 0 0 0 0 -50156783.886606216 181651025.79024887 0 181651025.79024887 -210277272.95739746 0 0 0 0 -419686528.90556335 365464798.25799561 0 365464798.25799561 -299651040.14994812 0 0 0 0 -601597141.54229736 221506522.66677856 0 221506522.66677856 -82944660.592689514 0 0 0 0 -471354136.94917297 129926097.99323654 0 129926097.99323654 -328336275.61669922 0 0 0 0 -487445820.17228699 30218896.490127563 0 30218896.490127563 202976821.7182312 0 0 0 0 -258746411.88082886 107456478.63922119 0 107456478.63922119 -48181812.194046021 0 0 0 0 -317976425.60385132 230612350.70956421 0 230612350.70956421 -5021350.5426025391 0 0 0 0 -34376597.228057861 86552117.548171997 0 86552117.548171997 59295091.659637451 0 0 0 0 -174027863.12485504 112092901.262537 0 112092901.262537 170357197.2038269 0 0 0 0 -235323029.38976288 -88038249.489934921 0 -88038249.489934921 358364907.11834717 0 0 0 0 -39537648.961761475 -145033944.13769531 0 -145033944.13769531 327451994.55412674 0 0 0 0 30807757.30960083 -38922703.41595459 0 -38922703.41595459 260327814.88056946 0 0 0 0 -288927178.44207764 15197003.77281189 0 15197003.77281189 197733937.96520615 0 0 0 0 -313317255.75195312 -217805784.28623962 0 -217805784.28623962 338633693.95443726 0 0 0 0 -205718638.68839264 -370826669.90506363 0 -370826669.90506363 653457749.00463867 0 0 0 0 -346483798.47294617 -130851262.1207962 0 -130851262.1207962 523773578.04924011 0 0 0 0 -281448692.57931519 -444787231.01844025 0 -444787231.01844025 596110681.28292847 0 0 0 0 -246050499.72330093 -249385071.02411079 0 -249385071.02411079 489326595.39746094 0 0 0 0 53422500.426010132 -618234603.7563324 0 -618234603.7563324 566197668.4125061 0 0 0 0 854848.80936273932 -842047.02068824321 0 -842047.02068824321 -740491.26816812158 0 0 0 0 195829986.20721436 -269600330.85300446 0 -269600330.85300446 461585353.67665482 0 0 0 0 46991111.641265869 -194308317.02616882 0 -194308317.02616882 435452004.13550568 0 0 0 0 -89321435.281646729 -50649452.750701904 0 -50649452.750701904 340753097.48799133 0 0 0 0 23311913.184631348 -173004492.39735031 0 -173004492.39735031 602779686.38414001 0 0 0 0 74522266.209732056 -164149022.89137268 0 -164149022.89137268 460886531.12719727 0 0 0 0 199403409.82746887 -179476140.92938232 0 -179476140.92938232 355197558.51351929 0 0 0 0 217835065.5110321 -50631091.711647034 0 -50631091.711647034 16042530.191329956 0 0 0 0 106986736.33545685 -66782494.769424438 0 -66782494.769424438 221957656.64633179 0 0 0 0 168401768.37237549 57917301.945671082 0 57917301.945671082 89855654.529800415 0 0 0 0 -961503.44175720215 29571770.650054932 0 29571770.650054932 227024548.12995625 0 0 0 0 161913851.31422138 139305183.28145695 0 139305183.28145695 -50480825.452774048 0 0 0 0 -56080551.155992508 201672936.81261826 0 201672936.81261826 6538270.7462158203 0 0 0 0 216656687.56832123 121734204.84573174 0 121734204.84573174 -56971433.721206665 0 0 0 0 266981458.3830719 98662950.921875 0 98662950.921875 -56810034.394844055 0 0 0 0 281952628.97382355 12627035.044761658 0 12627035.044761658 76540298.340759277 0 0 0 0 325579645.7933197 2913001.626991272 0 2913001.626991272 201125028.58601379 0 0 0 0 335179395.80775452 -383788932.59846497 0 -383788932.59846497 294060240.97792816 0 0 0 0 348532278.8729763 -400516677.8473568 0 -400516677.8473568 870821138.86300659 0 0 0 0 231893687.74960327 -360499282.47812653 0 -360499282.47812653 376777790.82034302 0 0 0 0 113820664.76452637 -204034343.3087616 0 -204034343.3087616 354861273.32080078 0 0 0 0 190765113.40805054 -345026045.75688934 0 -345026045.75688934 593345304.88835144 0 0 0 0 714931275.05743408 -822663357.51025391 0 -822663357.51025391 722231470.46461487 0 0 0 0 -11628810.971221924 -17947429.967987061 0 -17947429.967987061 9651624.9235534668 0 0 0 0 -1194885.8743897751 -626086.81267789006 0 -626086.81267789006 559308.37241701037 0 0 0 0 638104672.0617218 -508500174.96593475 0 -508500174.96593475 776860086.2137146 0 0 0 0 16427100.083679199 -119428725.53521729 0 -119428725.53521729 671173714.40556335 0 0 0 0 46076318.85458374 6362059.6499633789 0 6362059.6499633789 688397.10311889648 0 0 0 0 602575.07642224431 -3034181.9223360345 0 -3034181.9223360345 -1613076.6056099012 0 0 0 0 854875118.72160339 -1061910340.647995 0 -1061910340.647995 819514427.62889481 0 0 0 0 -257412.93272708356 35274.105636849999 0 35274.105636849999 920894.42870998383 0 0 0 0 765743881.73417664 -735324210.02455139 0 -735324210.02455139 1181663784.1551285 0 0 0 0 273809634.01126099 -657107392.0749054 0 -657107392.0749054 1223025750.3688354 0 0 0 0 294390176.50169373 -907418592.21935272 0 -907418592.21935272 976143876.29086304 0 0 0 0 142720266.24334717 -718993471.28270721 0 -718993471.28270721 1210710430.0703735 0 0 0 0 659286305.88256836 -904785009.68939209 0 -904785009.68939209 1169321738.4736023 0 0 0 0 716825439.94378662 -748711276.5045166 0 -748711276.5045166 1035471564.7026672 0 0 0 0 833472419.45794487 -963577421.71540165 0 -963577421.71540165 1161251889.0316925 0 0 0 0 770696045.87817383 -651640568.47872925 0 -651640568.47872925 976387177.11656189 0 0 0 0 953208801.39024615 -1113164561.8812127 0 -1113164561.8812127 1429263496.4790344 0 0 0 0 956257255.84495544 -819894866.3550415 0 -819894866.3550415 1190629446.9561081 0 0 0 0 1123926571.6126022 -881728832.86244774 0 -881728832.86244774 1431150735.2784424 0 0 0 0 589814977.46882629 -904526246.38248444 0 -904526246.38248444 1472186024.1982727 0 0 0 0 798523238.43093872 -1106814908.9854279 0 -1106814908.9854279 1807778581.6968079 0 0 0 0 561902080.37731934 -1012114005.4681625 0 -1012114005.4681625 1415420472.6019363 0 0 0 0 453676527.87672424 -657435084.47727203 0 -657435084.47727203 1362123689.8335419 0 0 0 0 1061642978.3049622 -1702815562.552742 0 -1702815562.552742 1964613836.1351624 0 0 0 0 1081831878.6201324 -1894135158.0759583 0 -1894135158.0759583 1800860272.8893127 0 0 0 0 1672076670.6409531 -1465749111.9398575 0 -1465749111.9398575 1380464643.0927124 0 0 0 0 1007280820.6173153 -1173256328.8930788 0 -1173256328.8930788 1890192804.954422 0 0 0 0 1293175189.2338257 -944106526.78636169 0 -944106526.78636169 1513286897.182785 0 0 0 0 1066982480.6479797 -898314156.74922943 0 -898314156.74922943 1170632626.0165558 0 0 0 0 914588637.1064949 -1375255895.5792217 0 -1375255895.5792217 1438921878.136734 0 0 0 0 688869710.91873169 -1774803642.6424026 0 -1774803642.6424026 1673051407.6510315 0 0 0 0 848942499.21684265 -1278397955.7936096 0 -1278397955.7936096 1338254041.1710815 0 0 0 0 1083564211.8201904 -1830723273.3707428 0 -1830723273.3707428 1670955828.8807983 0 0 0 0 865099233.14482117 -1693535946.7977142 0 -1693535946.7977142 1659862685.8490448 0 0 0 0 344894635.60264587 -1392910228.7346497 0 -1392910228.7346497 1570598069.0438957 0 0 0 0 614125338.86613464 -1111539175.9320335 0 -1111539175.9320335 1283659394.3940735 0 0 0 0 560061729.94104004 -1100354669.0372009 0 -1100354669.0372009 1303013421.0045319 0 0 0 0 627720830.99807739 -759092725.03581238 0 -759092725.03581238 1049297213.9177933 0 0 0 0 811914851.17218018 -1079447372.7820587 0 -1079447372.7820587 1160015440.1194458 0 0 0 0 618052448.40896606 -1195462534.2195435 0 -1195462534.2195435 1395403212.2865753 0 0 0 0 511842528.99268341 -879862635.74513817 0 -879862635.74513817 1112581812.4346619 0 0 0 0 460252777.84388733 -949969112.33190155 0 -949969112.33190155 1026356862.6389465 0 0 0 0 331654881.31677246 -734306218.53385925 0 -734306218.53385925 1150818768.7309418 0 0 0 0 16131482.281097412 -3120241.1762695312 0 -3120241.1762695312 14282720.951370239 0 0 0 0 20915688.208877563 -250377478.92349243 0 -250377478.92349243 645530975.51383972 0 0 0 0 329738958.61166382 -625556352.67025757 0 -625556352.67025757 1016830916.5425339 0 0 0 0 599543171.46166992 -861235463.5544281 0 -861235463.5544281 929282629.43876648 0 0 0 0 3732395.4345720857 -1351543.5045854375 0 -1351543.5045854375 -1434880.9147359021 0 0 0 0 87430552.025848389 -391554064.97847748 0 -391554064.97847748 615054553.46263123 0 0 0 0 -2742595.9431160837 -1367945.5105891824 0 -1367945.5105891824 69422.942167416215 0 0 0 0 122170005.33071899 -285707730.34777832 0 -285707730.34777832 525224435.86529541 0 0 0 0 166506026.68227005 -1249221054.7394676 0 -1249221054.7394676 1596938804.960144 0 0 0 0 356599327.13116455 -852736604.98660278 0 -852736604.98660278 1171167454.9598999 0 0 0 0 321355466.8767395 -847308872.29360962 0 -847308872.29360962 1226998843.5526123 0 0 0 0 290910553.1524353 -435317304.75196838 0 -435317304.75196838 771810527.23492432 0 0 0 0 -174000282.14863968 -976451022.90888786 0 -976451022.90888786 1493785804.7050171 0 0 0 0 -208986362.83894348 -683452121.15460205 0 -683452121.15460205 1401610775.7590637 0 0 0 0 383240181.94046021 -1463462360.8408508 0 -1463462360.8408508 1745320363.3064308 0 0 0 0 2184161.8131256104 -938250554.5562439 0 -938250554.5562439 1981505436.8544693 0 0 0 0 655503710.77013397 -1433460921.3968697 0 -1433460921.3968697 2147505657.5324554 0 0 0 0 242601038.33444214 -1375430257.1944885 0 -1375430257.1944885 2715205409.9846191 0 0 0 0 867623430.98503113 -2416194705.5364304 0 -2416194705.5364304 2382051722.8058395 0 0 0 0 166111122.39923096 -1175439247.8058624 0 -1175439247.8058624 1712071189.3040619 0 0 0 0 511591643.12475586 -1656176323.3993034 0 -1656176323.3993034 1952632024.926651 0 0 0 0 577340168.19901276 -1996396416.5468826 0 -1996396416.5468826 1793122425.1870117 0 0 0 0 672931805.39538574 -1799546016.5100021 0 -1799546016.5100021 1745798774.1021957 0 0 0 0 656381098.02185059 -1971123750.3411865 0 -1971123750.3411865 1794913902.6266913 0 0 0 0 983766946.13859558 -1746706167.2083263 0 -1746706167.2083263 1229321911.2772369 0 0 0 0 672146713.6098938 -1983967863.2276382 0 -1983967863.2276382 1788008146.3047867 0 0 0 0 1076840046.6656494 -1986125317.4360886 0 -1986125317.4360886 1727458609.1446838 0 0 0 0 1809406145.6834869 -924413576.06954193 0 -924413576.06954193 256705271.33090401 0 0 0 0 1038149608.1650314 -1851530672.7480888 0 -1851530672.7480888 1417767130.8632355 0 0 0 0 1232846870.5215149 -2101861038.9233475 0 -2101861038.9233475 1384565603.7945719 0 0 0 0 4158050839.5480156 -1297850216.4097481 0 -1297850216.4097481 208155225.24991608 0 0 0 0 707126021.9455719 141099374.01468658 0 141099374.01468658 -75769780.473373413 0 0 0 0 -154189.5727003701 -4574628.2247855086 0 -4574628.2247855086 8667925.0643438101 0 0 0 0 2325784233.7069931 -3496719761.948822 0 -3496719761.948822 3125339400.825325 0 0 0 0 463328287.83852386 -1264407133.0229111 0 -1264407133.0229111 4720073140.7256622 0 0 0 0 2096838113.4972382 -915943230.4493866 0 -915943230.4493866 2011003155.4817047 0 0 0 0 737937608.50074768 -1464634954.1846161 0 -1464634954.1846161 1799917403.1951065 0 0 0 0 363799720.77218628 -963000970.90254974 0 -963000970.90254974 1002841425.7211304 0 0 0 0 266688144.81461334 -739084069.66277313 0 -739084069.66277313 1330751363.4885254 0 0 0 0 357039375.41540527 -810764375.35571289 0 -810764375.35571289 1119479500.1331558 0 0 0 0 634047309.12391663 -603051644.20900345 0 -603051644.20900345 266878312.23989868 0 0 0 0 375960327.05728149 -377287286.45510864 0 -377287286.45510864 690248597.89056396 0 0 0 0 1113848384.5717697 -427289010.4907093 0 -427289010.4907093 1312767989.3222961 0 0 0 0 362905843.28197479 -800462653.87750626 0 -800462653.87750626 1249289751.487442 0 0 0 0 209111471.39129639 -849979405.88631439 0 -849979405.88631439 2538774078.286087 0 0 0 0 -39501261.846343994 -552139360.04692078 0 -552139360.04692078 1444184855.9077072 0 0 0 0 57993799.065475464 -385647626.72290039 0 -385647626.72290039 703726899.31230164 0 0 0 0 112077662.02522278 -898583921.4213028 0 -898583921.4213028 920885065.49868774 0 0 0 0 -284487874.73849487 -363925039.98652649 0 -363925039.98652649 1060027100.4195862 0 0 0 0 -302933666.99603271 -332038222.33615112 0 -332038222.33615112 794015798.00242615 0 0 0 0 -74650080.945304871 -138330315.24612427 0 -138330315.24612427 494483787.88452148 0 0 0 0 90744369.06804657 -356424215.6432724 0 -356424215.6432724 222079182.99414062 0 0 0 0 -220463682.87316895 -336559224.64167786 0 -336559224.64167786 450224867.07699585 0 0 0 0 -300001309.00177002 -115137174.16311646 0 -115137174.16311646 333710787.2151947 0 0 0 0 -258296464.64691162 -346787628.88917542 0 -346787628.88917542 275977360.45083618 0 0 0 0 495710785.76608276 -371038476.73391724 0 -371038476.73391724 657835618.24961853 0 0 0 0 -45362018.536529541 -428930485.51290894 0 -428930485.51290894 664806916.2381134 0 0 0 0 227798517.01389885 -589011210.68087578 0 -589011210.68087578 426295423.87210083 0 0 0 0 247947724.05117798 -251825744.46968842 0 -251825744.46968842 101768608.72904968 0 0 0 0 43250512.283420563 -225883421.5137291 0 -225883421.5137291 -128179136.76428223 0 0 0 0 32028618.622130871 -483068476.59482098 0 -483068476.59482098 -132223001.44140625 0 0 0 0 94934924.686248779 -189995372.21984863 0 -189995372.21984863 -296334085.4601593 0 0 0 0 -332050246.04870605 -152599067.47412109 0 -152599067.47412109 -49285245.07321167 0 0 0 0 -327971579.18084717 -363377501.00427246 0 -363377501.00427246 -40068098.062805176 0 0 0 0 -189770322.89886475 -406736029.24719238 0 -406736029.24719238 221892555.8921051 0 0 0 0 -156066171.75839233 -201710739.2850647 0 -201710739.2850647 101751140.45849609 0 0 0 0 -159368656.74899292 -459579448.48065186 0 -459579448.48065186 -362799653.15829468 0 0 0 0 -228577633.77340698 -189098660.55378723 0 -189098660.55378723 -246142932.19442749 0 0 0 0 -543143987.91089821 -328733147.38442612 0 -328733147.38442612 -184946246.41253662 0 0 0 0 -461407176.27331543 -193963259.09100342 0 -193963259.09100342 -397439672.17404175 0 0 0 0 -405255751.31233597 -404319810.69870758 0 -404319810.69870758 -475617775.93811035 0 0 0 0 -175614599.868927 -237134825.58024597 0 -237134825.58024597 -818511952.98620605 0 0 0 0 -163772240.60342693 -433494853.47297812 0 -433494853.47297812 -891068898.95346069 0 0 0 0 -98265320.899841309 -114086377.23789978 0 -114086377.23789978 -892478714.56204224 0 0 0 0 -88551915.141311646 -232209525.03617096 0 -232209525.03617096 -1419524259.0228882 0 0 0 0 -400258325.07824707 -360724166.22598267 0 -360724166.22598267 -874595910.95552063 0 0 0 0 -405052472.20643616 -281752185.7830658 0 -281752185.7830658 -1293353679.345459 0 0 0 0 -391227860.81893921 -401953258.76135254 0 -401953258.76135254 -1319219917.3247681 0 0 0 0 220361985.36251068 -429595647.33084869 0 -429595647.33084869 -489558839.82785034 0 0 0 0 53141699.801328659 -244131592.00608253 0 -244131592.00608253 -500248178.23440552 0 0 0 0 -15111015.137481689 -399625921.41412354 0 -399625921.41412354 -568303379.22094727 0 0 0 0 -45824241.22857666 -180776026.7616272 0 -180776026.7616272 -534386613.22446442 0 0 0 0 60986072.168708801 -264945053.7481842 0 -264945053.7481842 -1146216334.0897522 0 0 0 0 90736673.6015625 -69685056.12097168 0 -69685056.12097168 -865334080.6275177 0 0 0 0 83242054.998836517 -383876831.79157639 0 -383876831.79157639 -412335063.93588257 0 0 0 0 205948344.37567139 -137953249.58937073 0 -137953249.58937073 -927444651.52937317 0 0 0 0 303819284.3311615 -336559266.97946167 0 -336559266.97946167 -402735951.77284241 0 0 0 0 296048204.85132599 -631497086.38684464 0 -631497086.38684464 -75888333.103134155 0 0 0 0 120980403.25109863 -587828578.34932709 0 -587828578.34932709 313615825.82496643 0 0 0 0 332557319.55388641 -621284675.06619263 0 -621284675.06619263 290970803.62832642 0 0 0 0 241189264.51187134 -293890297.61003113 0 -293890297.61003113 -240539494.81619263 0 0 0 0 219170804.62518311 -596976462.62966156 0 -596976462.62966156 326184232.82112122 0 0 0 0 -296252458.75914001 -148660655.98191071 0 -148660655.98191071 1023379945.8837738 0 0 0 0 -48924755.292327881 -373498414.46560669 0 -373498414.46560669 166755559.56584167 0 0 0 0 -102334964.30545044 -697979551.37046814 0 -697979551.37046814 1042916526.8069839 0 0 0 0 -61311520.795532227 -413888063.94824982 0 -413888063.94824982 452496777.95643616 0 0 0 0 100850212.39208221 -873882116.98680115 0 -873882116.98680115 1107197256.496582 0 0 0 0 -23948954.422409058 -213843741.90529633 0 -213843741.90529633 -287577723.2922287 0 0 0 0 173214875.34344482 -509998420.37468719 0 -509998420.37468719 -451401734.73419189 0 0 0 0 -185839722.84028625 -402870620.27136993 0 -402870620.27136993 172961000.08616638 0 0 0 0 -62872883.989395142 -272604548.92961884 0 -272604548.92961884 -347685458.99813843 0 0 0 0 -419801237.40338135 -515864339.44923019 0 -515864339.44923019 60495055.414642334 0 0 0 0 -5384670.5523483232 -27886531.364106953 0 -27886531.364106953 38881224.656246893 0 0 0 0 -78001491.833877563 -19177177.762454987 0 -19177177.762454987 33602570.436271667 0 0 0 0 -104816534.23471069 -13705149.35100174 0 -13705149.35100174 69863481.261550903 0 0 0 0 -289612732.19208097 -346474128.85242879 0 -346474128.85242879 1171682363.6352844 0 0 0 0 -110175223.90838623 130420030.20825195 0 130420030.20825195 -133311868.22647858 0 0 0 0 -1104885776.9312286 96739593.37272644 0 96739593.37272644 3953673651.4489288 0 0 0 0 -156886800.42012024 1232221204.3636169 0 1232221204.3636169 1770161950.8538475 0 0 0 0 148780859.98669815 506597715.65236855 0 506597715.65236855 -422790840.44085693 0 0 0 0 -5821397.3037535995 -11365405.289698616 0 -11365405.289698616 33585136.191431463 0 0 0 0 -712970123.71076202 -136220431.10508919 0 -136220431.10508919 747044004.4362793 0 0 0 0 299935680.9078064 1585496323.1478348 0 1585496323.1478348 6440031450.9674454 0 0 0 0 1824743.0091298521 -469395.15467901528 0 -469395.15467901528 4288157.576249104 0 0 0 0 -620056105.75038147 518474569.71117783 0 518474569.71117783 4739443491.1829987 0 0 0 0 -822615157.12466431 285752523.09314728 0 285752523.09314728 8401078578.6692047 0 0 0 0 -1578457585.6798096 -430962278.06408691 0 -430962278.06408691 3852465587.558197 0 0 0 0 -1487264862.9108734 -918709759.27069092 0 -918709759.27069092 3539700894.7801437 0 0 0 0 -1505576897.4817657 -585263961.31848145 0 -585263961.31848145 4174537079.8034973 0 0 0 0 -625341461.89279175 -608326264.4524765 0 -608326264.4524765 1163952840.8259735 0 0 0 0 -607057582.71247864 -492502728.18437195 0 -492502728.18437195 1888446283.5858231 0 0 0 0 -1111532588.6566396 -97971979.034511805 0 -97971979.034511805 2572055250.932312 0 0 0 0 447905113.78226471 -977562957.79554749 0 -977562957.79554749 1032922601.8614655 0 0 0 0 -184138468.17713165 -1361011183.2255478 0 -1361011183.2255478 2428697353.7713013 0 0 0 0 -1438928997.1833954 -1449480968.2739487 0 -1449480968.2739487 2531108185.6100922 0 0 0 0 -2602286426.7443848 -2663611078.2427864 0 -2663611078.2427864 4109219115.5372086 0 0 0 0 494204846.42858887 -2719615446.3753548 0 -2719615446.3753548 3363759471.3244781 0 0 0 0 -1966236990.1524849 -1030959472.8195868 0 -1030959472.8195868 2988767803.6270599 0 0 0 0 -2212962252.9588928 -1336387287.3178825 0 -1336387287.3178825 4263637811.2200775 0 0 0 0 -2648659345.1563721 -2161407139.02285 0 -2161407139.02285 2335538155.9206772 0 0 0 0 -3304727444.3225098 -1023852343.6495323 0 -1023852343.6495323 3106194649.3287048 0 0 0 0 -1895686923.7058411 -1101653324.5652447 0 -1101653324.5652447 -690980891.10454559 0 0 0 0 -1994397963.3764801 -3052407400.2924585 0 -3052407400.2924585 -3704075399.2541962 0 0 0 0 -1715272938.0483704 -2135849840.7383518 0 -2135849840.7383518 -945492275.98112011 0 0 0 0 2097398.0222759321 -15017244.650551643 0 -15017244.650551643 16255769.457930133 0 0 0 0 -129988584.19963837 -198129389.7400589 0 -198129389.7400589 322190311.45240784 0 0 0 0 -1574660992.8360214 233889505.32610893 0 233889505.32610893 -2165218902.79879 0 0 0 0 -4214219106.3663101 -1352650310.7429619 0 -1352650310.7429619 820184878.88226318 0 0 0 0 -1370960091.7736359 -1898784709.1742592 0 -1898784709.1742592 916391648.76840973 0 0 0 0 -1017583282.9515419 -4366283.7031025887 0 -4366283.7031025887 1176611668.7590027 0 0 0 0 -273628639.48010254 -1320323727.1306992 0 -1320323727.1306992 -332874999.44137573 0 0 0 0 -2442310508.1876221 -961261246.78150558 0 -961261246.78150558 3046756505.3765869 0 0 0 0 -1480717242.5270081 -798367968.49953461 0 -798367968.49953461 2979497397.641325 0 0 0 0 -777662239.37073898 -359541745.10154533 0 -359541745.10154533 5281958819.109436 0 0 0 0 -1227459671.7720795 -1691759066.7163353 0 -1691759066.7163353 4951567198.473877 0 0 0 0 628721425.31097412 -436040290.47738647 0 -436040290.47738647 5199477471.0905304 0 0 0 0 3454562857.4415894 -178529642.6703186 0 -178529642.6703186 4810551836.1964912 0 0 0 0 358107931.11172485 8080487.9851608276 0 8080487.9851608276 4816707657.3481836 0 0 0 0 1344280114.3621445 597456423.525383 0 597456423.525383 3167397155.7737579 0 0 0 0 -117308418.98269653 -455438660.60476303 0 -455438660.60476303 5068086133.7940292 0 0 0 0 834740050.76589966 938216813.63762283 0 938216813.63762283 6478435160.5775452 0 0 0 0 270043364.87969208 -55838639.282522202 0 -55838639.282522202 2964866968.5369873 0 0 0 0 1519995867.7653809 -871324452.18373108 0 -871324452.18373108 2845686541.7457352 0 0 0 0 -549365640.29315186 -985489415.16189575 0 -985489415.16189575 2847805958.1205115 0 0 0 0 -206126977.4021759 -363415263.85565567 0 -363415263.85565567 526486309.75443077 0 0 0 0 1076848532.4380188 -552830064.46707726 0 -552830064.46707726 523421573.85982513 0 0 0 0 744206256.32700729 -556885252.35148144 0 -556885252.35148144 -807659937.40539551 0 0 0 0 596746001.4556694 -1052114570.62008 0 -1052114570.62008 -1293702345.2616272 0 0 0 0 572823552.42124939 -483196365.65163422 0 -483196365.65163422 74429945.427085876 0 0 0 0 302525864.88168335 -775768666.99074554 0 -775768666.99074554 1009035127.9758062 0 0 0 0 714503582.44673157 -232213557.979599 0 -232213557.979599 1091571457.030828 0 0 0 0 407543.91809082031 -965723148.47493744 0 -965723148.47493744 1499636347.3931694 0 0 0 0 -330330935.0690155 106458414.69610977 0 106458414.69610977 4870294802.5995789 0 0 0 0 -211330.07244873047 -844466268.4576149 0 -844466268.4576149 3740506284.0285931 0 0 0 0 260335166.91366577 294934682.35365295 0 294934682.35365295 2549809764.4543877 0 0 0 0 -266248455.28909302 -970653501.90559387 0 -970653501.90559387 5063755793.6575966 0 0 0 0 -401692.45308713411 -1046009590.6610327 0 -1046009590.6610327 5010911821.0817642 0 0 0 0 46719.646111860871 -755786.02864531428 0 -755786.02864531428 9667101.7285934128 0 0 0 0 90811189.044219971 23091227.65851593 0 23091227.65851593 -398589800.28915024 0 0 0 0 -302297490.66003799 -964191094.58532 0 -964191094.58532 7152657500.1402206 0 0 0 0 1859236161.4112854 -2624683839.86129 0 -2624683839.86129 3694368034.1768112 0 0 0 0 1150118443.6362152 -2193519220.1239014 0 -2193519220.1239014 10213660409.265259 0 0 0 0 969690.16529552639 -2861745.3037829399 0 -2861745.3037829399 4120738.8481718227 0 0 0 0 885052438.97824097 3018952908.5216064 0 3018952908.5216064 9828846829.3558216 0 0 0 0 592886.02876313031 -4047970.8556136079 0 -4047970.8556136079 12184802.763345674 0 0 0 0 20566252.890930176 -38447568.813148499 0 -38447568.813148499 -133175681.07373333 0 0 0 0 6629959.497543335 -144124615.76847076 0 -144124615.76847076 31282539.374107361 0 0 0 0 94714396.364349365 -78227917.198554993 0 -78227917.198554993 39603131.750912189 0 0 0 0 22636807.762908936 8887635.8273906708 0 8887635.8273906708 -21301266.015880585 0 0 0 0 -57253860.256774902 -94176423.049192429 0 -94176423.049192429 57874472.552490234 0 0 0 0 -43576361.944366455 -114003313.51615524 0 -114003313.51615524 191563446.70341492 0 0 0 0 -419551.90878562629 1768341.0952758193 0 1768341.0952758193 752373.3676262321 0 0 0 0 -5012666.0256500244 25155980.153573036 0 25155980.153573036 -13891045.972915649 0 0 0 0 -9745492.9212036133 8358259.2981529236 0 8358259.2981529236 21253875.137770653 0 0 0 0 -535403.44279496372 3759046.9896778576 0 3759046.9896778576 1885396.2081300775 0 0 0 0 1390217.0727539062 4607382.170375824 0 4607382.170375824 6106867.4598922729 0 0 0 0 -114025006.08087158 -86771897.996131897 0 -86771897.996131897 375627319.79152012 0 0 0 0 837821.68417568505 -234322.93845326919 0 -234322.93845326919 -4200739.70768819 0 0 0 0 733529.27654235065 1868212.8753125528 0 1868212.8753125528 -2383002.1068596211 0 0 0 0 -11761112.680297852 -2261776.2292861938 0 -2261776.2292861938 13994140.299507141 0 0 0 0 -928556.59556174278 3007342.396075651 0 3007342.396075651 1066257.5046960171 0 0 0 0 -4065.8008422851562 -6166660.4858474731 0 -6166660.4858474731 -392307.44308853149 0 0 0 0 1929296.3083496094 -214044866.05697632 0 -214044866.05697632 -113351453.36831665 0 0 0 0 27652200.225585938 23970763.584999084 0 23970763.584999084 761130778.18119049 0 0 0 0 2407623.2315067351 1750168.0628933953 0 1750168.0628933953 -3538894.5430769697 0 0 0 0 -406753.45982204948 -287137354.67160887 0 -287137354.67160887 217520760.17485046 0 0 0 0 107247904.20074463 -322590827.97843933 0 -322590827.97843933 3786673.779335022 0 0 0 0 41136969.730882645 -74925949.047962427 0 -74925949.047962427 135934844.44432068 0 0 0 0 -53533988.358779907 -69920644.004491806 0 -69920644.004491806 110728844.25967407 0 0 0 0 52275072.94430542 6389427.5798435211 0 6389427.5798435211 136921165.36334229 0 0 0 0 657823662.40686035 -1950062944.7224731 0 -1950062944.7224731 639196561.07324219 0 0 0 0 532432967.07299805 -1760935490.8237076 0 -1760935490.8237076 363837856.05337524 0 0 0 0 208141781.7794342 -2049767043.139801 0 -2049767043.139801 374826737.72219849 0 0 0 0 -306088.76177978516 -1961375675.7802811 0 -1961375675.7802811 412913187.95439911 0 0 0 0 340346741.19638062 -1761687485.5644226 0 -1761687485.5644226 425451492.89682961 0 0 0 0 578939104.55558777 -2015500470.831913 0 -2015500470.831913 91577921.708572388 0 0 0 0 1237953524.9958191 -1398148509.2779236 0 -1398148509.2779236 526619323.10250473 0 0 0 0 1522182350.9345245 -1679531662.2879181 0 -1679531662.2879181 504452425.6007843 0 0 0 0 2570872000.545578 -1049114883.253891 0 -1049114883.253891 565481168.40341187 0 0 0 0 2565801983.2805939 -985442340.71950531 0 -985442340.71950531 -42653353.288421631 0 0 0 0 -2076077.395278953 -1055006.4531378709 0 -1055006.4531378709 2360558.6119104251 0 0 0 0 2807692811.8030167 -410146183.74359894 0 -410146183.74359894 26865924.472686768 0 0 0 0 1193484318.691925 -1503810047.0093384 0 -1503810047.0093384 1177101386.2650833 0 0 0 0 2086318502.4547119 -1876006031.6195755 0 -1876006031.6195755 627280660.68367004 0 0 0 0 1291272104.8022461 -1522735456.2547226 0 -1522735456.2547226 591747752.19667053 0 0 0 0 804222461.68502808 -2050334092.7126312 0 -2050334092.7126312 551029209.88336182 0 0 0 0 906640087.20303345 -1885664002.9522552 0 -1885664002.9522552 -502068705.12820435 0 0 0 0 445472341.83380127 -1676027739.0897064 0 -1676027739.0897064 162318961.49414825 0 0 0 0 1044927580.3200378 -569036098.41261673 0 -569036098.41261673 242061756.03109741 0 0 0 0 2530321.371973142 -2065160.6691994816 0 -2065160.6691994816 210663.02166742086 0 0 0 0 298597365.7331543 -104474441.62268066 0 -104474441.62268066 -8449103.1357421875 0 0 0 0 1300236364.288353 -1304603231.8598671 0 -1304603231.8598671 321575827.22897339 0 0 0 0 409893208.15307617 -1776300989.1461563 0 -1776300989.1461563 211850405.09908676 0 0 0 0 -1260570263.6804504 -798921516.06325912 0 -798921516.06325912 -471810380.3454895 0 0 0 0 115939117.70668793 -1679533901.9201851 0 -1679533901.9201851 -1293974185.4250183 0 0 0 0 30539063.963195801 -1698894993.5087967 0 -1698894993.5087967 -519775696.56195164 0 0 0 0 429269691.8223896 -1877805078.4183207 0 -1877805078.4183207 -706055387.89733887 0 0 0 0 331328923.84194946 -2163154963.2445374 0 -2163154963.2445374 353812067.53654134 0 0 0 0 328116518.51340485 -2004666172.8290215 0 -2004666172.8290215 -106751052.75610352 0 0 0 0 84875377.804977417 -1887154461.5517502 0 -1887154461.5517502 -149039369.65319443 0 0 0 0 529357.89813910995 -1691122334.0521114 0 -1691122334.0521114 -514095784.41777039 0 0 0 0 228610526.69715881 -1753124132.40345 0 -1753124132.40345 -610514020.43346405 0 0 0 0 274917606.49990845 -1597648476.3537521 0 -1597648476.3537521 -1064583619.1723404 0 0 0 0 218714342.52770996 -1484576570.3830414 0 -1484576570.3830414 -907814458.60383606 0 0 0 0 176197.2281036377 -1535598535.8490143 0 -1535598535.8490143 -817520225.56822205 0 0 0 0 290648871.33578491 -1213699403.4516602 0 -1213699403.4516602 -862694030.48508501 0 0 0 0 169136020.95533752 -1466521052.4090729 0 -1466521052.4090729 -871002287.1893692 0 0 0 0 361600692.98969841 -1012850452.8394146 0 -1012850452.8394146 -507656723.89108276 0 0 0 0 28066609.502502441 -1153584776.9428406 0 -1153584776.9428406 -113686532.38499832 0 0 0 0 655139.21673583984 -1293737935.7304497 0 -1293737935.7304497 -402192330.10302734 0 0 0 0 -166910485.50186157 -1681396878.844696 0 -1681396878.844696 -1038875036.9247189 0 0 0 0 -326494727.95531464 -1438447124.6652966 0 -1438447124.6652966 -1375549392.9924469 0 0 0 0 33293390.949630737 -1187385016.4915085 0 -1187385016.4915085 -588109783.12892532 0 0 0 0 438521725.63393784 -1390447174.2315974 0 -1390447174.2315974 -1156394121.6852112 0 0 0 0 -404033403.55020142 -1560787235.6194458 0 -1560787235.6194458 -945627375.75934601 0 0 0 0 -405377849.77599621 -1557833813.3330445 0 -1557833813.3330445 -730056333.48165131 0 0 0 0 -1386208281.3623657 -1389673768.4167671 0 -1389673768.4167671 -758664023.965271 0 0 0 0 218052268.41768646 -1503159960.3639879 0 -1503159960.3639879 -1111366665.585228 0 0 0 0 391421259.15037537 -1585981570.78405 0 -1585981570.78405 -1101407355.8139801 0 0 0 0 -111475236.65560913 -1562954971.3601379 0 -1562954971.3601379 -927764147.26348877 0 0 0 0 -256079287.20372391 -1031096577.4217186 0 -1031096577.4217186 -1515811317.2654114 0 0 0 0 -1353210439.9903259 -1437921494.2553635 0 -1437921494.2553635 -804357811.29377174 0 0 0 0 -105688232.69689941 -37403188.845733643 0 -37403188.845733643 55841090.187461853 0 0 0 0 -75821580.398468018 -49473552.115447998 0 -49473552.115447998 -96498815.1925354 0 0 0 0 -76272905.651733398 -128247741.20906067 0 -128247741.20906067 73256029.006195068 0 0 0 0 -19690712.40045166 69031841.28352356 0 69031841.28352356 -57202831.164398193 0 0 0 0 9198718.7352580503 -21169284.273827139 0 -21169284.273827139 11404819.993358605 0 0 0 0 94396054.5184021 58248673.361564636 0 58248673.361564636 -140255880.68716431 0 0 0 0 -847744041.06723022 -824946242.13894081 0 -824946242.13894081 -193431695.27732086 0 0 0 0 -3423409143.0843964 -2284291535.0309124 0 -2284291535.0309124 -552937698.87518311 0 0 0 0 -1499459187.135849 -2352024520.1092529 0 -2352024520.1092529 -1221669752.5753098 0 0 0 0 -1917137579.3999748 -1362610279.8063831 0 -1362610279.8063831 -373093.50667572021 0 0 0 0 -1137235209.1731567 -2677500290.7793198 0 -2677500290.7793198 -3113977245.1592445 0 0 0 0 -1911693738.0777435 482063046.76493454 0 482063046.76493454 -106487527.9076004 0 0 0 0 1430790.3169396445 -16294562.98704163 0 -16294562.98704163 5188676.9664645493 0 0 0 0 -14285172.029190063 -27991792.380472183 0 -27991792.380472183 101276918.65100098 0 0 0 0 119251917.82736206 190713450.39802551 0 190713450.39802551 -106359292.73738861 0 0 0 0 -3759172.7022178173 -10967163.319253758 0 -10967163.319253758 2648613.5082877353 0 0 0 0 -52268179.025665283 -28614073.317047119 0 -28614073.317047119 96921663.285041809 0 0 0 0 6933288.1261542104 -23400941.293868635 0 -23400941.293868635 17957352.665281102 0 0 0 0 47823225.277900696 34584327.82434082 0 34584327.82434082 36022103.665786743 0 0 0 0 -45701732.43157959 -35647269.465286255 0 -35647269.465286255 18210530.745117188 0 0 0 0 10976841.263427734 -43666251.537269592 0 -43666251.537269592 -73096584.733978271 0 0 0 0 14494584.739425659 -117025755.52806854 0 -117025755.52806854 -167125989.3970871 0 0 0 0 -90659681.134742737 -43650231.864006042 0 -43650231.864006042 -67945755.582138062 0 0 0 0 11205536.629272461 -157768942.31694031 0 -157768942.31694031 -17956388.017578125 0 0 0 0 -48285644.700256348 -89021533.867523193 0 -89021533.867523193 -80206447.042236328 0 0 0 0 98841212.717468262 -84702715.552215576 0 -84702715.552215576 -124312209.62182617 0 0 0 0 -41347088.121398926 -6535770.6051483154 0 -6535770.6051483154 -167881701.35140991 0 0 0 0 -69903752.068237305 -123563326.46820831 0 -123563326.46820831 -349070318.14202881 0 0 0 0 -35736797.871917725 -87228955.072654724 0 -87228955.072654724 -398676190.32373047 0 0 0 0 12004.923859342933 -182655.24598200619 0 -182655.24598200619 17430.994398851879 0 0 0 0 -443561.67416639626 -576104.08008704707 0 -576104.08008704707 403286.56191377342 0 0 0 0 -53549997.256164551 38981329.468933105 0 38981329.468933105 49045898.560394287 0 0 0 0 -60296024.547119141 -152923939.0802002 0 -152923939.0802002 -324086700.83544922 0 0 0 0 -3169304.5338451564 -2029602.4884301424 0 -2029602.4884301424 1159744.0321351676 0 0 0 0 -1574741.9434585571 -23230452.080764771 0 -23230452.080764771 106851.78945922852 0 0 0 0 -5810665.3653869629 -11821286.83114624 0 -11821286.83114624 -2724213.3905687332 0 0 0 0 -3690954.9414325058 -1752798.3178346511 0 -1752798.3178346511 2700977.6457148716 0 0 0 0 -4399600.1577556729 -1316492.9316183217 0 -1316492.9316183217 3210096.0437448919 0 0 0 0 -41042908.263916016 -19369711.517276764 0 -19369711.517276764 1007375.8694763184 0 0 0 0 -50860931.209106445 -517976.99838256836 0 -517976.99838256836 35699913.913970947 0 0 0 0 -120210884.24795532 -13014889.859039307 0 -13014889.859039307 15611413.40222168 0 0 0 0 -64456102.80670166 23103901.366882324 0 23103901.366882324 -29090076.448913574 0 0 0 0 2025533.1343976259 -2189209.141069971 0 -2189209.141069971 347191.90242258832 0 0 0 0 -597530.92950439453 -2394639.5948486328 0 -2394639.5948486328 -2836675.299407959 0 0 0 0 -7128841.3617911413 -17441998.453469411 0 -17441998.453469411 7846017.8464778252 0 0 0 0 -27724938.005968332 -62789726.175721049 0 -62789726.175721049 3362707.4149169922 0 0 0 0 -60132.693664550781 -16552502.403663635 0 -16552502.403663635 -16744772.97454834 0 0 0 0 5808328.4153515175 -1543676.1713988911 0 -1543676.1713988911 -1191600.4809809923 0 0 0 0 -2949716.0294189453 -5691374.6370849609 0 -5691374.6370849609 -7447784.0883789062 0 0 0 0 84119.022858247161 -857859.1063062828 0 -857859.1063062828 -569693.56765016913 0 0 0 0 -4020623.6683318391 -7486907.6740667671 0 -7486907.6740667671 4034762.4779209616 0 0 0 0 -30288202.091148853 48523808.346095562 0 48523808.346095562 -59707473.860748291 0 0 0 0 15714035.818441391 -18397483.891013458 0 -18397483.891013458 1150911.0782981291 0 0 0 0 35587614.026802063 -12489021.033004761 0 -12489021.033004761 18426007.706703186 0 0 0 0 -10634305.597102873 -12450618.685059823 0 -12450618.685059823 8403697.8896135762 0 0 0 0 70744709.227397919 -32069901.121906281 0 -32069901.121906281 -6163398.3668823242 0 0 0 0 -49524769.410209656 11068526.37068367 0 11068526.37068367 24647146.21546936 0 0 0 0 -16605199.274871826 -20796577.522766113 0 -20796577.522766113 16886451.225070953 0 0 0 0 -6941932.9974212646 -54595921.912307739 0 -54595921.912307739 40766701.547704697 0 0 0 0 37870126.279754639 -78009184.598228455 0 -78009184.598228455 45041573.87588501 0 0 0 0 -123765878.09083939 -69046551.586868286 0 -69046551.586868286 184494195.22341919 0 0 0 0 -73183087.440429688 45071477.527755737 0 45071477.527755737 -12403898.184173584 0 0 0 0 -4663652.83899308 -2352237.5587961487 0 -2352237.5587961487 4200070.3037947938 0 0 0 0 125741151.42211914 -232162017.56207275 0 -232162017.56207275 35543875.33455658 0 0 0 0 -1267689.8944392279 -382324.27376428805 0 -382324.27376428805 861996.38027251512 0 0 0 0 20267963.322555542 -45875140.363288879 0 -45875140.363288879 -43627587.141532898 0 0 0 0 -237450909.41452026 257584505.31936646 0 257584505.31936646 -129398840.90139771 0 0 0 0 -56451801.273254395 -27695520.953659058 0 -27695520.953659058 128526220.50564575 0 0 0 0 -45570972.351959229 -170322479.26638794 0 -170322479.26638794 -62854174.617301941 0 0 0 0 18858795.9112854 -67043388.065975189 0 -67043388.065975189 -5970913.9638061523 0 0 0 0 -1030237.5827814713 -498988.13475255668 0 -498988.13475255668 718903.51418796182 0 0 0 0 -53392655.077789307 -191362041.82411194 0 -191362041.82411194 26485149.568855286 0 0 0 0 -3950824.942779541 -53332132.769760132 0 -53332132.769760132 49618356.378631592 0 0 0 0 -45408343.544555664 -46235614.72064209 0 -46235614.72064209 -3775240.3604736328 0 0 0 0 6622882.3877788559 -21161666.828989524 0 -21161666.828989524 7321482.8883955851 0 0 0 0 34184988.142654419 9988698.9482536316 0 9988698.9482536316 -438138655.90773487 0 0 0 0 17273696.328323364 -55162570.003860474 0 -55162570.003860474 12142156.359008789 0 0 0 0 2647987.6192463171 -6005630.9531675726 0 -6005630.9531675726 -1368326.837822251 0 0 0 0 3309172.4458007812 -5470188.5217285156 0 -5470188.5217285156 -764093.970703125 0 0 0 0 12194071.50182116 -8632066.0156924948 0 -8632066.0156924948 -1241258.1604134515 0 0 0 0 32141022.066848755 10301418.179595947 0 10301418.179595947 -3549228.0279083252 0 0 0 0 -7530736.5983461589 -12474606.059483171 0 -12474606.059483171 12636450.192510679 0 0 0 0 224372.19285065867 -10262827.081371583 0 -10262827.081371583 3624134.9338823631 0 0 0 0 9810787.6609802246 -24762207.580459595 0 -24762207.580459595 10418991.133306503 0 0 0 0 16671024.301513672 -50625714.071487427 0 -50625714.071487427 7557244.2600250244 0 0 0 0 -10777681.363484964 -22999880.878349081 0 -22999880.878349081 -1155567.1081235111 0 0 0 0 28960177.608642578 -35536665.386016846 0 -35536665.386016846 24437295.105865479 0 0 0 0 -49586044.990966797 -59127511.219009399 0 -59127511.219009399 -3931399.0272827148 0 0 0 0 17093324.547866821 1968305.5651016235 0 1968305.5651016235 49813241.423278809 0 0 0 0 81015121.15057373 -33900813.837585449 0 -33900813.837585449 -4355852.6877491474 0 0 0 0 761837654.43292999 -972320718.60299301 0 -972320718.60299301 1190726207.7979279 0 0 0 0 -120608233.19796753 -75242257.856964111 0 -75242257.856964111 33314155.51008606 0 0 0 0 -3416752.1795919705 -6151720.4702167287 0 -6151720.4702167287 16488925.427818388 0 0 0 0 -68780776.775764465 -140265341.82835007 0 -140265341.82835007 -13367610.106903076 0 0 0 0 156899262.23228455 -46825433.542778015 0 -46825433.542778015 -82886720.259365082 0 0 0 0 224872647.8734436 168885771.0255661 0 168885771.0255661 91265897.462097168 0 0 0 0 -153783081.90616608 39695605.810684204 0 39695605.810684204 592606906.35493469 0 0 0 0 -12287083.100021362 -38147630.857017517 0 -38147630.857017517 -4815875.6589050293 0 0 0 0 -111663268.11352539 -75229254.315483093 0 -75229254.315483093 646599841.04286194 0 0 0 0 -961023.63360595703 -123710126.43731689 0 -123710126.43731689 222541525.30115843 0 0 0 0 -142333764.72817993 14965700.289016724 0 14965700.289016724 393385392.64095402 0 0 0 0 -14288414.08856906 -20321848.605497859 0 -20321848.605497859 2506538.4227861781 0 0 0 0 33726.693673700094 -4531621.1223055124 0 -4531621.1223055124 -1710106.9636895729 0 0 0 0 -27538667.052093506 -19532672.656581879 0 -19532672.656581879 24767782.135932922 0 0 0 0 -4992899.4435119629 -12948844.280752182 0 -12948844.280752182 21874978.910430908 0 0 0 0 -37925800.36618042 -30188207.860256195 0 -30188207.860256195 32544081.995620728 0 0 0 0 -10364039.806063786 -17173852.698477052 0 -17173852.698477052 -2801284.893983081 0 0 0 0 -19707681.499206543 -40749132.980545044 0 -40749132.980545044 33632098.335266113 0 0 0 0 -14832585.444232941 -96184945.305332184 0 -96184945.305332184 159699746.22032166 0 0 0 0 -21446360.028762817 -151872219.01953888 0 -151872219.01953888 -16479321.737030029 0 0 0 0 38411538.435119629 -86969199.346343994 0 -86969199.346343994 -5079227.6565933228 0 0 0 0 -21254298.07090693 -12691760.638801455 0 -12691760.638801455 14495111.373001486 0 0 0 0 -33879796.713077404 -12637230.89510601 0 -12637230.89510601 8539467.6177880764 0 0 0 0 -344311293.63160706 -200695638.42856598 0 -200695638.42856598 -92842801.927572012 0 0 0 0 -22385465.004693069 -7007295.5573949367 0 -7007295.5573949367 3694329.6606077934 0 0 0 0 -100642744.18734741 -47095350.818321228 0 -47095350.818321228 387796789.6508956 0 0 0 0 -454757382.32171631 -1018631412.347496 0 -1018631412.347496 -960308443.91104221 0 0 0 0 -1029808604.9188232 -2568687508.297699 0 -2568687508.297699 -4865359648.1409016 0 0 0 0 -8081583.0009886473 -2714364.0124723464 0 -2714364.0124723464 785063.34573969105 0 0 0 0 -106229087.619802 306606321.02506828 0 306606321.02506828 -372907328.00842285 0 0 0 0 -160289674.32901764 -256629541.6784668 0 -256629541.6784668 21664419.807250977 0 0 0 0 -5868868.1993408203 13194511.309309959 0 13194511.309309959 -192084438.50976562 0 0 0 0 -510731166.95188141 -56449286.835395813 0 -56449286.835395813 -62907663.343322754 0 0 0 0 -1699747212.8847351 144664164.30397797 0 144664164.30397797 117356348.73210907 0 0 0 0 -514189362.21055603 -55645595.359792709 0 -55645595.359792709 98646971.652175903 0 0 0 0 -57394532.490753174 56555846.336776733 0 56555846.336776733 -43473667.912483215 0 0 0 0 -39495129.422103882 -72071107.54158783 0 -72071107.54158783 -148660848.53688812 0 0 0 0 -70998244.085166931 -16491895.037132263 0 -16491895.037132263 -4396793.1785888672 0 0 0 0 -3027520.1547393799 32753566.616851807 0 32753566.616851807 -45964718.161895752 0 0 0 0 39265506.706130981 -1302968.1272125244 0 -1302968.1272125244 -18752973.677932739 0 0 0 0 -23864894.896507263 -76125866.168449402 0 -76125866.168449402 -4588540.9721603394 0 0 0 0 37624326.748352051 -67707853.311100006 0 -67707853.311100006 -121529586.83734131 0 0 0 0 38448206.70639801 -49474568.522254944 0 -49474568.522254944 28707208.070884705 0 0 0 0 65723492.056518555 -17592911.417694092 0 -17592911.417694092 -42959827.946289062 0 0 0 0 40219149.780654907 6900247.9638061523 0 6900247.9638061523 2400597.0211791992 0 0 0 0 -3625393.4073437527 -11409767.27262421 0 -11409767.27262421 1969317.1301126718 0 0 0 0 35866053.252281189 -2380644.5813827515 0 -2380644.5813827515 14436099.087333679 0 0 0 0 17757949.056434631 11033782.400947571 0 11033782.400947571 57949316.749221802 0 0 0 0 -42282536.846511841 -97210057.964569092 0 -97210057.964569092 27360635.577879906 0 0 0 0 29286605.177139282 -9652539.7218017578 0 -9652539.7218017578 -7714125.3903579712 0 0 0 0 25055898.928024292 35512844.759277344 0 35512844.759277344 14476839.412437439 0 0 0 0 -607156.24390411377 -23885490.256816864 0 -23885490.256816864 -45703137.433349609 0 0 0 0 4887371.0259004906 -8051142.7192359306 0 -8051142.7192359306 1236962.1086068898 0 0 0 0 78558456.314300537 -33151366.490524292 0 -33151366.490524292 -71293925.164978027 0 0 0 0 19074223.701636076 -2103553.2991713211 0 -2103553.2991713211 -4649778.6813641265 0 0 0 0 33016932.999279022 39485187.161689758 0 39485187.161689758 -45478043.078979492 0 0 0 0 -49595133.240203857 45992253.211395264 0 45992253.211395264 13555698.823432922 0 0 0 0 30991978.153991699 -14869627.28717041 0 -14869627.28717041 -35224641.625 0 0 0 0 5705090.9532058239 -6430660.8151033521 0 -6430660.8151033521 689337.8434390761 0 0 0 0 15694581.988923006 -9209762.4056881461 0 -9209762.4056881461 1385188.5463362262 0 0 0 0 1753373.1120834351 -19567236.701496124 0 -19567236.701496124 -25284557.225753784 0 0 0 0 -2850387.0617675781 -17377750.282623291 0 -17377750.282623291 -25147871.539550781 0 0 0 0 1268394.7278443724 789317.59129993618 0 789317.59129993618 -995892.50898119062 0 0 0 0 -38848724.857177734 -43909938.943847656 0 -43909938.943847656 -149416382.31021118 0 0 0 0 1665775.8471628129 490868.79233898222 0 490868.79233898222 -759614.64709252119 0 0 0 0 -42287147.207572937 -116725619.00201035 0 -116725619.00201035 -112953453.44338989 0 0 0 0 41933928.917724609 21164830.346801758 0 21164830.346801758 -31763741.028961182 0 0 0 0 -29091460.117919922 -63699709.199020386 0 -63699709.199020386 -118995917.52380371 0 0 0 0 -115834555.27490234 -50504423.374893188 0 -50504423.374893188 -14428459.379333496 0 0 0 0 -20058786.371643066 33891245.974716187 0 33891245.974716187 14408886.841749191 0 0 0 0 -94341471.886779785 -21634748.231994629 0 -21634748.231994629 -115356945.66540527 0 0 0 0 -57222813.27947998 -71665303.269638062 0 -71665303.269638062 -54079005.783569336 0 0 0 0 86782997.814056396 -63811406.443878174 0 -63811406.443878174 -19020228.035133362 0 0 0 0 -15436417.89944458 -158311682.65455627 0 -158311682.65455627 -5955916.6790466309 0 0 0 0 -59709305.069694519 -156606387.0387764 0 -156606387.0387764 -4541824.1804504395 0 0 0 0 -126326753.18225098 -29715022.814804077 0 -29715022.814804077 -44791951.881835938 0 0 0 0 -26395685.754608154 -31290572.546535492 0 -31290572.546535492 33462698.396789551 0 0 0 0 111006.00874681026 114038.88696928695 0 114038.88696928695 180426.0773550719 0 0 0 0 41042.873848453164 80515.805834978819 0 80515.805834978819 47092.871795699 0 0 0 0 -38028961.188049316 -54703292.241668701 0 -54703292.241668701 95473143.12890625 0 0 0 0 89889790.549102783 31604846.860992432 0 31604846.860992432 -34794167.475006104 0 0 0 0 69651532.721969604 -49944259.573143005 0 -49944259.573143005 -41279742.194702148 0 0 0 0 55579670.018005371 3350226.8544158936 0 3350226.8544158936 -27601098.820495605 0 0 0 0 27166026.131446838 -45392524.862857819 0 -45392524.862857819 94285036.878845215 0 0 0 0 -1244194.3078599721 -10934169.79488463 0 -10934169.79488463 3248834.9660156146 0 0 0 0 581173949.43300629 -323652697.4176178 0 -323652697.4176178 16238477.043876648 0 0 0 0 165979377.29464722 -338804605.89944458 0 -338804605.89944458 442654904.58476257 0 0 0 0 166544276.30327606 -1483149551.3254204 0 -1483149551.3254204 2180615353.3904114 0 0 0 0 679680778.94248962 -1812121743.6685715 0 -1812121743.6685715 2384354432.2542419 0 0 0 0 404673121.41812134 -1282070517.8672657 0 -1282070517.8672657 1538045283.7198105 0 0 0 0 81700070.168174744 -897999292.74791718 0 -897999292.74791718 1204124483.0356903 0 0 0 0 269394652.41125488 -85076575.286125183 0 -85076575.286125183 552034409.03746033 0 0 0 0 -1686009.0048534647 -12610795.603097096 0 -12610795.603097096 2289610.2160628438 0 0 0 0 -8228376.2559204102 -33674774.353569031 0 -33674774.353569031 13226639.946914673 0 0 0 0 47374255.05377388 -37923113.975868225 0 -37923113.975868225 -27681128.587219238 0 0 0 0 -92083299.794921875 -40488503.915863037 0 -40488503.915863037 -26056915.761444092 0 0 0 0 1416473.2282369286 898083.66860572062 0 898083.66860572062 -1019838.130054228 0 0 0 0 28214220.249755859 -4124401.7725524902 0 -4124401.7725524902 -1731262.3762512207 0 0 0 0 20680870.614106625 -4065617.5722892173 0 -4065617.5722892173 -6088467.6341995783 0 0 0 0 -242058736.34082794 -221362917.36885834 0 -221362917.36885834 3184372500.3940887 0 0 0 0 -915398986.5562439 -726177818.76716614 0 -726177818.76716614 -489004262.79722595 0 0 0 0 510043.47080846131 -1181091.6704614311 0 -1181091.6704614311 -399919.61371153966 0 0 0 0 -185645587.93664551 -201123982.31813049 0 -201123982.31813049 -260457779.76905823 0 0 0 0 -365979117.75212097 -77323747.931213379 0 -77323747.931213379 84410010.806808472 0 0 0 0 -436907007.40158081 -2984731.683807373 0 -2984731.683807373 32962695.56338501 0 0 0 0 -107261870.9364624 135455998.74564362 0 135455998.74564362 76003862.800697327 0 0 0 0 32078254.048736572 -148959894.52784729 0 -148959894.52784729 -118406567.19743347 0 0 0 0 -50412494.041137695 -28704391.884788513 0 -28704391.884788513 -70983107.319732666 0 0 0 0 68422478.425079346 -137477599.39042664 0 -137477599.39042664 -12306011.741035461 0 0 0 0 -68234838.315376282 -80446967.167205811 0 -80446967.167205811 225397091.93055725 0 0 0 0 -79507686.332359314 -6000716.3978042603 0 -6000716.3978042603 118210763.8757019 0 0 0 0 -3501529.0142442286 -1238796.5168678164 0 -1238796.5168678164 1384510.6747894441 0 0 0 0 -438383204.45063782 168829869.08162689 0 168829869.08162689 193352386.6822052 0 0 0 0 -450440792.31465912 -474272448.05999374 0 -474272448.05999374 -278079080.03012085 0 0 0 0 -1535799.7686693296 607750.41238987446 0 607750.41238987446 503812.80645463523 0 0 0 0 -115037982.3151474 -332841001.8276062 0 -332841001.8276062 -516340384.23458862 0 0 0 0 -259669729.13998413 -905071494.86627197 0 -905071494.86627197 13068498.643936157 0 0 0 0 -155019801.37541199 -1054599168.4931335 0 -1054599168.4931335 -5137388.3057861328 0 0 0 0 1536904163.9198456 -1807064314.2779541 0 -1807064314.2779541 67368453.781738281 0 0 0 0 725795992.28573227 -544112988.96813202 0 -544112988.96813202 -108225955.32751465 0 0 0 0 -758895824.32802582 -22840264.611610413 0 -22840264.611610413 244269329.60232544 0 0 0 0 -415718131.98390198 -72397647.337375641 0 -72397647.337375641 240754785.22833252 0 0 0 0 473023308.5090332 -610310905.64550781 0 -610310905.64550781 68658934.127151489 0 0 0 0 386874144.76327515 32936345.955917358 0 32936345.955917358 -24750611.38621521 0 0 0 0 -422663099.6259079 247646541.05276108 0 247646541.05276108 -62723963.082275391 0 0 0 0 1131083586.5881348 -339583004.11987305 0 -339583004.11987305 -607884324.41253662 0 0 0 0 4972798.7067122012 -5297860.2991491221 0 -5297860.2991491221 1049104.0867724344 0 0 0 0 64405601.936004639 -937289392.74401855 0 -937289392.74401855 4750804911.2855682 0 0 0 0 -58933500.915512085 -210488291.39527893 0 -210488291.39527893 -529534391.56750488 0 0 0 0 1580991293.6851158 -3121915095.6350174 0 -3121915095.6350174 4387615670.615387 0 0 0 0 2729143638.7091675 -1488567916.1972351 0 -1488567916.1972351 -131113163.56768799 0 0 0 0 2530339747.0798893 -523394441.67785442 0 -523394441.67785442 2301085911.1248627 0 0 0 0 1515028092.6946564 -1323869713.0312119 0 -1323869713.0312119 1829200544.2617874 0 0 0 0 677178032.59887695 -2127969943.9846344 0 -2127969943.9846344 4288740710.3983307 0 0 0 0 2474446812.7174702 -2556971204.7586093 0 -2556971204.7586093 2353574090.9357758 0 0 0 0 601808227.19026184 -1527414891.6203461 0 -1527414891.6203461 1836041704.1632862 0 0 0 0 665652218.05249023 -827670181.7406311 0 -827670181.7406311 1711573151.7756958 0 0 0 0 618385310.88484192 -1397818596.7815323 0 -1397818596.7815323 2846421408.4254684 0 0 0 0 1223704410.473587 -792690072.6302948 0 -792690072.6302948 2037896779.9143677 0 0 0 0 1393381777.7193184 -2205190725.7882843 0 -2205190725.7882843 1514817890.7471161 0 0 0 0 598369415.22029114 -1388178808.113327 0 -1388178808.113327 1454399050.4369049 0 0 0 0 1000562840.5688667 -1931565094.6714935 0 -1931565094.6714935 1315747551.3033905 0 0 0 0 1117351374.9159164 -1902102226.0340042 0 -1902102226.0340042 499226948.50914001 0 0 0 0 899069677.80970764 -1907212337.6238098 0 -1907212337.6238098 1351989832.8397064 0 0 0 0 650274960.20465088 -1641309083.516098 0 -1641309083.516098 474955234.01840639 0 0 0 0 1200761451.3032684 -2031309925.3868523 0 -2031309925.3868523 14202049.957046509 0 0 0 0 1594735817.9578705 -828240518.66674042 0 -828240518.66674042 489055592.76911926 0 0 0 0 3312806641.5152998 -1596665812.1682529 0 -1596665812.1682529 71965426.797042847 0 0 0 0 -1523397346.0350266 -1511194573.3125687 0 -1511194573.3125687 -184718601.01895142 0 0 0 0 195500.5406734189 -2118636.8759783097 0 -2118636.8759783097 -245075.40367408097 0 0 0 0 747418218.82320404 -1625386545.7609005 0 -1625386545.7609005 -140443856.07484436 0 0 0 0 -800538670.56708527 -424609183.4779892 0 -424609183.4779892 92449991.829574585 0 0 0 0 -1165440069.5734863 -448029733.40617371 0 -448029733.40617371 95945523.269119263 0 0 0 0 -1081127313.2369995 -548358704.78122711 0 -548358704.78122711 214616230.55125427 0 0 0 0 -1374547849.7805252 -1624279419.7171936 0 -1624279419.7171936 -116204529.11511517 0 0 0 0 -3963493702.6356201 -785995055.51802826 0 -785995055.51802826 538312670.42613983 0 0 0 0 -1551530215.1143341 -640518116.3057785 0 -640518116.3057785 239200536.78093719 0 0 0 0 -1802569983.4083023 947727097.16990662 0 947727097.16990662 158559097.40525818 0 0 0 0 -3036054590.84198 963555638.43256378 0 963555638.43256378 -908846760.27677917 0 0 0 0 -1241618480.0016785 -1978942931.8514519 0 -1978942931.8514519 -3230862685.298584 0 0 0 0 986223872.61735535 -1192170526.3366623 0 -1192170526.3366623 -889865855.72979259 0 0 0 0 542680.52455036156 -3659872.7524858825 0 -3659872.7524858825 638223.4016110003 0 0 0 0 2059905011.7894125 -825321486.31656837 0 -825321486.31656837 486062690.01535034 0 0 0 0 -633665613.42013168 -398393256.1680336 0 -398393256.1680336 56155761.339828491 0 0 0 0 229784315.62940979 353473578.41934204 0 353473578.41934204 158189538.15468597 0 0 0 0 177257692.23603058 563746576.78198814 0 563746576.78198814 -251402158.12167358 0 0 0 0 160101.0453876378 -3188946.3200968839 0 -3188946.3200968839 5899017.5061620772 0 0 0 0 1448156370.1383724 422602292.9170208 0 422602292.9170208 -537980813.63999939 0 0 0 0 2193887573.3801384 -77810026.625927925 0 -77810026.625927925 -303253148.35783386 0 0 0 0 193340813.72477722 1044607690.2933807 0 1044607690.2933807 -473649845.44423103 0 0 0 0 -690556776.7766037 342193927.09872818 0 342193927.09872818 -11631697.148468018 0 0 0 0 -531558868.57774353 202924085.32922363 0 202924085.32922363 -970339066.60916138 0 0 0 0 -993568054.66547394 -798109359.53764725 0 -798109359.53764725 -660004902.28390503 0 0 0 0 -4135479024.412014 -1879967152.1417637 0 -1879967152.1417637 -754815419.31497192 0 0 0 0 -2065144464.28759 260206129.90951157 0 260206129.90951157 398387284.57594299 0 0 0 0 -503038505.28295898 -199567946.69458008 0 -199567946.69458008 454902527.49079895 0 0 0 0 -819123805.86155701 600876216.04585266 0 600876216.04585266 543158001.54594421 0 0 0 0 -448190884.50372314 411001415.70012283 0 411001415.70012283 1570706506.5444794 0 0 0 0 -64002.671356573701 -3177758.2569019534 0 -3177758.2569019534 527594.78369928151 0 0 0 0 -286912275.07164001 -432414115.38928986 0 -432414115.38928986 953223249.46665955 0 0 0 0 -864410694.40248108 -487533731.335495 0 -487533731.335495 889793057.69091797 0 0 0 0 302675459.06642151 76655427.374969482 0 76655427.374969482 619651330.79863739 0 0 0 0 -388857172.75003052 95204647.204421997 0 95204647.204421997 679296315.63198853 0 0 0 0 -141948149.82046509 -500034180.13122177 0 -500034180.13122177 836865974.09643555 0 0 0 0 1481553.7120884359 -7283175.4206996113 0 -7283175.4206996113 407389.71908657067 0 0 0 0 2809327.8047561646 -89267068.157482147 0 -89267068.157482147 -128762866.46673584 0 0 0 0 2278530.0966410078 -2862330.4397759382 0 -2862330.4397759382 -4868217.7447440699 0 0 0 0 -33132793.641265869 -93711147.212013245 0 -93711147.212013245 -126876441.88204956 0 0 0 0 52512568.979095459 -79609540.7292099 0 -79609540.7292099 -274485625.85747528 0 0 0 0 -2432879.1715393066 -76167271.624603271 0 -76167271.624603271 -113988617.52744293 0 0 0 0 -41105940.903247833 33929941.271100998 0 33929941.271100998 -137547275.93486023 0 0 0 0 4805589.8065223694 -100413857.70449066 0 -100413857.70449066 25133720.712188721 0 0 0 0 22023603.339401245 -17524329.827476501 0 -17524329.827476501 -57550362.591674805 0 0 0 0 900792.67218017578 -130350410.76122284 0 -130350410.76122284 -150875088.74994659 0 0 0 0 -22233498.037719727 -43015686.093017578 0 -43015686.093017578 923672498.65724945 0 0 0 0 134752442.11276245 288806644.7003479 0 288806644.7003479 168719381.95205498 0 0 0 0 -1878628.0316975927 -3515808.8590113521 0 -3515808.8590113521 15996834.781627774 0 0 0 0 44975832.495536804 252329395.7601738 0 252329395.7601738 366395500.92626953 0 0 0 0 1933343893.8312645 -771815175.88407898 0 -771815175.88407898 -886380930.00588989 0 0 0 0 -6358152.4546514153 -6695425.2509147674 0 -6695425.2509147674 28196011.885968238 0 0 0 0 -55281742.156089783 -596393986.88511276 0 -596393986.88511276 2668232890.9787598 0 0 0 0 -52613870.361999512 -61000767.421760559 0 -61000767.421760559 -815988.04974365234 0 0 0 0 -846662.61598192155 -21105353.078408718 0 -21105353.078408718 -861217.75279996917 0 0 0 0 -30744758.089225769 -29686154.853473663 0 -29686154.853473663 40954424.918991089 0 0 0 0 -47689068.416564941 -111563831.92288208 0 -111563831.92288208 -37050169.506942749 0 0 0 0 -73621306.182342529 4811698.7093353271 0 4811698.7093353271 227208799.60250854 0 0 0 0 259618622.27362442 -141126814.14032745 0 -141126814.14032745 -313113961.11242676 0 0 0 0 797568.1844627494 -5978463.7335756272 0 -5978463.7335756272 -929293.8011341989 0 0 0 0 -23823624.238697052 -436489839.80626678 0 -436489839.80626678 -620339990.66140747 0 0 0 0 -150050407.28312302 19485468.729793549 0 19485468.729793549 -133945673.88360596 0 0 0 0 -106933122.58053589 -202515972.86022949 0 -202515972.86022949 -395657050.10803223 0 0 0 0 -336967003.72396851 -189862229.00749969 0 -189862229.00749969 -675116.77772521973 0 0 0 0 -981950984.40474319 -1044330440.5514641 0 -1044330440.5514641 -566225023.37362671 0 0 0 0 -648852583.31997681 -371139262.47059631 0 -371139262.47059631 -104858038.34674072 0 0 0 0 -29706802.766845703 -75951411.287445068 0 -75951411.287445068 607.81466674804688 0 0 0 0 1187798.8153533936 -79349065.300300598 0 -79349065.300300598 -51424833.608032227 0 0 0 0 4088844.7215919495 -60052569.611385345 0 -60052569.611385345 48680454.27557373 0 0 0 0 -135453822.70860291 -200183985.19272614 0 -200183985.19272614 -153600666.0823822 0 0 0 0 -60654138.123397827 -77451290.671844482 0 -77451290.671844482 427901.85787963867 0 0 0 0 -105861298.97566217 -61027722.550832599 0 -61027722.550832599 -108255713.99856567 0 0 0 0 -4726470.0707397461 -67532978.63180542 0 -67532978.63180542 -134275367.37338257 0 0 0 0 -26651268.306541443 -11508860.084281921 0 -11508860.084281921 -16180261.072631836 0 0 0 0 13103397.707901001 -686601.04260253906 0 -686601.04260253906 -44091716.060028076 0 0 0 0 14454800.275665283 -10331416.425949097 0 -10331416.425949097 6722641.5235595703 0 0 0 0 10730344.346603394 20986144.884105682 0 20986144.884105682 30140409.116287231 0 0 0 0 20292760.933582306 8290257.7966842651 0 8290257.7966842651 33678156.191833496 0 0 0 0 21912363.09053421 8676615.3919754028 0 8676615.3919754028 -31226834.386352539 0 0 0 0 -20993985.983016968 48577987.644210815 0 48577987.644210815 71464744.062805176 0 0 0 0 13667530.957118988 39229697.495033264 0 39229697.495033264 -39714773.748718262 0 0 0 0 -1232511.1167305261 -22854078.944127105 0 -22854078.944127105 -1069920.0051850416 0 0 0 0 11552674.718223572 -21670870.528251648 0 -21670870.528251648 -26088141.951934814 0 0 0 0 -19588552.206268311 -6582638.4609603882 0 -6582638.4609603882 128434241.96349335 0 0 0 0 -3618739.2605059668 -13783316.009399718 0 -13783316.009399718 7979587.1064532101 0 0 0 0 -8017420.0855560303 -13638815.989585876 0 -13638815.989585876 805267.19832611084 0 0 0 0 -3130156.6607913896 -10469551.45383051 0 -10469551.45383051 3423679.0284214634 0 0 0 0 -6058604.9600067139 -47910309.465164185 0 -47910309.465164185 -147202797.34278107 0 0 0 0 -6910885.8933868408 -7257135.3692245483 0 -7257135.3692245483 9161650.0301055908 0 0 0 0 -4847935.4628295898 -7712430.5086669922 0 -7712430.5086669922 3035428.1331481934 0 0 0 0 -7452077.7477455139 -8140258.9563446045 0 -8140258.9563446045 5893323.8208618164 0 0 0 0 -6240975.9820251465 -11476368.200862885 0 -11476368.200862885 -1910563.7217102051 0 0 0 0 24922735.546463013 -10627408.939498901 0 -10627408.939498901 19712055.664962769 0 0 0 0 27289458.384349823 2462097.9953613281 0 2462097.9953613281 12614296.070831299 0 0 0 0 26785011.848434448 -307927.14624023438 0 -307927.14624023438 -838549.27606201172 0 0 0 0 23510986.882217407 -5199424.3918762207 0 -5199424.3918762207 8872928.869934082 0 0 0 0 -7969908.8956895173 -7723378.4779939353 0 -7723378.4779939353 10505878.825853258 0 0 0 0 -9474745.8879985809 -10468728.024803162 0 -10468728.024803162 779598.29275512695 0 0 0 0 -10452722.06652832 -14396252.417915344 0 -14396252.417915344 -496350.41693115234 0 0 0 0 -1818806.8251161128 -10039521.736532241 0 -10039521.736532241 8774238.2588207722 0 0 0 0 1475083.8744015768 -2239034.355042778 0 -2239034.355042778 3273488.5879603326 0 0 0 0 -2801065.3035239503 -6366724.840662064 0 -6366724.840662064 557271.57754212618 0 0 0 0 5040970.3805866241 -7819375.6100578308 0 -7819375.6100578308 -46801.385025024414 0 0 0 0 -3509468.5048828125 -8095949.4177246094 0 -8095949.4177246094 -53009.288955688477 0 0 0 0 -1387189.8583221436 -9859981.9488067627 0 -9859981.9488067627 2201699.7588348389 0 0 0 0 1125015.3849953264 -1163631.0226626098 0 -1163631.0226626098 333580.00007799268 0 0 0 0 2727875.7284545898 -16498931.136642456 0 -16498931.136642456 -32612545.051231384 0 0 0 0 24278417.100357056 -36395050.988227844 0 -36395050.988227844 -8627.5036010742188 0 0 0 0 8897685.0155487061 -27058498.243354797 0 -27058498.243354797 -2093754.2820892334 0 0 0 0 -1495223.8244476318 -6823454.686050415 0 -6823454.686050415 756710.34269714355 0 0 0 0 39973001.497192383 -30362940.326225281 0 -30362940.326225281 -10960315.829437256 0 0 0 0 73487245.393310547 -17147319.842651367 0 -17147319.842651367 -16953173.784912109 0 0 0 0 96794.427483098581 -6544828.9397243261 0 -6544828.9397243261 -5778548.3952149153 0 0 0 0 -5312278.3542295881 -9201381.5770481005 0 -9201381.5770481005 311372.63930614293 0 0 0 0 20228901.309936523 -22107971.613731384 0 -22107971.613731384 -6130287.6091156006 0 0 0 0 824445.71320532262 -21173112.869140148 0 -21173112.869140148 -4388404.4226400293 0 0 0 0 2988193.7224121094 -31253933.976356506 0 -31253933.976356506 1918040.2399673462 0 0 0 0 15574455.279449463 -34034444.562448502 0 -34034444.562448502 -6492819.5399475098 0 0 0 0 2042539.8484767079 -25581191.154970199 0 -25581191.154970199 -6345961.1763954274 0 0 0 0 7133817.5436820984 -34675418.679909706 0 -34675418.679909706 -22485864.530258179 0 0 0 0 -8086180.6529998779 -11127102.710746765 0 -11127102.710746765 787287.54281616211 0 0 0 0 -7703589.571840601 -9701150.2448538877 0 -9701150.2448538877 14116934.279446453 0 0 0 0 -42078992.886444092 -47404261.965988159 0 -47404261.965988159 22491541.576049805 0 0 0 0 11308515.405635834 -52463118.631644249 0 -52463118.631644249 -380353.27618408203 0 0 0 0 -5190508.8680419922 -7590115.4884033203 0 -7590115.4884033203 5480605.1524848938 0 0 0 0 -186504808.13218689 -39592793.839103699 0 -39592793.839103699 103183076.99172974 0 0 0 0 -6629620.3404985275 -3305445.1145607568 0 -3305445.1145607568 12983539.773454785 0 0 0 0 -115639921.99639893 -15504705.818771362 0 -15504705.818771362 2088852.2675962448 0 0 0 0 -167728030.91534424 -75587206.005752563 0 -75587206.005752563 99849917.172927856 0 0 0 0 -255417651.48956299 54769820.732147217 0 54769820.732147217 -25427614.439697266 0 0 0 0 67108309.945106506 -40799961.531871796 0 -40799961.531871796 -22727656.156234741 0 0 0 0 12501102.652510613 -14332832.514683219 0 -14332832.514683219 -9456083.0147662759 0 0 0 0 16925247.548919678 -134811194.93249512 0 -134811194.93249512 74245249.519226074 0 0 0 0 -922730457.51908875 -1798968130.1286621 0 -1798968130.1286621 -2724459989.7022705 0 0 0 0 -1320885207.4760675 -2459390449.5042562 0 -2459390449.5042562 -2087276511.6169739 0 0 0 0 -1612865136.002821 -147781862.33995438 0 -147781862.33995438 4615557.0720672607 0 0 0 0 -2730904965.0047455 -1266852211.2519646 0 -1266852211.2519646 -1470852681.5776978 0 0 0 0 -819489513.30368042 -1506803276.5880203 0 -1506803276.5880203 -1548016754.7686615 0 0 0 0 -584355604.06079102 -609029292.5027771 0 -609029292.5027771 -645896144.91210938 0 0 0 0 -1306105744.3793335 -2276730754.4081402 0 -2276730754.4081402 -1982388222.6491089 0 0 0 0 -1519586460.5187073 -2301630890.4302139 0 -2301630890.4302139 -333067386.12908936 0 0 0 0 -1171438257.9682617 -1881937689.060791 0 -1881937689.060791 -1913330301.5093689 0 0 0 0 -1653440789.9671631 -1961168706.4138641 0 -1961168706.4138641 -1900116411.4275093 0 0 0 0 585195.51462459564 -2747822.8083998524 0 -2747822.8083998524 806609.01995830983 0 0 0 0 -1609781831.6390877 -2333495595.4120493 0 -2333495595.4120493 -1945324304.1726074 0 0 0 0 -1330622102.0603867 -2806649677.5121765 0 -2806649677.5121765 -4307914141.6683044 0 0 0 0 -3764069.0383100659 -4780037.2668535635 0 -4780037.2668535635 1426503.7863968406 0 0 0 0 272983715.47247314 301534723.19224548 0 301534723.19224548 -472312898.0640564 0 0 0 0 8468398.6478938758 -12081646.347457502 0 -12081646.347457502 -3416406.9899385422 0 0 0 0 163474.07260746555 -1302685.3345722891 0 -1302685.3345722891 -312085.19889810681 0 0 0 0 360677667.58773804 -564333402.75132751 0 -564333402.75132751 -2589382906.0967407 0 0 0 0 -640329422.43618011 -371239714.13513756 0 -371239714.13513756 -190096022.33776855 0 0 0 0 24928.113192036748 -155235.58546910435 0 -155235.58546910435 320220.45763430558 0 0 0 0 4143267.5566177964 -11140896.028298993 0 -11140896.028298993 -968313.59026017226 0 0 0 0 446017.15987288952 -8356352.198067233 0 -8356352.198067233 857229.53170361556 0 0 0 0 -20846498.424987793 56494268.192962646 0 56494268.192962646 -175202092.65640259 0 0 0 0 -342898751.80321503 -636975083.91644669 0 -636975083.91644669 239233821.01766205 0 0 0 0 22135447.305725098 48134900.124031067 0 48134900.124031067 -188855723.38304138 0 0 0 0 83841876.160263062 -65404998.236495972 0 -65404998.236495972 -150502114.41612244 0 0 0 0 -6601717.5323486328 -80314228.408813477 0 -80314228.408813477 -136933391.69541931 0 0 0 0 -440930283.31606293 -882168456.69697571 0 -882168456.69697571 419843246.70889282 0 0 0 0 369470864.78981018 -442116649.76229858 0 -442116649.76229858 590937481.92362976 0 0 0 0 10289378.711746216 -9055512.8876190186 0 -9055512.8876190186 -29203935.729888916 0 0 0 0 246964056.48438072 97570302.125101089 0 97570302.125101089 -18946987.392608643 0 0 0 0 842165137.9369812 -154942863.12202454 0 -154942863.12202454 39649492.673027039 0 0 0 0 -1306255.5036617965 -1075454.295849856 0 -1075454.295849856 2037986.3517627493 0 0 0 0 -1870568022.2957001 -1562117650.8279343 0 -1562117650.8279343 -1117697267.1479263 0 0 0 0 -2116598510.479599 -2300890533.3084984 0 -2300890533.3084984 -811591459.7021637 0 0 0 0 628071700.66397095 -1011650603.5645294 0 -1011650603.5645294 221494594.9125824 0 0 0 0 -1482961700.7572632 -1302469178.6358948 0 -1302469178.6358948 181581057.34902382 0 0 0 0 -359747093.97576904 -1068534278.0363541 0 -1068534278.0363541 -1677927924.4466858 0 0 0 0 -193779062.20401001 -1656255755.1839828 0 -1656255755.1839828 -1772460510.2913361 0 0 0 0 -285601396.8356781 -1820821758.8157578 0 -1820821758.8157578 -801097097.47088623 0 0 0 0 -854232873.21677017 -1337962731.7920837 0 -1337962731.7920837 -1204952149.5024719 0 0 0 0 -530985336.50496864 -96787947.365948677 0 -96787947.365948677 337542.96487426758 0 0 0 0 -10975052.2785687 -1755351.2136032879 0 -1755351.2136032879 6425278.8234271556 0 0 0 0 -251503518.33813477 -352849771.0507431 0 -352849771.0507431 756287213.82826233 0 0 0 0 259738892.30726624 -425501365.45101547 0 -425501365.45101547 554725312.76855469 0 0 0 0 -748682106.75302315 -1013649263.7890415 0 -1013649263.7890415 28274939.920837402 0 0 0 0 461331942.48144531 -216211930.20869446 0 -216211930.20869446 496508931.99192047 0 0 0 0 -2825133018.7281418 -1083529723.1194229 0 -1083529723.1194229 -390989688.17074585 0 0 0 0 -1873462.606613595 980763.47524472326 0 980763.47524472326 120839.78773653507 0 0 0 0 1478267954.7137222 -1871132259.0614815 0 -1871132259.0614815 -412304908.80288696 0 0 0 0 197059169.40971375 -332846905.17807007 0 -332846905.17807007 494001657.52183533 0 0 0 0 -630548589.75763893 -105304778.30406761 0 -105304778.30406761 581072465.77455139 0 0 0 0 -435089636.30480957 -214878290.98030853 0 -214878290.98030853 640383754.1177063 0 0 0 0 -228196647.17164803 -118180606.22101307 0 -118180606.22101307 667068395.77793884 0 0 0 0 -411576231.20910645 75195744.371353149 0 75195744.371353149 1011074010.4880524 0 0 0 0 29244724.132675171 135088500.37264252 0 135088500.37264252 614192658.77163696 0 0 0 0 -164552309.03785706 176798235.67351532 0 176798235.67351532 1566692953.5701294 0 0 0 0 4013231926.4470978 -1771695269.1872444 0 -1771695269.1872444 317276617.32556152 0 0 0 0 129353401.93261719 381217792.18766785 0 381217792.18766785 544220641.05750275 0 0 0 0 -139382.71690688282 -539632.82486707717 0 -539632.82486707717 5501536.854012683 0 0 0 0 2854319216.4295864 70049415.566898584 0 70049415.566898584 693049234.40577698 0 0 0 0 2360028554.0526733 -1259618863.1740265 0 -1259618863.1740265 2019265209.2858658 0 0 0 0 2899750943.2026062 -567133119.66161346 0 -567133119.66161346 78294422.705047607 0 0 0 0 355492444.37931824 -961127768.42905426 0 -961127768.42905426 1725361026.4720812 0 0 0 0 1903048253.1096191 -890297725.68340302 0 -890297725.68340302 78933635.655504182 0 0 0 0 2497909775.2194214 85148507.739906311 0 85148507.739906311 -195011917.40823364 0 0 0 0 3048937137.1627197 -354047984.09474945 0 -354047984.09474945 97977825.802246094 0 0 0 0 2215703613.6462402 -944366327.07102203 0 -944366327.07102203 677262532.66845703 0 0 0 0 3456779368.2135887 -387009938.86664391 0 -387009938.86664391 -604270788.48828125 0 0 0 0 3377600598.4306946 -606603444.72893333 0 -606603444.72893333 394100404.2505188 0 0 0 0 197792789.62533569 226990042.70248032 0 226990042.70248032 -73527970.238342285 0 0 0 0 2218074790.9998932 -740126239.40428162 0 -740126239.40428162 -1605752042.6001511 0 0 0 0 -577937831.48573303 -981406055.15768433 0 -981406055.15768433 -702801669.07287598 0 0 0 0 -163577917.57221031 -1253441043.8104277 0 -1253441043.8104277 -543762618.59475708 0 0 0 0 -523481581.86407471 -187428128.81130981 0 -187428128.81130981 583367924.2048111 0 0 0 0 -632602752.42459106 -827111235.55929565 0 -827111235.55929565 -286889992.20109558 0 0 0 0 -1161174873.6585693 -354539197.54826355 0 -354539197.54826355 -699144175.74079895 0 0 0 0 -1180048325.9256897 -1763524527.0527115 0 -1763524527.0527115 -1197282335.4585724 0 0 0 0 -378244982.28590393 -1173459237.0976715 0 -1173459237.0976715 -1162382701.4730148 0 0 0 0 -430082151.86595154 -1643286932.2856445 0 -1643286932.2856445 -3965983569.1179733 0 0 0 0 -2915180882.3016663 -2499185509.1914902 0 -2499185509.1914902 -861961684.97461414 0 0 0 0 663548083.23661804 -123188289.80862045 0 -123188289.80862045 -3710616202.0200043 0 0 0 0 -1130089934.9818621 -2719161844.4295511 0 -2719161844.4295511 -814774225.97761536 0 0 0 0 -1438245717.7587585 -131175602.82115173 0 -131175602.82115173 -1555945.006362915 0 0 0 0 9786754.5675051659 -20810241.069061931 0 -20810241.069061931 4063153.5119780302 0 0 0 0 760902.43754769862 -7672192.530001983 0 -7672192.530001983 -2518774.3157680631 0 0 0 0 2404393.9465789795 -37308553.805147171 0 -37308553.805147171 -8132528.5617370605 0 0 0 0 -17109556.882509232 -32703882.502017975 0 -32703882.502017975 -42734.584991455078 0 0 0 0 -13791616.178527832 -23875210.832344055 0 -23875210.832344055 -4407255.2423534393 0 0 0 0 3054843.9323158264 -35117946.58574295 0 -35117946.58574295 7058.1119842529297 0 0 0 0 3467304385.9803772 -5518529246.7577667 0 -5518529246.7577667 -1580646880.6495667 0 0 0 0 -53634674.941680908 -5723457095.1803894 0 -5723457095.1803894 536466.83471679688 0 0 0 0 6113278472.7888088 -3144037417.8898249 0 -3144037417.8898249 -2032387997.8751526 0 0 0 0 6139431426.1683197 -151533453.91324615 0 -151533453.91324615 -1086170079.0852814 0 0 0 0 5250053.3807170764 -8786901.6053460464 0 -8786901.6053460464 -2428811.78238599 0 0 0 0 2084483069.7790985 -916145082.53313446 0 -916145082.53313446 -1221937788.4084206 0 0 0 0 2905053047.5801086 -3576336256.3747101 0 -3576336256.3747101 -1539663832.5569153 0 0 0 0 289214139.30005646 -1018619403.230751 0 -1018619403.230751 -641762118.78921509 0 0 0 0 3028069835.2158461 -1746876957.8559022 0 -1746876957.8559022 -761653189.13803101 0 0 0 0 3813513549.276474 -3420672517.7116127 0 -3420672517.7116127 -1620307166.3846588 0 0 0 0 5610518012.3674164 -2178023987.4905624 0 -2178023987.4905624 -1833704631.1116028 0 0 0 0 2649837186.5974731 -3255950039.9008636 0 -3255950039.9008636 -1054233868.5653534 0 0 0 0 1793349809.966835 -2128751356.4342079 0 -2128751356.4342079 -337380484.08552551 0 0 0 0 2645202548.6971741 -1656925085.7884064 0 -1656925085.7884064 -1458342029.7407331 0 0 0 0 3501178704.3370972 -3042540672.9318848 0 -3042540672.9318848 518365123.80410767 0 0 0 0 3288719297.2365112 -1019199299.677124 0 -1019199299.677124 -117393055.68481445 0 0 0 0 10954136286.745728 -1560378794.466217 0 -1560378794.466217 96975572.531219482 0 0 0 0 3160748563.2393494 -1393536389.3430099 0 -1393536389.3430099 3381966369.3164062 0 0 0 0 198839963.93275452 -1898066351.9491882 0 -1898066351.9491882 3191919658.7219238 0 0 0 0 -474361926.15673828 -4041415573.0223694 0 -4041415573.0223694 4262483571.597744 0 0 0 0 662156239.92675781 -2733892095.1723328 0 -2733892095.1723328 2328756183.3952026 0 0 0 0 2301829.0013911575 -1749972.7773796432 0 -1749972.7773796432 -944438.96947854012 0 0 0 0 -1276606553.8714752 -438530422.55356598 0 -438530422.55356598 -333912436.93603516 0 0 0 0 -452039994.65270996 -3710556122.1346436 0 -3710556122.1346436 4230764585.8538628 0 0 0 0 3390394695.1287928 -632174454.40554523 0 -632174454.40554523 255427965.99935913 0 0 0 0 32720220.193267822 -540767313.02400208 0 -540767313.02400208 -86377838.477779388 0 0 0 0 2019302.7020360827 -15544441.880058382 0 -15544441.880058382 18277944.753761321 0 0 0 0 624577725.14807129 -591296916.23564911 0 -591296916.23564911 -116248688.32167053 0 0 0 0 305762069.89605713 74078987.043151855 0 74078987.043151855 -1230561894.1201477 0 0 0 0 57959579.002822876 -40364455.975799561 0 -40364455.975799561 -47216217.763946533 0 0 0 0 6579834.0529092588 -4637378.148023501 0 -4637378.148023501 -21848081.471118614 0 0 0 0 780680.54135223106 -4322890.6262883395 0 -4322890.6262883395 -930573.86998564005 0 0 0 0 1903045159.9976349 -2250947002.2945862 0 -2250947002.2945862 -1491768034.3244324 0 0 0 0 -3970075066.9904633 -829797821.43213654 0 -829797821.43213654 1487154125.3164368 0 0 0 0 -1039423581.095047 -1106106613.5237808 0 -1106106613.5237808 -50090292.990325928 0 0 0 0 188669763.92053223 -29497298.017211914 0 -29497298.017211914 -45206674.667526245 0 0 0 0 -13338547.266372681 -39292577.64616394 0 -39292577.64616394 12570403.675308228 0 0 0 0 24431829.324707985 -111742969.92313671 0 -111742969.92313671 191826.77200317383 0 0 0 0 595781.69273507968 -7473834.550146699 0 -7473834.550146699 -1622389.7265081108 0 0 0 0 2098272176.7839813 -5905546665.3325424 0 -5905546665.3325424 -26647208.619018555 0 0 0 0 2689140.8946484458 -3138905.6146361604 0 -3138905.6146361604 -7181517.0993814021 0 0 0 0 -4704339703.5543671 -3887483856.0807114 0 -3887483856.0807114 1216266278.8559113 0 0 0 0 3337222343.8374481 -2585069805.9442978 0 -2585069805.9442978 1221857173.6181793 0 0 0 0 -769513.53007507324 -3160361220.8887711 0 -3160361220.8887711 2037368886.2524414 0 0 0 0 1972665.7496382324 -5854713.1100032032 0 -5854713.1100032032 3706251.1770451516 0 0 0 0 2032271552.4200745 -4036482166.9557648 0 -4036482166.9557648 -1294588.5440979004 0 0 0 0 -138294122.22966003 -72571590.839904785 0 -72571590.839904785 48302026.269165039 0 0 0 0 17890364.172327042 -53502756.911338806 0 -53502756.911338806 -8187618.6507568359 0 0 0 0 -57237878.332458496 -109108057.11543274 0 -109108057.11543274 -156546.68341933674 0 0 0 0 -11037198.228878021 -60256088.791711807 0 -60256088.791711807 -41003162.603363037 0 0 0 0 -94037615.822875977 -29005712.27141571 0 -29005712.27141571 25152318.625274658 0 0 0 0 138745.51995849609 -838510.51916503906 0 -838510.51916503906 1938585.259552002 0 0 0 0 2141452623.5463715 -1733351952.1333313 0 -1733351952.1333313 2973277152.4169617 0 0 0 0 -1690472.3503499478 -4202145.7704084404 0 -4202145.7704084404 -3868990.4273536801 0 0 0 0 -8665909.7797393799 -33406097.685600281 0 -33406097.685600281 -39109701.288238525 0 0 0 0 2837306.3131351322 -16769964.689993989 0 -16769964.689993989 16894977.136381194 0 0 0 0 4139659.7326564267 -7715310.16538129 0 -7715310.16538129 -16912915.477111846 0 0 0 0 -22349754.373916626 41406797.394691467 0 41406797.394691467 -155824683.64608002 0 0 0 0 667906149.98449707 -8975109.6852874756 0 -8975109.6852874756 -206133861.98788452 0 0 0 0 102058477.81855202 73501836.275129318 0 73501836.275129318 -197781068.21803284 0 0 0 0 -531735.10409545898 -8492842.0151519775 0 -8492842.0151519775 -96316531.565551758 0 0 0 0 -934456859.49337769 -753732113.49026108 0 -753732113.49026108 -294122799.08963013 0 0 0 0 46383847.22479248 -329963426.92530823 0 -329963426.92530823 -573958919.95901489 0 0 0 0 -576007242.17590332 -311149014.40487671 0 -311149014.40487671 -236748176.69786072 0 0 0 0 469221.93077939958 -299615748.86014205 0 -299615748.86014205 -512097854.35733032 0 0 0 0 259399099.84988403 804272743.88389587 0 804272743.88389587 615897940.95199585 0 0 0 0 -306476497.83042145 -1156642623.5493279 0 -1156642623.5493279 -987160012.89962769 0 0 0 0 2566662257.9351196 709867199.55297852 0 709867199.55297852 -3193796377.7659912 0 0 0 0 902197526.6927948 -621302818.24150848 0 -621302818.24150848 599842095.61684847 0 0 0 0 -57044.207196861506 -2704424.3976403698 0 -2704424.3976403698 -3600998.3593787104 0 0 0 0 196561181.03715515 -2015557345.7845764 0 -2015557345.7845764 -2314130150.5379333 0 0 0 0 697474368.89306641 -679333440.67285156 0 -679333440.67285156 602602392.86657143 0 0 0 0 947608.57081605215 -1157616.0902945325 0 -1157616.0902945325 -5325850.3710836321 0 0 0 0 100273518.43240738 -297455510.3185091 0 -297455510.3185091 932190318.44255066 0 0 0 0 1093888.6086132899 -899985.42495989799 0 -899985.42495989799 -2228766.5949361324 0 0 0 0 768840429.77185822 -402555844.84046555 0 -402555844.84046555 1062867862.4122009 0 0 0 0 1671613786.3125305 -1451381044.418869 0 -1451381044.418869 464039619.92282867 0 0 0 0 6596346584.790329 -3685391432.5367527 0 -3685391432.5367527 1498970306.1850586 0 0 0 0 5761912806.7235107 180539997.75531006 0 180539997.75531006 611825456.69529724 0 0 0 0 2674950218.9378662 -1280592355.5660706 0 -1280592355.5660706 437806310.36785024 0 0 0 0 2737635179.8431091 -1647185591.1508331 0 -1647185591.1508331 436862194.31437516 0 0 0 0 3811163155.9121094 -669882537.93777466 0 -669882537.93777466 -224137434.46710205 0 0 0 0 2535705501.837326 -493248970.65939713 0 -493248970.65939713 565243062.56639099 0 0 0 0 2907071176.7923126 -659263776.51499176 0 -659263776.51499176 -96836353.926277161 0 0 0 0 813801636.24909973 -895782606.4099865 0 -895782606.4099865 699887966.50595093 0 0 0 0 2269406963.5874939 -870396758.77218246 0 -870396758.77218246 317905803.02639771 0 0 0 0 1824918526.0845642 -1113642290.1133881 0 -1113642290.1133881 338054557.24032974 0 0 0 0 1704719518.9908752 -732392979.80001068 0 -732392979.80001068 350654049.10444641 0 0 0 0 1221903867.9418335 -760364656.45064545 0 -760364656.45064545 491487014.16139984 0 0 0 0 1886788951.5901108 -945542674.02934647 0 -945542674.02934647 54893044.59992981 0 0 0 0 1919875702.772522 -1104924395.4074097 0 -1104924395.4074097 714717535.81337166 0 0 0 0 2463812705.0848999 -1191414156.1961327 0 -1191414156.1961327 280715829.80587769 0 0 0 0 1907795784.8786621 -988114541.4410553 0 -988114541.4410553 482084897.82250977 0 0 0 0 1286612936.5632629 -1356762360.5052643 0 -1356762360.5052643 352619925.21557617 0 0 0 0 1234583496.2606506 -1186657195.2395859 0 -1186657195.2395859 -197347818.32414246 0 0 0 0 942765452.35308838 -1385046463.187851 0 -1385046463.187851 -264275049.73251343 0 0 0 0 645962.77752685547 -2267697525.9390411 0 -2267697525.9390411 -306317952.94276428 0 0 0 0 945964285.85348511 -1377511720.1600418 0 -1377511720.1600418 -1764148484.1878052 0 0 0 0 -1217257.8751763105 -2102730.618141517 0 -2102730.618141517 -797485.30768929422 0 0 0 0 532349471.58676147 -163215785.46279144 0 -163215785.46279144 -1003755880.4459229 0 0 0 0 -103157.49922180176 -192694062.85137939 0 -192694062.85137939 1205670664.5386276 0 0 0 0 529996985.44891357 -436929904.09129333 0 -436929904.09129333 270241609.66323853 0 0 0 0 1228536604.8725586 -781170820.4987793 0 -781170820.4987793 56107285.381759644 0 0 0 0 1033071876.5720825 -459720960.25558472 0 -459720960.25558472 -472228978.05929565 0 0 0 0 11777328.560805883 -27582050.614532676 0 -27582050.614532676 12781352.913684174 0 0 0 0 -54409458.653627396 -491314276.97150326 0 -491314276.97150326 321695708.36114502 0 0 0 0 -360423871.68664551 -112439478.89387512 0 -112439478.89387512 70720142.713012695 0 0 0 0 -54149612.901676178 -82973415.604248047 0 -82973415.604248047 10140510.611068726 0 0 0 0 -62342244.150441289 -4984746.8061568737 0 -4984746.8061568737 78768476.003173828 0 0 0 0 75753902.039686203 -57669350.921112061 0 -57669350.921112061 -45140647.373315811 0 0 0 0 -228893838.89171982 -59709769.124130249 0 -59709769.124130249 92357223.261825562 0 0 0 0 -100404479.63843632 -132626345.354599 0 -132626345.354599 -37931540.890838623 0 0 0 0 -273631321.72970581 -131333391.05932617 0 -131333391.05932617 13434921.075866699 0 0 0 0 100565168.51800537 -82420647.953186035 0 -82420647.953186035 -119130742.5574646 0 0 0 0 -22138127.262420654 209617824.07504272 0 209617824.07504272 101278102.57506561 0 0 0 0 -5133713.6911733374 -4276552.140763171 0 -4276552.140763171 -1599499.6330984905 0 0 0 0 -243242120.52820969 -177617125.03300476 0 -177617125.03300476 -7467929.9628143311 0 0 0 0 -188186867.88165474 29711151.289126396 0 29711151.289126396 204112247.82710266 0 0 0 0 306967543.1227417 -284126778.56404877 0 -284126778.56404877 -202718241.20549774 0 0 0 0 -50315.648830108345 -1401908.1809211802 0 -1401908.1809211802 -1663702.4729887471 0 0 0 0 110281040.12837219 -93945363.477516174 0 -93945363.477516174 -42496678.746505737 0 0 0 0 -288241450.37644958 39086872.796470642 0 39086872.796470642 -64550816.59979248 0 0 0 0 -90533917.983551025 27211229.439971924 0 27211229.439971924 34541530.475708008 0 0 0 0 -264524808.47052002 -35739551.235076904 0 -35739551.235076904 125926503.04370117 0 0 0 0 -187058125.19677734 90109750.236572266 0 90109750.236572266 241608974.0010376 0 0 0 0 -151325764.17346191 -136313797.41079712 0 -136313797.41079712 189129227.63726807 0 0 0 0 -143789635.78572083 -118978802.93820953 0 -118978802.93820953 -124326784.49273682 0 0 0 0 -137265961.81109619 -93527720.986053467 0 -93527720.986053467 -193427031.12545776 0 0 0 0 -558101481.15838623 7478209.4916305542 0 7478209.4916305542 331455210.3510437 0 0 0 0 -601995898.30119324 -376932766.02124023 0 -376932766.02124023 114791312.79476166 0 0 0 0 68852386.843408585 332256556.1968565 0 332256556.1968565 -278934494.26156616 0 0 0 0 11382400.520963728 -2978587.7579130493 0 -2978587.7579130493 -3866139.9070931226 0 0 0 0 10548261.700813767 -24867081.802325234 0 -24867081.802325234 8444043.2160078138 0 0 0 0 105301655.10812998 306956244.4393338 0 306956244.4393338 326250236.38134766 0 0 0 0 -20666082.13243866 -194582169.13509369 0 -194582169.13509369 422025060.69326782 0 0 0 0 -129375589.60105133 56266579.210849762 0 56266579.210849762 -138256769.72047424 0 0 0 0 216360240.19160461 -299368049.55500793 0 -299368049.55500793 65341165.722789764 0 0 0 0 -691715693.21728516 -422140861.88171387 0 -422140861.88171387 2894050.3339271545 0 0 0 0 31438571.232798092 -30081919.324757911 0 -30081919.324757911 -4938464.5394257605 0 0 0 0 -67073382.354640961 -65970842.653648376 0 -65970842.653648376 -37093867.175643921 0 0 0 0 -71716983.37041235 -52033596.893156052 0 -52033596.893156052 1356220.8906555176 0 0 0 0 -69557945.358411789 -55669922.508575439 0 -55669922.508575439 -14397484.800506592 0 0 0 0 -12565494.493468849 -9969437.2285542153 0 -9969437.2285542153 19979628.156567588 0 0 0 0 -77069080.964839935 -61119614.382820129 0 -61119614.382820129 2812540.3885803223 0 0 0 0 -78689712.717815399 -65032271.708496094 0 -65032271.708496094 -2841351.0843200684 0 0 0 0 -60885122.364068985 -59769270.619033813 0 -59769270.619033813 -3552419.2756195068 0 0 0 0 -34218366.492053986 -118865039.48168945 0 -118865039.48168945 -88797216.293121338 0 0 0 0 -38594492.422317505 -37876593.73425293 0 -37876593.73425293 14554827.673355103 0 0 0 0 135202181.99926376 24734338.177680969 0 24734338.177680969 -52035599.01776123 0 0 0 0 -1081969217.8258572 -15087011.252044678 0 -15087011.252044678 -114594331.13627625 0 0 0 0 -275081803.24351025 -554685668.19371414 0 -554685668.19371414 -1071118.9900512695 0 0 0 0 1021274771.491643 -249861382.41316223 0 -249861382.41316223 -38710726.498092651 0 0 0 0 105048580.21338272 -536182514.6081543 0 -536182514.6081543 1224159142.3223877 0 0 0 0 221159.12231439073 -216641.85664988682 0 -216641.85664988682 478951.76233097911 0 0 0 0 -502667847.9839716 -365172797.15123749 0 -365172797.15123749 91066550.631835938 0 0 0 0 -450507849.93042374 -487652758.11924744 0 -487652758.11924744 322324107.20318604 0 0 0 0 -171715563.59576797 -297854065.32533264 0 -297854065.32533264 -429001727.0528717 0 0 0 0 210294093.346488 -503487198.34432983 0 -503487198.34432983 -116223112.51225281 0 0 0 0 -273120614.86407185 -124080445.87889862 0 -124080445.87889862 -184898892.90151978 0 0 0 0 25313978.774078369 44982108.873901367 0 44982108.873901367 -215007609.30249023 0 0 0 0 101377608.47511387 -454997.57677078247 0 -454997.57677078247 -226062076.01342773 0 0 0 0 501137.70806493063 2309418.0942961178 0 2309418.0942961178 103366.14143095911 0 0 0 0 -8813907.3802349754 -9566399.5879043303 0 -9566399.5879043303 18839749.603936605 0 0 0 0 -20986005.887922287 -58150401.044784546 0 -58150401.044784546 -27228208.712341309 0 0 0 0 2284976.4918359169 -7743648.9566886481 0 -7743648.9566886481 -14019751.123281866 0 0 0 0 -934383831.43626022 -257807404.41739655 0 -257807404.41739655 139953016.80352783 0 0 0 0 -576266154.96028328 -614159984.22068787 0 -614159984.22068787 185575840.08938599 0 0 0 0 100273850.92520714 -2323556.3038482666 0 -2323556.3038482666 78213728.366363525 0 0 0 0 -252630019.13510436 -45795175.801311493 0 -45795175.801311493 4631164.2702331543 0 0 0 0 1286115.269754394 -2178542.7523221448 0 -2178542.7523221448 1277074.7879718244 0 0 0 0 958087919.14876938 226667378.87930298 0 226667378.87930298 17473809.456947327 0 0 0 0 -127300248.78666711 -496349320.78884697 0 -496349320.78884697 159809305.56948853 0 0 0 0 233605284.30672836 149360025.59474182 0 149360025.59474182 119168376.00978851 0 0 0 0 480095490.89195919 -10151028.449897766 0 -10151028.449897766 -143041283.18551636 0 0 0 0 164002807.35273027 28957181.224056244 0 28957181.224056244 -3839381.9152069092 0 0 0 0 3185773.9355193074 -6546684.5330617353 0 -6546684.5330617353 3296692.0475041568 0 0 0 0 146416341.85133219 -43728260.616615295 0 -43728260.616615295 35154238.487609863 0 0 0 0 51521981.35307312 -218753398.73958206 0 -218753398.73958206 -160069477.3230896 0 0 0 0 82557546.651824951 -259928342.90671539 0 -259928342.90671539 -106757413.15447998 0 0 0 0 -17950006.291002274 -287702863.56465149 0 -287702863.56465149 -5119112.0374908447 0 0 0 0 23365814.563367844 -205213472.48963165 0 -205213472.48963165 15329067.570800781 0 0 0 0 74608445.356584549 -315305192.1131897 0 -315305192.1131897 -83404577.215812683 0 0 0 0 -109364864.72703171 -133292605.33803177 0 -133292605.33803177 4251626.518447876 0 0 0 0 -127790861.36398697 -59131931.148406982 0 -59131931.148406982 62083322.618911743 0 0 0 0 -142840387.35062885 -18934784.104042053 0 -18934784.104042053 -857508.18003845215 0 0 0 0 -487308197.09947968 -281389347.98162842 0 -281389347.98162842 -447895769.98742676 0 0 0 0 -648297.27101851581 -187997.42175912112 0 -187997.42175912112 322915.41292114556 0 0 0 0 -194070899.73347378 -298344080.27568817 0 -298344080.27568817 -75294498.091796875 0 0 0 0 -349459510.42747593 -72594190.357894897 0 -72594190.357894897 -179845749.5814209 0 0 0 0 40900948.221277237 -331813600.25408936 0 -331813600.25408936 -173540071.16699219 0 0 0 0 -82033806.266208649 -223267859.21051025 0 -223267859.21051025 -171207676.88238716 0 0 0 0 -80142815.198823929 -250362643.959198 0 -250362643.959198 -123483127.88690186 0 0 0 0 -96546907.312326431 -242510801.5572052 0 -242510801.5572052 -97707534.670471191 0 0 0 0 -126027300.58219624 -222865220.11460114 0 -222865220.11460114 -15809847.887939453 0 0 0 0 -84944769.367552996 -278272486.35710144 0 -278272486.35710144 -71399457.549926758 0 0 0 0 72448410.959447861 -212718936.93737793 0 -212718936.93737793 -55256153.520065308 0 0 0 0 -65792982.062344551 -161148521.90397644 0 -161148521.90397644 13930992.676391602 0 0 0 0 -4253283.5493454002 -6328871.482404191 0 -6328871.482404191 6730143.5193164051 0 0 0 0 160507974.69726181 56619965.735290527 0 56619965.735290527 -92141480.208618164 0 0 0 0 -122633026.84077072 251257251.18339539 0 251257251.18339539 -133090028.7359314 0 0 0 0 -343215095.64472198 -252802659.86851501 0 -252802659.86851501 110330344.33090973 0 0 0 0 -625923792.442132 261824178.00252533 0 261824178.00252533 8396464.9037475586 0 0 0 0 223229867.49157524 34808866.998321533 0 34808866.998321533 -11687025.846557617 0 0 0 0 -193585368.24679065 39601363.167591095 0 39601363.167591095 78187523.971008301 0 0 0 0 717705237.93693447 -233441605.09973907 0 -233441605.09973907 -72598592.171234131 0 0 0 0 -1231702.445440731 -1525170.8054401171 0 -1525170.8054401171 2177407.0478408933 0 0 0 0 -9913885.3734121323 -82859364.580097198 0 -82859364.580097198 167918436.76513672 0 0 0 0 327336933.04649544 -47956954.687057495 0 -47956954.687057495 21249223.943612099 0 0 0 0 237904302.79606295 -389068845.47021294 0 -389068845.47021294 -31851700.304931641 0 0 0 0 164640097.52885818 551198163.73970032 0 551198163.73970032 -646340021.92150116 0 0 0 0 170504309.22975636 -450858135.12877655 0 -450858135.12877655 651003134.17926025 0 0 0 0 -401375610.27373123 470586289.72763062 0 470586289.72763062 30400365.846115112 0 0 0 0 420343213.94682693 567632216.01437378 0 567632216.01437378 22211179.807891846 0 0 0 0 332249338.7899971 -515408360.46871948 0 -515408360.46871948 -386522537.63819122 0 0 0 0 1023398438.1769209 -475383786.59143066 0 -475383786.59143066 -398475657.796875 0 0 0 0 -106798643.89503479 -448953775.37492371 0 -448953775.37492371 636875981.93484497 0 0 0 0 -185879362.78033829 -226681710.00642395 0 -226681710.00642395 19833466.056243896 0 0 0 0 -229097086.8314743 -170618695.98779297 0 -170618695.98779297 -29370648.218719482 0 0 0 0 -309980660.73580933 -184046764.75227356 0 -184046764.75227356 343635148.16329956 0 0 0 0 -194014166.91309929 47115893.819442749 0 47115893.819442749 450797969.55847168 0 0 0 0 -223722980.55386162 -256126017.1733017 0 -256126017.1733017 -353211876.05445862 0 0 0 0 -275580833.51410866 -160326276.3802948 0 -160326276.3802948 52503089.247055054 0 0 0 0 -254154355.28002167 -94630455.677398682 0 -94630455.677398682 -199909871.02224731 0 0 0 0 27494199.200922966 -120051772.61211777 0 -120051772.61211777 -308767050.55386353 0 0 0 0 -78664648.262490273 44832777.340858459 0 44832777.340858459 -660089946.99575806 0 0 0 0 -181136504.64015198 32652835.309677124 0 32652835.309677124 141128662.41290283 0 0 0 0 -1007408.3251280552 -165221.83562254906 0 -165221.83562254906 2267798.5851209387 0 0 0 0 -294993963.73278522 -72826672.037269592 0 -72826672.037269592 121947762.27076721 0 0 0 0 -106972754.0685543 -56472754.532329619 0 -56472754.532329619 20991820.657806396 0 0 0 0 -106977486.47288322 -5347938.6716308594 0 -5347938.6716308594 41141778.474227905 0 0 0 0 -1656542.4105894351 -2808943.799339816 0 -2808943.799339816 6242023.2620432153 0 0 0 0 34979176.769535065 41824181.234313965 0 41824181.234313965 46265629.234634399 0 0 0 0 52079090.109163463 -80324498.118426323 0 -80324498.118426323 48468980.065643311 0 0 0 0 -44080746.478404999 -36308389.892456055 0 -36308389.892456055 31027911.49382019 0 0 0 0 -38720109.939943314 -39486887.048339844 0 -39486887.048339844 28618117.20135498 0 0 0 0 -40208189.674124241 -35080222.541954041 0 -35080222.541954041 25321892.331604004 0 0 0 0 -41940912.428212643 -19756551.904706955 0 -19756551.904706955 4286078.2535400391 0 0 0 0 -38452948.373239517 -35934958.389730453 0 -35934958.389730453 9913953.9697265625 0 0 0 0 -15248044.716977119 -32190187.504638672 0 -32190187.504638672 10076492.987304688 0 0 0 0 -31008466.382706642 -1687023.8125305176 0 -1687023.8125305176 20954319.633026123 0 0 0 0 -73411738.710899353 -35049680.117553711 0 -35049680.117553711 6897963.5994873047 0 0 0 0 -72987320.685573578 -40755863.575714111 0 -40755863.575714111 27182957.800689697 0 0 0 0 223767700.20593643 -72975834.047912598 0 -72975834.047912598 -688670079.06588745 0 0 0 0 -13660203.80145359 -26830227.025840759 0 -26830227.025840759 66224337.0599823 0 0 0 0 -601032.15322610876 -10164693.557377249 0 -10164693.557377249 10250676.4831075 0 0 0 0 -4507201.2857513428 -7497007.0433044434 0 -7497007.0433044434 2395748.7828826904 0 0 0 0 -7256443.8145279419 -14692071.25612963 0 -14692071.25612963 20410590.594611026 0 0 0 0 -14797356.446814623 -9249074.3654524609 0 -9249074.3654524609 3659350.1901301742 0 0 0 0 -3159529.2759208679 -4296204.4404907227 0 -4296204.4404907227 1247857.7431640625 0 0 0 0 2078758.8084920086 -15105879.88501209 0 -15105879.88501209 16224083.493608087 0 0 0 0 -7345270.6783161443 -16382098.80670036 0 -16382098.80670036 9758258.0250487924 0 0 0 0 -172676768.15768254 -192677299.26846504 0 -192677299.26846504 -131303395.81945801 0 0 0 0 -171507315.44572449 -221062088.85070801 0 -221062088.85070801 -79761523.306091309 0 0 0 0 -181286323.39902115 -82586142.531463623 0 -82586142.531463623 196954786.6733551 0 0 0 0 115291941.08957481 -26931851.558746338 0 -26931851.558746338 24490304.012908936 0 0 0 0 -39274115.144568443 -20572117.521362305 0 -20572117.521362305 36304000.361846924 0 0 0 0 1915143.8473601805 -5155156.7239508927 0 -5155156.7239508927 2893431.6105813012 0 0 0 0 -48446421.838056564 -32622949.448165894 0 -32622949.448165894 29248977.270202637 0 0 0 0 -47849911.000930786 -28279142.983612061 0 -28279142.983612061 29418367.785430908 0 0 0 0 -41656028.280914307 -27596774.834960938 0 -27596774.834960938 15936940.452423096 0 0 0 0 -40724162.566001892 -23857001.593597412 0 -23857001.593597412 30149497.334487915 0 0 0 0 -27474108.580345154 -28345602.697967529 0 -28345602.697967529 -14270388.438766479 0 0 0 0 -25738195.483083248 -17588770.870868683 0 -17588770.870868683 11554408.025390625 0 0 0 0 -28407596.191551208 -11321820.709838867 0 -11321820.709838867 28633451.210662842 0 0 0 0 -6862911.7128774896 -3510171.6874055155 0 -3510171.6874055155 8483452.6272853166 0 0 0 0 -64389543.279315472 20007193.987739563 0 20007193.987739563 56234049.118175507 0 0 0 0 -22691893.284212112 -23215313.640396118 0 -23215313.640396118 4010633.1285037994 0 0 0 0 -8122620.1204163972 -12525241.085898947 0 -12525241.085898947 12696740.932090551 0 0 0 0 -41382019.122867107 -27653608.606361389 0 -27653608.606361389 6671616.4014892578 0 0 0 0 -25890200.018180847 -24278039.323348999 0 -24278039.323348999 10463879.158813477 0 0 0 0 -6985543.8369310275 -17294632.912047587 0 -17294632.912047587 15510731.010049071 0 0 0 0 4608433.1287841797 -14695220.158630371 0 -14695220.158630371 21928595.269012451 0 0 0 0 -15450722.538764954 -24872258.208236694 0 -24872258.208236694 218126.01691627502 0 0 0 0 -8924764.96540647 -17204946.645651564 0 -17204946.645651564 4469709.0352304727 0 0 0 0 -5053510.8661117554 -12826526.92477417 0 -12826526.92477417 7708988.7496948242 0 0 0 0 -4867146.5382652283 -13270090.33744812 0 -13270090.33744812 7797197.6195373535 0 0 0 0 -23882316.421580695 -19135654.424295172 0 -19135654.424295172 -3673797.2257334441 0 0 0 0 -13431730.093550203 -9463894.5788496584 0 -9463894.5788496584 14847374.408553332 0 0 0 0 3498118.870100826 -17197547.696925186 0 -17197547.696925186 9280546.0866295155 0 0 0 0 7912696.5264990665 -16854938.536230356 0 -16854938.536230356 10328775.396256275 0 0 0 0 7930115.5044555664 -21038038.759460449 0 -21038038.759460449 20635473.896408081 0 0 0 0 7751524.303024292 -21298375.062171936 0 -21298375.062171936 20629663.603912354 0 0 0 0 -11488786.965722375 -8032424.9977665544 0 -8032424.9977665544 15288483.206424206 0 0 0 0 -5020386.8365414217 -7523406.8710862249 0 -7523406.8710862249 6682631.0661246777 0 0 0 0 7320144.9892377853 -11181567.461313248 0 -11181567.461313248 9265369.3565673828 0 0 0 0 -61785667.033950806 -9650126.8750534058 0 -9650126.8750534058 22995917.84576416 0 0 0 0 -18903292.131441191 -16917148.49139668 0 -16917148.49139668 9578147.2898034081 0 0 0 0 8250316.2387390137 -18615539.357467651 0 -18615539.357467651 9117561.1638717651 0 0 0 0 -69524320.729888916 -12872793.755996704 0 -12872793.755996704 22973212.485900879 0 0 0 0 1309200.1148807555 -13340943.030765731 0 -13340943.030765731 16237673.079677347 0 0 0 0 4362504.3691711426 -14409644.726531982 0 -14409644.726531982 21998987.154174805 0 0 0 0 -9055111.117477417 -10987742.140686035 0 -10987742.140686035 10066513.998382568 0 0 0 0 -6643104.5060119629 -10814101.996803284 0 -10814101.996803284 9002541.5168762207 0 0 0 0 -12064919.553703308 -5296309.7738647461 0 -5296309.7738647461 1287883.5020904541 0 0 0 0 -12511116.605236126 -10073604.774386732 0 -10073604.774386732 2759894.9608412534 0 0 0 0 -10526845.347262952 -17238768.276568629 0 -17238768.276568629 10802408.036980391 0 0 0 0 -20150556.40641943 -8662241.889515331 0 -8662241.889515331 5870398.7753496915 0 0 0 0 -12680287.805718573 -13094737.209241472 0 -13094737.209241472 15642503.993729621 0 0 0 0 -241475239.47225857 -138494795.41030121 0 -138494795.41030121 -79228834.469421387 0 0 0 0 -292302709.35578442 -183031300.37490845 0 -183031300.37490845 70893341.720062256 0 0 0 0 -336967776.55754471 -79992599.414825439 0 -79992599.414825439 -41772605.337158203 0 0 0 0 -13857259.383748034 2413286.2337809978 0 2413286.2337809978 3019335.7544674277 0 0 0 0 -11120911.471580505 1403376.8788299561 0 1403376.8788299561 3770939.5778198242 0 0 0 0 8296050.4481543619 -9135778.3110956736 0 -9135778.3110956736 6199887.2815374732 0 0 0 0 -13103437.601806641 942327.39724731445 0 942327.39724731445 4144762.2922973633 0 0 0 0 6589920.2633029446 -27594737.709134016 0 -27594737.709134016 12523169.935904294 0 0 0 0 -24387649.267219543 -7289682.5307006836 0 -7289682.5307006836 3368474.1677246094 0 0 0 0 -33540871.346145131 -11794314.482331019 0 -11794314.482331019 9727982.4896573275 0 0 0 0 -7951062.52011998 -16625979.960993238 0 -16625979.960993238 9605918.2710016221 0 0 0 0 7510259.8643798828 -11749742.081359863 0 -11749742.081359863 7665278.7149658203 0 0 0 0 -45204964.033111572 -49392437.360359192 0 -49392437.360359192 592380.28280639648 0 0 0 0 -55906228.438388824 -19114056.658180237 0 -19114056.658180237 22086385.680541992 0 0 0 0 -79938255.353424072 -30805910.75553894 0 -30805910.75553894 16404307.227096558 0 0 0 0 -104084204.33473206 -36422444.182777405 0 -36422444.182777405 24575861.784942627 0 0 0 0 -74762733.4168396 -63538906.118057251 0 -63538906.118057251 -2647009.7634887695 0 0 0 0 -68696327.239387512 2454328.380771637 0 2454328.380771637 -651496.21490478516 0 0 0 0 -26153127.743211903 -7777054.7398047931 0 -7777054.7398047931 9225236.6706103832 0 0 0 0 -118634348.86254883 -66329002.773590088 0 -66329002.773590088 11548622.172470093 0 0 0 0 -207031079.39476013 -11364342.490161896 0 -11364342.490161896 94633590.251235962 0 0 0 0 9900403.3434607647 -31693994.000451963 0 -31693994.000451963 15813160.21079804 0 0 0 0 4073294.5953550339 -56860955.343193054 0 -56860955.343193054 13099627.045440674 0 0 0 0 3643441.0836169142 -3056990.414190162 0 -3056990.414190162 1617583.6285852492 0 0 0 0 -481397088.56404877 76120357.39604187 0 76120357.39604187 155862587.62420654 0 0 0 0 -372273001.96408463 -45111505.825408936 0 -45111505.825408936 72970300.897674561 0 0 0 0 -3558188.318067682 -9008616.577074565 0 -9008616.577074565 14790792.136206105 0 0 0 0 14175677.973850381 -2280609.3632711545 0 -2280609.3632711545 -7964032.2008678317 0 0 0 0 -6918947.0197143555 496737.1565322876 0 496737.1565322876 1598107.3106994629 0 0 0 0 -63987293.947937012 -18293598.908943176 0 -18293598.908943176 7908256.9915771484 0 0 0 0 66058186.299659729 37946675.456069946 0 37946675.456069946 9091505.4147949219 0 0 0 0 -58186692.124809265 13167607.984627724 0 13167607.984627724 89824583.837127686 0 0 0 0 -71958487.218322754 -4090727.2627410889 0 -4090727.2627410889 -14116375.594890118 0 0 0 0 -117906465.65068817 -3252179.3218154907 0 -3252179.3218154907 7415043.8890380859 0 0 0 0 -94107863.916259766 -37008161.950698853 0 -37008161.950698853 17753290.971405029 0 0 0 0 -141800072.23731995 -29811227.178947449 0 -29811227.178947449 23268281.613098145 0 0 0 0 -72029153.083129883 -10918761.658233643 0 -10918761.658233643 8640231.6040534973 0 0 0 0 -75582420.825897217 -6552502.3463134766 0 -6552502.3463134766 34157311.378305435 0 0 0 0 -104632538.07673645 -19549667.804916382 0 -19549667.804916382 34561065.340698242 0 0 0 0 -91250727.791564941 -15580772.70236969 0 -15580772.70236969 36103379.557739258 0 0 0 0 -72467083.296783447 -11186305.890991211 0 -11186305.890991211 32412122.460922241 0 0 0 0 -67267702.261123657 9370956.6748466492 0 9370956.6748466492 52128321.590148926 0 0 0 0 -69888920.22177124 -9540720.0173034668 0 -9540720.0173034668 34105725.714508057 0 0 0 0 -73128846.569335938 -3036695.5313415527 0 -3036695.5313415527 42824352.254699707 0 0 0 0 -25404834.310058594 12880160.668884277 0 12880160.668884277 33728751.037475586 0 0 0 0 -5288181.7017980441 -3911985.4572810978 0 -3911985.4572810978 -2185125.6376119852 0 0 0 0 6250011.1651916504 23822139.84576416 0 23822139.84576416 26710790.863693237 0 0 0 0 -100290168.19999695 -246906112.21858215 0 -246906112.21858215 -132304946.63455963 0 0 0 0 -6501943.4687423706 61094681.111520767 0 61094681.111520767 44783636.086639404 0 0 0 0 -15896884.49420929 -3158631.1747207642 0 -3158631.1747207642 23161038.136474609 0 0 0 0 -74805268.788284302 -6541482.6300067902 0 -6541482.6300067902 47232365.621246338 0 0 0 0 -38912326.017913818 24382620.200790405 0 24382620.200790405 53661266.151489258 0 0 0 0 -112486981.55102539 -49709505.22718811 0 -49709505.22718811 2734263.0438537598 0 0 0 0 40873100.379974365 327369655.95622635 0 327369655.95622635 -232682191.46954346 0 0 0 0 -95379120.706115723 -99229204.05480957 0 -99229204.05480957 101588266.10883331 0 0 0 0 -32052887.884735107 -6630650.8432006836 0 -6630650.8432006836 26246826.952270508 0 0 0 0 -388942798.90288544 -120094020.34008026 0 -120094020.34008026 641189061.58587646 0 0 0 0 -7593098.7991485596 -74392143.776260376 0 -74392143.776260376 43358240.947540283 0 0 0 0 -65098477.014755249 -99650586.662780762 0 -99650586.662780762 100800457.67648315 0 0 0 0 -52080000.06854248 -45855423.56388092 0 -45855423.56388092 26385896.256225586 0 0 0 0 -123488810.46670532 -73284119.990859985 0 -73284119.990859985 88895443.756195068 0 0 0 0 -39529555.487388611 -73600335.850036621 0 -73600335.850036621 57594741.092285156 0 0 0 0 -240294743.0042572 -176447698.15962982 0 -176447698.15962982 45929104.063720703 0 0 0 0 -20915725.268941939 -6074410.0663711578 0 -6074410.0663711578 2614598.327028662 0 0 0 0 -50567876.596679688 1338405.3610687256 0 1338405.3610687256 20441547.426727295 0 0 0 0 -69260837.533027649 -8218954.1667385101 0 -8218954.1667385101 34935150.449279785 0 0 0 0 -63657280.399291992 -5474806.0344543457 0 -5474806.0344543457 26331821.638031006 0 0 0 0 -46735146.993255615 -4522425.91015625 0 -4522425.91015625 25967009.383735657 0 0 0 0 -54080925.493103027 2226797.3379821777 0 2226797.3379821777 27830065.551177979 0 0 0 0 -54042807.941955566 2887640.243560791 0 2887640.243560791 34959735.902603149 0 0 0 0 -63266991.458782196 -2145367.1819438934 0 -2145367.1819438934 32223379.76361084 0 0 0 0 -53175877.337890625 6142039.2431945801 0 6142039.2431945801 34605068.858978271 0 0 0 0 -62338641.813751221 -7046881.3191146851 0 -7046881.3191146851 15618007.037658691 0 0 0 0 -51088798.756759644 3691078.1334533691 0 3691078.1334533691 11392665.331161499 0 0 0 0 -61102827.551727295 -4249535.3217315674 0 -4249535.3217315674 21937998.214111328 0 0 0 0 -62180958.805603027 -3605431.1350708008 0 -3605431.1350708008 27055469.887290955 0 0 0 0 -51581401.896194458 289429.1178894043 0 289429.1178894043 -12048114.072113037 0 0 0 0 7808974.0637817383 -18778951.912658691 0 -18778951.912658691 26772903.046691895 0 0 0 0 -16986101.609166443 -16721000.659846626 0 -16721000.659846626 14762897.826319806 0 0 0 0 2103958.1944630668 -13296539.423271351 0 -13296539.423271351 11635582.064665176 0 0 0 0 -4116001.7844543457 -10184457.960845947 0 -10184457.960845947 7058777.3408660889 0 0 0 0 -118466844.1807251 -77903369.497619629 0 -77903369.497619629 -155641935.72790527 0 0 0 0 -100272805.87319946 -104227981.91493225 0 -104227981.91493225 -118858701.44781494 0 0 0 0 -172089326.31713867 -14292029.215820312 0 -14292029.215820312 -183732331.71801758 0 0 0 0 1146176.8249821588 -4576971.0671234354 0 -4576971.0671234354 -863607.01716129482 0 0 0 0 -117272595.65960693 -99041457.108901978 0 -99041457.108901978 -55460899.128417969 0 0 0 0 -21805190.965549275 -11529231.754970096 0 -11529231.754970096 17638039.617439047 0 0 0 0 -8800413.6806335449 -5628150.6858825684 0 -5628150.6858825684 4900328.6719970703 0 0 0 0 -11520712.246204376 -6672644.1821670532 0 -6672644.1821670532 5271336.1690368652 0 0 0 0 -143722587.40991211 -21118828.621459961 0 -21118828.621459961 1626436.2979736328 0 0 0 0 -26445580.117979884 -18519784.047365457 0 -18519784.047365457 -2706596.039191395 0 0 0 0 -5976132.8910226915 -10448623.511475578 0 -10448623.511475578 9113776.400873363 0 0 0 0 -17882222.518005371 -38483830.242431641 0 -38483830.242431641 6908862.4958496094 0 0 0 0 -7153162.7350278758 -1088972.9834071193 0 -1088972.9834071193 1059319.1446982995 0 0 0 0 -49853896.256652832 -11902108.099716187 0 -11902108.099716187 -6659924.8160095215 0 0 0 0 -31688519.647460938 -24789100.692596436 0 -24789100.692596436 -7226152.1962890625 0 0 0 0 -31378434.180236816 -27475455.914794922 0 -27475455.914794922 -5998365.0913085938 0 0 0 0 -132478647.87896729 -4467767.8276062012 0 -4467767.8276062012 29977580.882232666 0 0 0 0 -68752063.097068787 -44576380.970108032 0 -44576380.970108032 53800098.85168457 0 0 0 0 -54734497.033340454 -20714009.983520508 0 -20714009.983520508 8657772.7353515625 0 0 0 0 -21898085.95425415 -29552952.523219109 0 -29552952.523219109 -10907386.182617188 0 0 0 0 -24062434.751464844 -25628804.525085449 0 -25628804.525085449 -17641967.219238281 0 0 0 0 -41267944.881713867 -35393675.898254395 0 -35393675.898254395 24641926.040740967 0 0 0 0 -21691605.764530182 -37568457.273756981 0 -37568457.273756981 1433322.2932128906 0 0 0 0 -31158360.173583984 -28427270.794006348 0 -28427270.794006348 -6308057.8527832031 0 0 0 0 -22598160.985351562 -28779987.073364258 0 -28779987.073364258 -11265521.892700195 0 0 0 0 -23198059.190673828 -25823599.110107422 0 -25823599.110107422 -17523780.064697266 0 0 0 0 -24212343.537231445 -21947233.665344238 0 -21947233.665344238 -21078678.692871094 0 0 0 0 -24254085.295898438 -22135514.113220215 0 -22135514.113220215 -14357741.18347168 0 0 0 0 -29107897.066345215 -23268063.706481934 0 -23268063.706481934 -13739175.526611328 0 0 0 0 -21846283.002376556 -10071188.84003067 0 -10071188.84003067 -437615.35498046875 0 0 0 0 -24771227.225463867 -18630431.195129395 0 -18630431.195129395 -15534360.203353882 0 0 0 0 -24657725.727539062 -18704585.405944824 0 -18704585.405944824 -17941574.918518066 0 0 0 0 -21185605.216641787 -17504475.82191328 0 -17504475.82191328 9676115.7935636248 0 0 0 0 -22856143.320495605 -21025343.695220947 0 -21025343.695220947 -25961143.918487549 0 0 0 0 2921695.9608631656 -6467451.1415750608 0 -6467451.1415750608 -3044472.9939049128 0 0 0 0 -114559718.32659912 -89371773.352523804 0 -89371773.352523804 -48651202.339935303 0 0 0 0 -95058663.735534668 22367153.072723389 0 22367153.072723389 -22655573.065643311 0 0 0 0 -36630205.535629272 -13101136.03855896 0 -13101136.03855896 -6695514.178314209 0 0 0 0 -182590941.18074799 -45171429.078659058 0 -45171429.078659058 81963024.207611084 0 0 0 0 -3461747.6004659496 -3060382.6701579019 0 -3060382.6701579019 -1566765.7317816317 0 0 0 0 111002648.51013184 35926669.096405029 0 35926669.096405029 4594523.5915470123 0 0 0 0 -101816905.4631176 -45740171.87266922 0 -45740171.87266922 -50821625.595779419 0 0 0 0 -135607367.7937777 -78922171.48268795 0 -78922171.48268795 106102010.18881226 0 0 0 0 -90123829.008270264 -109618444.41964722 0 -109618444.41964722 109258101.82493591 0 0 0 0 -102588744.51198578 -104942407.5698967 0 -104942407.5698967 113964573.35002136 0 0 0 0 172514667.13423157 -36437624.22743988 0 -36437624.22743988 -20676544.447296143 0 0 0 0 243244948.6912384 -136310317.61868286 0 -136310317.61868286 94740675.021879196 0 0 0 0 16097027.450683594 -176101079.50340271 0 -176101079.50340271 89037298.77444458 0 0 0 0 131957442.585464 -250149377.50836945 0 -250149377.50836945 -218161216.3034668 0 0 0 0 80073528.34664917 -46753840.107902527 0 -46753840.107902527 -219463469.15608215 0 0 0 0 36135509.630409241 -275204027.77713776 0 -275204027.77713776 75510288.38130188 0 0 0 0 267294137.30904961 -339024840.77673912 0 -339024840.77673912 21831881.921554565 0 0 0 0 361931939.52790833 -456055633.27167511 0 -456055633.27167511 134958260.88232422 0 0 0 0 256110515.02226639 -155939135.60581779 0 -155939135.60581779 30221100.626678467 0 0 0 0 413895593.51470947 -422008621.48877716 0 -422008621.48877716 151422140.73193359 0 0 0 0 664355632.66971588 -662872936.79495239 0 -662872936.79495239 264787511.16984558 0 0 0 0 776976802.51286697 -625962081.94244385 0 -625962081.94244385 235172524.90719604 0 0 0 0 689125744.27037811 -312792233.72785187 0 -312792233.72785187 39613146.984169006 0 0 0 0 430090943.18095016 -308852122.03868103 0 -308852122.03868103 216334712.44525146 0 0 0 0 484092928.66496277 -310703365.67655182 0 -310703365.67655182 -54906685.753120422 0 0 0 0 -551984.77228926122 -1397146.585428305 0 -1397146.585428305 -1427365.2236969545 0 0 0 0 64344713.908588767 -80041799.97093302 0 -80041799.97093302 315871450.76615906 0 0 0 0 -104380125.57058263 -64521477.183987856 0 -64521477.183987856 14812823.196029663 0 0 0 0 306774467.95423889 -40122357.484535217 0 -40122357.484535217 -131667701.04851151 0 0 0 0 423120979.40400696 -327925608.01829529 0 -327925608.01829529 114452027.38579559 0 0 0 0 636226985.20916748 -1186665686.6034088 0 -1186665686.6034088 1039917894.4971771 0 0 0 0 679183558.3365097 -1309183406.0362129 0 -1309183406.0362129 1387623743.1810913 0 0 0 0 464406168.40431213 -968419504.93391418 0 -968419504.93391418 1410384832.9452667 0 0 0 0 521758088.00241089 -920167508.48921204 0 -920167508.48921204 1090434995.5951996 0 0 0 0 637432611.01004791 -1056477648.1635513 0 -1056477648.1635513 1236436550.2348175 0 0 0 0 773551880.75660706 -923110930.38885117 0 -923110930.38885117 920759046.63781738 0 0 0 0 923791081.47879028 -1234161282.6206512 0 -1234161282.6206512 1015053045.4673233 0 0 0 0 904984516.23818398 -1314795573.3932858 0 -1314795573.3932858 684012148.14117432 0 0 0 0 1189440376.0627174 -1128067040.5089951 0 -1128067040.5089951 780698184.08681488 0 0 0 0 -303010857.91997528 -15879411.404304504 0 -15879411.404304504 417237805.11380291 0 0 0 0 -1411987.3773067258 -922391.07971414179 0 -922391.07971414179 1058328.1847386435 0 0 0 0 75482412.272827148 -225119691.09983444 0 -225119691.09983444 387067067.37837219 0 0 0 0 -405232878.4617157 -490828319.91371918 0 -490828319.91371918 268333055.20017624 0 0 0 0 161416207.01011848 -668100166.08612156 0 -668100166.08612156 192569791.50250244 0 0 0 0 438922168.37689209 -780069408.97430801 0 -780069408.97430801 345970746.88873291 0 0 0 0 592764941.88355637 -712130489.64365005 0 -712130489.64365005 152951748.7915802 0 0 0 0 1048187258.8068848 -1133147132.9482574 0 -1133147132.9482574 435304076.02321815 0 0 0 0 1068460679.1128922 -1138971970.1977997 0 -1138971970.1977997 386834869.00790405 0 0 0 0 771891341.06163788 -1340294097.6955032 0 -1340294097.6955032 720292554.45929718 0 0 0 0 1010377328.4597931 -1318487450.1196022 0 -1318487450.1196022 416661610.80484009 0 0 0 0 1130822211.4397736 -1533957090.7485733 0 -1533957090.7485733 786824114.10132599 0 0 0 0 1328994748.6380539 -1455151818.5394516 0 -1455151818.5394516 402515678.16174412 0 0 0 0 1457789458.182785 -1630364069.1658859 0 -1630364069.1658859 445809022.93401504 0 0 0 0 1018495792.4750519 -1731787005.8516464 0 -1731787005.8516464 448019722.2837677 0 0 0 0 1571452975.9554443 -1355615862.2404861 0 -1355615862.2404861 712242148.99029541 0 0 0 0 1490083954.6858673 -1523769367.5854568 0 -1523769367.5854568 506101201.32783508 0 0 0 0 1298607269.160511 -1448285942.7005157 0 -1448285942.7005157 483996682.46858215 0 0 0 0 1322447116.529335 -1434639757.2690392 0 -1434639757.2690392 707250842.35212708 0 0 0 0 1581831642.2101059 -1348817498.8886337 0 -1348817498.8886337 416019317.11873913 0 0 0 0 1244009254.7443619 -913943591.03203201 0 -913943591.03203201 344740853.46633911 0 0 0 0 1815525247.3968582 -1255482832.5915298 0 -1255482832.5915298 492506042.28991699 0 0 0 0 2251501678.7017307 -1016737980.3245463 0 -1016737980.3245463 607902242.81344604 0 0 0 0 1161726524.9822464 -1963411856.5829391 0 -1963411856.5829391 1668055510.237999 0 0 0 0 2145431932.1700659 -2011826605.9056311 0 -2011826605.9056311 903277782.46884155 0 0 0 0 1372379056.9811707 -1555198809.9205704 0 -1555198809.9205704 676441916.04308128 0 0 0 0 1344810086.9273224 -1486330153.710083 0 -1486330153.710083 1069900557.4525757 0 0 0 0 153464703.33413696 -1154822424.9937553 0 -1154822424.9937553 1193540670.8849792 0 0 0 0 1385650911.6930542 -395765367.01938629 0 -395765367.01938629 493933697.60967827 0 0 0 0 308314042.11780548 -349745264.51264954 0 -349745264.51264954 296631609.10906982 0 0 0 0 855635209.25963974 -437263618.7994709 0 -437263618.7994709 190332402.56419373 0 0 0 0 675797476.98442078 -146489131.45536041 0 -146489131.45536041 1526601.4492950439 0 0 0 0 843353943.6526413 -424155530.84917831 0 -424155530.84917831 254785472.68591309 0 0 0 0 1279787107.817955 -906842266.26317596 0 -906842266.26317596 322341113.34423828 0 0 0 0 1345350913.4611206 -708776937.86534882 0 -708776937.86534882 213757967.99866104 0 0 0 0 1864991679.7680893 -1233995334.3832626 0 -1233995334.3832626 641761664.76673126 0 0 0 0 1394561605.5085678 -618052425.0934906 0 -618052425.0934906 368933936.80126953 0 0 0 0 1715680815.1117706 -1177175394.183136 0 -1177175394.183136 1403731415.288147 0 0 0 0 2086219020.3815231 -1222837830.3678207 0 -1222837830.3678207 402020289.66653442 0 0 0 0 1534465355.5418854 -669977287.87272644 0 -669977287.87272644 33985958.563430786 0 0 0 0 1502712447.9280853 -472151241.78033447 0 -472151241.78033447 -102348517.58063507 0 0 0 0 1055646229.6354513 -205518677.70941544 0 -205518677.70941544 15847814.795120239 0 0 0 0 1001769786.8876419 -663283306.30989838 0 -663283306.30989838 503604249.11288452 0 0 0 0 653622475.74247742 -51647651.569046021 0 -51647651.569046021 -46662493.200454712 0 0 0 0 720246816.34414673 -271361089.9875946 0 -271361089.9875946 152833284.15991974 0 0 0 0 847482122.86260986 -370173186.23899841 0 -370173186.23899841 -71062097.787506104 0 0 0 0 823875130.50442505 31802771.680717468 0 31802771.680717468 -113357403.58744812 0 0 0 0 655974467.2459507 -446859108.99486971 0 -446859108.99486971 -187185182.91345215 0 0 0 0 591268503.00569153 52747106.572967529 0 52747106.572967529 189893523.90712738 0 0 0 0 1876797712.5896149 271376799.38104248 0 271376799.38104248 -162441486.18315887 0 0 0 0 1580410795.1900063 -434227333.4250145 0 -434227333.4250145 -309787598.05918884 0 0 0 0 3039962148.9238815 -891620770.55541611 0 -891620770.55541611 -221559125.0406189 0 0 0 0 2665389138.6128769 -1446398862.9860764 0 -1446398862.9860764 -280408961.23179626 0 0 0 0 2810907335.0526066 -2153984088.2188692 0 -2153984088.2188692 -194297321.5408783 0 0 0 0 4617225450.9661102 -1562931626.8619537 0 -1562931626.8619537 -564486617.59453773 0 0 0 0 2703344945.8281097 -1319179869.6226234 0 -1319179869.6226234 -519826115.48806763 0 0 0 0 5944993356.9106369 -2549168322.742485 0 -2549168322.742485 138572841.56626892 0 0 0 0 2449145505.1242371 -2181114360.0270157 0 -2181114360.0270157 1480395683.3795319 0 0 0 0 2810530691.8114243 207390705.34996796 0 207390705.34996796 2945908355.9593906 0 0 0 0 3893314717.0378952 -3143390565.1803818 0 -3143390565.1803818 2114282920.4818115 0 0 0 0 3228526938.4255371 -3400988827.4502106 0 -3400988827.4502106 2231361670.8456101 0 0 0 0 -211014761.21218872 -230142622.85900879 0 -230142622.85900879 2418548664.865984 0 0 0 0 509253437.31593323 -3024652.3834991455 0 -3024652.3834991455 -59033710.821228027 0 0 0 0 5266612000.6053581 1229889562.6701536 0 1229889562.6701536 -166824327.59780884 0 0 0 0 5835672.9874015786 -7147935.2324189357 0 -7147935.2324189357 5014697.7583060637 0 0 0 0 831698843.86933136 -721253060.14663696 0 -721253060.14663696 476424534.30487061 0 0 0 0 694489324.81150055 -272927561.84497833 0 -272927561.84497833 472229767.77903557 0 0 0 0 640632410.98238373 -23410352.282186508 0 -23410352.282186508 -440264287.28660583 0 0 0 0 5605924.032088086 -7078726.0208072849 0 -7078726.0208072849 3752567.667400673 0 0 0 0 -833729357.88796997 -1406814086.0235443 0 -1406814086.0235443 -445623038.35658753 0 0 0 0 763887606.15044403 -134789990.58639526 0 -134789990.58639526 -1161155901.3236732 0 0 0 0 3389592.4504544996 -3860490.8362715524 0 -3860490.8362715524 1726556.9521984011 0 0 0 0 3189054084.158165 -1900430121.5311279 0 -1900430121.5311279 -641987491.87380981 0 0 0 0 -1529766383.7531815 -1061639316.2442245 0 -1061639316.2442245 1650905193.0324199 0 0 0 0 2655768165.1584091 -2825979635.3042831 0 -2825979635.3042831 969196092.64862633 0 0 0 0 1955604229.1980858 -1981680239.7739105 0 -1981680239.7739105 191369783.95256805 0 0 0 0 2321451001.8434944 -1680452242.0517635 0 -1680452242.0517635 -256742914.77723694 0 0 0 0 1869600139.5677414 -587489364.41151428 0 -587489364.41151428 343927570.96134949 0 0 0 0 78993625.069664001 -670581889.95566559 0 -670581889.95566559 1240913295.6955872 0 0 0 0 67082664.220344543 -1152441015.3811951 0 -1152441015.3811951 431289182.20597839 0 0 0 0 -1380472723.9615479 -1848750984.126339 0 -1848750984.126339 73313331.341842651 0 0 0 0 -1249317442.7363739 -168701185.70567322 0 -168701185.70567322 -207596901.08188629 0 0 0 0 783799852.01831818 -677808245.7565918 0 -677808245.7565918 -596525346.89796448 0 0 0 0 2923846.1224646084 -3449874.9421733506 0 -3449874.9421733506 1406576.7752672434 0 0 0 0 -1630599335.3829117 -778663330.40265656 0 -778663330.40265656 1351713010.3778076 0 0 0 0 304826295.97439575 179552465.08174515 0 179552465.08174515 -480776424.42715454 0 0 0 0 1580837978.8810577 -434739148.739151 0 -434739148.739151 -938699455.18591309 0 0 0 0 -2144545717.3683167 -895091967.9724884 0 -895091967.9724884 -345047388.54205513 0 0 0 0 -599005.4769647494 -3157956.3321860135 0 -3157956.3321860135 1863529.9756125621 0 0 0 0 -2596021570.753067 -1137130991.1879272 0 -1137130991.1879272 1496473673.8174133 0 0 0 0 1201760708.0706444 -1946900030.5710945 0 -1946900030.5710945 159244758.09637451 0 0 0 0 -1925427525.3279419 172377307.93917847 0 172377307.93917847 -1152967504.9284515 0 0 0 0 -1429792705.4482603 -1992057789.2282019 0 -1992057789.2282019 -227676726.12179565 0 0 0 0 -1308755432.3271332 -1142992015.2497711 0 -1142992015.2497711 604809945.34829712 0 0 0 0 -1175000009.9489517 -176108429.09432983 0 -176108429.09432983 -440543346.9584074 0 0 0 0 226615446.6228714 -228146587.12378693 0 -228146587.12378693 263379866.59463501 0 0 0 0 523964050.37377548 -884845604.72756195 0 -884845604.72756195 -31200941.839508057 0 0 0 0 -831253878.75823212 -624092991.10837555 0 -624092991.10837555 614826658.31031799 0 0 0 0 1157368460.2458115 -212351625.62410736 0 -212351625.62410736 511459878.4100647 0 0 0 0 1462933019.9421844 -663918712.07431221 0 -663918712.07431221 -188143712.83201599 0 0 0 0 1018811387.6029167 4648211.7894477844 0 4648211.7894477844 3596963.0818939209 0 0 0 0 258156520.00868225 -725737274.27051163 0 -725737274.27051163 -498930.4914855957 0 0 0 0 -921511597.74597168 -127045691.1022644 0 -127045691.1022644 181969829.77732086 0 0 0 0 -358779058.80631638 -1004121064.7252693 0 -1004121064.7252693 -208969210.51678467 0 0 0 0 -1697092211.5180817 -475570718.8008194 0 -475570718.8008194 572578.27852702618 0 0 0 0 -970924728.14676857 -516240788.3608861 0 -516240788.3608861 -625378918.93971252 0 0 0 0 -2075082843.591053 -1045305450.455864 0 -1045305450.455864 -25447332.414993286 0 0 0 0 3499486868.3234901 -976759141.11950684 0 -976759141.11950684 37093587.125762939 0 0 0 0 2742276590.4853363 -1314524121.1221771 0 -1314524121.1221771 102328189.94166183 0 0 0 0 3891865076.0418091 -1244712861.118042 0 -1244712861.118042 106097743.29916954 0 0 0 0 1627019068.0641632 -1788626602.3779221 0 -1788626602.3779221 648725435.82592773 0 0 0 0 2981260669.7114315 -2285627842.7341576 0 -2285627842.7341576 788150530.49884033 0 0 0 0 580860268.69667435 -1730745647.8125839 0 -1730745647.8125839 1483775346.3610229 0 0 0 0 6129148732.4671974 -884763479.78414917 0 -884763479.78414917 16181059.817382812 0 0 0 0 2126004643.4673386 -1072717551.9083786 0 -1072717551.9083786 553681004.95617676 0 0 0 0 1490545897.8379669 -757614876.33323669 0 -757614876.33323669 826642395.19111633 0 0 0 0 2498701338.4264832 -177679186.93055725 0 -177679186.93055725 127079954.67037201 0 0 0 0 3800631803.0172729 -885691440.87534332 0 -885691440.87534332 -44539246.715927124 0 0 0 0 1434025.3593895463 990959.0264300555 0 990959.0264300555 -348472.07635393739 0 0 0 0 3336172158.4249077 -710167375.16051483 0 -710167375.16051483 39978647.640991211 0 0 0 0 1526191085.7973108 -460004998.63467407 0 -460004998.63467407 145530732.36999512 0 0 0 0 3236324685.2075691 -153731704.94232178 0 -153731704.94232178 -192744619.24210739 0 0 0 0 1750296321.2827606 -723109674.81912994 0 -723109674.81912994 529214.56915283203 0 0 0 0 2853592.0365344393 1981750.5838723481 0 1981750.5838723481 -391451.42804923654 0 0 0 0 1882155478.8089128 -805459522.32876039 0 -805459522.32876039 53773900.039672852 0 0 0 0 2497324839.4270287 -1094955300.2948227 0 -1094955300.2948227 -759821.86116578558 0 0 0 0 2819982987.5053902 -1347651876.8763199 0 -1347651876.8763199 -8371405.3935241699 0 0 0 0 2064032304.5952148 -1102286890.0659866 0 -1102286890.0659866 262589.89566040039 0 0 0 0 2419152539.9421501 -1321070158.6098061 0 -1321070158.6098061 -10070983.355438232 0 0 0 0 1912450850.6471558 -1330742091.1987648 0 -1330742091.1987648 220824109.10739136 0 0 0 0 1353286117.3342113 -982476515.2256012 0 -982476515.2256012 284063228.64027405 0 0 0 0 1519560799.6806316 -986863046.19333649 0 -986863046.19333649 99894.989547729492 0 0 0 0 1244165888.4223938 -863362828.17506409 0 -863362828.17506409 219584157.1606369 0 0 0 0 1244905947.4207458 -1152836504.0257111 0 -1152836504.0257111 429593879.30897522 0 0 0 0 -801991.31809784612 2639193.0758820483 0 2639193.0758820483 1572311.4814993441 0 0 0 0 1296802434.7716026 -837113847.21083832 0 -837113847.21083832 353677.95257098909 0 0 0 0 1630960266.136549 -593236042.33680725 0 -593236042.33680725 118847828.09112549 0 0 0 0 -967622.8008315186 1988021.4978910768 0 1988021.4978910768 2374018.3132022172 0 0 0 0 361264915.76792717 -318756652.05247498 0 -318756652.05247498 209412538.57020569 0 0 0 0 751729239.70218468 -220145834.99973297 0 -220145834.99973297 -20653912.196155548 0 0 0 0 185214334.37356186 69659267.954322815 0 69659267.954322815 65822616.815208435 0 0 0 0 717254726.98807144 -1089652340.4437408 0 -1089652340.4437408 1034332519.5867462 0 0 0 0 1546694230.2600408 -1318452965.0752821 0 -1318452965.0752821 513322729.56085205 0 0 0 0 779430708.58277512 -661777180.59558868 0 -661777180.59558868 329755527.36183167 0 0 0 0 781427253.22199023 -811238541.28060603 0 -811238541.28060603 572724543.70420837 0 0 0 0 167580007.73355865 -305162674.5879364 0 -305162674.5879364 475287486.43787384 0 0 0 0 621750763.01620018 -684342078.49164248 0 -684342078.49164248 565959322.95199585 0 0 0 0 544912253.56656647 -730796081.63912964 0 -730796081.63912964 552073517.81881714 0 0 0 0 -196992989.16085052 -394303878.24908447 0 -394303878.24908447 536479765.95373535 0 0 0 0 -524655334.43696213 -65253957.587890625 0 -65253957.587890625 218785475.73248291 0 0 0 0 -227669.1692138873 520083.51465805061 0 520083.51465805061 -1022216.0584983379 0 0 0 0 -35808428.783370972 -328314751.04849243 0 -328314751.04849243 -173295473.48019409 0 0 0 0 -86252131.019195557 -427075886.9932251 0 -427075886.9932251 -22153473.357940674 0 0 0 0 222826544.72373009 -62227729.18863678 0 -62227729.18863678 -92878141.159118652 0 0 0 0 -19844489.911972046 -75033477.532821655 0 -75033477.532821655 -44930588.443893433 0 0 0 0 42836292.982969284 -147878454.6556015 0 -147878454.6556015 -131083587.07739258 0 0 0 0 390929520.64819908 -210671732.41022491 0 -210671732.41022491 167423420.14909363 0 0 0 0 91648359.053195953 22346626.252822876 0 22346626.252822876 109406213.76764297 0 0 0 0 9445219.9071655273 -14832085.155487061 0 -14832085.155487061 105229818.26580811 0 0 0 0 -1036810.6009425526 1473029.3442117241 0 1473029.3442117241 1700893.3884442151 0 0 0 0 101367722.13946724 72526101.393432617 0 72526101.393432617 1456467.3504943848 0 0 0 0 150689248.33569908 7673563.5969238281 0 7673563.5969238281 -54167704.842285156 0 0 0 0 38783401.177810669 -10675391.163795471 0 -10675391.163795471 -65496794.438995361 0 0 0 0 36199342.283641815 -16859766.695922852 0 -16859766.695922852 -44246447.633861542 0 0 0 0 79311518.211866379 43189970.07182312 0 43189970.07182312 -31071938.557037354 0 0 0 0 74840046.906637192 44747549.179695129 0 44747549.179695129 -29425446.665084839 0 0 0 0 11591998.163635254 -40585974.064380646 0 -40585974.064380646 -10320208.695220947 0 0 0 0 -91064041.750076294 -97234327.153739929 0 -97234327.153739929 -77610137.394897461 0 0 0 0 6171756.5365066528 -20570841.410415649 0 -20570841.410415649 -73459304.756317139 0 0 0 0 -71712979.431007385 -143865857.63098145 0 -143865857.63098145 -116318980.61709595 0 0 0 0 -19352336.076495074 -11813954.407324426 0 -11813954.407324426 21329729.365039557 0 0 0 0 -77636806.798171997 -68057330.23588562 0 -68057330.23588562 -34429926.240104675 0 0 0 0 21322944.317422077 -14966322.895014947 0 -14966322.895014947 -18063907.256868064 0 0 0 0 -558267260.28134155 -418734052.96316528 0 -418734052.96316528 -39322651.171611786 0 0 0 0 42180702.722709656 -38558202.490760803 0 -38558202.490760803 -131532025.04272461 0 0 0 0 282617138.56333923 77656440.06287384 0 77656440.06287384 -184175020.99461365 0 0 0 0 18353016.669992689 -20167929.496591076 0 -20167929.496591076 1039596.372188732 0 0 0 0 -31986322.213378906 -26380634.044067383 0 -26380634.044067383 -14179735.802978516 0 0 0 0 -284590741.58029556 -323566569.4964447 0 -323566569.4964447 -71128436.231323242 0 0 0 0 177208282.10688782 50677777.186035156 0 50677777.186035156 -25620550.420898438 0 0 0 0 4264919.7006337624 -4429874.4116557967 0 -4429874.4116557967 -7977371.5510888845 0 0 0 0 -61819.842300415039 -129436938.98373413 0 -129436938.98373413 -174021535.80097198 0 0 0 0 11772490.384710632 -20903620.737069543 0 -20903620.737069543 14294535.991084456 0 0 0 0 299994513.32303619 -131439312.82659912 0 -131439312.82659912 -409389017.96469116 0 0 0 0 -13440330.691435579 -15393859.610989831 0 -15393859.610989831 16831416.006224379 0 0 0 0 4793114.9527968913 -4851195.8435928784 0 -4851195.8435928784 -5163492.6444872916 0 0 0 0 -94910129.690727234 -74047008.707496643 0 -74047008.707496643 -119820939.70501709 0 0 0 0 -261682390.51544285 -186528190.05182838 0 -186528190.05182838 -83383237.054992676 0 0 0 0 7618920.6305847168 -142107548.64674377 0 -142107548.64674377 -132305651.02171326 0 0 0 0 848891897.06065464 -561328517.27767944 0 -561328517.27767944 -62048677.356231689 0 0 0 0 217015743.70127487 -456504533.15942383 0 -456504533.15942383 392233110.71343994 0 0 0 0 1778314.1658546557 57688.420807369053 0 57688.420807369053 -986248.4660167098 0 0 0 0 655468993.57187939 -178314834.69856262 0 -178314834.69856262 -12338400.687652588 0 0 0 0 304878372.93068242 -101182528.66853333 0 -101182528.66853333 93017384.402435303 0 0 0 0 250704265.60382175 -247679316.92621231 0 -247679316.92621231 12632310.322052002 0 0 0 0 80356414.128222942 -214765960.18379211 0 -214765960.18379211 82622597.735778809 0 0 0 0 160335556.0541687 -243499033.50157166 0 -243499033.50157166 23607950.192428589 0 0 0 0 912347432.18630028 -461694756.65028381 0 -461694756.65028381 -486693752.30334473 0 0 0 0 656627216.56877911 -345499504.02235353 0 -345499504.02235353 -226328111.90307617 0 0 0 0 528103795.20705795 -830976687.55813599 0 -830976687.55813599 256072908.48428345 0 0 0 0 377361587.30223942 -672560545.89051819 0 -672560545.89051819 122680459.66177368 0 0 0 0 785117391.19224691 178143061.26916313 0 178143061.26916313 22324166.810302734 0 0 0 0 3068389462.9368362 -1361508478.3664551 0 -1361508478.3664551 -610766459.00857544 0 0 0 0 -344069182.31070328 -319900453.21740723 0 -319900453.21740723 520395203.33789062 0 0 0 0 -155876820.63032532 -21135152.194274902 0 -21135152.194274902 736315278.53435516 0 0 0 0 107467189.57260513 298497240.37554932 0 298497240.37554932 693963441.35987854 0 0 0 0 41778939.852363586 67975837.372009277 0 67975837.372009277 348156334.92687988 0 0 0 0 -369132616.56168365 -234869796.38482666 0 -234869796.38482666 559016223.94104004 0 0 0 0 -359236851.21420097 -213790940.44674683 0 -213790940.44674683 266518580.02593994 0 0 0 0 -829634598.41486931 -66525965.753372192 0 -66525965.753372192 207764551.50537109 0 0 0 0 -642901373.88022995 -305977796.7880249 0 -305977796.7880249 361944638.15185547 0 0 0 0 -244887040.70671844 -57274962.508331299 0 -57274962.508331299 165812062.2364502 0 0 0 0 -744369382.94944763 -189707376.37368774 0 -189707376.37368774 255436559.53723145 0 0 0 0 534301872.89329529 -186972669.3114624 0 -186972669.3114624 -101982540.89819336 0 0 0 0 -237561212.99233484 -2277237.8869895935 0 -2277237.8869895935 427774237.24804688 0 0 0 0 1987157.5771478387 5120002.441588751 0 5120002.441588751 167673.66436386108 0 0 0 0 -1526980993.5434709 -297096447.54847717 0 -297096447.54847717 328035945.54510498 0 0 0 0 100702737.85564041 -13926980.060745239 0 -13926980.060745239 -56037061.506256104 0 0 0 0 -151804.23580109375 -3450744.7589948345 0 -3450744.7589948345 -6222717.1007872075 0 0 0 0 -1244217994.9592142 -454578949.60423279 0 -454578949.60423279 176151492.78887939 0 0 0 0 -755287777.13780975 -263840020.34259033 0 -263840020.34259033 -166613927.04174805 0 0 0 0 -1751771636.2200375 -41480351.081069946 0 -41480351.081069946 149614102.022995 0 0 0 0 1809470.161094408 2168283.2198019344 0 2168283.2198019344 -1250456.7118012756 0 0 0 0 -296900710.97032928 -88697556.796173096 0 -88697556.796173096 -20740684.017089844 0 0 0 0 -912275.47271150351 776614.57136428868 0 776614.57136428868 116598.69530133903 0 0 0 0 -1041212059.1461964 136606923.05337524 0 136606923.05337524 -133089522.74084473 0 0 0 0 -1045226889.7374363 -221430342.20558929 0 -221430342.20558929 -94765312.938415527 0 0 0 0 -71603576.154819489 -294755661.92897034 0 -294755661.92897034 100980895.62188721 0 0 0 0 -606105712.89969635 -241087837.33926392 0 -241087837.33926392 20823706.643806458 0 0 0 0 -208504347.39525032 44412469.322875977 0 44412469.322875977 15711218.390319824 0 0 0 0 -740072911.68559456 113048759.59127808 0 113048759.59127808 -71787780.556983948 0 0 0 0 83479812.221525192 -56833803.365921021 0 -56833803.365921021 -93492515.357009888 0 0 0 0 -324962149.61670685 -285666505.05929565 0 -285666505.05929565 54249960.690673828 0 0 0 0 -469446326.60543442 104258639.05644226 0 104258639.05644226 -193409.67027854919 0 0 0 0 -692062928.67686653 -212391056.75120544 0 -212391056.75120544 -92432879.623474121 0 0 0 0 -14331957.112103462 -240398456.71057129 0 -240398456.71057129 -2023698.3994445801 0 0 0 0 -1787234093.4259224 -144633142.73600769 0 -144633142.73600769 140317133.8394165 0 0 0 0 404658.45946990937 979422.86687457468 0 979422.86687457468 -253838.93098458648 0 0 0 0 -513735953.98297882 305167885.52418518 0 305167885.52418518 -33983818.073974609 0 0 0 0 -1131308858.649353 120261859.58071899 0 120261859.58071899 -104781036.61649275 0 0 0 0 -1031369859.9089165 41729348.942199707 0 41729348.942199707 35329609.236557007 0 0 0 0 -1068058739.3363209 -116648416.70478058 0 -116648416.70478058 46877771.263427734 0 0 0 0 -864473354.91271782 -469159552.54553986 0 -469159552.54553986 -65705965.556152344 0 0 0 0 -900393860.32361221 -59720717.448059082 0 -59720717.448059082 -168842765.62564087 0 0 0 0 -1040392816.5214729 -326794105.81622314 0 -326794105.81622314 -202754513.10900879 0 0 0 0 -909254456.4866972 -72866868.131225586 0 -72866868.131225586 59041642.089477539 0 0 0 0 -209052797.97572041 109372428.61936951 0 109372428.61936951 -37311155.396026611 0 0 0 0 -522309537.00109911 -82900042.255378723 0 -82900042.255378723 79412384.011352539 0 0 0 0 -562812352.19877243 26836250.131668091 0 26836250.131668091 -146271468.08843994 0 0 0 0 -226098845.72736359 55619584.320571899 0 55619584.320571899 -78936378.096153259 0 0 0 0 -226401479.33860588 52377484.352401733 0 52377484.352401733 78579913.54737854 0 0 0 0 406339600.39253235 -246753236.5721283 0 -246753236.5721283 20701222.921142578 0 0 0 0 194818287.47264767 -82270674.893768311 0 -82270674.893768311 89702459.312896729 0 0 0 0 143491097.1889019 -168174504.53379822 0 -168174504.53379822 -3228828.0007247925 0 0 0 0 723270031.25486469 -213984478.42918444 0 -213984478.42918444 -75148001.806365967 0 0 0 0 252422632.62844086 67962173.079925537 0 67962173.079925537 170709565.47710419 0 0 0 0 461630256.88470554 -244257505.21842957 0 -244257505.21842957 94865835.693771362 0 0 0 0 2978344.600491927 540722.16268760338 0 540722.16268760338 -2263214.3347474337 0 0 0 0 1140112241.2922375 -324454090.28979492 0 -324454090.28979492 -189116126.12957764 0 0 0 0 713119210.16814637 -486936115.33645654 0 -486936115.33645654 84879852.454040527 0 0 0 0 968296476.41958618 -116389398.67126465 0 -116389398.67126465 848578953.40930176 0 0 0 0 352130790.14217854 -49209110.800994873 0 -49209110.800994873 156800383.57312775 0 0 0 0 360450159.04080582 -263945818.40466309 0 -263945818.40466309 339581468.44119263 0 0 0 0 365216252.83120537 12146230.068222046 0 12146230.068222046 22683707.211666465 0 0 0 0 583095892.82931113 -309433921.77814865 0 -309433921.77814865 16628745.200515747 0 0 0 0 178440679.38784122 -144096504.58703613 0 -144096504.58703613 -5509138.0368041992 0 0 0 0 -129813134.26069355 79211703.754821777 0 79211703.754821777 41583926.273694992 0 0 0 0 233249190.76875639 -144695787.18462753 0 -144695787.18462753 -65566612.049179077 0 0 0 0 253205801.36375564 -81809021.158973694 0 -81809021.158973694 132596537.12965393 0 0 0 0 -631048704.10023689 -4719803.4342956543 0 -4719803.4342956543 -31816440.58481884 0 0 0 0 -864147016.41689682 -142712759.88497925 0 -142712759.88497925 -40745648.582794189 0 0 0 0 -641262039.2267189 67959954.472167969 0 67959954.472167969 -3717537.7154006958 0 0 0 0 -635512137.95116615 88624146.567459106 0 88624146.567459106 66149454.310894966 0 0 0 0 -576068686.10765123 -48010382.370574951 0 -48010382.370574951 77138020.249542236 0 0 0 0 -215661164.56792355 -84097858.941215515 0 -84097858.941215515 -47930978.198989868 0 0 0 0 -1013587367.5621881 -117161768.72343445 0 -117161768.72343445 96252593.653503418 0 0 0 0 -567567625.43448067 -117360356.15803528 0 -117360356.15803528 -35033033.958488464 0 0 0 0 -516773299.15801382 11105204.281330109 0 11105204.281330109 50701019.511413574 0 0 0 0 -474900968.71833688 -116146871.7637248 0 -116146871.7637248 331895.60816955566 0 0 0 0 -861608262.81166518 -23098968.682311058 0 -23098968.682311058 54963361.680908203 0 0 0 0 -474923602.77532196 -115981377.20550537 0 -115981377.20550537 -342920.39164733887 0 0 0 0 -79441010.913276196 -24895896.708847046 0 -24895896.708847046 -96162522.065162659 0 0 0 0 -53730802.459019184 44562784.085479736 0 44562784.085479736 34240204.686191559 0 0 0 0 199421728.63424718 -152221554.82001877 0 -152221554.82001877 -282378.81314086914 0 0 0 0 265931830.05977511 -64055111.382621765 0 -64055111.382621765 39468298.245025635 0 0 0 0 4083740.8985395906 1833999.1487984769 0 1833999.1487984769 -3561947.9106924236 0 0 0 0 359048815.33762455 -132774630.13935089 0 -132774630.13935089 160260.42120361328 0 0 0 0 -64760540.488870621 -194241915.35739136 0 -194241915.35739136 133786020.824646 0 0 0 0 108302623.64126205 -340028687.67684937 0 -340028687.67684937 158247.64176355756 0 0 0 0 352391372.93120193 -303522952.89770889 0 -303522952.89770889 68833.310501098633 0 0 0 0 238702870.1855135 -208079899.97196579 0 -208079899.97196579 67038392.22833252 0 0 0 0 150508247.45910358 -249882190.6554184 0 -249882190.6554184 65232334.219573975 0 0 0 0 261188832.29438591 -175978935.31732941 0 -175978935.31732941 56746681.225814819 0 0 0 0 139987373.53868389 -162990541.97650909 0 -162990541.97650909 129945329.72606659 0 0 0 0 94532290.896086693 -222999152.5459137 0 -222999152.5459137 122251717.56303406 0 0 0 0 81466337.907495499 -129739720.60905457 0 -129739720.60905457 97355003.725708008 0 0 0 0 104974136.47660828 -204635240.1474762 0 -204635240.1474762 139160944.98692322 0 0 0 0 19250105.311710358 -128257148.63591003 0 -128257148.63591003 78655666.555160522 0 0 0 0 108182848.91970146 -135959810.06670189 0 -135959810.06670189 56975112.460418701 0 0 0 0 97775895.57522583 -144355717.26761627 0 -144355717.26761627 37022399.478439331 0 0 0 0 -42490896.223197937 -59437906.181640625 0 -59437906.181640625 40577078.137639999 0 0 0 0 159463158.24400139 -224874744.38990784 0 -224874744.38990784 115118194.00531006 0 0 0 0 30090697.568450928 -93775321.375152588 0 -93775321.375152588 154432271.40428162 0 0 0 0 174360371.29444146 -192461670.96321869 0 -192461670.96321869 185565325.9720459 0 0 0 0 3872941.9810529132 1253964.7597600855 0 1253964.7597600855 -3143184.3507131338 0 0 0 0 463190850.1531167 -218279808.85670471 0 -218279808.85670471 118240266.54766846 0 0 0 0 529477146.36704922 -398673481.25507355 0 -398673481.25507355 206680551.28555298 0 0 0 0 453820018.16988707 -232452787.27581787 0 -232452787.27581787 11759969.851985931 0 0 0 0 4008232.8891543671 1480532.947911799 0 1480532.947911799 -3779499.3909137696 0 0 0 0 309548333.61886644 -259973713.66444397 0 -259973713.66444397 116235398.84970093 0 0 0 0 -19275069.818668365 -55767733.128387451 0 -55767733.128387451 -32427686.515670776 0 0 0 0 58094427.674221039 22986819.665630341 0 22986819.665630341 -41577786.704788208 0 0 0 0 -9577707.4790943228 -1059983.4962605163 0 -1059983.4962605163 1942731.8738634437 0 0 0 0 -2035375.6885042691 3887542.2868629955 0 3887542.2868629955 -366599.32667377591 0 0 0 0 130679804.24188495 -17542140.815533161 0 -17542140.815533161 -45221232.412414551 0 0 0 0 -256907688.90697861 -213727849.78076172 0 -213727849.78076172 857796.27853660309 0 0 0 0 -17959624.894390106 28067645.270614624 0 28067645.270614624 -3959083.4686126709 0 0 0 0 -14348609.007484436 -71875081.846160889 0 -71875081.846160889 -12894853.288082123 0 0 0 0 -23105273.752527237 -61971313.149833679 0 -61971313.149833679 463.60331726074219 0 0 0 0 -4138170.670859131 2499228.2248904891 0 2499228.2248904891 2185175.5094365031 0 0 0 0 -153120414.61709595 -44494265.043495178 0 -44494265.043495178 43388942.412338257 0 0 0 0 620520380.54852295 -84528046.057281494 0 -84528046.057281494 -35127440.159500122 0 0 0 0 189177881.88571358 -19062993.672538757 0 -19062993.672538757 11119047.497940063 0 0 0 0 147311574.11147881 -22459352.841743469 0 -22459352.841743469 52434747.582427979 0 0 0 0 70988965.597374439 1037938.2044582367 0 1037938.2044582367 53851732.375549316 0 0 0 0 -38885833.748222351 -106702322.50614929 0 -106702322.50614929 9727924.0397949219 0 0 0 0 -417670.7449798584 -42187238.479217529 0 -42187238.479217529 -16271391.053495407 0 0 0 0 -7046553.2668643333 -2202919.1055084541 0 -2202919.1055084541 611333.10305459797 0 0 0 0 -5112125.5260692183 1344745.8627237342 0 1344745.8627237342 2124946.2259037048 0 0 0 0 -108272579.12311172 -56742013.057701111 0 -56742013.057701111 29206361.131774902 0 0 0 0 -36165714.633556366 35967335.649597168 0 35967335.649597168 6217986.4661560059 0 0 0 0 -106301360.22820485 -28740078.173564434 0 -28740078.173564434 1426533.8977355957 0 0 0 0 -3172753.4592371252 2785149.977721693 0 2785149.977721693 -529159.67719331384 0 0 0 0 80867830.416194916 -26457996.320465088 0 -26457996.320465088 -41017718.186920166 0 0 0 0 -6134331.7027575113 -1608604.7577255806 0 -1608604.7577255806 -380539.91555032134 0 0 0 0 -30534031.242416382 -22118991.566627502 0 -22118991.566627502 12116246.114883423 0 0 0 0 -9948657.956451416 -18258672.12852478 0 -18258672.12852478 -1478404.14012146 0 0 0 0 -15896137.973835558 -13267744.856326401 0 -13267744.856326401 -10243347.503326416 0 0 0 0 -15877221.866836548 -15302480.622085571 0 -15302480.622085571 -14438764.046478271 0 0 0 0 -12528418.684309959 -10712824.598701477 0 -10712824.598701477 -9443215.5219726562 0 0 0 0 -13672262.765761375 -15189934.504244804 0 -15189934.504244804 -12712755.785995483 0 0 0 0 -12269207.941641081 -14759283.280849352 0 -14759283.280849352 -8246286.2509225458 0 0 0 0 -170618.01881601661 -8552166.504434213 0 -8552166.504434213 -8395283.0778644159 0 0 0 0 -222419.90899658203 -338524.77935123444 0 -338524.77935123444 -815329.29113769531 0 0 0 0 -21174518.237953186 -15137549.632827759 0 -15137549.632827759 -11501315.58291626 0 0 0 0 -2164077.8057562294 -7448161.2106796913 0 -7448161.2106796913 -7459581.4644244164 0 0 0 0 -3892571.94930554 -4237423.0617178157 0 -4237423.0617178157 -6440604.7999885529 0 0 0 0 136239659.28263474 -41231745.556152344 0 -41231745.556152344 -12824874.298583984 0 0 0 0 110631603.47826385 -25536819.558166504 0 -25536819.558166504 -12754737.671005249 0 0 0 0 -36680395.252658844 -51785212.94934845 0 -51785212.94934845 32385851.909545898 0 0 0 0 -11386437.820053101 -59477042.890991211 0 -59477042.890991211 33467291.800392151 0 0 0 0 7142368.835144043 -112067692.20602417 0 -112067692.20602417 44744227.312133789 0 0 0 0 36551930.145950317 -128038748.72003174 0 -128038748.72003174 50573978.83770752 0 0 0 0 159683930.91186523 -215751763.67041016 0 -215751763.67041016 64041432.408935547 0 0 0 0 297019000.89210892 -229441820.62133789 0 -229441820.62133789 89618507.78024292 0 0 0 0 140334932.1719265 182563775.33710861 0 182563775.33710861 -210734840.97537231 0 0 0 0 -39721111.051410675 -17063670.077560425 0 -17063670.077560425 5418068.7232055664 0 0 0 0 674632.36971676722 -478749.25790858269 0 -478749.25790858269 -737819.6210475862 0 0 0 0 375914512.93130493 155107029.26550293 0 155107029.26550293 -115161180.02319336 0 0 0 0 -180828806.02622604 -92683874.653247833 0 -92683874.653247833 143416435.19091797 0 0 0 0 -74506884.204559326 -169958785.58880615 0 -169958785.58880615 144852625.21520996 0 0 0 0 -127539723.76202393 48275726.499786377 0 48275726.499786377 18909256.715301514 0 0 0 0 -60947010.247268677 38684491.373703003 0 38684491.373703003 -29672196.107666016 0 0 0 0 73931600.226173401 -20763260.992073059 0 -20763260.992073059 -224236562.92131042 0 0 0 0 -301438.54048814252 -2015757.7600703984 0 -2015757.7600703984 -247573.96113428473 0 0 0 0 -195936386.93152237 -3628902.1680450439 0 -3628902.1680450439 92625985.303894043 0 0 0 0 -55016321.16696167 -3609387.8293457031 0 -3609387.8293457031 38103559.85357666 0 0 0 0 -71337237.173128128 -17998379.097595215 0 -17998379.097595215 32898608.501159668 0 0 0 0 -59216964.862014771 -59830959.395996094 0 -59830959.395996094 72077996.938995361 0 0 0 0 -41466947.956085205 -29038814.734527588 0 -29038814.734527588 36718572.385452271 0 0 0 0 -46141889.715642929 -10378722.260154724 0 -10378722.260154724 23309144.988525391 0 0 0 0 -43100020.012917042 -19247319.695297241 0 -19247319.695297241 4616070.7786865234 0 0 0 0 -32764509.145030022 -30656160.448257446 0 -30656160.448257446 7614602.8046875 0 0 0 0 -31830676.255759418 -43672324.409132242 0 -43672324.409132242 25349266.072631836 0 0 0 0 -32380386.17930603 -32198614.173202515 0 -32198614.173202515 7408463.9005737305 0 0 0 0 -31909336.480358124 -34253948.359222412 0 -34253948.359222412 10645869.096557617 0 0 0 0 -22102664.692565918 -19618125.373001099 0 -19618125.373001099 -18679793.904907227 0 0 0 0 -7616155.393157959 -22037190.416717529 0 -22037190.416717529 -34008183.457824707 0 0 0 0 86964573.648343325 -17805483.337718964 0 -17805483.337718964 -22560998.439697266 0 0 0 0 44077904.197727859 -31642617.867363453 0 -31642617.867363453 -23179062.310943604 0 0 0 0 20738179.239797592 -4545275.5620422363 0 -4545275.5620422363 -10608781.428771973 0 0 0 0 46946242.510312974 16120112.067707062 0 16120112.067707062 1695816.8081970215 0 0 0 0 -3012601.9435997903 -2460519.9055848196 0 -2460519.9055848196 -55049.418668486178 0 0 0 0 66653103.776949406 25587781.449367523 0 25587781.449367523 -568179.71279907227 0 0 0 0 -399319233.4446907 -34047901.862335205 0 -34047901.862335205 -116410854.80638123 0 0 0 0 -4731374.8027000427 -34132271.459762573 0 -34132271.459762573 -21682177.572998047 0 0 0 0 3254097.2463378906 -34274366.348907471 0 -34274366.348907471 -38867155.87802124 0 0 0 0 -1083866.189585899 -10431448.829844132 0 -10431448.829844132 -2906306.9502093643 0 0 0 0 -8210394.3804321289 -41546015.350494385 0 -41546015.350494385 -32123217.741775513 0 0 0 0 -53694553.141075134 -150633575.66552734 0 -150633575.66552734 -186820858.72900391 0 0 0 0 -10023423.456288651 -8041458.0149328336 0 -8041458.0149328336 170043.82783322781 0 0 0 0 -24595364.857131958 -34762553.631347656 0 -34762553.631347656 -20123860.790710449 0 0 0 0 -14496633.527580261 -15606687.380455017 0 -15606687.380455017 -9708820.2618408203 0 0 0 0 -2763119.5427322388 -33898954.924072266 0 -33898954.924072266 -26787679.765472412 0 0 0 0 13374921.164085388 -20710770.283996582 0 -20710770.283996582 -20841050.789318085 0 0 0 0 4703758.8317718506 -34659664.240844727 0 -34659664.240844727 -21121979.537597656 0 0 0 0 3141575.2416381836 -39167856.715393066 0 -39167856.715393066 -4276570.8236083984 0 0 0 0 -13753025.937244415 -30438039.995773315 0 -30438039.995773315 -5752467.9676513672 0 0 0 0 23677647.225952148 -56197751.222076416 0 -56197751.222076416 5051755.7676391602 0 0 0 0 13740413.42949295 -24395943.943084717 0 -24395943.943084717 -12613653.886352539 0 0 0 0 27669820.128829956 -18912327.207366943 0 -18912327.207366943 -10509406.01675415 0 0 0 0 -1937907.7853240967 -1362146.1163482666 0 -1362146.1163482666 -4823688.4943847656 0 0 0 0 -3968412.2980940752 -8337908.864124056 0 -8337908.864124056 -8474803.6678261757 0 0 0 0 28852228.506572723 -13624382.174072266 0 -13624382.174072266 -19736469.296325684 0 0 0 0 3743876.2121190806 -2584756.6973320926 0 -2584756.6973320926 -8864175.6567539424 0 0 0 0 -25967085.799224854 -17993863.727405548 0 -17993863.727405548 -12432745.236572266 0 0 0 0 2183475.9737520823 -6761756.8192608114 0 -6761756.8192608114 -10961705.034799755 0 0 0 0 -4328397.130897522 -2901185.6114044189 0 -2901185.6114044189 -1788246.9137573242 0 0 0 0 -19821921.941112518 -23295676.165527344 0 -23295676.165527344 -20714773.225921631 0 0 0 0 -39786250.496910095 477258.63204956055 0 477258.63204956055 -15330709.439453125 0 0 0 0 -19749494.080753326 -18264621.91891861 0 -18264621.91891861 -11119486.721801758 0 0 0 0 -28559783.883346558 -16573056.309013367 0 -16573056.309013367 -16936700.19443512 0 0 0 0 -19024587.850112915 -18062874.243789673 0 -18062874.243789673 -17341327.990447998 0 0 0 0 -19986550.242492676 -19171870.63949585 0 -19171870.63949585 -14210549.440643311 0 0 0 0 -16695786.982088089 -12813010.084598541 0 -12813010.084598541 -11976339.626403809 0 0 0 0 31736291.148604155 -65930119.380905151 0 -65930119.380905151 -231641559.00460815 0 0 0 0 -35634886.537545562 -35382516.081588745 0 -35382516.081588745 -99362654.991744995 0 0 0 0 -26349351.506973505 -41495253.729995728 0 -41495253.729995728 -10627781.827957153 0 0 0 0 -8937800.9068431854 -93353202.588897705 0 -93353202.588897705 -50485536.959320068 0 0 0 0 -17140571.312553257 -30406800.800857544 0 -30406800.800857544 -34997122.862426758 0 0 0 0 42966409.615644932 -82470370.510650635 0 -82470370.510650635 9296910.6725311279 0 0 0 0 357984749.30087304 116228597.2689209 0 116228597.2689209 -339468896.05050659 0 0 0 0 255521929.38272953 86245041.973510742 0 86245041.973510742 -35877671.692975998 0 0 0 0 -85281727.572059631 15771700.439788818 0 15771700.439788818 -40424890.349746704 0 0 0 0 -30182490.99784565 -133425508.39471436 0 -133425508.39471436 -117898003.2096405 0 0 0 0 362785952.53798938 -262611675.85190392 0 -262611675.85190392 174478515.1423645 0 0 0 0 1591461.5493454365 -1642021.3366029337 0 -1642021.3366029337 -408913.85854552872 0 0 0 0 318548291.8047359 -1566492711.3150902 0 -1566492711.3150902 1308553645.6520386 0 0 0 0 361329047.98888683 -255479705.67028809 0 -255479705.67028809 380500009.86560059 0 0 0 0 4477310.2049346194 -4374857.2441544682 0 -4374857.2441544682 -1240158.064716408 0 0 0 0 57682537.878795624 -141952256.51245117 0 -141952256.51245117 325663694.15414429 0 0 0 0 92427407.730503082 -207190952.73402405 0 -207190952.73402405 245994966.56452942 0 0 0 0 -104397854.19292068 -126579233.49310303 0 -126579233.49310303 183816825.02798462 0 0 0 0 -86076.659118637443 -42974.842080824077 0 -42974.842080824077 -59875.147233814001 0 0 0 0 129725563.68412304 -118257945.07145309 0 -118257945.07145309 75333453.381896973 0 0 0 0 80543045.751414299 -29770730.394260406 0 -29770730.394260406 -61266216.795272827 0 0 0 0 -1409120.375335902 -4584710.3551699892 0 -4584710.3551699892 -184652.78926368617 0 0 0 0 72638293.905542374 -133006222.46089935 0 -133006222.46089935 8322077.6347351074 0 0 0 0 4116642.6093654633 4807382.375579834 0 4807382.375579834 -12071708.915634155 0 0 0 0 -44038977.686408997 -8133068.9413452148 0 -8133068.9413452148 -1782304.4839477539 0 0 0 0 -2468783.3144283295 -11340425.279129028 0 -11340425.279129028 3411890.587474823 0 0 0 0 3462201.710037203 -4674965.0601675808 0 -4674965.0601675808 762155.07700872421 0 0 0 0 -21072506.635027647 -67249100.773643494 0 -67249100.773643494 -63048230.63973999 0 0 0 0 -16915620.988099813 -51610071.387191772 0 -51610071.387191772 -70601548.064369202 0 0 0 0 -51370745.430416107 -5953211.3603363037 0 -5953211.3603363037 -18661993.698303223 0 0 0 0 -39117536.806701422 -20656800.776794434 0 -20656800.776794434 -5260376.1071929932 0 0 0 0 -37476461.062599182 -25111840.893493652 0 -25111840.893493652 2126843.275970459 0 0 0 0 184522686.01127529 -113083228.89152527 0 -113083228.89152527 -107301393.94960022 0 0 0 0 -59988322.777032375 -54758120.345169067 0 -54758120.345169067 -13976365.768478394 0 0 0 0 2362712.2844328932 -6590139.5248729214 0 -6590139.5248729214 -192781.63684613258 0 0 0 0 -40054568.237315655 -34438454.026123047 0 -34438454.026123047 -1430983.3928985596 0 0 0 0 18472329.70741272 -45151731.56451416 0 -45151731.56451416 -13515256.522323608 0 0 0 0 10547983.202082634 -28736464.306762695 0 -28736464.306762695 -18470976.45526123 0 0 0 0 10038925.010343552 -24402521.798690796 0 -24402521.798690796 -19738055.554382324 0 0 0 0 -34698519.804802895 -8840695.1611175537 0 -8840695.1611175537 3119149.1896133423 0 0 0 0 -24638235.389805436 245535.59226989746 0 245535.59226989746 -16574747.493270874 0 0 0 0 -27159397.766699672 -7582740.1506347656 0 -7582740.1506347656 -886200.24640655518 0 0 0 0 5696235.6450991035 -222005.32202148438 0 -222005.32202148438 21242.101638793945 0 0 0 0 -37852493.226397671 -7797589.9455471039 0 -7797589.9455471039 39960756.283813477 0 0 0 0 6095391.0490788817 -58318720.676971436 0 -58318720.676971436 -2407322.5785827637 0 0 0 0 5837273.3442737656 -10553841.440196127 0 -10553841.440196127 65280310.846008301 0 0 0 0 184506708.64871073 -32798981.806106567 0 -32798981.806106567 27691918.290924072 0 0 0 0 210922409.93309975 -148285417.18251038 0 -148285417.18251038 90335371.842224121 0 0 0 0 127276381.11049032 -82090677.524703979 0 -82090677.524703979 29933656.531364441 0 0 0 0 -29229060.031319618 -3070470.6901245117 0 -3070470.6901245117 7667615.0648803711 0 0 0 0 2156246.9428915977 1122721.7433776855 0 1122721.7433776855 62715937.6144104 0 0 0 0 152605894.67789614 -55605448.848205566 0 -55605448.848205566 57460851.123596191 0 0 0 0 1934099.2092802525 -7729552.6823806763 0 -7729552.6823806763 -199247906.63407898 0 0 0 0 -17940929.372035384 -52614718.325866699 0 -52614718.325866699 -65251826.518264771 0 0 0 0 -6226470.4569547176 -29299828.275527954 0 -29299828.275527954 -109632714.97467041 0 0 0 0 -788614.57478559017 16247799.827667236 0 16247799.827667236 -50477998.509536743 0 0 0 0 -43074186.334702611 -67168332.678863525 0 -67168332.678863525 -86518211.304168701 0 0 0 0 -50941789.502687238 -59084901.000167847 0 -59084901.000167847 -87377273.603485107 0 0 0 0 -104181819.85366988 -167793170.51631927 0 -167793170.51631927 -204935956.9966507 0 0 0 0 -58815917.412212223 -97031806.047615051 0 -97031806.047615051 -101262142.5851059 0 0 0 0 -61255273.916260004 -79146790.4155159 0 -79146790.4155159 -59915462.987243652 0 0 0 0 -18087927.584918499 -49647730.377410889 0 -49647730.377410889 -88404811.280433655 0 0 0 0 62373159.158842087 26756789.803962708 0 26756789.803962708 -1350060.8641052246 0 0 0 0 43772393.348230362 117881225.45820618 0 117881225.45820618 76293456.276641846 0 0 0 0 3779630.6282978724 -11674133.691749752 0 -11674133.691749752 4113979.2951705605 0 0 0 0 -20457514.560182571 -53923169.054824829 0 -53923169.054824829 -41413000.747727871 0 0 0 0 -19405445.357464314 -56887291.845108032 0 -56887291.845108032 -45264788.437149048 0 0 0 0 -36902056.411882639 -56203921.373153687 0 -56203921.373153687 -45879285.665008545 0 0 0 0 -33418276.651759148 -63742761.013442993 0 -63742761.013442993 -47535056.017822266 0 0 0 0 -6695019.228102684 -40727354.421356201 0 -40727354.421356201 -61234020.46585083 0 0 0 0 -10995640.353797913 -58106201.628219604 0 -58106201.628219604 -67853407.451812744 0 0 0 0 -13837733.034300804 -49263163.004749298 0 -49263163.004749298 -47903588.193756104 0 0 0 0 2906390.5993680954 -38233864.960098267 0 -38233864.960098267 -52336298.969451904 0 0 0 0 -7786272.8188652992 -38407873.660917282 0 -38407873.660917282 -44295881.379150391 0 0 0 0 -2031667.6035661697 -22763824.138473511 0 -22763824.138473511 -36894995.478149414 0 0 0 0 -4837270.1081957817 -29025506.913757324 0 -29025506.913757324 -38626958.390869141 0 0 0 0 9412887.8013296127 -28113913.133560181 0 -28113913.133560181 -49380877.985046387 0 0 0 0 -3380177.3569083214 -21156647.766220093 0 -21156647.766220093 -67985528.103900909 0 0 0 0 -19119231.412299156 -50553754.389709473 0 -50553754.389709473 -64113674.878234863 0 0 0 0 -14735352.838397503 -18011635.046722412 0 -18011635.046722412 -32776878.474517822 0 0 0 0 -10275204.930789292 -11257440.332328796 0 -11257440.332328796 -41419270.84664917 0 0 0 0 -12912138.962015152 -15470275.666542053 0 -15470275.666542053 -34268428.452575684 0 0 0 0 11528663.090288162 -25410064.104675293 0 -25410064.104675293 -37999327.103057861 0 0 0 0 -6355347.6068844795 -25823354.106384277 0 -25823354.106384277 -18890682.710418701 0 0 0 0 35187773.062273026 -21934697.607788086 0 -21934697.607788086 -28037188.34463501 0 0 0 0 10370087.218227863 -20149811.65908432 0 -20149811.65908432 -26079019.619720459 0 0 0 0 21619738.195474625 -19835301.346817017 0 -19835301.346817017 -35706253.203826904 0 0 0 0 17186910.670631409 -11707415.145050049 0 -11707415.145050049 -20748829.82699585 0 0 0 0 24739742.384461403 -6963983.3242492676 0 -6963983.3242492676 -23356908.430938721 0 0 0 0 28912312.146008968 -1902768.6586647034 0 -1902768.6586647034 -17452829.678527832 0 0 0 0 19091910.895784378 -7397605.3858261108 0 -7397605.3858261108 -15506582.201629639 0 0 0 0 22646520.961854935 -15732395.957275391 0 -15732395.957275391 -22337134.225471497 0 0 0 0 18139360.236131907 -4896791.0022659302 0 -4896791.0022659302 -8062590.5711669922 0 0 0 0 13421733.591133118 -9231576.1931152344 0 -9231576.1931152344 -12017849.968017578 0 0 0 0 20675975.258749962 -11977616.800598145 0 -11977616.800598145 -29487861.693847656 0 0 0 0 15579411.63353014 -20387205.668960571 0 -20387205.668960571 -30481934.870178223 0 0 0 0 17114408.273770332 -20978676.207626343 0 -20978676.207626343 -38612178.277633667 0 0 0 0 6759533.5315318108 -26267260.472709656 0 -26267260.472709656 -34780593.02243042 0 0 0 0 -11090685.010742188 -35053590.603424072 0 -35053590.603424072 -43080619.107925415 0 0 0 0 -16947764.414093018 -12910033.661712646 0 -12910033.661712646 -32465995.047790527 0 0 0 0 -30083303.032928467 -32302069.249443054 0 -32302069.249443054 -12012141.92375946 0 0 0 0 -7621858.2672843933 -5782677.5024375916 0 -5782677.5024375916 -1793814.5503845215 0 0 0 0 -99779.558844972402 -4853689.541254878 0 -4853689.541254878 -6736644.5260499269 0 0 0 0 -25879545.151603382 -10475766.972723119 0 -10475766.972723119 -2150623.8268277571 0 0 0 0 -20726955.282693692 -24605884.579247646 0 -24605884.579247646 -3877220.3208875656 0 0 0 0 -91242720.031028748 -70412443.644340515 0 -70412443.644340515 7937101.3995361328 0 0 0 0 -47575416.514698029 -5159366.6750106812 0 -5159366.6750106812 45237353.508605957 0 0 0 0 -3266214.2280974276 -19367909.568252195 0 -19367909.568252195 -19048006.780435458 0 0 0 0 -50543357.81905365 46245165.691749573 0 46245165.691749573 113035015.34655762 0 0 0 0 -62572159.571655273 -37881729.647277832 0 -37881729.647277832 -37316157.2578125 0 0 0 0 -44096971.783584595 -67889215.406768799 0 -67889215.406768799 -17052932.901550293 0 0 0 0 -4394521.0134323016 -3271515.9694619104 0 -3271515.9694619104 -2249281.146463424 0 0 0 0 -32516348.076164246 -35409450.321525574 0 -35409450.321525574 -33079356.147644043 0 0 0 0 -3117758.3212382682 -1999376.7066753358 0 -1999376.7066753358 -729261.07111021876 0 0 0 0 -13902092.410079956 37744725.742507935 0 37744725.742507935 22945283.849029541 0 0 0 0 -67044827.293148041 -60854135.78528595 0 -60854135.78528595 71819727.894836426 0 0 0 0 -70225795.34871912 -30268439.229061604 0 -30268439.229061604 -21234828.78503418 0 0 0 0 -59167953.358169556 -113161395.76979065 0 -113161395.76979065 -125966506.42393494 0 0 0 0 -25475878.393895864 -1880414.4831326008 0 -1880414.4831326008 -5792222.2170715332 0 0 0 0 -556439.33524423838 -1120140.7477614433 0 -1120140.7477614433 -1234709.7140918598 0 0 0 0 -47700974.352111816 -79839780.893051147 0 -79839780.893051147 -48760428.315811157 0 0 0 0 -26419108.391526222 -57943254.827678561 0 -57943254.827678561 -64501406.78427124 0 0 0 0 -53743500.141433716 -65113708.366668701 0 -65113708.366668701 -37429396.007537842 0 0 0 0 -18549197.867370605 -58752569.248092651 0 -58752569.248092651 -50894030.013717651 0 0 0 0 -162292228.63342285 -77775210.59942627 0 -77775210.59942627 -9945481.5717163086 0 0 0 0 -144057144.86382484 65993897.990116119 0 65993897.990116119 44707045.37878418 0 0 0 0 2984576.2255859375 48429297.687835693 0 48429297.687835693 -40325305.834442139 0 0 0 0 -2355072.1747465366 -20319734.830014963 0 -20319734.830014963 -24005206.695138723 0 0 0 0 65998170.469810486 -33497935.263198853 0 -33497935.263198853 -69120962.922210693 0 0 0 0 13774806.05090332 -81826513.778167725 0 -81826513.778167725 -13845837.190612793 0 0 0 0 -6361237.2489700317 -53442283.864151001 0 -53442283.864151001 -45760448.037322998 0 0 0 0 -64901637.132492065 -80411167.117767334 0 -80411167.117767334 -38485277.599700928 0 0 0 0 -39054991.396896362 -82480762.146690369 0 -82480762.146690369 -51493782.464263916 0 0 0 0 -31722948.475509644 -25090530.197540283 0 -25090530.197540283 -39155272.354225159 0 0 0 0 1244607.1995611191 -40735526.756561279 0 -40735526.756561279 -46217282.507293701 0 0 0 0 2174320.7791461945 -32690301.46333313 0 -32690301.46333313 -32326520.737838745 0 0 0 0 4469589.8876075745 -28885012.035316467 0 -28885012.035316467 -24572509.514127731 0 0 0 0 11997530.475364685 -33558229.742523193 0 -33558229.742523193 -40748335.385803223 0 0 0 0 -1692919.358291626 -39867023.733467102 0 -39867023.733467102 -41741646.148925781 0 0 0 0 -15182524.970977545 -36395371.492969513 0 -36395371.492969513 -34168174.652572632 0 0 0 0 -21541565.193668365 -54299589.895915985 0 -54299589.895915985 -41277682.623931885 0 0 0 0 -19634353.309822083 -46103006.043205261 0 -46103006.043205261 -47932144.362571716 0 0 0 0 -17105800.800053515 -28009483.325578466 0 -28009483.325578466 -1307648.5327024125 0 0 0 0 -142695203.62355804 31677100.03616333 0 31677100.03616333 42806620.725379944 0 0 0 0 2438879.0660095215 -49679398.367973328 0 -49679398.367973328 -69843921.197372437 0 0 0 0 -92838161.796730042 -28702261.295410156 0 -28702261.295410156 40429220.334960938 0 0 0 0 -1017389.8988754973 -6362526.6608869955 0 -6362526.6608869955 -2335309.7686607651 0 0 0 0 -10577339.945785522 22574666.466079712 0 22574666.466079712 -33282156.272583008 0 0 0 0 -2864066.3051385125 -28627318.983615316 0 -28627318.983615316 -28061250.626444161 0 0 0 0 -30878017.289030075 -33325019.024591446 0 -33325019.024591446 33932718.698699951 0 0 0 0 45803180.387810707 -28133651.888246536 0 -28133651.888246536 -28535696.247772217 0 0 0 0 -16990554.062225342 -19542949.816246033 0 -19542949.816246033 12724826.803268433 0 0 0 0 -23130204.607701302 -60580221.043043137 0 -60580221.043043137 -21400704.9765625 0 0 0 0 -2104842.278427124 -22490817.025985718 0 -22490817.025985718 -17674574.113294601 0 0 0 0 -9115918.6561088562 -34342567.462306976 0 -34342567.462306976 -11960054.117660522 0 0 0 0 -14463662.845020294 -35169907.140483856 0 -35169907.140483856 -7149796.257019043 0 0 0 0 -24982178.302879333 -33432802.313346863 0 -33432802.313346863 -18740499.742454529 0 0 0 0 -7747732.356147252 -25053983.257064186 0 -25053983.257064186 -14639733.408346251 0 0 0 0 -7410578.0837020874 -30426160.134292603 0 -30426160.134292603 -14852051.163617134 0 0 0 0 -12654383.780485153 -24867084.280965805 0 -24867084.280965805 -13718907.039520264 0 0 0 0 71500361.829604149 -46403761.038467407 0 -46403761.038467407 -57251791.055099487 0 0 0 0 29221419.958730936 -88923.794901371002 0 -88923.794901371002 -70962925.50819397 0 0 0 0 1477748.8733081818 -25442501.116306305 0 -25442501.116306305 -36367030.069946289 0 0 0 0 -98977448.393737793 3996111.4239044189 0 3996111.4239044189 5723107.3761672974 0 0 0 0 -186401919.5202179 11876585.71244812 0 11876585.71244812 16209690.685241699 0 0 0 0 354646.62369545572 -537387.660949938 0 -537387.660949938 41033.683713510633 0 0 0 0 46851921.144828796 8950015.3246459961 0 8950015.3246459961 -135617624.7052002 0 0 0 0 470393.34350933135 -512683.31921772659 0 -512683.31921772659 214574.93420135975 0 0 0 0 -15396495.684890747 34777652.053894043 0 34777652.053894043 -62550923.265136719 0 0 0 0 -5784357.3162242454 -23365786.366683375 0 -23365786.366683375 -9657574.4287706912 0 0 0 0 78173018.866226196 -58504116.006942749 0 -58504116.006942749 -53793457.396972656 0 0 0 0 -30603463.734588623 -108087922.74238586 0 -108087922.74238586 -20395798.115974426 0 0 0 0 -65259670.482673645 -66840198.774551392 0 -66840198.774551392 10210881.938993454 0 0 0 0 -169891100.70736313 -44904857.19777298 0 -44904857.19777298 9180232.3682861328 0 0 0 0 -55625189.484836578 -38338112.870300293 0 -38338112.870300293 30791660.365402222 0 0 0 0 -13851203.423213959 -11582969.90819931 0 -11582969.90819931 6768593.865020752 0 0 0 0 24130451.824347496 -15020014.087284088 0 -15020014.087284088 -4394930.725769043 0 0 0 0 -54960002.726329803 -39240038.968261719 0 -39240038.968261719 -6049378.94581604 0 0 0 0 -18753487.938868672 -12424739.406618249 0 -12424739.406618249 -166667.37932167202 0 0 0 0 -69561524.924819946 -15351410.112838745 0 -15351410.112838745 16966414.427032471 0 0 0 0 2933893.7189254761 -2805372.9113616943 0 -2805372.9113616943 -1836833.6780395508 0 0 0 0 -4813306.5602015033 -3990148.8755338602 0 -3990148.8755338602 2376972.5617586821 0 0 0 0 8361942.1420424804 -793299.04079653323 0 -793299.04079653323 -3444537.9660972953 0 0 0 0 -14166171.587675337 -18530651.815395191 0 -18530651.815395191 -10535518.5686436 0 0 0 0 19829926.928993225 -46219764.147239685 0 -46219764.147239685 -26411585.763925552 0 0 0 0 2839197.8100411892 -19562731.597871024 0 -19562731.597871024 -14138234.464117035 0 0 0 0 30812575.039394379 -38894703.340148926 0 -38894703.340148926 -25253408.886226654 0 0 0 0 10073915.850384349 -20660776.711125813 0 -20660776.711125813 -16792308.256789654 0 0 0 0 28486937.099865913 -46490924.749629974 0 -46490924.749629974 -49834574.021957397 0 0 0 0 78567588.179542542 -23939819.70249939 0 -23939819.70249939 -39968633.783103943 0 0 0 0 13562165.247192383 -58445621.587928772 0 -58445621.587928772 -27550943.02532959 0 0 0 0 17838882.617855072 -46084765.532226562 0 -46084765.532226562 -12708906.110618591 0 0 0 0 -38033504.880661011 -87841511.621543884 0 -87841511.621543884 3815698.8632659912 0 0 0 0 15232730.811517477 -91515636.264797688 0 -91515636.264797688 -31344377.151733398 0 0 0 0 -101416906.21950912 -70596659.721115112 0 -70596659.721115112 26322631.684570312 0 0 0 0 -60136477.192480087 -115421869.42063141 0 -115421869.42063141 -12412400.139610291 0 0 0 0 -27097689.189453125 -122174855.18832397 0 -122174855.18832397 -11317927.500579834 0 0 0 0 -191141254.02701712 -267424162.64801788 0 -267424162.64801788 -138093061.12704468 0 0 0 0 -26236400.606643677 -126279277.72312164 0 -126279277.72312164 -56510168.646507263 0 0 0 0 79907796.892314911 -113745894.02120972 0 -113745894.02120972 -141576054.91461182 0 0 0 0 192052383.68618011 -39794025.228912354 0 -39794025.228912354 -123545011.48245239 0 0 0 0 29544208.487623215 -76607319.476852417 0 -76607319.476852417 -10090972.719833374 0 0 0 0 24538282.193466187 -13099947.480484009 0 -13099947.480484009 -353755864.45788574 0 0 0 0 -377751665.15706348 -975830.12934875488 0 -975830.12934875488 -26875882.967010498 0 0 0 0 -19007300.531116486 -63282707.29107666 0 -63282707.29107666 -50282077.468139648 0 0 0 0 -72526635.452964783 30376794.888916016 0 30376794.888916016 82426052.955845833 0 0 0 0 145802901.61707687 77257364.700637817 0 77257364.700637817 -107140915.79260254 0 0 0 0 -32197256.990930557 -61455244.831344604 0 -61455244.831344604 -44248746.828491211 0 0 0 0 178474385.48878098 13504537.449745178 0 13504537.449745178 1556424.8598632812 0 0 0 0 3611224.4911211086 -19743703.506745316 0 -19743703.506745316 1140656.2723308951 0 0 0 0 -32177216.936310291 -60737756.68862915 0 -60737756.68862915 -39897776.319046021 0 0 0 0 -27834806.25725174 -48539278.67993927 0 -48539278.67993927 -688999.27802276611 0 0 0 0 -17316657.108656731 -23547606.349314108 0 -23547606.349314108 5892814.0410916582 0 0 0 0 16227370.137793306 -16745485.142101213 0 -16745485.142101213 -20980825.267719701 0 0 0 0 -25127901.823040009 -54049554.542045593 0 -54049554.542045593 -33654727.959487915 0 0 0 0 67007117.593326569 -5384167.1409454346 0 -5384167.1409454346 -50780384.121490479 0 0 0 0 133487063.05199814 70451045.976448059 0 70451045.976448059 33669545.27734375 0 0 0 0 -2435363.4644110277 -5821748.4162580222 0 -5821748.4162580222 765572.12490022182 0 0 0 0 8596530.9918823242 8672316.2079238892 0 8672316.2079238892 81350738.729324341 0 0 0 0 -40181277.572937012 -1544368.8664779663 0 -1544368.8664779663 103349423.7507782 0 0 0 0 -49857951.219009399 21763742.414733887 0 21763742.414733887 96968440.227600098 0 0 0 0 2279528.5891723633 33492.584281921387 0 33492.584281921387 95530417.502868652 0 0 0 0 3497692.2734222412 1583957.5677261353 0 1583957.5677261353 92371333.239074707 0 0 0 0 7945924.8954162598 -595700.78392028809 0 -595700.78392028809 92620565.757507324 0 0 0 0 -67866567.661376953 -14623990.357284546 0 -14623990.357284546 -70900264.49105835 0 0 0 0 -1880878.0957510546 -1855751.937742494 0 -1855751.937742494 -650515.73609233275 0 0 0 0 -26998686.57711792 -7443300.157043457 0 -7443300.157043457 -126146360.29642105 0 0 0 0 -684572.21517132223 -801829.10992176831 0 -801829.10992176831 -165097.35067881085 0 0 0 0 28000245.969421387 -42093791.239707947 0 -42093791.239707947 35048165.579360962 0 0 0 0 29437777.735595703 -188750681.26002502 0 -188750681.26002502 -343896001.82038879 0 0 0 0 -86424432.823425293 -114754491.92200089 0 -114754491.92200089 -260768871.91751099 0 0 0 0 -153857196.53253174 -178486694.74778748 0 -178486694.74778748 -188302233.87210083 0 0 0 0 -96749.323879327625 -616568.98165552318 0 -616568.98165552318 -593662.34635719657 0 0 0 0 -98205987.686035156 84407602.869544983 0 84407602.869544983 -4145594.3766174316 0 0 0 0 -149307878.19639587 -235195402.23867035 0 -235195402.23867035 -158559337.95405579 0 0 0 0 -13961303.806515694 -12999324.976654895 0 -12999324.976654895 1155510.2003913186 0 0 0 0 18711416.619255066 -65708341.232713699 0 -65708341.232713699 -161892179.45228577 0 0 0 0 -176816052.1844635 -145534426.44801331 0 -145534426.44801331 -17066900.447525024 0 0 0 0 12415320.359283447 -40912157.230560303 0 -40912157.230560303 13060041.79510498 0 0 0 0 -131064083.63421631 10177870.855102539 0 10177870.855102539 112016541.50375366 0 0 0 0 -103801276.23134613 26052833.752071381 0 26052833.752071381 124046714.53611755 0 0 0 0 -10784272.311813354 6352863.4852981567 0 6352863.4852981567 51873375.266616821 0 0 0 0 -39068440.038398743 -64438794.242164612 0 -64438794.242164612 36765927.372779846 0 0 0 0 -24895759.960857332 -21677510.029766269 0 -21677510.029766269 4548069.864794746 0 0 0 0 -13887754.312744141 14731808.29283905 0 14731808.29283905 35136900.269126892 0 0 0 0 -19777203.75227356 -20537446.395359039 0 -20537446.395359039 30444120.730949402 0 0 0 0 -23748215.595532179 -16877750.912622664 0 -16877750.912622664 4344789.718036443 0 0 0 0 31301979.725585938 41586293.503585815 0 41586293.503585815 95317995.010852814 0 0 0 0 -54701398.017059326 -238181769.38536072 0 -238181769.38536072 -59273895.130699158 0 0 0 0 141136713.64167786 -74209298.532394409 0 -74209298.532394409 -42547138.561668396 0 0 0 0 -23549162.899537206 -16794009.824598402 0 -16794009.824598402 3879037.0754661364 0 0 0 0 -74481955.296386719 -122068057.44671631 0 -122068057.44671631 -18127921.108724594 0 0 0 0 -82258982.523849487 -115584676.6908989 0 -115584676.6908989 29346609.301811218 0 0 0 0 -293001865.86148071 -78407587.359016418 0 -78407587.359016418 69071894.079467773 0 0 0 0 -172047135.9914856 -158580397.64239502 0 -158580397.64239502 52066041.735351562 0 0 0 0 -188728460.60286331 -55519323.651400566 0 -55519323.651400566 59149391.497589111 0 0 0 0 -218455449.23353577 9138659.3985900879 0 9138659.3985900879 38671817.797525406 0 0 0 0 -286902313.06149292 -159921290.35045624 0 -159921290.35045624 54836956.10584259 0 0 0 0 -63562978.677841187 29941846.504447937 0 29941846.504447937 -72900992.919799805 0 0 0 0 -59553834.820245743 -21103479.955015182 0 -21103479.955015182 -35757894.069213867 0 0 0 0 2201590.4514468163 -1804614.2333988547 0 -1804614.2333988547 -2272316.9204948172 0 0 0 0 121333547.64657593 -262093442.92166901 0 -262093442.92166901 69362587.343963623 0 0 0 0 114766497.64848328 191201265.4747715 0 191201265.4747715 -408630408.80697632 0 0 0 0 28284554.853759766 -26281937.757087708 0 -26281937.757087708 -137373442.97903442 0 0 0 0 429078766.34194946 -190900671.60379791 0 -190900671.60379791 -469790143.90106297 0 0 0 0 -608224024.89840698 326754184.89810944 0 326754184.89810944 247550241.50631332 0 0 0 0 4426537.8110122681 -30206308.039672852 0 -30206308.039672852 -14136799.000305176 0 0 0 0 -6753889.1846333854 -19994968.935851909 0 -19994968.935851909 -3793005.0261291564 0 0 0 0 -5382355.2217102051 -16097789.645179749 0 -16097789.645179749 -4091863.606798172 0 0 0 0 126702825.40524292 -46177436.586868286 0 -46177436.586868286 -89422639.433288574 0 0 0 0 -12330136.805485647 -25919766.64048478 0 -25919766.64048478 -16716615.080432341 0 0 0 0 25152034.721252441 -77779859.394477844 0 -77779859.394477844 -47813627.156002998 0 0 0 0 116934434.93675232 -56661466.554527283 0 -56661466.554527283 -85162453.707519531 0 0 0 0 23745298.8543396 -60586358.025337219 0 -60586358.025337219 26650660.703819275 0 0 0 0 -3329916.8395652771 -19704598.215681076 0 -19704598.215681076 -3285276.0228271484 0 0 0 0 17340721.389633473 -10040026.078011282 0 -10040026.078011282 -34367167.501179695 0 0 0 0 6494567.7766723633 -3769370.1913909912 0 -3769370.1913909912 -40661110.192577362 0 0 0 0 62470476.39151001 -73001852.778381348 0 -73001852.778381348 -79446402.593574524 0 0 0 0 98500965.740783691 -28110294.390808105 0 -28110294.390808105 -50593672.392181396 0 0 0 0 30682918.957733154 -13112174.525283813 0 -13112174.525283813 -99738659.65737915 0 0 0 0 45056734.434936523 -61638817.880371094 0 -61638817.880371094 -67788407.440383911 0 0 0 0 56632970.796134949 -84314009.951776505 0 -84314009.951776505 -30783904.524871826 0 0 0 0 -6383928.8302968219 -23837052.467933953 0 -23837052.467933953 -14296744.590889782 0 0 0 0 -7930363.8800561428 -31590731.586528756 0 -31590731.586528756 -21481507.73641856 0 0 0 0 -5062298.6118528992 -18719697.964493018 0 -18719697.964493018 -8088976.4231042564 0 0 0 0 -9636840.6104545593 -27846038.466049194 0 -27846038.466049194 -32327098.491638184 0 0 0 0 -51647679.853431702 -58728068.005275726 0 -58728068.005275726 59012071.966217041 0 0 0 0 6527784.7714614868 -4959486.0752563477 0 -4959486.0752563477 -26588076.731079102 0 0 0 0 -2843972.6047117934 -4885738.9528730139 0 -4885738.9528730139 1614449.7450839728 0 0 0 0 106406809.07974243 -92903476.758117676 0 -92903476.758117676 29996523.003475189 0 0 0 0 -438396.69690405577 -1367297.3754285052 0 -1367297.3754285052 -960440.90934909508 0 0 0 0 64264536.143665314 30588336.169740677 0 30588336.169740677 74446932.143707275 0 0 0 0 -4982097.446591273 -9416473.721505601 0 -9416473.721505601 -2524638.499350341 0 0 0 0 182233600.65917969 -69846023.854553223 0 -69846023.854553223 30397148.404937744 0 0 0 0 -1476187.311340332 -20869874.352630615 0 -20869874.352630615 -21991257.366336823 0 0 0 0 -115638299.1973877 81266470.735137939 0 81266470.735137939 76126105.255859375 0 0 0 0 -8396666.3015551567 -20191979.409801245 0 -20191979.409801245 -16284479.4793396 0 0 0 0 21717812.195556641 -143277325.20233154 0 -143277325.20233154 72834846.050842285 0 0 0 0 5413095.0941847563 -15834766.481998682 0 -15834766.481998682 -18335762.930725098 0 0 0 0 -3968110.2092284011 -11809619.619850423 0 -11809619.619850423 -10211460.013761982 0 0 0 0 -2746683.6622772217 3033132.749420166 0 3033132.749420166 94568362.828918457 0 0 0 0 -10078397.421020508 -10086117.599372864 0 -10086117.599372864 76843151.417648315 0 0 0 0 -9747381.4711227417 -84929545.693077087 0 -84929545.693077087 152116189.87104034 0 0 0 0 -22324064.673770249 -18748733.878163639 0 -18748733.878163639 1725736.5593872666 0 0 0 0 -53651899.904083252 17498838.367630005 0 17498838.367630005 83093325.76499939 0 0 0 0 -84996453.391174316 -8735102.7239685059 0 -8735102.7239685059 90552392.243465424 0 0 0 0 -25840748.844268799 1450970.0523986816 0 1450970.0523986816 92171801.79095459 0 0 0 0 -3047166.1345577613 -3494969.4925842956 0 -3494969.4925842956 -1459294.5933495648 0 0 0 0 26428434.926589966 -17659478.858970642 0 -17659478.858970642 -67023649.465026855 0 0 0 0 -30980335.19442749 -13607706.604873657 0 -13607706.604873657 77404434.683654785 0 0 0 0 -7950091.5821685791 -10108277.969985962 0 -10108277.969985962 -38339465.168502808 0 0 0 0 17926152.008422852 -14312085.685504913 0 -14312085.685504913 -64456660.880767822 0 0 0 0 29206711.448303223 -26315045.601776123 0 -26315045.601776123 -57400826.936187744 0 0 0 0 21860268.429748535 -10298428.244903564 0 -10298428.244903564 -113176577.2109375 0 0 0 0 -7604852.8681640625 -48932746.169216156 0 -48932746.169216156 64248248.206825256 0 0 0 0 43290657.076148033 -85034595.108163357 0 -85034595.108163357 -56710107.691345215 0 0 0 0 -4350032.1055755615 -21467710.593292236 0 -21467710.593292236 -13917008.392998457 0 0 0 0 7390833.4131011963 -31050966.555404663 0 -31050966.555404663 -14052363.343536377 0 0 0 0 14063766.832496643 -65191942.661529541 0 -65191942.661529541 -37842720.051620483 0 0 0 0 -8784335.7772521973 -33514263.128929138 0 -33514263.128929138 -57938101.705940247 0 0 0 0 -584534.83379103988 -2363303.2534686625 0 -2363303.2534686625 -1519919.5692217778 0 0 0 0 41091814.083473206 -38858300.34879303 0 -38858300.34879303 -45578052.101455688 0 0 0 0 -15252830.126037598 -18749318.203933716 0 -18749318.203933716 -8985137.5156326294 0 0 0 0 27732257.908294678 20476595.360809326 0 20476595.360809326 -36077975.919557571 0 0 0 0 5269852.3613054827 335012.58576013334 0 335012.58576013334 -4368188.7042410672 0 0 0 0 -4864031.6323928833 -24986241.102795601 0 -24986241.102795601 -12124202.687225342 0 0 0 0 -5226201.7350463867 -19108306.738769531 0 -19108306.738769531 -10028289.540458679 0 0 0 0 -5249515.7144470215 -21269071.994567871 0 -21269071.994567871 -17090113.85194397 0 0 0 0 11819808.30255127 -12141034.728118896 0 -12141034.728118896 -33562617.751678467 0 0 0 0 -10402844.852050781 -22707926.705093384 0 -22707926.705093384 -6254794.8178863525 0 0 0 0 -2721373.985568136 -9586032.6434149668 0 -9586032.6434149668 -4835409.2641122155 0 0 0 0 -3379871.5481798714 -11510288.169380683 0 -11510288.169380683 -12593187.80100812 0 0 0 0 35269513.360296249 -8404714.763282299 0 -8404714.763282299 -11083994.545898438 0 0 0 0 -41115562.449523926 -8007695.7098388672 0 -8007695.7098388672 104041963.29159546 0 0 0 0 -2362878.6834336147 -5410128.1620505527 0 -5410128.1620505527 -3237443.7218714952 0 0 0 0 3947104.5213541985 -4783674.160797596 0 -4783674.160797596 -1018118.7590332031 0 0 0 0 2256638.5511584617 -8760103.1682768483 0 -8760103.1682768483 -8299362.1646140069 0 0 0 0 -8462654.0943978764 -6824550.3524109796 0 -6824550.3524109796 -7237289.8558391035 0 0 0 0 5097573.1626839861 -13253275.14509549 0 -13253275.14509549 -12806065.608267264 0 0 0 0 13099714.695861816 -32068653.508209229 0 -32068653.508209229 72916315.632720947 0 0 0 0 7263170.5560302734 -29244586.554420471 0 -29244586.554420471 -21294221.376434326 0 0 0 0 -7200221.6588897705 -64021510.868469238 0 -64021510.868469238 -25010260.880737305 0 0 0 0 -1630092.3345317263 -2212619.555394616 0 -2212619.555394616 225199.66556076705 0 0 0 0 -184324959.80679321 63583234.326812744 0 63583234.326812744 223295370.86706543 0 0 0 0 209743396.77290344 -331317149.37139893 0 -331317149.37139893 -296906921.61230469 0 0 0 0 14538343.218505859 -5618436.3517150879 0 -5618436.3517150879 47683260.26763916 0 0 0 0 32622708.309997559 -9429337.178527832 0 -9429337.178527832 -5640726.0361328125 0 0 0 0 22736487.707000732 -45695402.314743042 0 -45695402.314743042 2317693.9035186768 0 0 0 0 -10359618.000911698 -15515137.433303231 0 -15515137.433303231 -11410762.019328132 0 0 0 0 3668627.2898784876 -44645019.333077908 0 -44645019.333077908 15553337.776550293 0 0 0 0 4116426.4732055664 -27958717.121429443 0 -27958717.121429443 1997414.3662440777 0 0 0 0 -13255796.591552734 -21775272.660949707 0 -21775272.660949707 -15054664.488235474 0 0 0 0 4675042.5072021484 -18195713.154083252 0 -18195713.154083252 -20501282.522064209 0 0 0 0 -15611833.588699341 -32826106.757003784 0 -32826106.757003784 -6692796.6717224121 0 0 0 0 3785368.6275234222 -17138951.275288582 0 -17138951.275288582 -39381820.274719238 0 0 0 0 -69532417.725944519 -69051134.94272995 0 -69051134.94272995 -33047041.973068237 0 0 0 0 -30756376.635536194 -23431985.494674683 0 -23431985.494674683 -5490447.820930481 0 0 0 0 -20532352.956817627 -41454814.506492615 0 -41454814.506492615 -6227626.700309515 0 0 0 0 -2226116.5369110107 -14193317.428878784 0 -14193317.428878784 -17376004.147689819 0 0 0 0 -73325623.610122681 -16487666.470565796 0 -16487666.470565796 22654663.484848022 0 0 0 0 -54745463.832138062 -42937938.140045166 0 -42937938.140045166 -36177146.881500244 0 0 0 0 -244142.97088199109 9033.3802296891809 0 9033.3802296891809 164158.53067341447 0 0 0 0 45277505.552070618 27425090.846912384 0 27425090.846912384 15427219.80291748 0 0 0 0 27484906.565292358 44711043.81036377 0 44711043.81036377 39895773.829898834 0 0 0 0 -37422520.921798706 15571850.01109314 0 15571850.01109314 30841227.310668945 0 0 0 0 -11723484.675308228 -5929267.3012237549 0 -5929267.3012237549 -41971008.312942505 0 0 0 0 1374490.3926086426 15100099.461395264 0 15100099.461395264 -18466630.787628174 0 0 0 0 -47908035.573532104 1831444.9858551025 0 1831444.9858551025 -2898742.3764038086 0 0 0 0 -8436459.8707370944 -3963945.0038440526 0 -3963945.0038440526 11971037.030026287 0 0 0 0 -50370410.942550659 -5495391.924987793 0 -5495391.924987793 5049916.2969055176 0 0 0 0 -144930283.14872742 -123766426.30862427 0 -123766426.30862427 14293650.595108032 0 0 0 0 -8239072.2293357626 -4366075.7035834119 0 -4366075.7035834119 10012160.958416998 0 0 0 0 -48112151.761604309 -51821126.357330322 0 -51821126.357330322 31514795.762775004 0 0 0 0 -48354836.331172943 -59441436.7137146 0 -59441436.7137146 -45525536.796447754 0 0 0 0 -227634.84408392012 19917.916415371001 0 19917.916415371001 716638.11128307506 0 0 0 0 -140609886.92595291 -136093115.6463089 0 -136093115.6463089 -141191004.26690674 0 0 0 0 -181090421.21923828 -110919709.83060455 0 -110919709.83060455 -118856229.60865021 0 0 0 0 -155607569.59527588 -8713353.1615982056 0 -8713353.1615982056 9594674.2800292969 0 0 0 0 -111357593.01838684 -1949129.2069091797 0 -1949129.2069091797 -57841184.887405396 0 0 0 0 35643991.886024475 14419601.688762188 0 14419601.688762188 -86504251.865951538 0 0 0 0 -9460553.7045881748 -8803358.8182787448 0 -8803358.8182787448 -7393695.1688869745 0 0 0 0 -42002812.852058411 31778938.037788391 0 31778938.037788391 72756164.10546875 0 0 0 0 -49455337.108261108 -56915555.872665405 0 -56915555.872665405 -44395245.516616821 0 0 0 0 -9614537.7739729658 -8254212.9948009625 0 -8254212.9948009625 3131290.8069108464 0 0 0 0 -35342153.717651367 -16261844.884384155 0 -16261844.884384155 -27441563.052352905 0 0 0 0 -2804139.4661717191 -2500875.1256283596 0 -2500875.1256283596 -1946396.8124680519 0 0 0 0 20939109.73600769 63031169.219612122 0 63031169.219612122 65998542.018554688 0 0 0 0 -418538.86214676499 18095.45659083128 0 18095.45659083128 260413.23824971169 0 0 0 0 12190849.228725433 52177964.676652908 0 52177964.676652908 71497425.307113647 0 0 0 0 -279374071.13017273 -80319604.291069031 0 -80319604.291069031 47576299.115463257 0 0 0 0 -304332033.96035767 -59096527.145095825 0 -59096527.145095825 43104136.129425049 0 0 0 0 45827434.117492676 10231044.696029663 0 10231044.696029663 -76181593.185302734 0 0 0 0 -254589874.89125061 -71889530.404571533 0 -71889530.404571533 -1244468.3045120239 0 0 0 0 -238955785.22423935 -56686869.974475861 0 -56686869.974475861 -246859572.70425415 0 0 0 0 -574551.21155974269 47639.019464835525 0 47639.019464835525 344214.96009539068 0 0 0 0 -3899341.0157470703 88364728.337310791 0 88364728.337310791 29480951.820709229 0 0 0 0 -16666913.616386414 -31949923.434170723 0 -31949923.434170723 86322094.107849121 0 0 0 0 -18155604.399093628 19508141.719345093 0 19508141.719345093 18936209.881530762 0 0 0 0 10271297.583465576 -14330046.800880432 0 -14330046.800880432 41481747.287506104 0 0 0 0 252347.33869946003 -371544.26474479586 0 -371544.26474479586 34828.984345495701 0 0 0 0 -465566513.56230164 -116716938.92945862 0 -116716938.92945862 -295157402.41290283 0 0 0 0 -280725984.29983521 -300357995.1980896 0 -300357995.1980896 -678601923.67541504 0 0 0 0 -1331915672.8340454 -544725571.51946259 0 -544725571.51946259 -268351695.81462097 0 0 0 0 -2983204599.6357422 -893428954.9376297 0 -893428954.9376297 585065598.29301453 0 0 0 0 -1759019685.6161575 -2248587404.0742722 0 -2248587404.0742722 -1346698912.6064148 0 0 0 0 -549496835.86429596 -276496149.23204803 0 -276496149.23204803 -354932758.56040955 0 0 0 0 -24633950.895370483 -27275948.78036499 0 -27275948.78036499 270485715.0776329 0 0 0 0 -298877817.53567505 -193055181.06399918 0 -193055181.06399918 213893616.71762085 0 0 0 0 -409047252.82710266 -462061418.89785767 0 -462061418.89785767 -170151454.47982788 0 0 0 0 -131450329.12294006 -141816627.51576233 0 -141816627.51576233 -455274449.19239807 0 0 0 0 299677.91548843682 -1434671.5095658898 0 -1434671.5095658898 594903.11777437478 0 0 0 0 21744562.284347534 11670838.372802734 0 11670838.372802734 14363037.942491531 0 0 0 0 614640702.28543091 -308435374.23106384 0 -308435374.23106384 -487189666.5819397 0 0 0 0 -130742236.78690338 -125422363.75728559 0 -125422363.75728559 -86287140.529510498 0 0 0 0 -387592729.953125 409460157.15032959 0 409460157.15032959 104054099.1980896 0 0 0 0 -16213064.294830322 2580538.1015777588 0 2580538.1015777588 26003946.211236 0 0 0 0 -2120106.5442720726 -3229155.5829999149 0 -3229155.5829999149 2460233.1245692074 0 0 0 0 -10681081.262298584 -6796860.159576416 0 -6796860.159576416 13313556.841674805 0 0 0 0 -38487448.944519043 -9248513.6186828613 0 -9248513.6186828613 25290250.635894775 0 0 0 0 -36629244.570030212 -20242222.712848663 0 -20242222.712848663 10678133.96963501 0 0 0 0 -7716413.3207244873 25478625.225646973 0 25478625.225646973 38424079.390650749 0 0 0 0 -39196425.279216766 -11872355.582962036 0 -11872355.582962036 22308486.97454834 0 0 0 0 -132431402.98724365 -235234569.03059387 0 -235234569.03059387 -241929993.33679199 0 0 0 0 -91397043.50390625 -68364243.08770752 0 -68364243.08770752 -70525258.265549242 0 0 0 0 -304862132.3956604 -235529168.2487793 0 -235529168.2487793 -70319192.155456543 0 0 0 0 -512429197.63334656 28160964.199676514 0 28160964.199676514 113096584.56768799 0 0 0 0 9243454.00390625 -25736079.337036133 0 -25736079.337036133 -60038131.984680176 0 0 0 0 -105430030.26752472 -39784381.105827332 0 -39784381.105827332 50727654.353271484 0 0 0 0 -52309943.219055176 -84211172.726104736 0 -84211172.726104736 83632333.447784424 0 0 0 0 -87472459.304794312 -86062697.188110352 0 -86062697.188110352 -43903590.36895752 0 0 0 0 -112990700.64901733 -89646999.409347534 0 -89646999.409347534 -493693.12841796875 0 0 0 0 -121090954.05130005 -67151620.129821777 0 -67151620.129821777 -26288648.575317383 0 0 0 0 -1519879.5153045543 -1082625.4000798166 0 -1082625.4000798166 811956.47700771689 0 0 0 0 223228717.98314667 -132926347.04444885 0 -132926347.04444885 36932020.75302124 0 0 0 0 177367591.38357544 247369851.33024597 0 247369851.33024597 -104305853.20973206 0 0 0 0 15041964.082885742 -364268700.86647034 0 -364268700.86647034 -95056063.617379665 0 0 0 0 38580355.915359497 -77303633.822067261 0 -77303633.822067261 -11736037.981567383 0 0 0 0 -27890488.258148193 -16248573.391288757 0 -16248573.391288757 8014520.5617980957 0 0 0 0 -4994347.0863759033 -4056392.3679600582 0 -4056392.3679600582 2323325.9150985777 0 0 0 0 -24026271.135250092 -17879141.879997253 0 -17879141.879997253 2540690.0506896973 0 0 0 0 -4034686.7506460622 -3952543.0712909475 0 -3952543.0712909475 2192861.6250384897 0 0 0 0 13491256.672409058 27823869.008773804 0 27823869.008773804 25014559.523925781 0 0 0 0 -64061949.984048843 -27138202.129608631 0 -27138202.129608631 23125493.740600586 0 0 0 0 -92007346.61505127 -17960099.954788208 0 -17960099.954788208 29413096.366851807 0 0 0 0 -62508580.374420166 26397705.390090942 0 26397705.390090942 98191323.986726761 0 0 0 0 -52500257.895950317 316208.36665344238 0 316208.36665344238 33365586.282928467 0 0 0 0 -13790706.504025295 -1339424.5833235383 0 -1339424.5833235383 6900343.322507605 0 0 0 0 -40703765.800842285 -4676552.9077911377 0 -4676552.9077911377 13119808.046279907 0 0 0 0 -27002315.679672241 -7290888.7409896851 0 -7290888.7409896851 12806932.202789307 0 0 0 0 -62056206.706886292 4409659.6831665039 0 4409659.6831665039 60399200.75718689 0 0 0 0 -26520812.835990906 -96080859.574874878 0 -96080859.574874878 -11673429.82598877 0 0 0 0 -3665664509.9111786 -3507690384.5574951 0 -3507690384.5574951 -2192209947.4263778 0 0 0 0 -5119962.6108473167 1096670.1395204291 0 1096670.1395204291 -1094391.8128609434 0 0 0 0 -4393838404.1077175 -2095934896.335268 0 -2095934896.335268 -888789261.39682007 0 0 0 0 -2651747604.7381592 -1413091225.205101 0 -1413091225.205101 -1108777574.3149261 0 0 0 0 -101168046.03710938 175061979.45384216 0 175061979.45384216 57438011.006500244 0 0 0 0 30867169.522201538 5376500.6057739258 0 5376500.6057739258 -44198912.480560303 0 0 0 0 -311607159.25959778 103413771.07009888 0 103413771.07009888 65751730.668640137 0 0 0 0 -431044.97944945097 -1293598.2737245411 0 -1293598.2737245411 -39262.071631506085 0 0 0 0 -271225664.3848877 -106503663.71131897 0 -106503663.71131897 -71341766.830749512 0 0 0 0 -10443394.162223816 -14734669.417778015 0 -14734669.417778015 -7159836.0105895996 0 0 0 0 -10454836.135253906 -15288090.51890564 0 -15288090.51890564 -12856336.049545288 0 0 0 0 -1328817.8899536133 -22531492.57542038 0 -22531492.57542038 -9529044.2683105469 0 0 0 0 -7548408.2516326904 -13765405.655433655 0 -13765405.655433655 -16760820.201644897 0 0 0 0 6882025.9267730713 -20386482.985366821 0 -20386482.985366821 -11573872.516479492 0 0 0 0 -1249159.6691131592 -17051219.332733154 0 -17051219.332733154 -13314813.503372192 0 0 0 0 3344173.9456481934 -23042505.158554077 0 -23042505.158554077 -10526671.205535889 0 0 0 0 10035226.255355835 -24086214.662078857 0 -24086214.662078857 -10400356.339515686 0 0 0 0 2129060.3647918701 -17489385.785675049 0 -17489385.785675049 -8599986.1562957764 0 0 0 0 -3570421.9085003734 -10154385.521927543 0 -10154385.521927543 -3239272.1127172858 0 0 0 0 9800256.3561401367 -19611858.421066284 0 -19611858.421066284 -14825808.805969238 0 0 0 0 -2999728.4671794325 -2504464.14200598 0 -2504464.14200598 1544825.4711231887 0 0 0 0 4009928.9995155334 -20894010.436000824 0 -20894010.436000824 -5272832.0182800293 0 0 0 0 -11707730.072911642 -18640809.586786706 0 -18640809.586786706 -9591748.0302558392 0 0 0 0 10534945.277626038 -29160946.289560318 0 -29160946.289560318 -5873588.188293457 0 0 0 0 -1331770.9991760254 -6437489.7622756958 0 -6437489.7622756958 629310.29867553711 0 0 0 0 -9390729.7889000699 -6928730.187405102 0 -6928730.187405102 10527520.16431497 0 0 0 0 634000.283203125 -5692727.0794067383 0 -5692727.0794067383 5738050.2139015198 0 0 0 0 -154361.00485229492 -2678412.4312133789 0 -2678412.4312133789 8010127.3877258301 0 0 0 0 -3046885.716796875 -9621593.6751098633 0 -9621593.6751098633 5119594.173614502 0 0 0 0 -10878729.088859558 -6668061.7291946411 0 -6668061.7291946411 15553919.114135742 0 0 0 0 -6677696.6558761597 -4628994.9097595215 0 -4628994.9097595215 1138352.4873962402 0 0 0 0 -57918595.330322266 -66649961.856201172 0 -66649961.856201172 -169966399.09829712 0 0 0 0 -57918595.330200195 -66649961.855834961 0 -66649961.855834961 -169966399.09825897 0 0 0 0 -57918595.33013916 -66649961.855957031 0 -66649961.855957031 -169966399.09799194 0 0 0 0 -2724661.7610352188 -4862268.5417722166 0 -4862268.5417722166 3317025.5265917927 0 0 0 0 -59648717.935699463 -56234545.312927246 0 -56234545.312927246 -35985501.112808228 0 0 0 0 -1246342.2318274379 -7164886.2850949988 0 -7164886.2850949988 -66440.904039338231 0 0 0 0 -103733330.79376221 -68817221.221405029 0 -68817221.221405029 -20711733.541908264 0 0 0 0 -61820651.328369141 -44507611.525131226 0 -44507611.525131226 -89422172.217773438 0 0 0 0 -103010547.08617401 -104964652.49132538 0 -104964652.49132538 -101494673.1418457 0 0 0 0 -63291904.976177216 -32440889.767324448 0 -32440889.767324448 1700914.8190917969 0 0 0 0 -68658343.400421143 -39212488.181503296 0 -39212488.181503296 9724523.3962249756 0 0 0 0 -81738651.233459473 -61863626.348693848 0 -61863626.348693848 -22891628.382320404 0 0 0 0 -45114558.91708374 -24033875.841373444 0 -24033875.841373444 -679881.72486877441 0 0 0 0 -37033194.652206421 -15324632.796539307 0 -15324632.796539307 7358464.8196754456 0 0 0 0 -39630037.337051392 -31125443.514762878 0 -31125443.514762878 -15814936.954303741 0 0 0 0 -14899985.180488586 -28485837.478683472 0 -28485837.478683472 -3912035.4345703125 0 0 0 0 -1548538.9783715904 -12139417.742953189 0 -12139417.742953189 -4296222.4967596233 0 0 0 0 -42564330.956020355 -40531551.482933044 0 -40531551.482933044 -11607791.363510132 0 0 0 0 -48227564.492553711 -54706742.771751404 0 -54706742.771751404 -35859270.634738922 0 0 0 0 -13608658.818267822 -12740098.462646484 0 -12740098.462646484 -9891625.2205200195 0 0 0 0 -18526838.094207764 -17456994.51260376 0 -17456994.51260376 -4541338.5712432861 0 0 0 0 -10750683.027938843 -23187277.990753174 0 -23187277.990753174 -914008.75344848633 0 0 0 0 -6888229.7530326843 -17138871.943531036 0 -17138871.943531036 -8673352.7949523926 0 0 0 0 -11346549.070091248 -12233906.619392395 0 -12233906.619392395 -9607036.7295722961 0 0 0 0 -11359022.07938385 -11884305.216201782 0 -11884305.216201782 -9791352.0090179443 0 0 0 0 -11335075.701873779 -12340255.362449646 0 -12340255.362449646 -11635433.381057739 0 0 0 0 28818424.379432678 -15551331.574546814 0 -15551331.574546814 -23492470.043312073 0 0 0 0 -12909097.540405191 -4568650.7104471326 0 -4568650.7104471326 79095.373944818974 0 0 0 0 -25828286.405306339 -13423319.848134995 0 -13423319.848134995 10628911.880096436 0 0 0 0 -11971110.997085571 -12829034.037986755 0 -12829034.037986755 -7411049.130065918 0 0 0 0 -6369314.0208120346 -32992155.865102768 0 -32992155.865102768 -5310037.7156982422 0 0 0 0 -9068890.3253247105 -12236086.27936969 0 -12236086.27936969 -8417152.3484607115 0 0 0 0 -37738453.900665283 -26162764.644432068 0 -26162764.644432068 -6057405.7712860107 0 0 0 0 -6245752.0304607786 -12181983.026368581 0 -12181983.026368581 -5894465.9008485824 0 0 0 0 -20381870.460533474 -17162059.497131556 0 -17162059.497131556 -4502595.9376916587 0 0 0 0 -26679277.165481567 -21056197.535316467 0 -21056197.535316467 -2785601.4938812256 0 0 0 0 -36329303.118041992 -24051404.734207153 0 -24051404.734207153 -7622728.6569824219 0 0 0 0 -33570197.770414352 -14154722.633741379 0 -14154722.633741379 2003463.7096252441 0 0 0 0 -18173675.976685233 -3130751.5635531843 0 -3130751.5635531843 4770567.7290456146 0 0 0 0 -34007398.255271912 -1969959.3821029663 0 -1969959.3821029663 10768980.810775757 0 0 0 0 -15036140.590431213 -3978984.6303329468 0 -3978984.6303329468 1858211.3896789551 0 0 0 0 -13453059.571136475 -6281778.8657989502 0 -6281778.8657989502 1088116.9716186523 0 0 0 0 -14944025.278349038 -2580639.8016819954 0 -2580639.8016819954 3069538.6440455914 0 0 0 0 -1238590.0618352368 1077943.2539003864 0 1077943.2539003864 1325078.2646864876 0 0 0 0 31961224.105602264 -86396705.522937775 0 -86396705.522937775 -314315081.81515503 0 0 0 0 -142568610.25984192 -90319240.824050903 0 -90319240.824050903 422272339.38298035 0 0 0 0 -499720851.8598938 -97540395.193496704 0 -97540395.193496704 -192848475.27340698 0 0 0 0 -1002053878.0946655 -414771634.45619202 0 -414771634.45619202 -723123.93974304199 0 0 0 0 -130810474.1193161 -200588890.91165924 0 -200588890.91165924 -592882285.15594482 0 0 0 0 -135755023.20794678 -722371562.35093307 0 -722371562.35093307 -1222553258.7979431 0 0 0 0 -179964210.94858932 -293636376.53886414 0 -293636376.53886414 -100550372.35256958 0 0 0 0 -116515213.99932098 198778883.04023361 0 198778883.04023361 -69955201.585266113 0 0 0 0 -32442289.533840179 -26840636.036872864 0 -26840636.036872864 -7882745.3204345703 0 0 0 0 -62091651.66456604 -10940904.732254028 0 -10940904.732254028 53748448.331420898 0 0 0 0 -10266001.611043908 -4984278.7606983855 0 -4984278.7606983855 3037958.6692398563 0 0 0 0 -5714321.3430748358 -1984157.0665314794 0 -1984157.0665314794 1732389.1485911608 0 0 0 0 -8984963.8212585449 -30879051.822982788 0 -30879051.822982788 1734815.4504547119 0 0 0 0 15078511.788314819 6053567.8717193604 0 6053567.8717193604 -56205164.539367676 0 0 0 0 -54391276.602981567 -37065367.223876953 0 -37065367.223876953 11000631.872833252 0 0 0 0 -60351921.79914856 -71501622.861221313 0 -71501622.861221313 -45711640.483398438 0 0 0 0 13793679.456209183 -46929545.463886261 0 -46929545.463886261 -285110.23205566406 0 0 0 0 -7236674.0142528117 -3242690.2369221896 0 -3242690.2369221896 2598810.1810549945 0 0 0 0 -81872122.749099731 3440120.9623718262 0 3440120.9623718262 -102214.71006956343 0 0 0 0 -27748301.258621216 -4412937.2189178467 0 -4412937.2189178467 -10576125.862838745 0 0 0 0 -65448638.034140587 -7404484.1099376678 0 -7404484.1099376678 10436830.437744141 0 0 0 0 -2684348217.2667036 -1637897541.9889979 0 -1637897541.9889979 -463529739.97824097 0 0 0 0 -2697680715.2852936 -1504779345.4579926 0 -1504779345.4579926 -396371547.33621216 0 0 0 0 -2672923388.4351597 -1746781825.0585785 0 -1746781825.0585785 -715491850.86418152 0 0 0 0 -3536107148.4635391 -1795856553.7587967 0 -1795856553.7587967 -598145577.15626526 0 0 0 0 -2835605280.2640381 -1268727663.0236149 0 -1268727663.0236149 -256204763.44830322 0 0 0 0 -2401971699.945549 -2142580432.0817566 0 -2142580432.0817566 -2252729662.9832115 0 0 0 0 -2084270739.3798618 -1442608368.8900528 0 -1442608368.8900528 -886750929.43984985 0 0 0 0 -16928215.585518427 3563524.3200088441 0 3563524.3200088441 -555632.72853722423 0 0 0 0 -14424984.183273315 -9013086.9441375732 0 -9013086.9441375732 -2610524.8059844971 0 0 0 0 -8131913.4014958274 -9898957.1531812064 0 -9898957.1531812064 1662940.8840199858 0 0 0 0 -16983004.015454732 -5151804.5351007059 0 -5151804.5351007059 5026565.5538671091 0 0 0 0 -6408599.6047649495 -662230.85120677203 0 -662230.85120677203 -5141733.4544377029 0 0 0 0 -25783806.239624023 -27299436.593597412 0 -27299436.593597412 68670393.303588867 0 0 0 0 -1775965279.0584908 -976805109.67481232 0 -976805109.67481232 -509472043.24224854 0 0 0 0 -2412601944.7811737 -1550855713.8275909 0 -1550855713.8275909 -885131548.13273716 0 0 0 0 -2708031742.6313324 -1504469263.3309631 0 -1504469263.3309631 -434146446.23849487 0 0 0 0 -2715253381.3475494 -1569134315.0379562 0 -1569134315.0379562 -709361145.00671387 0 0 0 0 -2813930998.2321014 -1192788143.0609131 0 -1192788143.0609131 -565286111.98606873 0 0 0 0 -3944926314.6520233 -1782828995.1928024 0 -1782828995.1928024 -534214123.48077393 0 0 0 0 252023082.20751953 -77416734.003936768 0 -77416734.003936768 -457278073.16357422 0 0 0 0 -2377663.0956020411 381194.04104672372 0 381194.04104672372 -1559115.1953071058 0 0 0 0 -117549925.28935814 -181539868.12798882 0 -181539868.12798882 146459686.13723755 0 0 0 0 -3130751437.047821 -1213794379.649765 0 -1213794379.649765 -388412832.74848938 0 0 0 0 -2905025129.8894348 -1640248661.079361 0 -1640248661.079361 -1179213488.8000031 0 0 0 0 -2474995586.1249466 -1296603646.2428436 0 -1296603646.2428436 -363803431.00559998 0 0 0 0 -2462724261.6182499 -840723671.16436505 0 -840723671.16436505 -794381886.43228149 0 0 0 0 -2966914077.95298 -1046387818.6175308 0 -1046387818.6175308 -398431.81321716309 0 0 0 0 -2722650341.8750153 -1279428071.3744888 0 -1279428071.3744888 -486002846.21095276 0 0 0 0 -2543081066.253437 -1486356586.6517487 0 -1486356586.6517487 470706.82450866699 0 0 0 0 -2715901816.2802525 -1246791348.6240864 0 -1246791348.6240864 -328224391.1802063 0 0 0 0 -2449547802.6391144 -1487694037.9295349 0 -1487694037.9295349 -435428366.52922058 0 0 0 0 -2657899453.2487869 -1576880105.2712173 0 -1576880105.2712173 -329566367.12519836 0 0 0 0 -2558814818.5223885 -1395029822.359066 0 -1395029822.359066 -194468424.23687744 0 0 0 0 -2154446098.3497581 -1240949842.879406 0 -1240949842.879406 -290220156.93647766 0 0 0 0 -1816368619.4015579 -1644495771.8969803 0 -1644495771.8969803 -2708846.6474995329 0 0 0 0 -1027437434.4715958 -1112345860.3499832 0 -1112345860.3499832 -620873523.32862854 0 0 0 0 -1365948426.5973663 -1014238602.9181061 0 -1014238602.9181061 -603680267.29818153 0 0 0 0 -2026284245.6275101 -1321822848.507782 0 -1321822848.507782 -419678261.08241272 0 0 0 0 -2050346395.7970428 -931093263.92389679 0 -931093263.92389679 -244890719.08914185 0 0 0 0 -1734288051.1422844 -1089499508.312439 0 -1089499508.312439 -451060679.4954834 0 0 0 0 -2465955804.5658264 -1657449948.7916565 0 -1657449948.7916565 -800180669.30715942 0 0 0 0 -2430158176.0537415 -1298556618.9820328 0 -1298556618.9820328 -26258973.547569275 0 0 0 0 -269318958.02268982 -1046749368.9451752 0 -1046749368.9451752 216806755.13063049 0 0 0 0 535413399.41321814 -293354847.83052498 0 -293354847.83052498 907767120.12585449 0 0 0 0 -1655403677.4877644 -725253082.16524887 0 -725253082.16524887 291008827.03726196 0 0 0 0 -1708287482.5183411 -1350697201.5561066 0 -1350697201.5561066 -18895419.97661972 0 0 0 0 -1275708529.5961399 -677426217.52897644 0 -677426217.52897644 -379606630.80328369 0 0 0 0 -952452871.35475922 -645245697.43531799 0 -645245697.43531799 -392480398.23258972 0 0 0 0 -952928620.44603729 -546704936.0501976 0 -546704936.0501976 375346586.52671814 0 0 0 0 -277491972.39260864 -177015438.45217896 0 -177015438.45217896 -539406212.31938171 0 0 0 0 -1973057.8240891397 -3489911.0363123789 0 -3489911.0363123789 3049073.7201620638 0 0 0 0 -494724669.25067139 -428480790.26207733 0 -428480790.26207733 -614087.96459960938 0 0 0 0 -623462226.01329756 -674573437.98809242 0 -674573437.98809242 -841943843.46810913 0 0 0 0 -625485532.9187088 -642787214.22608185 0 -642787214.22608185 -737985146.34136963 0 0 0 0 -1006465063.8898315 -1089413926.2349319 0 -1089413926.2349319 -1162920707.7568665 0 0 0 0 -3592406.0671613812 -2966489.125973843 0 -2966489.125973843 2566877.9983545244 0 0 0 0 -491940319.58864594 -744543569.23021317 0 -744543569.23021317 -740601307.75793457 0 0 0 0 311720053.62672424 -1078975541.3385353 0 -1078975541.3385353 -569144.46879577637 0 0 0 0 -804078358.25366211 -299684532.02552795 0 -299684532.02552795 -515365129.57556152 0 0 0 0 368627090.03738022 -886276170.93181992 0 -886276170.93181992 458801013.81142426 0 0 0 0 704346667.49139786 -1280344549.7574253 0 -1280344549.7574253 -219807939.47039795 0 0 0 0 403724247.64811707 -1306848607.9144096 0 -1306848607.9144096 513467678.52554321 0 0 0 0 1061731155.0708313 -644001829.81224823 0 -644001829.81224823 -3141763232.1507111 0 0 0 0 904549762.12802124 -2702722720.119812 0 -2702722720.119812 1941065039.3350372 0 0 0 0 467131.85483218729 -3847744.7201954722 0 -3847744.7201954722 -1440893.0269604549 0 0 0 0 106406573.97819519 -1455103937.7051086 0 -1455103937.7051086 220487883.19657135 0 0 0 0 761209830.91256714 -1444309681.9003906 0 -1444309681.9003906 -1230915809.6492004 0 0 0 0 699518910.59301758 -2351907426.0380249 0 -2351907426.0380249 -984058718.72125244 0 0 0 0 30295679.253555298 -793206535.65426636 0 -793206535.65426636 -13491351.563644409 0 0 0 0 39417069.007415771 -1209984611.5859222 0 -1209984611.5859222 926850754.8860321 0 0 0 0 -257802437.51625061 -194977308.49882507 0 -194977308.49882507 -400123806.8261261 0 0 0 0 -364740592.89461517 -1074282719.0909576 0 -1074282719.0909576 861079878.66964722 0 0 0 0 36968189.627929688 -1433449876.2897873 0 -1433449876.2897873 991761625.68560791 0 0 0 0 -791576.37336248159 -1912586.4099926949 0 -1912586.4099926949 1773257.3891111314 0 0 0 0 582922325.47010803 -1751812127.6538696 0 -1751812127.6538696 666188390.85401917 0 0 0 0 593205775.12736511 -1747260193.5730896 0 -1747260193.5730896 754946847.71508789 0 0 0 0 615029668.58709717 -1891110782.0612793 0 -1891110782.0612793 -991924867.8668251 0 0 0 0 212312270.49224854 -2142081429.3560181 0 -2142081429.3560181 280229105.70309448 0 0 0 0 1425534395.8964844 -1566649942.5139771 0 -1566649942.5139771 334257941.55151367 0 0 0 0 771289441.45159912 -2126758343.3479004 0 -2126758343.3479004 1011217977.3345795 0 0 0 0 937624422.07550049 -2034344866.3798828 0 -2034344866.3798828 417807540.28355026 0 0 0 0 1365396857.4724445 -2348415474.8562946 0 -2348415474.8562946 399517212.25274658 0 0 0 0 1040590263.5187759 -1753744701.3950615 0 -1753744701.3950615 230651541.60620117 0 0 0 0 1074363677.3529129 -1859261093.2868347 0 -1859261093.2868347 126255374.70837402 0 0 0 0 920152609.60308838 -2145303970.0527344 0 -2145303970.0527344 -138248612.09490967 0 0 0 0 949457212.99816895 -1715649979.6020508 0 -1715649979.6020508 -335580952.48390198 0 0 0 0 1009509700.320343 -1898301283.2633972 0 -1898301283.2633972 147384296.00616455 0 0 0 0 647728900.64318848 -1674979479.3055725 0 -1674979479.3055725 -20160175.682983398 0 0 0 0 910321769.92431641 -1619898534.1888428 0 -1619898534.1888428 -92870741.804336548 0 0 0 0 927237353.7963562 -1486741876.8238831 0 -1486741876.8238831 64274719.880878448 0 0 0 0 988785155.74252319 -1724265129.0786896 0 -1724265129.0786896 695607663.93200684 0 0 0 0 1211895871.9014282 -1642427958.8158112 0 -1642427958.8158112 228928640.03833008 0 0 0 0 817957924.38770294 -1181616581.9490776 0 -1181616581.9490776 1089202700.2844543 0 0 0 0 599923717.4431026 -1104564585.2430451 0 -1104564585.2430451 224180361.15390015 0 0 0 0 548820259.99952698 -1565805368.8901062 0 -1565805368.8901062 552354429.13964081 0 0 0 0 1046481214.2522202 -2333171397.3103104 0 -2333171397.3103104 3447289928.1365814 0 0 0 0 2146949811.7061615 -1861844833.4591827 0 -1861844833.4591827 864615248.59300995 0 0 0 0 803115281.48883057 -1311209463.0906219 0 -1311209463.0906219 771272790.08081055 0 0 0 0 607713866.34843063 -1709164253.1790657 0 -1709164253.1790657 1112874186.302124 0 0 0 0 142560062.18545532 33137775.035232544 0 33137775.035232544 -161137436.73905945 0 0 0 0 4414870.1674549878 -4813647.4255049229 0 -4813647.4255049229 -723192.50364861637 0 0 0 0 -124725582.24345398 -595287098.85012436 0 -595287098.85012436 5319533310.9844208 0 0 0 0 -36576690.526279449 -149965433.11123276 0 -149965433.11123276 1732583804.7026672 0 0 0 0 -51259577.979957104 -998200039.62259102 0 -998200039.62259102 967341485.91661072 0 0 0 0 693318562.64047241 -847274157.39068604 0 -847274157.39068604 690619013.37757874 0 0 0 0 -40569288.588088989 -861984308.03514099 0 -861984308.03514099 2174572893.6217804 0 0 0 0 79522907.673446655 -458934048.14138794 0 -458934048.14138794 1330224339.6932526 0 0 0 0 10804480.790958524 -18369448.498257205 0 -18369448.498257205 -2428412.0651183799 0 0 0 0 103986602.43975067 -5327009.7937774658 0 -5327009.7937774658 -7452610.3736572266 0 0 0 0 -4651250.0685437024 -15720250.10771212 0 -15720250.10771212 -10759055.177214131 0 0 0 0 215569993.12658691 -518869390.8539238 0 -518869390.8539238 1180851565.9100342 0 0 0 0 -20912583.09369278 -14918616.352748871 0 -14918616.352748871 35985744.202835083 0 0 0 0 -2579231.2712674439 -10128387.757068738 0 -10128387.757068738 -1279621.8898100331 0 0 0 0 -24725491.621944427 -33086721.822572708 0 -33086721.822572708 21833663.14994812 0 0 0 0 -37388017.340423584 -24989477.224639893 0 -24989477.224639893 58533138.652404785 0 0 0 0 -12330693.088317871 -28842952.056873322 0 -28842952.056873322 -1523027.9752044678 0 0 0 0 -19675638.927086972 -19988280.313032158 0 -19988280.313032158 -1703240.9524050802 0 0 0 0 20869006.845336914 -141763180.40925598 0 -141763180.40925598 -30728525.15801239 0 0 0 0 -3650073.97102575 -17941428.083652295 0 -17941428.083652295 -2103660.0730640851 0 0 0 0 -1153813365.1756439 -2094488521.2658768 0 -2094488521.2658768 -2841175032.8490143 0 0 0 0 -16427854.288269043 -47241016.739242554 0 -47241016.739242554 -15049711.886054993 0 0 0 0 -656295561.97485352 -1466975189.7578888 0 -1466975189.7578888 -2662665675.309433 0 0 0 0 -1344734.9976883084 -472650.45532403886 0 -472650.45532403886 1196594.8906592727 0 0 0 0 455637649.3848877 -1575109226.7460327 0 -1575109226.7460327 -5688951238.0570068 0 0 0 0 409110530.60859489 -185072243.03442574 0 -185072243.03442574 -11277833.359222412 0 0 0 0 -23707226.924926758 -50081913.269195557 0 -50081913.269195557 96573015.684844971 0 0 0 0 -21949614.633316658 -7535875.7781144679 0 -7535875.7781144679 4164689.5814533383 0 0 0 0 -1126938954.4479065 -1855527311.577446 0 -1855527311.577446 -4285365387.3833084 0 0 0 0 -939872760.51123047 -2288583010.3561401 0 -2288583010.3561401 -5597929280.2894592 0 0 0 0 -1065109671.1599121 -2893790150.9971619 0 -2893790150.9971619 -5086285697.0076599 0 0 0 0 -1766945543.6304398 -2404755512.1713219 0 -2404755512.1713219 -3948591323.74617 0 0 0 0 700023069.75845146 -1656000017.6857872 0 -1656000017.6857872 2473258707.9603271 0 0 0 0 -1246020080.3398743 -4110902387.3709602 0 -4110902387.3709602 -8481161643.6987381 0 0 0 0 -6160314.8080141693 -2521931.2893276364 0 -2521931.2893276364 450140.64735507965 0 0 0 0 -1995377143.6700516 -2380598248.9394493 0 -2380598248.9394493 -1795095255.7752228 0 0 0 0 -1218900265.7530823 -1380805699.1513367 0 -1380805699.1513367 -1663034359.9689636 0 0 0 0 -3086379843.8597717 -3724213829.5831375 0 -3724213829.5831375 -2794812651.6207581 0 0 0 0 -1075374226.0733795 -2455951293.907074 0 -2455951293.907074 -3848502349.9508209 0 0 0 0 -1256803669.6248627 -2286288343.4016571 0 -2286288343.4016571 -2397689914.7251968 0 0 0 0 -1035451002.1723328 -1513161656.8439407 0 -1513161656.8439407 -1022915112.6852722 0 0 0 0 -987925620.7882843 -1376497503.9961548 0 -1376497503.9961548 -1239366914.2093201 0 0 0 0 -1890262073.3347626 -2351874722.7292175 0 -2351874722.7292175 -1310883700.3799171 0 0 0 0 -1541212820.5218353 -2666323996.3517151 0 -2666323996.3517151 -1925335696.6168671 0 0 0 0 -1530716418.2275476 -2560902676.4241552 0 -2560902676.4241552 -1221720298.9274597 0 0 0 0 -2199547332.4479218 -1743007962.5234909 0 -1743007962.5234909 -1634985148.6610641 0 0 0 0 -2225797572.7393341 -2188444105.4711227 0 -2188444105.4711227 -915480867.47887421 0 0 0 0 -2243191997.098053 -2650577317.4040833 0 -2650577317.4040833 84843743.613296509 0 0 0 0 -1866997701.0667343 -1157889700.7122192 0 -1157889700.7122192 -227945180.26332092 0 0 0 0 -1546208305.5837631 -860797643.48472977 0 -860797643.48472977 1073760739.8281555 0 0 0 0 1511466153.8477192 212958394.76049614 0 212958394.76049614 2071654293.2532959 0 0 0 0 -543155255.68173218 -860785045.37672424 0 -860785045.37672424 590226560.50949097 0 0 0 0 -532559317.05935669 -1370993150.9299469 0 -1370993150.9299469 1049953808.4892941 0 0 0 0 -1958119966.6546478 -2004270381.7789917 0 -2004270381.7789917 3440568211.0901642 0 0 0 0 -1960909021.124115 -3164946340.865654 0 -3164946340.865654 -1206441584.505249 0 0 0 0 -2461776005.6654587 -3032738885.8140717 0 -3032738885.8140717 1939191881.3613586 0 0 0 0 -180903424.84339905 -2194500742.1012268 0 -2194500742.1012268 640124.32006835938 0 0 0 0 -220808.05326843262 -2555473649.9155827 0 -2555473649.9155827 -2225863304.8078461 0 0 0 0 -191951196.19244385 -1448738688.250906 0 -1448738688.250906 -1051684465.0002441 0 0 0 0 -380361975.97570324 -514585553.54416454 0 -514585553.54416454 2596294537.4066467 0 0 0 0 -1624916850.0707169 -5169643434.5559349 0 -5169643434.5559349 -2693078784.2113266 0 0 0 0 1035629227.1920166 -208566685.61679077 0 -208566685.61679077 -2536642090.9829102 0 0 0 0 -2483450.5565895736 -3440366.0094787627 0 -3440366.0094787627 -1906755.4752496332 0 0 0 0 1965017627.0706253 -1481234608.885479 0 -1481234608.885479 -459875544.60224915 0 0 0 0 -6633181.5111071914 -7817034.6871099845 0 -7817034.6871099845 -3842980.7482048273 0 0 0 0 965258210.06386566 -1979401901.3751411 0 -1979401901.3751411 1360736441.483963 0 0 0 0 -441538827.91343784 -2595131006.8697643 0 -2595131006.8697643 2097094636.8898468 0 0 0 0 1025784834.7002869 -818711461.38892365 0 -818711461.38892365 -870291087.61719513 0 0 0 0 1131733516.0030823 -2589819506.6734467 0 -2589819506.6734467 -3183443254.8103027 0 0 0 0 -3958655.2837297767 -4496640.9547095224 0 -4496640.9547095224 -2168719.2046387419 0 0 0 0 -126494555.87457275 -3769536886.0928192 0 -3769536886.0928192 -3855214150.6803131 0 0 0 0 -3253360891.2634735 -3439968536.6284561 0 -3439968536.6284561 3417737098.6896362 0 0 0 0 -3204466201.5689545 -3803315708.598526 0 -3803315708.598526 -233880954.07400513 0 0 0 0 -2917352772.6380615 -2947329678.1109467 0 -2947329678.1109467 -1523130216.9020538 0 0 0 0 -2218281615.3354187 -618721379.28846741 0 -618721379.28846741 -1265940940.5185528 0 0 0 0 -3306783945.8087769 -2719633317.1812439 0 -2719633317.1812439 1110965366.9524841 0 0 0 0 -3654592085.3660278 -2406481672.8800507 0 -2406481672.8800507 1008297331.6452637 0 0 0 0 -2914230767.8327332 -2816777309.726593 0 -2816777309.726593 -151403848.99346924 0 0 0 0 -1623223319.7834778 -990649536.49055481 0 -990649536.49055481 2401053304.0126915 0 0 0 0 -2490736681.5722752 -3108174594.5209532 0 -3108174594.5209532 -2031058887.3953705 0 0 0 0 -1276112738.6109619 -1593816663.8608475 0 -1593816663.8608475 -322456656.85773087 0 0 0 0 -2676861366.6844788 -248790373.73643494 0 -248790373.73643494 -709201473.22668457 0 0 0 0 -377386941.71621704 -950390016.65306091 0 -950390016.65306091 -1883156.5188653141 0 0 0 0 -1733668.6641900539 -3900484.9808722138 0 -3900484.9808722138 -1083170.3802883029 0 0 0 0 1192218826.3536987 -1363346760.0130157 0 -1363346760.0130157 374067252.82015991 0 0 0 0 1817302439.083786 -1102328790.4246521 0 -1102328790.4246521 84324174.402770996 0 0 0 0 -1380600.271535784 -7486131.0647412017 0 -7486131.0647412017 -2519213.0821919069 0 0 0 0 -6388295942.5190125 -2399780210.4987183 0 -2399780210.4987183 3777041982.0458832 0 0 0 0 1793750721.2232666 432594836.83850098 0 432594836.83850098 765277803.38412476 0 0 0 0 -1327954.9358272403 -3455435.8161743823 0 -3455435.8161743823 -3386166.689673841 0 0 0 0 -1633493900.8992157 -992474712.13743973 0 -992474712.13743973 126822677.10067749 0 0 0 0 -4278007165.7821808 -1449014275.8428421 0 -1449014275.8428421 168382987.77693176 0 0 0 0 974018556.48323059 -1354248236.293129 0 -1354248236.293129 301296529.22571027 0 0 0 0 1189477749.8874969 -890152657.19363403 0 -890152657.19363403 297574581.77342224 0 0 0 0 322131146.48413086 -187918857.37999725 0 -187918857.37999725 -47817284.322113037 0 0 0 0 -3215826.9174257368 -9760288.4125872515 0 -9760288.4125872515 -8673597.1371517926 0 0 0 0 137854011.84953308 194483049.29490662 0 194483049.29490662 -341351396.3981781 0 0 0 0 -252719428.73071289 30669216.985023499 0 30669216.985023499 -5624690.915145874 0 0 0 0 24055850.508010864 183285258.1601944 0 183285258.1601944 -106037278.74508667 0 0 0 0 42707942.803518295 -31352103.808324814 0 -31352103.808324814 -131771941.29855347 0 0 0 0 76796343.757049561 45357729.922103882 0 45357729.922103882 -53219412.523498535 0 0 0 0 57219661.652099609 40554128.03112793 0 40554128.03112793 -36107315.189502716 0 0 0 0 -147012850.2331543 -384890927.68896484 0 -384890927.68896484 -1041668184.8093262 0 0 0 0 -12032543.620666504 -81350140.312164307 0 -81350140.312164307 -54630251.928657532 0 0 0 0 -7890675.8739190996 -10378119.308295555 0 -10378119.308295555 -664254.46146716923 0 0 0 0 15819961.202026367 -20684880.107315063 0 -20684880.107315063 -17088901.691345215 0 0 0 0 -3290671.2971992493 -3985121.883163698 0 -3985121.883163698 -144938.69829256833 0 0 0 0 216364108.27545166 -216214286.63288879 0 -216214286.63288879 -134040325.5553894 0 0 0 0 -1360463.4131717682 -3869446.5235548019 0 -3869446.5235548019 39676.111343383789 0 0 0 0 44486742.412750244 74285300.306106567 0 74285300.306106567 -214377097.58151627 0 0 0 0 -74659433.355133057 -17688781.79977417 0 -17688781.79977417 185570924.90252686 0 0 0 0 -2384333.752746582 106887397.80873108 0 106887397.80873108 162850055.71878052 0 0 0 0 -153263.73987129331 -1902518.6115054712 0 -1902518.6115054712 -887858.31108263135 0 0 0 0 -3992673.826049529 -3269222.5789823383 0 -3269222.5789823383 2969222.2673657537 0 0 0 0 -144447086.6096344 -131788005.71300507 0 -131788005.71300507 419582377.53500366 0 0 0 0 122233815.08487701 -18281717.75195694 0 -18281717.75195694 -262496579.9362793 0 0 0 0 -4250797.6985906437 -5478071.8586706445 0 -5478071.8586706445 -1905380.0753921866 0 0 0 0 -28328587.085266113 -14100178.945724487 0 -14100178.945724487 25599775.182502747 0 0 0 0 438318866.28457642 -86915594.235870361 0 -86915594.235870361 6141385.0411224365 0 0 0 0 330305115.32189178 -374755279.50630951 0 -374755279.50630951 -369468049.53375244 0 0 0 0 -6656122.8790994287 -6887802.8809956536 0 -6887802.8809956536 -2166676.396085158 0 0 0 0 -189912450.35049438 -200792500.62863922 0 -200792500.62863922 148551771.54316711 0 0 0 0 -610657006.57452393 53833171.657302856 0 53833171.657302856 33415547.984329224 0 0 0 0 192026856.3866272 -371505344.75595093 0 -371505344.75595093 -1487033371.4570007 0 0 0 0 -756375649.31803513 -2009114124.1284328 0 -2009114124.1284328 -2482928988.6520691 0 0 0 0 -26320901.584716797 141233548.7790451 0 141233548.7790451 -433780505.05368042 0 0 0 0 -868768656.46920776 -701607575.30630493 0 -701607575.30630493 -60668109.756790161 0 0 0 0 -1017315952.3980141 -1009732903.6865978 0 -1009732903.6865978 -1445245108.2510376 0 0 0 0 -1206177.600564491 -943419.23319191486 0 -943419.23319191486 487629.83198013902 0 0 0 0 -2015963903.6354828 -1715029652.929245 0 -1715029652.929245 -752193733.51483154 0 0 0 0 -1454791994.8390808 -3344222798.4107895 0 -3344222798.4107895 -2732048961.1388092 0 0 0 0 -4311326207.1222382 -3160703128.2094269 0 -3160703128.2094269 -1674845334.8494568 0 0 0 0 -546838635.24478149 -2031661935.2169189 0 -2031661935.2169189 -1365195155.926384 0 0 0 0 44568122.746398926 -2451616448.8499451 0 -2451616448.8499451 -2241785975.253624 0 0 0 0 -782425726.90348816 -3228104114.5980682 0 -3228104114.5980682 -2978338791.8396301 0 0 0 0 -800721035.9105835 -2973866699.1567535 0 -2973866699.1567535 -2302682344.2163696 0 0 0 0 58850457.320556641 -2290205631.9671478 0 -2290205631.9671478 -2830892247.8452911 0 0 0 0 255618920.89605713 -1418646770.4172821 0 -1418646770.4172821 -5417396312.0569687 0 0 0 0 -265021155.09817505 -3095653491.2570801 0 -3095653491.2570801 -4436749219.1272888 0 0 0 0 3129788287.3180542 175758946.53591919 0 175758946.53591919 -4990476324.7726746 0 0 0 0 381646755.92207336 -2244338905.7040482 0 -2244338905.7040482 -3646512462.0759583 0 0 0 0 242655626.8311882 -1643940821.6625099 0 -1643940821.6625099 -3067398796.6526489 0 0 0 0 214773360.96972656 -771234429.98005676 0 -771234429.98005676 -3709590864.2557068 0 0 0 0 85613278.632537842 -458789846.92736816 0 -458789846.92736816 604830580.6825943 0 0 0 0 -709756886.75317383 -164068138.62858582 0 -164068138.62858582 509935507.03045654 0 0 0 0 -2405382.3601033539 -2713372.2171897031 0 -2713372.2171897031 -1420359.7352587283 0 0 0 0 -1041229687.0047607 -1528994694.1837769 0 -1528994694.1837769 -391377946.4682312 0 0 0 0 970092809.66104126 -884552156.16773987 0 -884552156.16773987 -858566533.4783783 0 0 0 0 925234396.19696045 -70433385.920928955 0 -70433385.920928955 -214049887.64569092 0 0 0 0 1762860813.3466949 -878357298.72863007 0 -878357298.72863007 -1680424691.3513794 0 0 0 0 -1505407811.9368973 -572226907.53920746 0 -572226907.53920746 1500965903.1319427 0 0 0 0 222945.11537735304 -7265834.3818761781 0 -7265834.3818761781 -8996980.9791182131 0 0 0 0 -273018475.83604431 562881401.13462448 0 562881401.13462448 1608904516.210968 0 0 0 0 142544.21766460035 -2904759.7844103724 0 -2904759.7844103724 -4923938.7580485344 0 0 0 0 -2545200260.1420732 -2548132387.4959726 0 -2548132387.4959726 -1360432415.0832214 0 0 0 0 -327657616.21803284 -1088958914.1137238 0 -1088958914.1137238 -912392960.60219574 0 0 0 0 23224870.746429443 -384034919.75214624 0 -384034919.75214624 -4213948874.0911713 0 0 0 0 -1505521.6613731384 -817154010.99014091 0 -817154010.99014091 161728585.62556458 0 0 0 0 416015247.52996826 -615010777.93541718 0 -615010777.93541718 -733886106.33075714 0 0 0 0 433758312.71460724 -1527271027.5577316 0 -1527271027.5577316 58584904.49382019 0 0 0 0 2106568943.7641296 -304483076.72399521 0 -304483076.72399521 -224019724.92767525 0 0 0 0 278433224.20524597 -538949126.92285728 0 -538949126.92285728 -414190844.37915039 0 0 0 0 326291864.37832642 -684199181.03469849 0 -684199181.03469849 -37777564.93470192 0 0 0 0 -1475407557.9005108 -799797366.22509623 0 -799797366.22509623 286860890.74688721 0 0 0 0 -613896886.90966797 460471413.86543274 0 460471413.86543274 -459935021.7361908 0 0 0 0 -2241234751.0372009 -1004857277.6176529 0 -1004857277.6176529 720682175.16910553 0 0 0 0 -70472.275736832642 -8039508.9147283733 0 -8039508.9147283733 -5449899.0859995931 0 0 0 0 1394094045.6130295 411157478.05156326 0 411157478.05156326 156537986.97567749 0 0 0 0 -447526.9265700765 -4455368.4021313787 0 -4455368.4021313787 -4792390.3960607797 0 0 0 0 1094711848.715271 -115593080.42306519 0 -115593080.42306519 -214429884.55172729 0 0 0 0 1977160046.7754822 -218507123.58808899 0 -218507123.58808899 -511720912.1002655 0 0 0 0 963404370.39547729 188275460.72451019 0 188275460.72451019 659151778.21890259 0 0 0 0 880834377.41723633 685440328.25491333 0 685440328.25491333 -124846009.13687515 0 0 0 0 1365051047.6572723 -1293329579.1898575 0 -1293329579.1898575 -1045343027.4531403 0 0 0 0 2444901325.3554382 -328814621.64807987 0 -328814621.64807987 -699770569.693573 0 0 0 0 -431093.84276595525 -8075885.6648500785 0 -8075885.6648500785 -11920877.023955405 0 0 0 0 -141050.1766105796 -3829812.3479589522 0 -3829812.3479589522 -1379053.3729173988 0 0 0 0 -3891386482.6748962 -758979814.61893082 0 -758979814.61893082 966532777.90333557 0 0 0 0 -1293493277.230484 -2280441770.2132378 0 -2280441770.2132378 537519658.36665344 0 0 0 0 -30252336.68182373 -690291878.62999535 0 -690291878.62999535 -1391012077.2592545 0 0 0 0 367830558.50616455 279541373.60464478 0 279541373.60464478 805200465.86140728 0 0 0 0 -1878633221.0947571 -2299060429.6715698 0 -2299060429.6715698 -398404762.65245056 0 0 0 0 -1608442517.3338623 -1262170317.6621094 0 -1262170317.6621094 693897416.54090881 0 0 0 0 -841878553.17602539 -2770678083.5389938 0 -2770678083.5389938 -2391736064.8592453 0 0 0 0 -531345299.98268127 -2124163152.8909721 0 -2124163152.8909721 -1382595476.2537231 0 0 0 0 -1543386547.0835266 -3696346507.8725739 0 -3696346507.8725739 -2966617993.7993317 0 0 0 0 -648068692.28240967 -2553507229.3430176 0 -2553507229.3430176 -3130500036.9101562 0 0 0 0 -680478321.31677246 -2754587743.3093414 0 -2754587743.3093414 -4186695111.5563431 0 0 0 0 -968219707.42896271 -3025609219.9527149 0 -3025609219.9527149 -3509333012.3957214 0 0 0 0 -2284860481.2540283 -1073913980.7863541 0 -1073913980.7863541 -3103715332.2675629 0 0 0 0 -557656114.8125 -929004528.31506348 0 -929004528.31506348 -1349617856.1513977 0 0 0 0 -781840752.90557861 -2221298621.5739441 0 -2221298621.5739441 -2372464224.4164581 0 0 0 0 -1880597620.7732849 -764096841.76074219 0 -764096841.76074219 -603016037.30781555 0 0 0 0 56709245.806869507 -1197450900.9209442 0 -1197450900.9209442 -1304088880.6208344 0 0 0 0 300002165.90460205 196220136.19142151 0 196220136.19142151 -473648795.48088074 0 0 0 0 819746954.45008087 -212647724.09508133 0 -212647724.09508133 -205322063.45077515 0 0 0 0 663579165.51593018 270693404.53136444 0 270693404.53136444 99040693.687393188 0 0 0 0 152754066.4066925 -179522256.33040619 0 -179522256.33040619 131162989.91743469 0 0 0 0 -565115.56713032722 -1827298.06576024 0 -1827298.06576024 -275942.98599690199 0 0 0 0 -112863032.13406372 15721595.076179504 0 15721595.076179504 59885040.948318481 0 0 0 0 -93625748.872909546 -453694435.92534256 0 -453694435.92534256 -1672389869.743988 0 0 0 0 -1740816.6309303846 -2267645.3026901707 0 -2267645.3026901707 668902.69981220365 0 0 0 0 -793949243.94630432 -1046452132.4159546 0 -1046452132.4159546 -790193783.03112793 0 0 0 0 -682287424.91046143 -654399106.89846802 0 -654399106.89846802 -2011960111.1739788 0 0 0 0 -1799578126.7648621 -2114782400.0596924 0 -2114782400.0596924 -2392998065.8288994 0 0 0 0 -918946790.51976013 -1563529679.162529 0 -1563529679.162529 -2555600377.7983398 0 0 0 0 -1125562859.5169678 -345107995.28025055 0 -345107995.28025055 360097692.29145813 0 0 0 0 -5866820.734852761 -5712634.033924602 0 -5712634.033924602 -464556.3672224842 0 0 0 0 -412212605.72662354 458234469.6987915 0 458234469.6987915 394840566.55257511 0 0 0 0 -62394282.225830078 -915678584.65215302 0 -915678584.65215302 -1677813313.876709 0 0 0 0 -909118078.88067627 -829525636.4716568 0 -829525636.4716568 -630442803.21205139 0 0 0 0 -320388823.24127197 -1389349389.834198 0 -1389349389.834198 -1215014974.2746582 0 0 0 0 558457718.25262451 -391031626.74359131 0 -391031626.74359131 -942445918.78933716 0 0 0 0 507945295.78826904 -989941236.22052002 0 -989941236.22052002 955037271.93310547 0 0 0 0 -314747.23677237332 337221.35379908234 0 337221.35379908234 613812.7969924584 0 0 0 0 -707509299.03869629 -1068177119.6407166 0 -1068177119.6407166 -1098468819.3501205 0 0 0 0 -451329155.44537354 -1524590307.5691376 0 -1524590307.5691376 -1686287329.8691406 0 0 0 0 -949319701.95092773 -1456864091.9697266 0 -1456864091.9697266 -1124093266.5688171 0 0 0 0 -1035821267.6585388 -1281259102.3566284 0 -1281259102.3566284 -1451487025.118103 0 0 0 0 -701627847.57226562 -1220869189.5342102 0 -1220869189.5342102 -1921419667.1059113 0 0 0 0 -924679288.12439346 -1961442146.1275997 0 -1961442146.1275997 -2421215568.8596802 0 0 0 0 -1154477717.6888428 -947558331.23960876 0 -947558331.23960876 -1562663160.6730728 0 0 0 0 -965282459.47357178 -1579133047.8040924 0 -1579133047.8040924 -2888579545.223465 0 0 0 0 -2191178352.8806458 -2144848439.3432083 0 -2144848439.3432083 -3065947240.0123596 0 0 0 0 -1089718658.5705109 -1647522141.4494781 0 -1647522141.4494781 -4404223147.5985565 0 0 0 0 -1870918390.3518982 -4010760245.8254929 0 -4010760245.8254929 -5349776052.4397469 0 0 0 0 -3507294163.2577209 -2761746630.6717911 0 -2761746630.6717911 -2051228129.5102997 0 0 0 0 -1365573437.1974869 -1646640937.8027229 0 -1646640937.8027229 -3147274763.3594666 0 0 0 0 -1772869459.7329102 -1255662418.619812 0 -1255662418.619812 -1913342580.0788078 0 0 0 0 -6115188964.7888184 -2700591557.6387787 0 -2700591557.6387787 -2620375742.1599121 0 0 0 0 -1035529461.1318054 -3411416992.9595947 0 -3411416992.9595947 -4889217530.6142273 0 0 0 0 -3418160.17023848 -2357443.9085036963 0 -2357443.9085036963 -613048.40541526675 0 0 0 0 -1264799114.2837524 283278737.40003204 0 283278737.40003204 3332099824.4162445 0 0 0 0 544040169.86764526 -3635109603.9609756 0 -3635109603.9609756 -10091771618.071701 0 0 0 0 -9051306.4772419035 -1797569.483104974 0 -1797569.483104974 -192966.70665698126 0 0 0 0 -11878227.345458984 -180563703.64280701 0 -180563703.64280701 -526634985.58702087 0 0 0 0 -3340069889.6199036 -2076898088.3601074 0 -2076898088.3601074 1433542367.8726578 0 0 0 0 -2987010717.0825195 -4273678048.1551361 0 -4273678048.1551361 -3123324374.5570831 0 0 0 0 -2087410056.4692383 -3098238982.9500275 0 -3098238982.9500275 -1593571222.3901672 0 0 0 0 4696890.5426206589 346315.85330504924 0 346315.85330504924 -2849800.7198650949 0 0 0 0 -878638265.02719116 -1453444315.0773087 0 -1453444315.0773087 -1682032494.2049866 0 0 0 0 -1575993442.5118866 -1182018890.6855316 0 -1182018890.6855316 -1066794596.5203018 0 0 0 0 -182157760.6235981 -437904449.39726543 0 -437904449.39726543 -536512897.06387329 0 0 0 0 -107388347.69852829 -14722978.076802731 0 -14722978.076802731 -600895315.26939392 0 0 0 0 271520400.03726196 38716404.348312378 0 38716404.348312378 -536430786.86452484 0 0 0 0 1221820176.5848694 -813417792.95245361 0 -813417792.95245361 -454905536.29190063 0 0 0 0 382072848.28289795 -700310873.64399719 0 -700310873.64399719 -1155895575.4637451 0 0 0 0 -223704116.46466064 -1021405072.6991043 0 -1021405072.6991043 762373547.76774979 0 0 0 0 -471748906.89842224 -839137695.68570328 0 -839137695.68570328 689387824.80496216 0 0 0 0 89417109.673980713 -1473677468.4124908 0 -1473677468.4124908 695795231.7503891 0 0 0 0 -90458818.605163574 -1767655030.1872406 0 -1767655030.1872406 -3034310376.1012878 0 0 0 0 2247626.0731882453 237400.68619353324 0 237400.68619353324 -1547160.8278339282 0 0 0 0 -545311357.50593567 -1015643927.9406624 0 -1015643927.9406624 1632153343.5773468 0 0 0 0 307823546.37393188 -2208764899.086647 0 -2208764899.086647 -2591463798.7478027 0 0 0 0 181313326.40933228 -1489938908.6201859 0 -1489938908.6201859 -3097382312.1629486 0 0 0 0 1357438447.2606506 -2558207675.3316956 0 -2558207675.3316956 -3937035556.9290218 0 0 0 0 92066371.105865479 -2311765364.724762 0 -2311765364.724762 -5385782296.6421509 0 0 0 0 -937376272.96435547 -2682392356.3600616 0 -2682392356.3600616 -3939170007.1669312 0 0 0 0 -208463871.33444214 -2212306314.6525726 0 -2212306314.6525726 -3640175854.2155685 0 0 0 0 -11120659.873657227 -1863531799.809845 0 -1863531799.809845 -3809057433.5792694 0 0 0 0 -471107565.52416992 -1703729101.4447021 0 -1703729101.4447021 -3002731690.1700172 0 0 0 0 -817459399.82603455 -1971926735.1969299 0 -1971926735.1969299 -3164938302.4854126 0 0 0 0 -544556162.87520981 -2439979558.6539392 0 -2439979558.6539392 -2691800112.7919922 0 0 0 0 -934255762.93630981 -3096411355.7155151 0 -3096411355.7155151 -3158950055.1716003 0 0 0 0 -1009305736.5740662 -3282145932.9983215 0 -3282145932.9983215 -3617113145.8926392 0 0 0 0 -632101940.72705078 -3206819115.4746246 0 -3206819115.4746246 -3251451407.2803497 0 0 0 0 -601787460.64674377 -3214216100.1553955 0 -3214216100.1553955 -3342208699.5496216 0 0 0 0 -606994119.99822998 -3165497537.0714951 0 -3165497537.0714951 -3737361449.2845001 0 0 0 0 -802366529.83045387 -3476153290.7220888 0 -3476153290.7220888 -4198882431.394165 0 0 0 0 -510412384.95083618 -2630026321.2189293 0 -2630026321.2189293 -4173548847.2928467 0 0 0 0 2911806214.8187256 -253023779.53628159 0 -253023779.53628159 -2768661843.7777252 0 0 0 0 -352432.14405946061 -4566044.8410870805 0 -4566044.8410870805 -6923994.0949103683 0 0 0 0 -2712623315.2005768 -3565958242.7756958 0 -3565958242.7756958 -2310296018.746521 0 0 0 0 853793861.58177185 -2104118283.8376923 0 -2104118283.8376923 -4432769189.9252625 0 0 0 0 -808826058.91643715 -3713274615.0362954 0 -3713274615.0362954 -6144506394.1959229 0 0 0 0 326033584.12701416 -373327423.54318619 0 -373327423.54318619 -1472236806.0263062 0 0 0 0 1546259118.7064209 -645885539.15863037 0 -645885539.15863037 -3792811264.9632874 0 0 0 0 -1647241623.4907417 -2409356010.6050119 0 -2409356010.6050119 -2907462774.2946014 0 0 0 0 591880708.790802 -1835082586.4112816 0 -1835082586.4112816 -3954094064.3282547 0 0 0 0 -6417643.3330688477 -1673656680.8774261 0 -1673656680.8774261 -3474109356.1612511 0 0 0 0 -1216761180.836792 -3703668668.2210999 0 -3703668668.2210999 -4407570083.8699017 0 0 0 0 -689385369.52690125 -3483130650.0555611 0 -3483130650.0555611 -4963466046.3609619 0 0 0 0 -3520934763.8885498 -2846273511.0644531 0 -2846273511.0644531 -4445321803.1012726 0 0 0 0 -2344169802.4915771 -1230920297.4209442 0 -1230920297.4209442 -5433035823.9341965 0 0 0 0 1198604.8788386472 -4259804.91277235 0 -4259804.91277235 -2674631.8959634081 0 0 0 0 452430700.12255478 -769927980.0953145 0 -769927980.0953145 798451077.85229492 0 0 0 0 -4273606534.3635254 -3597589261.9370308 0 -3597589261.9370308 -2164905395.5559692 0 0 0 0 2203207693.5786438 -1036361933.5003033 0 -1036361933.5003033 -2399402477.1985016 0 0 0 0 -117564212.79351807 -121661225.86093903 0 -121661225.86093903 282847104.28781128 0 0 0 0 144600765.29598999 -505998436.95652771 0 -505998436.95652771 -613093902.15931129 0 0 0 0 -2730030068.8856201 -1581861580.6977005 0 -1581861580.6977005 -847374438.4150219 0 0 0 0 -930422284.2616272 -2583523251.6833839 0 -2583523251.6833839 -3001407955.1148682 0 0 0 0 -195035812.15763092 -1858740286.9102321 0 -1858740286.9102321 -1995987801.4270248 0 0 0 0 -283197631.52349854 -1538726617.1825447 0 -1538726617.1825447 -1440009345.9664459 0 0 0 0 1684496.010507813 -1240704770.3430183 0 -1240704770.3430183 -1568152481.2410889 0 0 0 0 263124328.65348816 -1230413580.8220367 0 -1230413580.8220367 -2532089059.6899681 0 0 0 0 116536927.503685 -1461004293.2484646 0 -1461004293.2484646 -2677233291.3601074 0 0 0 0 211893219.89782715 -361799247.88349915 0 -361799247.88349915 602789817.77537537 0 0 0 0 -2722566.6412935704 -7040639.6283549294 0 -7040639.6283549294 564946.151775904 0 0 0 0 -64547455.364270739 -2940660.9001296535 0 -2940660.9001296535 8514419.0125874616 0 0 0 0 -1210954552.4186096 -773903318.8026123 0 -773903318.8026123 -781541760.90362549 0 0 0 0 -98626313.217468262 246318.56201171875 0 246318.56201171875 -6157668.3262023926 0 0 0 0 -136308652.0458374 17348762.20741272 0 17348762.20741272 19503931.802764893 0 0 0 0 -115892954.85421753 -15705766.08366394 0 -15705766.08366394 73016198.012176514 0 0 0 0 -106391108.0267334 -7132218.056552887 0 -7132218.056552887 4989822.344543457 0 0 0 0 -92083068.45173645 -6769379.3909950256 0 -6769379.3909950256 1037192.1468963623 0 0 0 0 -18884372.07541801 -36757041.939649142 0 -36757041.939649142 -15180799.489929959 0 0 0 0 164132643.67165375 -78262048.631248474 0 -78262048.631248474 -23393382.729736328 0 0 0 0 -99699632.383636475 15983456.709014893 0 15983456.709014893 24827882.55871582 0 0 0 0 -133704729.63128662 -195112744.14126587 0 -195112744.14126587 -96040958.168304443 0 0 0 0 -217109869.27064514 -179633493.11552429 0 -179633493.11552429 45887557.318847656 0 0 0 0 -42648363.645935059 -127091067.99307251 0 -127091067.99307251 53956122.428527832 0 0 0 0 -168839174.48582458 -189693625.56155396 0 -189693625.56155396 84571375.920410156 0 0 0 0 -16874533.248199463 -162572163.73440552 0 -162572163.73440552 35365632.834228516 0 0 0 0 132048902.36602783 -23422577.33644104 0 -23422577.33644104 -23273394.19430542 0 0 0 0 -150079079.03196716 -81942983.776145935 0 -81942983.776145935 23816377.784667969 0 0 0 0 -104294081.55102539 -136716341.47746277 0 -136716341.47746277 18067330.172874451 0 0 0 0 -193224498.35171509 -139642245.4135437 0 -139642245.4135437 24782766.903625488 0 0 0 0 -292834240.96105957 -116838136.92604065 0 -116838136.92604065 120132871.55656433 0 0 0 0 -255566453.10232544 -118337114.75920105 0 -118337114.75920105 92992536.145324707 0 0 0 0 -434509507.00808716 -50828073.882400513 0 -50828073.882400513 94122180.228297472 0 0 0 0 273676622.48577881 -335184436.70655823 0 -335184436.70655823 72968158.226806641 0 0 0 0 344064878.38766479 10884499.060150146 0 10884499.060150146 -64672674.215209961 0 0 0 0 -11754236.92401123 -166504065.59933472 0 -166504065.59933472 31558092.45451355 0 0 0 0 -22946591.757293701 -222918104.23269653 0 -222918104.23269653 91501267.737792969 0 0 0 0 -289915735.38812256 -193188344.82040405 0 -193188344.82040405 224060072.88046265 0 0 0 0 -259942351.92379761 -201986290.81401062 0 -201986290.81401062 -35800233.694091797 0 0 0 0 -143485665.74949646 -84388173.78081131 0 -84388173.78081131 82929706.90057373 0 0 0 0 -126018667.04637909 -239732454.0158596 0 -239732454.0158596 518007937.21661377 0 0 0 0 337928681.21459961 18763497.158096313 0 18763497.158096313 -75547287.83682251 0 0 0 0 -353726359.29370117 -388034408.85095215 0 -388034408.85095215 -302602374.00209045 0 0 0 0 -275667302.26176643 24494216.960950851 0 24494216.960950851 -147074155.93902588 0 0 0 0 302476513.99591064 -660368350.67707062 0 -660368350.67707062 -1019337182.7160645 0 0 0 0 -301685893.41700745 -24981383.891067505 0 -24981383.891067505 -80680304.516357422 0 0 0 0 -325799959.96115112 -321889439.84911346 0 -321889439.84911346 -744632383.69122314 0 0 0 0 -476510326.59394836 -87580499.415435791 0 -87580499.415435791 -30462586.984161377 0 0 0 0 -512640607.80845642 -622165781.55863953 0 -622165781.55863953 -1027704165.1285782 0 0 0 0 -756763328.29965973 -499569405.48839569 0 -499569405.48839569 -181287411.87826538 0 0 0 0 -685356076.43758011 -585688183.75930786 0 -585688183.75930786 -578099793.60723877 0 0 0 0 -406209591.64335632 -1184947890.1828613 0 -1184947890.1828613 -2026544828.7371216 0 0 0 0 -698373727.66503716 -1791816452.4587259 0 -1791816452.4587259 -2184829017.413269 0 0 0 0 -628617602.10580444 -601194820.61901855 0 -601194820.61901855 -993430616.99682617 0 0 0 0 -11139737.255807552 -6577886.77602477 0 -6577886.77602477 3115255.5656622648 0 0 0 0 416570222.2053833 -259718036.31920624 0 -259718036.31920624 -448142130.90350342 0 0 0 0 -433288434.12521362 -835614978.15809631 0 -835614978.15809631 -932550813.4431839 0 0 0 0 -1025924796.509469 -1735563878.2361426 0 -1735563878.2361426 -2542424707.5423126 0 0 0 0 -864252181.59375 -648831533.22305298 0 -648831533.22305298 -943649872.6149292 0 0 0 0 -1425049962.155426 -1305488277.3856354 0 -1305488277.3856354 -2504809724.3673553 0 0 0 0 -2111320452.6891212 -2572520646.8452206 0 -2572520646.8452206 -2505911047.1300812 0 0 0 0 -1214749870.8153076 -2237175388.6948776 0 -2237175388.6948776 -3949096338.5940175 0 0 0 0 -1331613823.2646313 -2880622627.189292 0 -2880622627.189292 -2754244476.052948 0 0 0 0 -4054899.9011641741 -3914349.7486402243 0 -3914349.7486402243 1720271.9790845215 0 0 0 0 -654324964.28503418 -2738244424.382782 0 -2738244424.382782 -4525441490.7011719 0 0 0 0 -1559544563.1226807 -2065117985.6447067 0 -2065117985.6447067 -1950910762.7345657 0 0 0 0 -291734949.89575195 -801551442.34647751 0 -801551442.34647751 -1613041765.923172 0 0 0 0 -1377259782.6986237 -2291176359.969799 0 -2291176359.969799 -3107710786.401123 0 0 0 0 -853243703.12387085 -1754432631.0492096 0 -1754432631.0492096 -2807228043.7253418 0 0 0 0 -1084124744.3482666 -2139261286.2030487 0 -2139261286.2030487 -2305822161.2886925 0 0 0 0 -277976660.21829224 -921489331.96408844 0 -921489331.96408844 -1914864002.6306305 0 0 0 0 -1442907954.2835083 -2079429450.0721817 0 -2079429450.0721817 -2514849263.1713104 0 0 0 0 -891820841.71788025 -1832231623.173645 0 -1832231623.173645 -2579098220.3233032 0 0 0 0 -1010528191.2505035 -1706893937.7049675 0 -1706893937.7049675 -2987881129.2122803 0 0 0 0 -1190923345.420929 -2733272879.2771301 0 -2733272879.2771301 -3739131884.2719746 0 0 0 0 -1805600519.1343384 -2581817456.7275848 0 -2581817456.7275848 -4409636253.9842625 0 0 0 0 -7063099.1417054832 -5826260.0379004478 0 -5826260.0379004478 1320280.0355447829 0 0 0 0 -1561510752.6387634 -3018752027.0071411 0 -3018752027.0071411 -3700538613.9640808 0 0 0 0 -1430942680.5932312 -2316408497.6517181 0 -2316408497.6517181 -4376515115.5419769 0 0 0 0 -1495185121.6695938 -2139051460.2724686 0 -2139051460.2724686 -4165444348.1048126 0 0 0 0 -1162947427.556839 -2525635265.8214874 0 -2525635265.8214874 -5129503923.9878235 0 0 0 0 -28061601.665324688 -4461361.4143848196 0 -4461361.4143848196 1491988.2461714558 0 0 0 0 -89262934.125061035 -279134667.49806213 0 -279134667.49806213 1362834896.6262207 0 0 0 0 -46550734.80725348 -3095909.2733365446 0 -3095909.2733365446 3747674.3963868096 0 0 0 0 -1004166316.471405 -1004706488.4610291 0 -1004706488.4610291 -1949105954.1098862 0 0 0 0 -232966451.88964844 -1900909122.4806671 0 -1900909122.4806671 -4782858118.4554749 0 0 0 0 -485327536.94694519 -306211910.68360138 0 -306211910.68360138 1745830241.3953094 0 0 0 0 534898381.50653076 -218162229.65293121 0 -218162229.65293121 11498092.336433411 0 0 0 0 -139691740.05957031 80941596.093719482 0 80941596.093719482 409093168.55595398 0 0 0 0 -68883193.808883667 -384774875.03929901 0 -384774875.03929901 374898601.99536133 0 0 0 0 221271826.30527496 -506431039.31916237 0 -506431039.31916237 -277160435.99241638 0 0 0 0 368568556.69143677 -787263714.3866148 0 -787263714.3866148 -1514882173.3087158 0 0 0 0 3649990.2483502626 1273917.2340152338 0 1273917.2340152338 -2040155.1937022135 0 0 0 0 845148995.61962891 -654959680.19474792 0 -654959680.19474792 -479217123.67565918 0 0 0 0 95859582.757415771 -101939387.18844604 0 -101939387.18844604 -495238466.94347382 0 0 0 0 511013979.17730713 173711632.47270203 0 173711632.47270203 -314349361.61986542 0 0 0 0 716482.91915130615 -330603146.18327904 0 -330603146.18327904 336186601.14729309 0 0 0 0 514613589.35632324 222018978.83306122 0 222018978.83306122 612176724.89840698 0 0 0 0 -120206111.6260376 -148570339.06350708 0 -148570339.06350708 1452506402.2891464 0 0 0 0 -237883449.16070557 6188519.8140640259 0 6188519.8140640259 1861090850.2436256 0 0 0 0 -485772309.2933197 -428205359.83521271 0 -428205359.83521271 -175552025.67245483 0 0 0 0 85184544.134094238 -32512915.192588806 0 -32512915.192588806 -953610826.24516296 0 0 0 0 -253838747.85484314 -586775490.76247406 0 -586775490.76247406 -1308425003.2726974 0 0 0 0 5852060.3333470821 1110782.6225313917 0 1110782.6225313917 -3156039.193820104 0 0 0 0 -305240161.98550415 -63766641.488578796 0 -63766641.488578796 -491269285.45977783 0 0 0 0 -278737397.73620605 -268452312.67775345 0 -268452312.67775345 901413933.78668213 0 0 0 0 82270526.024963379 258469217.05245972 0 258469217.05245972 -1150676906.5176086 0 0 0 0 14552631.820511252 -3247505.0290220864 0 -3247505.0290220864 -746078.25808664598 0 0 0 0 -252036937.63256836 -127027147.08140564 0 -127027147.08140564 -382343315.51512146 0 0 0 0 -281837069.14541626 91166587.221939087 0 91166587.221939087 -299302582.95692825 0 0 0 0 2779686.648932457 -1468723.2973369956 0 -1468723.2973369956 -3098464.5639202967 0 0 0 0 -143387303.82249451 274649173.58071518 0 274649173.58071518 553703293.04350662 0 0 0 0 159644338.38674927 796596980.11728668 0 796596980.11728668 -30428966.051296234 0 0 0 0 810647068.03948593 -863896993.1234045 0 -863896993.1234045 -1158606967.8767548 0 0 0 0 114771723.27212524 -130114188.38536072 0 -130114188.38536072 91640350.995107651 0 0 0 0 21015696.742478043 -6643907.4548861682 0 -6643907.4548861682 -1728141.3440729678 0 0 0 0 115724564.75009155 -314494560.5958252 0 -314494560.5958252 -751329324.07775879 0 0 0 0 61349487.501220703 -61747393.741012573 0 -61747393.741012573 -81721327.917516708 0 0 0 0 23396209.588525921 -10736339.994071037 0 -10736339.994071037 -3759875.6311560767 0 0 0 0 -12127700.739105225 -20453937.870258331 0 -20453937.870258331 1430181.615852356 0 0 0 0 -48203370.101867676 -231877177.29681778 0 -231877177.29681778 -140659499.09423828 0 0 0 0 -129138394.79495239 -97852310.699958801 0 -97852310.699958801 -131225767.01664734 0 0 0 0 -105530989.45877075 -232394499.38491821 0 -232394499.38491821 26457500.685913086 0 0 0 0 -6192892.6626434326 -141991118.31062317 0 -141991118.31062317 -139203267.19476318 0 0 0 0 -46059711.792877197 -162494444.70853424 0 -162494444.70853424 6213275.2608947754 0 0 0 0 -398242990.15006256 -497959378.73400879 0 -497959378.73400879 65468045.132415771 0 0 0 0 -112205459.23684692 132040306.69710541 0 132040306.69710541 433448806.92731476 0 0 0 0 5396674.5130217969 -8495454.6167779937 0 -8495454.6167779937 -7373626.1066059694 0 0 0 0 107830091.70898533 -241024084.48205519 0 -241024084.48205519 -266119291.0289917 0 0 0 0 -64993471.297927856 -137736780.97739029 0 -137736780.97739029 -102403996.55186462 0 0 0 0 -66832099.605712891 -67563691.286209106 0 -67563691.286209106 213051977.75240326 0 0 0 0 349363.91575177014 -25875831.063784339 0 -25875831.063784339 -7672081.4423982725 0 0 0 0 55044124.406005859 -90552319.719802856 0 -90552319.719802856 22145199.112609863 0 0 0 0 -71527208.396316528 -76284447.58272934 0 -76284447.58272934 -10347536.480209351 0 0 0 0 -111140706.69403076 -61725623.691970825 0 -61725623.691970825 31042672.088188171 0 0 0 0 -120964081.30523682 -68847243.630142212 0 -68847243.630142212 105093241.0776062 0 0 0 0 -80290878.563919067 -146181376.31895828 0 -146181376.31895828 25360336.922912598 0 0 0 0 -75496595.92956543 -168667760.25031281 0 -168667760.25031281 -152302940.2904892 0 0 0 0 -85529839.064361572 -25928162.347625732 0 -25928162.347625732 56849605.255371094 0 0 0 0 -31835207.172092609 -18895318.087472051 0 -18895318.087472051 515866.80024526641 0 0 0 0 -164084281.60869598 -3335489.869556427 0 -3335489.869556427 44767070.178253174 0 0 0 0 -11623958.131098857 -8262146.1149843633 0 -8262146.1149843633 4839156.7624674588 0 0 0 0 -6841492.5772094727 -79117031.016799927 0 -79117031.016799927 -51952073.401245117 0 0 0 0 -17718218.127949446 -43746431.117294222 0 -43746431.117294222 -20842454.915685758 0 0 0 0 -54092578.587127686 -151778487.53862762 0 -151778487.53862762 -78647776.261154175 0 0 0 0 -10500217.771511551 -27197869.392709967 0 -27197869.392709967 -15421797.730863996 0 0 0 0 -69582729.470288187 -27066574.88027785 0 -27066574.88027785 8270260.2926488817 0 0 0 0 81620553.880264282 -149827453.7351532 0 -149827453.7351532 -44859756.996368408 0 0 0 0 -201863494.76159668 -38360128.656669617 0 -38360128.656669617 -21335052.86151123 0 0 0 0 -69811142.896911621 -25547222.814689636 0 -25547222.814689636 -54316840.234291077 0 0 0 0 -11076245.935324784 -10513346.928915523 0 -10513346.928915523 3578188.908685118 0 0 0 0 -8528249.9650605172 -3716373.2738906592 0 -3716373.2738906592 813660.71666672826 0 0 0 0 -10869822.291006029 -17825316.429072693 0 -17825316.429072693 -9234769.7229739651 0 0 0 0 -17617623.152832031 -18743708.925552368 0 -18743708.925552368 -5942940.0924301147 0 0 0 0 28929375.59671402 -28589942.405740738 0 -28589942.405740738 -30998415.908676147 0 0 0 0 -14503408.676412508 -40726765.088230506 0 -40726765.088230506 -14436829.855121091 0 0 0 0 -15796463.796920776 -48796221.334228516 0 -48796221.334228516 -27678847.571989059 0 0 0 0 -112525997.33221436 -154659939.6894989 0 -154659939.6894989 -217412037.14728546 0 0 0 0 -53939562.432022095 -83329718.267654419 0 -83329718.267654419 61715383.223052979 0 0 0 0 21320852.603731841 -21312395.505753912 0 -21312395.505753912 -7058044.5268762987 0 0 0 0 -246784777.76885986 -74259592.689819336 0 -74259592.689819336 378243387.91479492 0 0 0 0 30434418.528930664 -220593369.88533783 0 -220593369.88533783 -139968390.42028809 0 0 0 0 -84214410.865112305 -464778516.69363403 0 -464778516.69363403 -396267214.64096069 0 0 0 0 26422213.010314941 -8194857.1062240601 0 -8194857.1062240601 -69277278.361646652 0 0 0 0 -4665881.0926178247 -9994949.7569704428 0 -9994949.7569704428 4572743.2417531163 0 0 0 0 -21700839.829761505 2160828.9261751175 0 2160828.9261751175 -23425795.374427795 0 0 0 0 6639810.584564209 -3961643.5533485413 0 -3961643.5533485413 31357226.850704193 0 0 0 0 36397271.090606689 -4392324.2806625366 0 -4392324.2806625366 -31764873.063552856 0 0 0 0 56918419.368118286 -68777935.934303284 0 -68777935.934303284 17511219.78678894 0 0 0 0 72671435.044708252 -60080016.177539825 0 -60080016.177539825 7901990.527507782 0 0 0 0 -40435856.16746521 65526264.898233414 0 65526264.898233414 -90917314.466346741 0 0 0 0 234262593.75957108 -140997527.5520277 0 -140997527.5520277 -165804009.63518524 0 0 0 0 166622792.12571716 -256107315.38849258 0 -256107315.38849258 80168441.591575623 0 0 0 0 146552206.11454773 -220288812.1746254 0 -220288812.1746254 22874806.079681396 0 0 0 0 141270801.20834351 -292440383.61619949 0 -292440383.61619949 50935520.116085052 0 0 0 0 53823348.269271851 -60976611.389259338 0 -60976611.389259338 -126230247.90280914 0 0 0 0 365916242.6937561 -282415454.6692276 0 -282415454.6692276 -103792678.40766525 0 0 0 0 215559844.68994141 -259797301.45971298 0 -259797301.45971298 172727973.56700897 0 0 0 0 147980808.84988403 -322083019.29251862 0 -322083019.29251862 159251205.50198078 0 0 0 0 140256153.41819763 -301000032.23918533 0 -301000032.23918533 283705153.74807739 0 0 0 0 160666368.51290131 -284911406.11834717 0 -284911406.11834717 181806762.86087036 0 0 0 0 112649831.81274414 -207511012.49024963 0 -207511012.49024963 133946607.87540436 0 0 0 0 227383961.23238087 -386372659.91384363 0 -386372659.91384363 259635067.79060364 0 0 0 0 103690107.04698181 -163306826.08297729 0 -163306826.08297729 128548574.24895477 0 0 0 0 63204360.426692963 -233107484.22311497 0 -233107484.22311497 350351424.1467514 0 0 0 0 75509632.060302734 -156750278.64109421 0 -156750278.64109421 162368102.16059589 0 0 0 0 104412260.40161133 -112997958.24717712 0 -112997958.24717712 47766909.945281982 0 0 0 0 55097907.160491943 -42351646.973827362 0 -42351646.973827362 540752.43104553223 0 0 0 0 32055334.481750488 -60283385.678967953 0 -60283385.678967953 63172291.592559814 0 0 0 0 15752127.920562744 -88506679.349998474 0 -88506679.349998474 162998503.00299835 0 0 0 0 30307052.128173828 540520.41528320312 0 540520.41528320312 7905428.8637924194 0 0 0 0 -9373340.175983429 -97470937.836380959 0 -97470937.836380959 230180405.50292969 0 0 0 0 -416967.70150756836 -66122333.028533936 0 -66122333.028533936 355789441.53093719 0 0 0 0 59224906.131353378 -316752562.86807823 0 -316752562.86807823 584577034.79589081 0 0 0 0 367104105.66412354 -485103977.78797913 0 -485103977.78797913 438009911.44036102 0 0 0 0 113391507.52529907 -174716882.2897644 0 -174716882.2897644 189504007.8755703 0 0 0 0 20660705.834487915 -355728541.80875778 0 -355728541.80875778 766666121.40831757 0 0 0 0 125684252.06333923 -317464763.32110214 0 -317464763.32110214 734386071.00014114 0 0 0 0 594845860.31561661 -557437088.93228817 0 -557437088.93228817 190196908.01590729 0 0 0 0 503588167.25338745 -732801373.76377487 0 -732801373.76377487 817957606.44013405 0 0 0 0 234963564.43595886 -534481950.77539444 0 -534481950.77539444 742031906.7739563 0 0 0 0 544843544.00752258 -1027985782.0200043 0 -1027985782.0200043 922514579.578825 0 0 0 0 220499956.84970093 -208272406.44797516 0 -208272406.44797516 -779909521.7100563 0 0 0 0 646995.71310792863 -1000026.0338396616 0 -1000026.0338396616 -887983.51056014374 0 0 0 0 306567770.98080444 48986233.316894531 0 48986233.316894531 -817558006.21429443 0 0 0 0 181261016.63618946 -452123021.00747371 0 -452123021.00747371 487885531.30966187 0 0 0 0 191929142.02204895 -354342257.50039291 0 -354342257.50039291 233172155.39554977 0 0 0 0 393872162.61898804 -643540127.91168976 0 -643540127.91168976 187712297.70437622 0 0 0 0 388460258.10612488 -426191509.34375 0 -426191509.34375 -20150898.076324463 0 0 0 0 387310001.02671814 -340801354.91398239 0 -340801354.91398239 242695630.05587006 0 0 0 0 131369279.89393616 -375529493.97683334 0 -375529493.97683334 541623120.69692612 0 0 0 0 674494344.22412109 -146080190.57805634 0 -146080190.57805634 194277097.78436279 0 0 0 0 4247446.8824747205 1832387.2142518368 0 1832387.2142518368 317716.15640279651 0 0 0 0 786240332.99839783 219942946.56142616 0 219942946.56142616 -534773306.11006165 0 0 0 0 192222980.43086624 -475501165.02631092 0 -475501165.02631092 269124428.12489319 0 0 0 0 -101192403.24371338 154945365.64477539 0 154945365.64477539 -236254750.63484192 0 0 0 0 170026961.88743591 339043484.76424026 0 339043484.76424026 -402718802.17384338 0 0 0 0 5644903.7849374712 1624379.1398966014 0 1624379.1398966014 -1682648.9008713337 0 0 0 0 356206818.99273682 -131787490.21246338 0 -131787490.21246338 -1197212529.0640488 0 0 0 0 -455236384.22546387 222848.84020233154 0 222848.84020233154 344699614.95395279 0 0 0 0 1831268.2190795392 380218.66956737265 0 380218.66956737265 -511012.44213591889 0 0 0 0 367624389.52535629 -670395627.50421238 0 -670395627.50421238 -177034769.87438202 0 0 0 0 35007488.839385986 -275511443.24008179 0 -275511443.24008179 -211248143.70862961 0 0 0 0 3456223.5687724352 1716741.994016951 0 1716741.994016951 358210.01931825839 0 0 0 0 96994700.522277832 -65734841.96774292 0 -65734841.96774292 -368255943.23456955 0 0 0 0 -25757454.202774048 -182245655.43222809 0 -182245655.43222809 124571464.15690613 0 0 0 0 13978675.247337341 -319671258.55290985 0 -319671258.55290985 91233686.467514038 0 0 0 0 -56571263.972229004 -30607727.307731628 0 -30607727.307731628 299861350.17307281 0 0 0 0 950000.96072610468 -2021646.220455654 0 -2021646.220455654 -1044753.105591841 0 0 0 0 487542554.94055939 62099699.298206329 0 62099699.298206329 -34449644.703201294 0 0 0 0 8536521.4442224503 -39147487.21511364 0 -39147487.21511364 -317597.17060852051 0 0 0 0 -42885013.131881714 -62798248.259872437 0 -62798248.259872437 75140324.501590729 0 0 0 0 -14009788.078147888 -42054519.272270203 0 -42054519.272270203 3820045.6833648682 0 0 0 0 -201491068.86807919 378159268.4020822 0 378159268.4020822 29062816.443901062 0 0 0 0 1884568.1799852252 823016.01740522124 0 823016.01740522124 216099.3457306698 0 0 0 0 -140816886.67242432 -15034845.773956299 0 -15034845.773956299 233024041.39493561 0 0 0 0 497130060.69393921 380792535.42350006 0 380792535.42350006 -606209648.10040665 0 0 0 0 160742272.91201782 106937436.45612717 0 106937436.45612717 -208742279.127388 0 0 0 0 431542186.38441467 -207911642.88256454 0 -207911642.88256454 64577216.611675262 0 0 0 0 161091868.79351807 195364305.88090515 0 195364305.88090515 111588877.21121216 0 0 0 0 336043663.6849823 -623425439.65822601 0 -623425439.65822601 -353386702.5355835 0 0 0 0 378194219.99001932 199961393.00152659 0 199961393.00152659 -293917114.96710205 0 0 0 0 -233683291.86819458 176962553.17922974 0 176962553.17922974 421843765.20628691 0 0 0 0 -394224241.04518127 -522610006.80396271 0 -522610006.80396271 472080227.15331268 0 0 0 0 -368973326.2069397 -314897492.8219986 0 -314897492.8219986 -139095569.90194464 0 0 0 0 -986046031.4868927 -945192406.3928566 0 -945192406.3928566 -178971720.57108021 0 0 0 0 179936719.22549438 244075907.11157417 0 244075907.11157417 413408926.81460571 0 0 0 0 -865489238.58554077 -1211053574.0634537 0 -1211053574.0634537 -460397262.6932869 0 0 0 0 6033328.7516004369 -5414070.2434905767 0 -5414070.2434905767 1586393.6641976088 0 0 0 0 -444274.93392251432 398493.57455842942 0 398493.57455842942 1209978.8222912028 0 0 0 0 268898593.32002258 635180125.45215988 0 635180125.45215988 -329326445.93695831 0 0 0 0 2034100078.6642456 283648312.92534637 0 283648312.92534637 -260861261.98327637 0 0 0 0 1346237651.9417801 711930385.60708427 0 711930385.60708427 253815152.36161041 0 0 0 0 2493580.7619082257 -2168723.9352996722 0 -2168723.9352996722 750566.33357322961 0 0 0 0 -1199934385.6192703 -413531893.3762455 0 -413531893.3762455 358747017.27222443 0 0 0 0 -322371752.40374756 -683762379.12741852 0 -683762379.12741852 -845830738.63411713 0 0 0 0 -507390403.92533875 -765546298.25422287 0 -765546298.25422287 533729747.49726486 0 0 0 0 390555275.30575562 -774855730.39368248 0 -774855730.39368248 505391216.29112244 0 0 0 0 1090071081.6990662 -448634220.33964539 0 -448634220.33964539 44231736.559341431 0 0 0 0 286520116.48654938 -262009564.44528103 0 -262009564.44528103 13213914.771263123 0 0 0 0 394101240.1951828 -535890561.98808956 0 -535890561.98808956 208571835.33935547 0 0 0 0 -88852385.578994751 -496425806.5879364 0 -496425806.5879364 350731439.59788895 0 0 0 0 -43384286.325286865 -202588466.42513275 0 -202588466.42513275 300936069.78791046 0 0 0 0 293256856.27503967 -403936118.8302536 0 -403936118.8302536 319637785.06905365 0 0 0 0 301436368.0125885 -310667481.98432159 0 -310667481.98432159 270102959.7646656 0 0 0 0 566571387.96792436 -86786932.079377174 0 -86786932.079377174 318369100.02307129 0 0 0 0 556727788.27302551 -539140063.16507721 0 -539140063.16507721 211791671.11143875 0 0 0 0 -1075314.5124164296 -1202858715.122406 0 -1202858715.122406 -1273671060.8870773 0 0 0 0 -1365279.9152870923 596049.80799914524 0 596049.80799914524 -2581574.792155101 0 0 0 0 -224414584.67767334 -138990340.45809937 0 -138990340.45809937 843608962.05687904 0 0 0 0 351708385.87086773 -1145900439.7272446 0 -1145900439.7272446 -1939196759.6632919 0 0 0 0 337925659.06871033 -372584538.14172363 0 -372584538.14172363 -3877055262.2064247 0 0 0 0 -199061428.62953186 -1442388244.531601 0 -1442388244.531601 -1434626676.5256462 0 0 0 0 -315408630.03257561 -1002281514.0296636 0 -1002281514.0296636 -75489022.904975891 0 0 0 0 1951726578.3438568 185800942.08142853 0 185800942.08142853 -1023886535.9480209 0 0 0 0 891966.19176675379 -3016382.6978483722 0 -3016382.6978483722 -2269205.5335652158 0 0 0 0 -476715033.22364807 -1631570742.8381767 0 -1631570742.8381767 -1138358968.1731491 0 0 0 0 -1701613800.3931961 -781284866.45993423 0 -781284866.45993423 501781496.58119202 0 0 0 0 1951937.4734973349 -6531576.0377721488 0 -6531576.0377721488 -4607850.1738804728 0 0 0 0 -771246112.27249146 -1064044542.1485672 0 -1064044542.1485672 -105025439.68850708 0 0 0 0 -1821846829.8288879 -447187328.55299568 0 -447187328.55299568 -365225921.13153076 0 0 0 0 -759598537.24859619 -497805449.7325058 0 -497805449.7325058 -510039097.05238342 0 0 0 0 -580629435.49682617 -120432803.94905853 0 -120432803.94905853 -1336055455.1289673 0 0 0 0 -480415861.39834595 -323918371.89554596 0 -323918371.89554596 -1558716125.5636902 0 0 0 0 -934184201.418396 -289062004.59139252 0 -289062004.59139252 -1334857097.781601 0 0 0 0 -942850756.28525257 -781441880.21956635 0 -781441880.21956635 -1704650320.5342102 0 0 0 0 -316485102.25799561 -995455435.65844727 0 -995455435.65844727 -2662714348.5424805 0 0 0 0 -2846037304.4641342 -1805817224.2987499 0 -1805817224.2987499 -1146392788.3406982 0 0 0 0 306122662.05987549 -91496187.583709717 0 -91496187.583709717 -3032268874.0220718 0 0 0 0 -3572480.8643242717 -1469960.7719904631 0 -1469960.7719904631 -3057788.9005704494 0 0 0 0 109520479.75463867 -120827788.25569153 0 -120827788.25569153 517692644.52076721 0 0 0 0 112275709.12882996 -285770563.59711838 0 -285770563.59711838 -2219362912.1782837 0 0 0 0 -123399492.51153564 -156876186.57997131 0 -156876186.57997131 620342106.01000977 0 0 0 0 -126027458.36307621 -52979503.074050903 0 -52979503.074050903 206779566.10124207 0 0 0 0 -330580398.75701904 -96199298.080596924 0 -96199298.080596924 -1373403205.1658173 0 0 0 0 -5614132.6058531255 -4768564.687361462 0 -4768564.687361462 -4027298.4608686985 0 0 0 0 -100423.61672973633 -81203060.12272644 0 -81203060.12272644 100270739.98978424 0 0 0 0 30754788.88293457 -26455202.980255127 0 -26455202.980255127 -1391985400.9130707 0 0 0 0 278295789.31030273 198505776.33026123 0 198505776.33026123 -1237132354.6272583 0 0 0 0 -259095363.965271 -131324738.25001526 0 -131324738.25001526 -1411247775.5887451 0 0 0 0 -496445983.53179932 -109897952.40080261 0 -109897952.40080261 -1371882482.8080444 0 0 0 0 -236110927.61376953 -3587871.8628616333 0 -3587871.8628616333 -1453991958.9797974 0 0 0 0 71738475.075561523 83967425.892654419 0 83967425.892654419 -1401957214.3885498 0 0 0 0 -493535353.36987305 -334282985.23680115 0 -334282985.23680115 -1855226859.9233208 0 0 0 0 -354976323.78971863 -27852752.215637207 0 -27852752.215637207 -1410283255.785614 0 0 0 0 21246608.570770264 328068192.42289734 0 328068192.42289734 -1344360415.2047844 0 0 0 0 9578880.2625418305 552453.68727548793 0 552453.68727548793 -6778971.3061730573 0 0 0 0 -1395201.1404724121 323453582.21858978 0 323453582.21858978 -1173686537.2097778 0 0 0 0 -33399464.983215332 203409402.05621338 0 203409402.05621338 -1132871541.396656 0 0 0 0 -31712961.044128418 206648542.79180908 0 206648542.79180908 -1262057323.7505112 0 0 0 0 -44893599.182739258 233987526.32859802 0 233987526.32859802 -1309463860.2843323 0 0 0 0 -145714249.83148193 -31471144.285736084 0 -31471144.285736084 -1455053003.2563171 0 0 0 0 -88540966.119132996 247393965.1153717 0 247393965.1153717 -1266800292.7980347 0 0 0 0 -57560413.073730469 266584392.04600525 0 266584392.04600525 -1294520439.0741119 0 0 0 0 -60139662.166442871 276542867.97677612 0 276542867.97677612 -1234273283.7919846 0 0 0 0 -93042449.362854004 200354483.11479187 0 200354483.11479187 -1261075095.1511993 0 0 0 0 39959400.515625 101645955.80557251 0 101645955.80557251 -1410339664.4277649 0 0 0 0 425456816.98388672 280450641.02062988 0 280450641.02062988 -1327804556.5801086 0 0 0 0 59638639.166870117 385926353.99136353 0 385926353.99136353 -1173080558.5809937 0 0 0 0 -257431489.74633789 184534502.05844116 0 184534502.05844116 -1055678904.9154968 0 0 0 0 101198077.74743652 586827563.57681274 0 586827563.57681274 -980185592.42712402 0 0 0 0 -52180149.793457031 348727716.47314453 0 348727716.47314453 -1184995882.8856201 0 0 0 0 -139296.84893371165 -115779.89554815739 0 -115779.89554815739 280160.2831767574 0 0 0 0 -347311100.55859375 388571182.88812256 0 388571182.88812256 -840630652.77987671 0 0 0 0 -17080913.931396484 276130818.86460876 0 276130818.86460876 -1266165305.2932281 0 0 0 0 -56505790.761474609 401699785.05206299 0 401699785.05206299 -1251536535.3700638 0 0 0 0 56545021.250915527 290359236.21366882 0 290359236.21366882 -1230938035.8115234 0 0 0 0 -247507315.68688965 11899749.069969177 0 11899749.069969177 -1065581380.1473007 0 0 0 0 -167994148.78326416 378591106.52424622 0 378591106.52424622 -1137148673.4055786 0 0 0 0 -62981599.684738159 87369758.078178406 0 87369758.078178406 -529091459.11558533 0 0 0 0 -28035604.59576416 283261130.17472076 0 283261130.17472076 -1025840900.5457153 0 0 0 0 -100061259.76855469 288565159.4657135 0 288565159.4657135 -1052124724.0542755 0 0 0 0 165255636.15100098 197269004.34884644 0 197269004.34884644 -1094065434.0996895 0 0 0 0 241671195.88594246 5969330.6677908897 0 5969330.6677908897 -964658622.62646484 0 0 0 0 185011797.10696983 -318767195.93618155 0 -318767195.93618155 -519722579.5816803 0 0 0 0 -90627160.289550781 150231798.46935272 0 150231798.46935272 -856966774.72084045 0 0 0 0 -466033608.18899536 -499183171.12702942 0 -499183171.12702942 -523961374.64376831 0 0 0 0 -196834410.78875732 -103233271.3860321 0 -103233271.3860321 -1541382141.6619568 0 0 0 0 -247038274.4508667 -74414518.750389099 0 -74414518.750389099 -1163384430.5484047 0 0 0 0 -453215031.21817017 -611991079.93390656 0 -611991079.93390656 -1369069990.1912432 0 0 0 0 -683335591.10240936 -947334690.60833406 0 -947334690.60833406 400482519.40309143 0 0 0 0 -662142307.92489624 -800218625.1361618 0 -800218625.1361618 405338430.83324432 0 0 0 0 -189408810.46537018 -1092362304.7889442 0 -1092362304.7889442 165049320.77892303 0 0 0 0 68621252.33416748 -157272892.99954605 0 -157272892.99954605 -305644095.53572083 0 0 0 0 1094395134.3946533 389998654.37875366 0 389998654.37875366 -499157300.75123978 0 0 0 0 448398304.33317947 -1123272229.2315664 0 -1123272229.2315664 587576160.33463287 0 0 0 0 176004.43167465925 -339946.09798688442 0 -339946.09798688442 -35470.246477279812 0 0 0 0 -57306189.432800293 -1469887248.4545097 0 -1469887248.4545097 1929006417.5837708 0 0 0 0 5168368.5231586695 -675885.96946938708 0 -675885.96946938708 -162921.64759645052 0 0 0 0 45074365.83259201 -632247623.04101658 0 -632247623.04101658 2700075516.1360779 0 0 0 0 710341996.04542542 -1508853152.0747528 0 -1508853152.0747528 1050302952.9039383 0 0 0 0 293645496.18733215 -681579931.79707718 0 -681579931.79707718 289040582.09814072 0 0 0 0 909129.66158683598 -1383130.8340601213 0 -1383130.8340601213 -1044703.1807980873 0 0 0 0 -36746795.612243652 69197004.589538574 0 69197004.589538574 242076763.90817451 0 0 0 0 569224232.87715149 23160942.439754486 0 23160942.439754486 -528216976.63348389 0 0 0 0 59828699.791343689 -55025510.494977951 0 -55025510.494977951 -525572744.76306152 0 0 0 0 84373399.698791504 258701438.17741394 0 258701438.17741394 -916868588.50942993 0 0 0 0 228858536.06690979 69724081.299449921 0 69724081.299449921 -1204473619.5104523 0 0 0 0 26874165.939300537 -104376959.51544189 0 -104376959.51544189 -1296676532.3228912 0 0 0 0 77976190.483337402 73838000.345863342 0 73838000.345863342 -271814816.54264832 0 0 0 0 4156191.9950866699 -291119358.03398132 0 -291119358.03398132 -706770849.5788269 0 0 0 0 -35660921.006225586 422524522.12158966 0 422524522.12158966 -1119850426.2155151 0 0 0 0 1089216.2000938654 718465.17706662603 0 718465.17706662603 226863.7904789988 0 0 0 0 -260300293.44508362 -6192696.9945526123 0 -6192696.9945526123 -398805090.96600342 0 0 0 0 260905977.08139038 -277932282.40461731 0 -277932282.40461731 179716467.26972961 0 0 0 0 313898967.87799072 222458708.38994598 0 222458708.38994598 -1581457355.028389 0 0 0 0 8692213.9655483067 2518712.6734336074 0 2518712.6734336074 -3343671.6513467431 0 0 0 0 1017438083.4801025 158175251.57550049 0 158175251.57550049 -407687943.5011692 0 0 0 0 678058084.33587646 -94173951.893478394 0 -94173951.893478394 -90123236.615982056 0 0 0 0 338335557.77757263 657890208.2051506 0 657890208.2051506 57599600.866607666 0 0 0 0 159890000.06698608 14072488.427818298 0 14072488.427818298 -67060704.059295654 0 0 0 0 80020556.833847046 -28146196.301662445 0 -28146196.301662445 -48422055.177719116 0 0 0 0 243408770.94244385 -108662873.14418602 0 -108662873.14418602 -72130761.85244751 0 0 0 0 56182424.059661865 -133277721.39606476 0 -133277721.39606476 110657230.98180771 0 0 0 0 15001365.858810425 -43235732.428131104 0 -43235732.428131104 -75871539.728118896 0 0 0 0 2420934.4807662964 -187555316.86243248 0 -187555316.86243248 -62342292.505569458 0 0 0 0 74130662.219345093 -117126895.89781189 0 -117126895.89781189 -4041636.2874145508 0 0 0 0 10256629.570922852 -64130515.430435181 0 -64130515.430435181 -9522534.140622139 0 0 0 0 75772650.490844727 -101378035.10419464 0 -101378035.10419464 -71573891.120542049 0 0 0 0 47184334.947463989 -41990903.863014221 0 -41990903.863014221 -17457777.544494629 0 0 0 0 8762744.2022094727 -34674481.449111938 0 -34674481.449111938 -12712487.809806824 0 0 0 0 35451961.510864258 -11449405.751312256 0 -11449405.751312256 -57855453.383083344 0 0 0 0 19486903.100603104 -30876378.023370028 0 -30876378.023370028 -15893871.282455444 0 0 0 0 283014.91264885664 -9893008.5812906399 0 -9893008.5812906399 -20885214.034048751 0 0 0 0 119604902.89703369 -43502875.023403168 0 -43502875.023403168 -59739720.038024902 0 0 0 0 15990980.616256714 -9562528.0920524597 0 -9562528.0920524597 -40294054.209014893 0 0 0 0 -18101861.726829529 -45302721.500216484 0 -45302721.500216484 -56012764.527759552 0 0 0 0 -392443.98802185059 -15373232.052577972 0 -15373232.052577972 -11894483.827610016 0 0 0 0 7232116.2862548828 -35533909.043710709 0 -35533909.043710709 -20978434.260025024 0 0 0 0 3307479.7800538093 -12252579.210090272 0 -12252579.210090272 -3108586.3772655651 0 0 0 0 131301791.76696777 -23486163.941169739 0 -23486163.941169739 -28388796.173164368 0 0 0 0 84013868.911987305 -33659372.459533691 0 -33659372.459533691 -23539115.724601746 0 0 0 0 12115315.951042175 176390680.23357582 0 176390680.23357582 14307401.611968994 0 0 0 0 300521.72272073478 -11423958.287024587 0 -11423958.287024587 -21401884.542803194 0 0 0 0 -39125190.641479492 40686608.214637756 0 40686608.214637756 -39487970.299987793 0 0 0 0 221075.60679347813 -2032544.730038844 0 -2032544.730038844 -3428440.5638772473 0 0 0 0 -297679917.72299194 -214649967.54382324 0 -214649967.54382324 -148839599.52050781 0 0 0 0 -311468424.20700073 -106638658.75189209 0 -106638658.75189209 -4113213.3241653442 0 0 0 0 -304802642.98373413 35946123.867263794 0 35946123.867263794 69298896.526012421 0 0 0 0 94933498.638549805 257964255.50956726 0 257964255.50956726 120613540.70159912 0 0 0 0 -296785516.85827637 561099180.53712463 0 561099180.53712463 165554267.50754547 0 0 0 0 -702972262.62988281 200972560.85762024 0 200972560.85762024 231168901.40675354 0 0 0 0 -5700780.215454191 -14431043.991048072 0 -14431043.991048072 -9945032.5648339055 0 0 0 0 -9912169.5168457031 -17765390.151119232 0 -17765390.151119232 -27135637.059875488 0 0 0 0 25074742.398681641 -20454642.589054108 0 -20454642.589054108 11083453.380661011 0 0 0 0 32052718.578079224 -64913707.811902046 0 -64913707.811902046 55692688.845275879 0 0 0 0 61698913.83984375 -119957394.35662079 0 -119957394.35662079 9253163.5228805542 0 0 0 0 142316182.55859375 -163364532.6506424 0 -163364532.6506424 -23805254.838886261 0 0 0 0 138900240.99737549 -133499929.67375946 0 -133499929.67375946 -8079723.4276275635 0 0 0 0 108345448.37722778 -79298999.82611084 0 -79298999.82611084 -11379276.666750908 0 0 0 0 58379190.372924805 -73346611.853546143 0 -73346611.853546143 -11957013.553722382 0 0 0 0 29902326.428436279 -69488988.26020813 0 -69488988.26020813 74427155.403610229 0 0 0 0 31386435.612792969 -97282159.722015381 0 -97282159.722015381 104225117.73008347 0 0 0 0 69200892.590118408 -100578969.98468781 0 -100578969.98468781 48493805.045730591 0 0 0 0 -13415939.422973633 -130722111.26750946 0 -130722111.26750946 80955414.753768921 0 0 0 0 88930995.585540771 -168171896.38741302 0 -168171896.38741302 82274909.853103638 0 0 0 0 128993741.05093384 -368065967.06632233 0 -368065967.06632233 224418253.90803528 0 0 0 0 42614444.672729492 -232594600.26045227 0 -232594600.26045227 212774179.26356125 0 0 0 0 112187192.82764435 -286265151.84128094 0 -286265151.84128094 -68861709.737571716 0 0 0 0 69223020.257354736 -259825469.68130112 0 -259825469.68130112 46640437.920166016 0 0 0 0 94879511.256469727 -208285492.0223999 0 -208285492.0223999 592893.07460784912 0 0 0 0 90389527.227905273 -199448782.84933472 0 -199448782.84933472 -12456407.860580444 0 0 0 0 139170697.53909302 -239853961.09549713 0 -239853961.09549713 -44525379.318252563 0 0 0 0 149696643.06652832 -197398054.41121674 0 -197398054.41121674 -117973499.2932663 0 0 0 0 111445043.9683075 -144895660.18391418 0 -144895660.18391418 -69091890.423271179 0 0 0 0 188425982.25436401 -126954616.75111008 0 -126954616.75111008 -115155376.71325684 0 0 0 0 130736001.57614136 -32955882.572105408 0 -32955882.572105408 -86878200.869926453 0 0 0 0 189201919.79397058 -73493653.313150704 0 -73493653.313150704 -58785482.353797913 0 0 0 0 109340141.80300903 -87959345.314105988 0 -87959345.314105988 -55582901.930366516 0 0 0 0 415656444.97073364 112559523.51899719 0 112559523.51899719 -20832324.551055908 0 0 0 0 1781686.2724386379 -6315940.5549363121 0 -6315940.5549363121 -476721.30442268774 0 0 0 0 -89848753.165222168 -98396333.667913437 0 -98396333.667913437 -6866385.2882232666 0 0 0 0 29406332.914276123 -14298869.203784943 0 -14298869.203784943 -42726955.636518478 0 0 0 0 666012.17580255866 -1917300.3896440268 0 -1917300.3896440268 -82245.11625058949 0 0 0 0 865853209.09204102 671942141.70858765 0 671942141.70858765 -55723287.889166355 0 0 0 0 363108702.0501709 -7578170.5870285034 0 -7578170.5870285034 20852832.984366894 0 0 0 0 354238725.83079147 -134125162.99759245 0 -134125162.99759245 -175212891.93523407 0 0 0 0 -233234675.19180298 -326501469.99141693 0 -326501469.99141693 -124711655.89253807 0 0 0 0 327141565.59800148 -303391017.51450133 0 -303391017.51450133 -441337369.54046631 0 0 0 0 -610459936.75311279 109058810.01161385 0 109058810.01161385 -168606551.21360207 0 0 0 0 -685236713.14509583 807642877.08004951 0 807642877.08004951 -1047059690.096096 0 0 0 0 -3294680.2192865014 288593.67269167304 0 288593.67269167304 1434338.1022099927 0 0 0 0 -115152600.1374588 -76260087.139621735 0 -76260087.139621735 -807892620.12103271 0 0 0 0 -3896365.4483184814 -468819263.3589592 0 -468819263.3589592 -51665501.557449341 0 0 0 0 -197123214.26776123 -45540384.098506927 0 -45540384.098506927 -65910398.769555449 0 0 0 0 -268583.12333679199 -239987664.9685936 0 -239987664.9685936 -214935408.27639771 0 0 0 0 3642102.4817521572 46497.751940429211 0 46497.751940429211 -3476744.9398304746 0 0 0 0 -182780622.5539856 -99273336.940620422 0 -99273336.940620422 -107300802.35529327 0 0 0 0 115720917.89141703 -230700084.71941113 0 -230700084.71941113 -102570361.7755127 0 0 0 0 2052815.6647981256 -63348.3179179281 0 -63348.3179179281 -1745192.8401365913 0 0 0 0 132732380.12015533 -215892012.7270031 0 -215892012.7270031 -132170249.65123749 0 0 0 0 -77514107.04624939 -291487489.36620331 0 -291487489.36620331 433842651.78845024 0 0 0 0 -146246333.80718994 73367245.426969528 0 73367245.426969528 397927443.13722229 0 0 0 0 283808.5287322998 -211626652.89805603 0 -211626652.89805603 358611675.09879303 0 0 0 0 54725717.379394531 46877632.560489655 0 46877632.560489655 -100797079.1457901 0 0 0 0 21011152.741546631 258741242.97600937 0 258741242.97600937 -303392326.55455589 0 0 0 0 -3725609.3037334085 2103913.5465170145 0 2103913.5465170145 3124874.0241579888 0 0 0 0 -100706214.59387207 89734327.898328781 0 89734327.898328781 -252371314.52240753 0 0 0 0 48354.610961914062 20927427.252426147 0 20927427.252426147 -50628597.034387589 0 0 0 0 44136215.30682373 -2737664.9435272217 0 -2737664.9435272217 -60117515.082922935 0 0 0 0 -1902447.415495351 -222809.62582917139 0 -222809.62582917139 1754141.0940374993 0 0 0 0 32257391.275787354 -33287795.686073303 0 -33287795.686073303 -7278403.9055938721 0 0 0 0 42510524.434951782 -13307068.751172066 0 -13307068.751172066 31305897.813583374 0 0 0 0 -5352392.3883209229 77221995.459983826 0 77221995.459983826 -114985897.39416504 0 0 0 0 -3606725.5189635679 -385005.12765699252 0 -385005.12765699252 3441208.495580459 0 0 0 0 -358786.73014831543 -133089726.80400848 0 -133089726.80400848 -110809153.99257946 0 0 0 0 54436644.148361206 -47467588.577009201 0 -47467588.577009201 99833857.726881027 0 0 0 0 -113641.19609797331 -143170635.80101267 0 -143170635.80101267 -36793016.915512085 0 0 0 0 148560.63859008628 -110409771.87948254 0 -110409771.87948254 131037069.52270508 0 0 0 0 59766633.108712673 -168087783.11162958 0 -168087783.11162958 114076778.98010254 0 0 0 0 -3058634.6284825504 -1643989.8378109671 0 -1643989.8378109671 -1718528.8634982295 0 0 0 0 -232514460.81276488 -342908174.93890262 0 -342908174.93890262 -84074576.16129303 0 0 0 0 -195019673.54345703 1532025126.8444138 0 1532025126.8444138 -680138994.80835342 0 0 0 0 530590549.70648193 -330295890.4238472 0 -330295890.4238472 -455589965.04787445 0 0 0 0 127284674.75152588 -156989419.01282501 0 -156989419.01282501 4780276.4645299911 0 0 0 0 87796454.420593262 493401374.53283882 0 493401374.53283882 -978913152.63364601 0 0 0 0 -4021480.3021889925 -5390677.0001163259 0 -5390677.0001163259 -6250215.5377678946 0 0 0 0 100625374.44136047 -39933370.978977203 0 -39933370.978977203 -1531631.7280311584 0 0 0 0 97953285.87663269 -136691845.9530468 0 -136691845.9530468 72424162.086475372 0 0 0 0 8193165.7751922607 -19735024.797456741 0 -19735024.797456741 11253961.581161499 0 0 0 0 63827405.003570557 -12483535.962995529 0 -12483535.962995529 -60636157.675821304 0 0 0 0 10201265.221374512 -49447800.644975662 0 -49447800.644975662 -82897474.798835754 0 0 0 0 7212129.5838928223 -36938174.833641052 0 -36938174.833641052 47750143.15933466 0 0 0 0 88278304.08959198 -79818879.086911678 0 -79818879.086911678 -16558872.530519485 0 0 0 0 5327650.3948974609 122172389.91665649 0 122172389.91665649 -381332907.92883301 0 0 0 0 -6436457.2621340156 -10205875.920653626 0 -10205875.920653626 -10425617.428411951 0 0 0 0 29666556.659667969 57449731.482812881 0 57449731.482812881 -212346878.30072784 0 0 0 0 28919866.503265381 9645479.0188388824 0 9645479.0188388824 -355971674.39597893 0 0 0 0 1023848.8466617167 -1002810.2063033879 0 -1002810.2063033879 -1609972.1144753075 0 0 0 0 -37743535.294589996 -8433213.2098248005 0 -8433213.2098248005 -195032700.46283722 0 0 0 0 29550732.833404541 -5760545.4846906662 0 -5760545.4846906662 -90732658.932735443 0 0 0 0 -1645672.1178436279 -1397637.7430858612 0 -1397637.7430858612 -47792971.976701736 0 0 0 0 -2626650.5906791687 -10312945.218877792 0 -10312945.218877792 -30808348.242263794 0 0 0 0 2888706.6511246562 -2165973.5793161402 0 -2165973.5793161402 -5047900.8666468132 0 0 0 0 11700570.278610229 -771908.15530776978 0 -771908.15530776978 -63515486.55191803 0 0 0 0 18382084.715766907 35331310.268850327 0 35331310.268850327 -173633167.13364792 0 0 0 0 17657143.686004639 -10578223.754642487 0 -10578223.754642487 -30330425.017250061 0 0 0 0 -73011645.82585144 33930339.741725922 0 33930339.741725922 -46606109.608304501 0 0 0 0 4339895.8702993691 -4027218.2002606988 0 -4027218.2002606988 -9970450.3553839885 0 0 0 0 121545.36604309082 -4720073.3059864044 0 -4720073.3059864044 -31501900.631034851 0 0 0 0 21484051.150177002 -3261239.0987281799 0 -3261239.0987281799 -35282419.76758194 0 0 0 0 4004563.584777832 -26797035.990356445 0 -26797035.990356445 -9020693.7556667328 0 0 0 0 17424720.55052948 -13277683.484563828 0 -13277683.484563828 -33974094.271209717 0 0 0 0 1444563.7255545035 -9378126.6355888098 0 -9378126.6355888098 -19580529.988686804 0 0 0 0 4527703.0392303467 -30801154.727374554 0 -30801154.727374554 -2816913.0785827637 0 0 0 0 -29882946.181152344 6913353.2326087952 0 6913353.2326087952 -14167989.379806519 0 0 0 0 17495530.327575684 -52098277.771270752 0 -52098277.771270752 424150423.0604248 0 0 0 0 10576902.427044675 -3740966.9251007065 0 -3740966.9251007065 -21465324.109346487 0 0 0 0 26845186.370677948 1412674.9031162262 0 1412674.9031162262 -315658357.73627472 0 0 0 0 1401675.5696816891 -1594831.9793380573 0 -1594831.9793380573 -3752643.1071121804 0 0 0 0 7879115.51745224 52982686.685866356 0 52982686.685866356 -295076641.27443695 0 0 0 0 -104638215.59803009 32491906.475673676 0 32491906.475673676 -256334454.84880829 0 0 0 0 -23279169.663707733 -10755459.22971642 0 -10755459.22971642 -293667191.46425629 0 0 0 0 -982370.83261489868 48261368.50462389 0 48261368.50462389 -596345371.73005676 0 0 0 0 -128022838.74194336 184423439.09947968 0 184423439.09947968 -363708664.63009644 0 0 0 0 -18742258.531635761 127612597.88736981 0 127612597.88736981 -374410902.27878571 0 0 0 0 34998099.823623657 85777426.49571228 0 85777426.49571228 -353104930.43009949 0 0 0 0 44771645.467712402 18860382.159713745 0 18860382.159713745 -356930414.1668129 0 0 0 0 -3681338.0020370483 46880111.604139328 0 46880111.604139328 -350304698.53370667 0 0 0 0 -47824372.007843018 -162649437.12468338 0 -162649437.12468338 -267820904.62265587 0 0 0 0 -1433087.7808205858 -1467743.822148256 0 -1467743.822148256 -1828565.1184197329 0 0 0 0 132287052.67611694 384341027.13718987 0 384341027.13718987 -210463379.09622192 0 0 0 0 -44587783.438995361 -159996590.36745453 0 -159996590.36745453 -489515886.62417603 0 0 0 0 -46102000.706390381 -208880618.03725433 0 -208880618.03725433 20529936.227005005 0 0 0 0 137903710.97769165 -105895091.72764587 0 -105895091.72764587 -166299523.81678772 0 0 0 0 65598476.513214111 -152406537.7425499 0 -152406537.7425499 -196208131.25860596 0 0 0 0 -13725276.527053833 -6818967.7347946167 0 -6818967.7347946167 -57972990.204818726 0 0 0 0 195969237.06448364 -7112387.1042137146 0 -7112387.1042137146 -19380255.719306946 0 0 0 0 -1250685.8568170816 -6234309.5257095024 0 -6234309.5257095024 -8970348.8137454465 0 0 0 0 3374496.9935820699 -13724395.937858224 0 -13724395.937858224 -18338339.450755477 0 0 0 0 2013892.602142334 -18707031.968887329 0 -18707031.968887329 884995.59558486938 0 0 0 0 49231123.101284027 -96623998.564108849 0 -96623998.564108849 47066640.342353821 0 0 0 0 49929951.480453491 -100780659.98741913 0 -100780659.98741913 -29830238.890642643 0 0 0 0 6807740.7661056519 -20031009.901319981 0 -20031009.901319981 -2001673.2390861511 0 0 0 0 6928252.4742431641 -18195939.36108017 0 -18195939.36108017 -2249651.2963180542 0 0 0 0 -9243158.113230437 -19387430.536077313 0 -19387430.536077313 -4842542.1286520353 0 0 0 0 -15128324.791503906 -40086161.291348457 0 -40086161.291348457 -9208174.2706773281 0 0 0 0 11144848.722839355 -64716515.163897038 0 -64716515.163897038 48231476.446445465 0 0 0 0 -21706769.498352051 -49357623.809758902 0 -49357623.809758902 58105076.761631966 0 0 0 0 741106.05667114258 -12696670.265382767 0 -12696670.265382767 -3819557.9853363037 0 0 0 0 -1499867.9113006592 -15153092.013167381 0 -15153092.013167381 823545.9552154541 0 0 0 0 -11171109.703800559 -10989075.380311416 0 -10989075.380311416 251724.12917878642 0 0 0 0 -6484703.5559082031 -2787087.6882753372 0 -2787087.6882753372 29752152.16904521 0 0 0 0 -25768877.223258972 -34371598.346719086 0 -34371598.346719086 103829524.68591118 0 0 0 0 45417514.944030762 -80623171.533900023 0 -80623171.533900023 87568570.387088299 0 0 0 0 907158.30561955273 -1806308.7923240885 0 -1806308.7923240885 -3894037.4147525514 0 0 0 0 46127950.980407715 -44548164.488006115 0 -44548164.488006115 11755102.995571613 0 0 0 0 96771337.422698975 -71028825.974766493 0 -71028825.974766493 19655072.270240784 0 0 0 0 -443556.65716492385 -1981467.2018281817 0 -1981467.2018281817 -2366107.202443324 0 0 0 0 20698363.275829315 5693069.1502969265 0 5693069.1502969265 -46481462.993967056 0 0 0 0 3122869.427734375 -1941642.4774560928 0 -1941642.4774560928 -34939146.291003227 0 0 0 0 -1321469.4062252939 -14078453.387417052 0 -14078453.387417052 -14616603.470468195 0 0 0 0 2706332.298582077 -15835486.057727575 0 -15835486.057727575 -2612819.5353279114 0 0 0 0 12342355.77961731 -10274112.087931633 0 -10274112.087931633 -25263766.350072861 0 0 0 0 -24574102.911346436 -57401568.021709442 0 -57401568.021709442 -111625925.06310654 0 0 0 0 -8054261.3683300912 -15579785.399094019 0 -15579785.399094019 -14236252.647098787 0 0 0 0 42644657.907562256 -39247451.70767498 0 -39247451.70767498 -17574999.291059494 0 0 0 0 40930484.393466949 -5359331.6452600956 0 -5359331.6452600956 -46111277.622543335 0 0 0 0 3673815.8751220703 -9898369.6684322357 0 -9898369.6684322357 -15028050.88759461 0 0 0 0 43676310.739547729 -23632415.253022194 0 -23632415.253022194 -79638859.934707642 0 0 0 0 -24654153.51852417 89986004.463265419 0 89986004.463265419 -192048022.73104095 0 0 0 0 45768510.39799881 -48674513.97134161 0 -48674513.97134161 34113884.626912117 0 0 0 0 -2945462.947277382 802923.08144024387 0 802923.08144024387 1028902.9282814302 0 0 0 0 3719864.254119873 44388070.493756294 0 44388070.493756294 -102103745.42851257 0 0 0 0 36136889.211990356 -88737449.683793068 0 -88737449.683793068 82433476.504783154 0 0 0 0 49084263.993244171 -65084892.776241809 0 -65084892.776241809 42451230.178521156 0 0 0 0 19559247.091583252 -67654467.01074791 0 -67654467.01074791 86557613.680858612 0 0 0 0 6307482.9938430786 -44583353.496733665 0 -44583353.496733665 51347984.97030735 0 0 0 0 -2443569.6970725954 2913438.2121053226 0 2913438.2121053226 2285129.7552656187 0 0 0 0 25383898.0936203 -22602109.199539214 0 -22602109.199539214 -31458283.814431906 0 0 0 0 5523378.2406616211 -49410345.0242939 0 -49410345.0242939 39711860.052455902 0 0 0 0 23239755.597930908 -4301177.4207129478 0 -4301177.4207129478 -110177178.74851274 0 0 0 0 -30707.42854309082 -40788032.846217394 0 -40788032.846217394 73300108.596540451 0 0 0 0 -25360024.602661133 -52550210.8078866 0 -52550210.8078866 130436332.73483729 0 0 0 0 -1370602.2186333388 1677218.0593610015 0 1677218.0593610015 1304890.1514469734 0 0 0 0 31070931.997924805 -63442645.910505295 0 -63442645.910505295 -3547719.6263809204 0 0 0 0 -36103.920562744141 -11753875.067653656 0 -11753875.067653656 -69310657.008124352 0 0 0 0 -9436491.8805084229 -80172975.095608354 0 -80172975.095608354 38140082.809620857 0 0 0 0 21829704.203704834 -37059633.08373642 0 -37059633.08373642 71307267.09223175 0 0 0 0 14171726.565155029 -91251803.778126717 0 -91251803.778126717 129942222.06371689 0 0 0 0 -6526044.3422851562 62879559.988090515 0 62879559.988090515 -261980301.92492676 0 0 0 0 -3698058.8854979277 1659132.4205174707 0 1659132.4205174707 2534109.0051608384 0 0 0 0 30282.419570280439 -67309994.321015239 0 -67309994.321015239 137699245.49375343 0 0 0 0 -44856575.117904663 -27815608.050132751 0 -27815608.050132751 75510432.729072571 0 0 0 0 93852152.059112549 13103334.808532715 0 13103334.808532715 -6763400.6566085815 0 0 0 0 -45822699.240302324 -56752155.92444694 0 -56752155.92444694 -244755.64725494385 0 0 0 0 8846048.3310922235 -6681511.8584929779 0 -6681511.8584929779 -643180.72034653276 0 0 0 0 -8796813.5740814209 3210270.0970497131 0 3210270.0970497131 -7910122.7190365791 0 0 0 0 -17051621.793884277 9802134.8196792603 0 9802134.8196792603 3055044.326133728 0 0 0 0 21428536.259414673 14364815.355060577 0 14364815.355060577 -27865798.83687973 0 0 0 0 10685952.131958008 43197819.609443665 0 43197819.609443665 42510821.164718628 0 0 0 0 53533367.154830933 45029883.506149292 0 45029883.506149292 -5934931.5793228149 0 0 0 0 1179044.4279762954 672033.6313383244 0 672033.6313383244 -617028.7261371538 0 0 0 0 30035345.278159142 -102726062.16148114 0 -102726062.16148114 188154330.03990936 0 0 0 0 523729339.04033661 -109229453.40635872 0 -109229453.40635872 -105377755.13911438 0 0 0 0 337846690.72129822 -218147112.20911789 0 -218147112.20911789 72921995.183496475 0 0 0 0 306273028.20152283 117991835.8195591 0 117991835.8195591 -30980835.102455139 0 0 0 0 570514849.30389404 -132044358.91131973 0 -132044358.91131973 -103847784.7746594 0 0 0 0 872803384.20857811 -501941123.31305933 0 -501941123.31305933 197766045.52396393 0 0 0 0 364963002.65545654 -201163470.41892624 0 -201163470.41892624 66228762.596611023 0 0 0 0 961458814.03339767 10921244.994452953 0 10921244.994452953 -77413167.21346283 0 0 0 0 -484555625.94709778 -143910297.36817169 0 -143910297.36817169 -387329193.29283905 0 0 0 0 -583187404.98890686 -719548133.55333328 0 -719548133.55333328 -608374342.03939819 0 0 0 0 7907521.2656172067 -6709262.2228524685 0 -6709262.2228524685 981083.81613400206 0 0 0 0 104839888.31674957 -96637995.612146378 0 -96637995.612146378 -8374042.8817596436 0 0 0 0 -450146039.34083557 -81574851.829456329 0 -81574851.829456329 -146117581.56438446 0 0 0 0 86755499.305099487 -208921338.90442657 0 -208921338.90442657 -447603347.6545639 0 0 0 0 126978031.00263023 -7791268.514975071 0 -7791268.514975071 -106820972.86360168 0 0 0 0 582527615.44670105 -47096153.736118317 0 -47096153.736118317 -236172657.36700058 0 0 0 0 -203892203.79919434 -306911216.22185516 0 -306911216.22185516 396836521.48706055 0 0 0 0 -70423286.965240479 -306933492.09379578 0 -306933492.09379578 -443219379.79401779 0 0 0 0 3965298.3845207319 -7062032.5683083683 0 -7062032.5683083683 -5833021.9462997466 0 0 0 0 83556175.91293335 -20750646.630226135 0 -20750646.630226135 -15875866.200958252 0 0 0 0 88210128.941268921 -25638984.603096008 0 -25638984.603096008 -43997964.035667419 0 0 0 0 76316925.797729492 -45108807.916046143 0 -45108807.916046143 -31842873.299835205 0 0 0 0 344258020.83680725 -290231581.54827309 0 -290231581.54827309 156465458.76137543 0 0 0 0 1173997.3456891924 888453.61180556007 0 888453.61180556007 -1390409.3396655284 0 0 0 0 4314108.7544583827 -1233853.1925409473 0 -1233853.1925409473 -5906776.3120209612 0 0 0 0 75602260.577880859 -34820180.009788513 0 -34820180.009788513 -7146728.2582740784 0 0 0 0 63197199.234619141 345743.96855163574 0 345743.96855163574 -24762717.926681519 0 0 0 0 -689877.51292144507 -7310547.9553373978 0 -7310547.9553373978 -10541680.522513218 0 0 0 0 3297474.8410339355 57759723.357345581 0 57759723.357345581 67020173.563016891 0 0 0 0 -143663353.47610474 -2777708.7299118042 0 -2777708.7299118042 59669630.753974915 0 0 0 0 9696931.048500061 41684078.755548477 0 41684078.755548477 21976098.990089417 0 0 0 0 -274622234.81246948 -234954047.81041336 0 -234954047.81041336 -131146754.70860291 0 0 0 0 228249585.00242615 -213132739.06954575 0 -213132739.06954575 -344796612.34320068 0 0 0 0 -146761271.28224182 -423939811.50195694 0 -423939811.50195694 -329060272.77058411 0 0 0 0 -249607083.73347473 -600114887.06056976 0 -600114887.06056976 -630603828.01580811 0 0 0 0 -661781.49744984508 -2503357.9055708572 0 -2503357.9055708572 -3491251.6250834018 0 0 0 0 -65284157.254608154 204183696.77055359 0 204183696.77055359 -314521099.81780243 0 0 0 0 -316382202.22592926 731692174.6501379 0 731692174.6501379 -980032832.25339508 0 0 0 0 -664629714.65048218 -634110976.35642242 0 -634110976.35642242 -124666871.820961 0 0 0 0 926843454.18951416 -148920344.27629089 0 -148920344.27629089 -291748279.58483887 0 0 0 0 123807167.98739624 -263864106.95803833 0 -263864106.95803833 -268278536.01496696 0 0 0 0 162472513.43013 -318078896.93921661 0 -318078896.93921661 -470252615.04209352 0 0 0 0 303180223.41641235 -271854628.74000549 0 -271854628.74000549 -898731588.61830139 0 0 0 0 9410749.4718309343 -5833372.0834427476 0 -5833372.0834427476 -3245152.7329187766 0 0 0 0 267072437.28852844 -246485098.72763443 0 -246485098.72763443 -477372518.92433167 0 0 0 0 1005443.7786290944 -2424469.0747232623 0 -2424469.0747232623 -647027.81503021717 0 0 0 0 -9689141.4951171875 -26228683.333122253 0 -26228683.333122253 -23269204.759269714 0 0 0 0 -25602104.285202026 -10394328.413478851 0 -10394328.413478851 1425367.5196609497 0 0 0 0 3428193.5048281699 -1778172.5046447888 0 -1778172.5046447888 -1705583.165678652 0 0 0 0 226475003.00788116 -218097688.55467606 0 -218097688.55467606 -442196892.85048676 0 0 0 0 100649747.925354 -36733579.400718689 0 -36733579.400718689 -75525258.836708069 0 0 0 0 579938.07719421387 -1933735.6554946899 0 -1933735.6554946899 -2193640.6257858276 0 0 0 0 3376248.8950653076 -7577097.2213783264 0 -7577097.2213783264 -6911725.9985961914 0 0 0 0 1351696.4878293574 -3441853.1525803823 0 -3441853.1525803823 -520859.94296862558 0 0 0 0 12503154.859832764 -2244425.62733078 0 -2244425.62733078 -18954472.220474243 0 0 0 0 3840788.1060626358 -4975369.0609515756 0 -4975369.0609515756 -3345650.0128828436 0 0 0 0 2554364.4122314453 -21533000.28944397 0 -21533000.28944397 -2105232.0001869202 0 0 0 0 -14689394.944824219 1855407.5491504669 0 1855407.5491504669 12425202.537391663 0 0 0 0 509026175.64883423 -313554683.91727066 0 -313554683.91727066 -1516696784.6015472 0 0 0 0 9683646.2082824707 -310719977.532547 0 -310719977.532547 -237781882.5327034 0 0 0 0 -16635761.049743652 -20250131.344997406 0 -20250131.344997406 -326401931.90361023 0 0 0 0 -490070257.12237549 -81328552.542572021 0 -81328552.542572021 1007604630.9232635 0 0 0 0 -461356286.88000488 1031612581.8521881 0 1031612581.8521881 135867733.01965332 0 0 0 0 -935284055.41229248 -1519015296.3723907 0 -1519015296.3723907 -234873195.45532739 0 0 0 0 1633595248.9807434 -46654230.608612061 0 -46654230.608612061 -346942322.99467468 0 0 0 0 531070618.96124268 -747673973.78985596 0 -747673973.78985596 2778761672.9685898 0 0 0 0 262174.17003495991 55948.190385824069 0 55948.190385824069 70431.059047877789 0 0 0 0 -124974165.07305908 -1562390648.6245728 0 -1562390648.6245728 -235098923.23447597 0 0 0 0 -3175267390.6047058 276706653.54256439 0 276706653.54256439 -359400932.00537109 0 0 0 0 303445097.98895264 -93969675.555503845 0 -93969675.555503845 -2934003287.0727539 0 0 0 0 272655755.48236084 85226637.693069458 0 85226637.693069458 -472698355.5503006 0 0 0 0 92124165.527587891 246820672.72277069 0 246820672.72277069 695887941.97714996 0 0 0 0 995619.27825944126 -1772118.2647031499 0 -1772118.2647031499 3817967.3326439708 0 0 0 0 249792.44201660156 -818355.0777130127 0 -818355.0777130127 4750885.2324829102 0 0 0 0 445958.64147949219 -1543902.4278945923 0 -1543902.4278945923 4866049.3493499756 0 0 0 0 -1062697.975402832 -12707112.245445251 0 -12707112.245445251 19590142.751296997 0 0 0 0 -444804.20327338576 -11435438.229685612 0 -11435438.229685612 -4243811.0318049081 0 0 0 0 722331.26564025879 -2079658.03931427 0 -2079658.03931427 5776334.4675292969 0 0 0 0 156296.83459472656 -1099033.2711410522 0 -1099033.2711410522 5551701.9021911621 0 0 0 0 -79111035.031951904 -34848257.291557312 0 -34848257.291557312 61990740.001457214 0 0 0 0 -6685082.7220916748 5569946.4712562561 0 5569946.4712562561 1119431.4465866089 0 0 0 0 -402292.45623192191 -1050265.5080614798 0 -1050265.5080614798 949594.68703182414 0 0 0 0 -48468789.66229248 16518839.230812073 0 16518839.230812073 18354154.467460632 0 0 0 0 -15674723.126190186 -9125571.2036514282 0 -9125571.2036514282 38286290.433135986 0 0 0 0 -1896668.0854016542 -15873630.594169719 0 -15873630.594169719 -10056991.45307347 0 0 0 0 -3406832.0070800781 -65761407.512382507 0 -65761407.512382507 59301458.542430878 0 0 0 0 -33744809.533294678 -52685549.189537048 0 -52685549.189537048 68553875.637355804 0 0 0 0 6719006.0847396851 -19996553.298201084 0 -19996553.298201084 -326002.83457565308 0 0 0 0 -30453226.215484619 -1935825.7639846802 0 -1935825.7639846802 40105967.060218811 0 0 0 0 11979235.791107178 -29919564.011528015 0 -29919564.011528015 31310114.047418594 0 0 0 0 3355922.1419841014 -9946585.0543063246 0 -9946585.0543063246 -7042882.6352244876 0 0 0 0 18514966.972694397 -14898541.090240479 0 -14898541.090240479 -10309011.105354309 0 0 0 0 -6294514.3756721616 -20195974.756288789 0 -20195974.756288789 -112585.29717993736 0 0 0 0 -11511778.934112549 2091754.6055831909 0 2091754.6055831909 23702309.604400635 0 0 0 0 -1372303.1273335889 -2090935.4077994861 0 -2090935.4077994861 1907435.2480926141 0 0 0 0 6171290.8609233722 -7940574.3481180295 0 -7940574.3481180295 -8060489.3606542172 0 0 0 0 10813350.810840607 -9879704.856564045 0 -9879704.856564045 -3516027.497844696 0 0 0 0 9812173.7519683838 -13816578.40988636 0 -13816578.40988636 -4510504.1585960388 0 0 0 0 6757473.4906616211 -17711151.560952187 0 -17711151.560952187 346831.4224357605 0 0 0 0 7197099.0823669434 -23213303.740492821 0 -23213303.740492821 5092079.6208019257 0 0 0 0 -5582084.0627338067 -23871373.184966408 0 -23871373.184966408 -16903610.085034981 0 0 0 0 -975630.98688165843 -961137.09052550979 0 -961137.09052550979 1092433.0522109978 0 0 0 0 9618533.4306106567 8649094.3249797821 0 8649094.3249797821 -56689362.151000977 0 0 0 0 3649287.307258606 5938120.6541004181 0 5938120.6541004181 -34042071.396125793 0 0 0 0 13235866.171691895 -8920689.7047386169 0 -8920689.7047386169 -15479374.566726685 0 0 0 0 15065391.609275818 -8753260.5367183685 0 -8753260.5367183685 -19690661.979034424 0 0 0 0 11122847.485916138 -3909735.1926994324 0 -3909735.1926994324 -11670559.37537384 0 0 0 0 15571939.957092285 -24018344.815620422 0 -24018344.815620422 -5647542.2655715942 0 0 0 0 18223421.344604492 -25559004.667608261 0 -25559004.667608261 -7178536.3728027344 0 0 0 0 14222220.410774231 -21854803.594209671 0 -21854803.594209671 -7455365.1261978149 0 0 0 0 6977599.2344512939 -2148282.9000024796 0 -2148282.9000024796 -43728668.37171936 0 0 0 0 22802687.098205566 -21993298.567308426 0 -21993298.567308426 -32950452.779655457 0 0 0 0 8123469.5332794189 13175286.369510651 0 13175286.369510651 -173749699.85406494 0 0 0 0 -8489884.377166748 -6789337.1038513184 0 -6789337.1038513184 -41205931.460792542 0 0 0 0 -231724883.21240234 -88791856.50327301 0 -88791856.50327301 -8820848.1285190582 0 0 0 0 -731026.31431698799 -72702.830203888007 0 -72702.830203888007 706460.27584385127 0 0 0 0 -80791052.653778076 45382714.48610878 0 45382714.48610878 16900041.046916962 0 0 0 0 -36084266.979278564 -5684713.9868164062 0 -5684713.9868164062 19145731.308853149 0 0 0 0 -40264812.050506592 -13857500.45080471 0 -13857500.45080471 14741120.566986084 0 0 0 0 -28920421.888015747 -9571432.7981491089 0 -9571432.7981491089 4580352.2452163696 0 0 0 0 -56674468.965942383 -3103304.3417320251 0 -3103304.3417320251 60810218.687835693 0 0 0 0 -44611095.0625 -41936519.204593658 0 -41936519.204593658 15552546.890953064 0 0 0 0 2111181.8892173767 480564.77798711881 0 480564.77798711881 -1154482.0097873099 0 0 0 0 -886772.73976105452 -1136077.2423983812 0 -1136077.2423983812 1210908.4080994204 0 0 0 0 192079378.6595459 -114639234.66545105 0 -114639234.66545105 -59499795.248054504 0 0 0 0 -28251202.399284363 -44987024.314237595 0 -44987024.314237595 -77606061.361549377 0 0 0 0 -39411542.872283936 -14558680.488014221 0 -14558680.488014221 4042077.7836332321 0 0 0 0 539726736.91208649 -95887925.373353958 0 -95887925.373353958 -97845585.505149841 0 0 0 0 379707442.77851868 71749458.118965149 0 71749458.118965149 -122658430.37773132 0 0 0 0 228958592.50447083 -7964629.2882957458 0 -7964629.2882957458 2990177.4805603027 0 0 0 0 -303185713.54499817 -86147973.818210602 0 -86147973.818210602 86487784.583000183 0 0 0 0 296569839.49525452 -83640807.3829422 0 -83640807.3829422 -3373.517822265625 0 0 0 0 318445710.40659332 -85406860.936206818 0 -85406860.936206818 -79427552.645606995 0 0 0 0 340931482.15698242 -122034877.31408691 0 -122034877.31408691 -26665117.919002533 0 0 0 0 295570680.14899063 -134278601.29842567 0 -134278601.29842567 -14714350.162765503 0 0 0 0 67650577.456581116 -131904822.63397121 0 -131904822.63397121 -100845787.76092529 0 0 0 0 289988627.71739197 -124849911.22258759 0 -124849911.22258759 1983927.9756631851 0 0 0 0 -1419979.374496717 -1838560.2498076931 0 -1838560.2498076931 2537514.8109992109 0 0 0 0 -33250258.042816162 100197974.62381363 0 100197974.62381363 -16412041.807624817 0 0 0 0 285308897.15568542 -160064069.97891998 0 -160064069.97891998 37119193.772933275 0 0 0 0 153928675.49488831 -170456462.16570663 0 -170456462.16570663 37091600.889972687 0 0 0 0 352130965.46282959 -231690324.69265747 0 -231690324.69265747 -31609002.621928215 0 0 0 0 369740637.14628601 -241681287.92134666 0 -241681287.92134666 -35638408.095077515 0 0 0 0 519283938.25054932 -200707163.37270355 0 -200707163.37270355 -90984827.100402832 0 0 0 0 359516791.10783863 -152806670.54543018 0 -152806670.54543018 -84620776.817420959 0 0 0 0 317137254.22781372 -140721115.65807724 0 -140721115.65807724 -60984223.276344299 0 0 0 0 293500580.20758057 -123861763.23809052 0 -123861763.23809052 -72879689.497207642 0 0 0 0 278244064.00431824 -186900799.72884369 0 -186900799.72884369 -40919242.571022034 0 0 0 0 297373253.32447815 -160730812.88845444 0 -160730812.88845444 -29565167.182453156 0 0 0 0 469679477.19876099 20039672.644252777 0 20039672.644252777 -58503124.652046204 0 0 0 0 216401462.2565155 -28958594.353637695 0 -28958594.353637695 -46194678.414318085 0 0 0 0 335869000.35112762 -75897115.483017445 0 -75897115.483017445 -59699596.676635742 0 0 0 0 124433213.8739624 -26920910.313072205 0 -26920910.313072205 -35808607.503173828 0 0 0 0 217249369.09890747 -25726318.161787987 0 -25726318.161787987 -44675290.884719849 0 0 0 0 151604423.66125488 -49446556.549201965 0 -49446556.549201965 -65466812.5690341 0 0 0 0 194824065.89955902 -25648898.541196346 0 -25648898.541196346 -54820770.369857788 0 0 0 0 181445791.1693573 -64883985.357139587 0 -64883985.357139587 -49815415.949185371 0 0 0 0 259701685.78979492 -129849265.06074715 0 -129849265.06074715 -37776210.697471619 0 0 0 0 93762111.051361084 -113718789.03765869 0 -113718789.03765869 -27656807.431816101 0 0 0 0 229098682.82820129 -80424238.308895111 0 -80424238.308895111 -62756399.871635437 0 0 0 0 174127775.51819992 6261249.8654651642 0 6261249.8654651642 -178416002.85540009 0 0 0 0 386024586.25870514 -221051522.60783195 0 -221051522.60783195 3775284.7708587646 0 0 0 0 332753840.55652618 -174356936.99366021 0 -174356936.99366021 -41702242.490013123 0 0 0 0 240311753.22401428 -103025043.22277069 0 -103025043.22277069 -52925096.310787201 0 0 0 0 245431453.3041687 -153804353.25679779 0 -153804353.25679779 -22816514.987829208 0 0 0 0 210770662.82359314 -101189529.53684616 0 -101189529.53684616 98798933.477291107 0 0 0 0 452825873.82837296 -9363751.2671785355 0 -9363751.2671785355 -19073991.711143494 0 0 0 0 175553268.96409607 -112082284.19105148 0 -112082284.19105148 6089687.9745674133 0 0 0 0 78484959.811981201 69329271.112571716 0 69329271.112571716 -77405412.684885025 0 0 0 0 238155349.6339035 -61422536.002339363 0 -61422536.002339363 -91283422.60785675 0 0 0 0 59333740.232376099 -75840774.191429138 0 -75840774.191429138 -34742074.247154236 0 0 0 0 -808539.3057051599 190233.3405710496 0 190233.3405710496 1160437.3399688862 0 0 0 0 -47780299.620304108 172130706.84244442 0 172130706.84244442 -185930212.15518951 0 0 0 0 327969601.75468445 -409681082.10404968 0 -409681082.10404968 364683383.23020744 0 0 0 0 -889060.28333380818 425736.99198965169 0 425736.99198965169 1850031.316165328 0 0 0 0 296512323.18224144 -326861977.76557112 0 -326861977.76557112 179750658.88033295 0 0 0 0 231486352.84082031 -216433146.66614532 0 -216433146.66614532 128555013.97835922 0 0 0 0 268283842.74345398 -173441944.94831848 0 -173441944.94831848 174106818.73873138 0 0 0 0 108102716.02658081 -90677867.318935394 0 -90677867.318935394 63592196.792263031 0 0 0 0 223142421.38108826 -295076685.27183914 0 -295076685.27183914 151419204.71055603 0 0 0 0 280357674.04022217 -256636829.63027191 0 -256636829.63027191 158783522.34347916 0 0 0 0 269244451.05784607 -194566506.32581329 0 -194566506.32581329 -171232745.40435028 0 0 0 0 -489355.4995463118 626806.75761032477 0 626806.75761032477 1869482.1617790908 0 0 0 0 323291641.37961197 -80278360.389407158 0 -80278360.389407158 -17596315.192588806 0 0 0 0 -193234742.0928421 -92513689.431818008 0 -92513689.431818008 41878725.29473877 0 0 0 0 -270095056.93713379 74507889.512275696 0 74507889.512275696 18370296.562714577 0 0 0 0 12810512.502241515 -4558475.7331657894 0 -4558475.7331657894 -1153111.9495985731 0 0 0 0 111393809.06311035 -45083821.368431091 0 -45083821.368431091 76558217.49307251 0 0 0 0 -10119972.476478577 -22882202.461620331 0 -22882202.461620331 -5131320.1652297974 0 0 0 0 38237508.223529801 -33433050.093928173 0 -33433050.093928173 3907979.1799885221 0 0 0 0 22585025.111328125 4231708.8345336914 0 4231708.8345336914 -17913158.286529541 0 0 0 0 -15828757.187479615 -28969691.214560688 0 -28969691.214560688 369210.71948242188 0 0 0 0 25446799.319915771 -132835117.43775177 0 -132835117.43775177 103061317.65039062 0 0 0 0 16130682.648887338 -43247812.667352512 0 -43247812.667352512 5555557.536247395 0 0 0 0 -4481679.3260217607 828386.77822387964 0 828386.77822387964 2393259.2590722069 0 0 0 0 46761169.439285278 -104524080.2702179 0 -104524080.2702179 -31624098.912456512 0 0 0 0 3861096.9825363159 -18537012.679397583 0 -18537012.679397583 -11133210.464424133 0 0 0 0 196439193.53215027 -34841659.320453644 0 -34841659.320453644 -709013.48187255859 0 0 0 0 -24849936.174232483 -39718403.608158112 0 -39718403.608158112 -6358698.8529644012 0 0 0 0 869751.47346288338 -16447103.850548461 0 -16447103.850548461 -990653.87707453221 0 0 0 0 13851039.433621841 -19709783.771974549 0 -19709783.771974549 1317624.798657611 0 0 0 0 -64866502.688064575 1342546.2033920288 0 1342546.2033920288 -70543844.374435425 0 0 0 0 -71980674.62538147 1854684.4201545715 0 1854684.4201545715 64961856.019271851 0 0 0 0 49413132.638572693 -37335508.17732811 0 -37335508.17732811 121132760.65496826 0 0 0 0 14236158.489517212 -98862796.535827637 0 -98862796.535827637 21298278.051980972 0 0 0 0 -53664020.416244507 -10368298.417724609 0 -10368298.417724609 32961752.885444641 0 0 0 0 -126317486.15887451 -92728236.904766083 0 -92728236.904766083 147863656.3763504 0 0 0 0 56108137.524972916 -120102257.6005106 0 -120102257.6005106 40165672.480796814 0 0 0 0 357106130.02505493 -234095287.10432434 0 -234095287.10432434 90482767.69773531 0 0 0 0 67248579.024093628 -58699774.07321167 0 -58699774.07321167 94823617.318016052 0 0 0 0 -49197198.766387939 -87312256.383110046 0 -87312256.383110046 84321273.500335693 0 0 0 0 -48170800.030532837 -67847918.018466949 0 -67847918.018466949 -9746498.5729904175 0 0 0 0 -120558542.98269653 -36493937.536304474 0 -36493937.536304474 14498859.808936357 0 0 0 0 -172018630.96026611 -35596320.139299393 0 -35596320.139299393 89495827.489784241 0 0 0 0 7094763.8924331665 -17923675.270393372 0 -17923675.270393372 21880448.271842957 0 0 0 0 -1719171.9750324446 -24371511.979886424 0 -24371511.979886424 18398754.600263704 0 0 0 0 9129128.8369312286 -32238346.011291027 0 -32238346.011291027 25339111.214633942 0 0 0 0 17356572.937606812 -28933618.050977707 0 -28933618.050977707 23913993.778465271 0 0 0 0 38445.290627680719 63585.115718826652 0 63585.115718826652 -295376.2193368962 0 0 0 0 -5538632.6822509766 -13786158.193151474 0 -13786158.193151474 13636817.894828796 0 0 0 0 -17472395.194415092 -21938970.17347537 0 -21938970.17347537 12368039.171451569 0 0 0 0 -84619591.464248657 -86925466.337427139 0 -86925466.337427139 50743872.924289703 0 0 0 0 12786690.948080752 -31338912.073516332 0 -31338912.073516332 20766271.314342909 0 0 0 0 -19030305.029685974 -101772915.9094162 0 -101772915.9094162 26032291.36491394 0 0 0 0 -28371780.814880371 -80294403.26140976 0 -80294403.26140976 -418316.25442504883 0 0 0 0 -20998983.861633301 -108157646.00030899 0 -108157646.00030899 1436583.0531811714 0 0 0 0 -1618922533.2461216 -40165736.176123053 0 -40165736.176123053 -1857518010.6535187 0 0 0 0 2301519.6782177715 -5767610.7268792391 0 -5767610.7268792391 -328452.98005029187 0 0 0 0 296928562.22436523 423405862.67159271 0 423405862.67159271 -1656849098.010067 0 0 0 0 -170601456.43824542 -1029760128.0914285 0 -1029760128.0914285 -816119919.93504333 0 0 0 0 -5113602.4926507846 -25323716.575435117 0 -25323716.575435117 35278035.250667997 0 0 0 0 -122542742.00863647 12433783.043079376 0 12433783.043079376 -496941935.3719635 0 0 0 0 133251111.14639282 -166263976.72827148 0 -166263976.72827148 76503760.774308205 0 0 0 0 48253371.091842651 -91594310.743267059 0 -91594310.743267059 13493848.700065613 0 0 0 0 42193547.391326904 -115861894.55125427 0 -115861894.55125427 16383181.378211975 0 0 0 0 74069114.797302246 -113065018.33845901 0 -113065018.33845901 6546746.4475746155 0 0 0 0 48553059.264724731 -81527112.113868713 0 -81527112.113868713 -3465034.3945007324 0 0 0 0 152462328.35438538 -56380150.248643875 0 -56380150.248643875 -36689384.043945312 0 0 0 0 99065674.317108154 -64867667.372924805 0 -64867667.372924805 -37618164.371587753 0 0 0 0 63214046.028457642 -50887453.114248276 0 -50887453.114248276 -25135903.644374847 0 0 0 0 -24793980.546569824 -74812036.128002167 0 -74812036.128002167 5725492.9461669922 0 0 0 0 21181960.112075806 -92526678.264582157 0 -92526678.264582157 -23627560.067977905 0 0 0 0 25213647.934178233 -33807170.250881605 0 -33807170.250881605 30794989.282577027 0 0 0 0 -1887759537.5280151 -1854512669.3297243 0 -1854512669.3297243 197745029.90919495 0 0 0 0 68677930.712051392 6980040.5053482056 0 6980040.5053482056 7077509.8748950958 0 0 0 0 3059553980.7877274 306675300.66620064 0 306675300.66620064 -991053639.75823212 0 0 0 0 -246239508.42536163 -667364665.09474373 0 -667364665.09474373 -1213079578.1682549 0 0 0 0 -785435132.72137451 283906150.63554764 0 283906150.63554764 -1273753013.7409058 0 0 0 0 929741066.67051697 108687019.71405506 0 108687019.71405506 -1445445062.8635101 0 0 0 0 -1122900152.1201897 -712546261.90017366 0 -712546261.90017366 -974069901.25458527 0 0 0 0 33682490.198918916 -44655174.959539495 0 -44655174.959539495 32694792.069435012 0 0 0 0 2162168968.991684 -1966386759.8728809 0 -1966386759.8728809 -2156145208.0521793 0 0 0 0 462091520.35957336 -2326367788.5515404 0 -2326367788.5515404 -1878529577.7082748 0 0 0 0 -1739803321.1605017 99421546.364418566 0 99421546.364418566 2002174179.650547 0 0 0 0 -87172295.600231171 555851334.13192272 0 555851334.13192272 1978026798.2924557 0 0 0 0 109532712.44516754 111910982.15739822 0 111910982.15739822 18290929.419773102 0 0 0 0 -471833934.08655548 154895303.57960892 0 154895303.57960892 89196326.457368851 0 0 0 0 614116542.86772919 924952253.37517786 0 924952253.37517786 -967961787.98553848 0 0 0 0 55018485.089622498 242780786.36555099 0 242780786.36555099 -226479587.22975159 0 0 0 0 41164405.941997528 413736982.6717329 0 413736982.6717329 -920809946.50288391 0 0 0 0 53970490.285167694 183822570.80006313 0 183822570.80006313 -479034770.69696045 0 0 0 0 -111800651.25402832 123483572.76797867 0 123483572.76797867 -184790830.67869186 0 0 0 0 -308528127.19688797 261143850.88568878 0 261143850.88568878 468751978.11122894 0 0 0 0 -98078874.118766785 61120434.690004349 0 61120434.690004349 77045897.587156296 0 0 0 0 32153784.071098328 -94002632.9466362 0 -94002632.9466362 -610322658.29510498 0 0 0 0 15669781.11857605 -112010698.21313095 0 -112010698.21313095 -320036686.80167389 0 0 0 0 -331087979.5281105 -258554278.33034611 0 -258554278.33034611 240188322.12299919 0 0 0 0 608449887.07011414 129214579.03142262 0 129214579.03142262 -1231098051.6792488 0 0 0 0 -682657695.85569382 61337762.949085236 0 61337762.949085236 591924274.01111603 0 0 0 0 245065.97518952563 -3404308.3894974012 0 -3404308.3894974012 1010325.5330153685 0 0 0 0 -78424512.124610901 295100472.29258347 0 295100472.29258347 -497168254.22842407 0 0 0 0 60594468.831436157 168667758.74050522 0 168667758.74050522 -662165282.9657588 0 0 0 0 18041155.764678955 199967593.58879089 0 199967593.58879089 -357213355.30551958 0 0 0 0 199321108.7928772 910748105.19806862 0 910748105.19806862 282474143.6778717 0 0 0 0 -50378334.105121613 153488200.77398777 0 153488200.77398777 -189856797.51955414 0 0 0 0 433915884.92115784 -726659801.93721676 0 -726659801.93721676 -757209530.18943024 0 0 0 0 -3629152.0745877679 -10431145.744942633 0 -10431145.744942633 -12128768.319689874 0 0 0 0 50763601.258239746 -164019104.53430271 0 -164019104.53430271 275071828.36956596 0 0 0 0 1699283.1717901938 -4395112.7836798355 0 -4395112.7836798355 -5158881.9152309271 0 0 0 0 48310108.412277222 -25815838.492415428 0 -25815838.492415428 33648632.08292675 0 0 0 0 531073753.42689514 128755271.0644207 0 128755271.0644207 -180352596.92948532 0 0 0 0 -345728749.8253479 -268573261.01573801 0 -268573261.01573801 31001361.198989868 0 0 0 0 42551214.456855774 -76512282.266953945 0 -76512282.266953945 -949898.64434432983 0 0 0 0 53881537.434020996 7671865.6317424774 0 7671865.6317424774 -23714576.123687744 0 0 0 0 10437262.332739456 -12296353.454669788 0 -12296353.454669788 -12248417.876782928 0 0 0 0 -267465260.45911789 21167830.589749098 0 21167830.589749098 14857720.671295166 0 0 0 0 144372528.81895447 -54250772.093582153 0 -54250772.093582153 -55546452.87953186 0 0 0 0 1147281.2615601793 -12404822.199390791 0 -12404822.199390791 3884141.6283354182 0 0 0 0 6718152.4726333618 -78556967.4655056 0 -78556967.4655056 -751531.2972946167 0 0 0 0 -27682742.438140869 339112.96620559692 0 339112.96620559692 -14319326.029846191 0 0 0 0 -4357564.2252597809 -30428618.274242043 0 -30428618.274242043 19295437.34564209 0 0 0 0 8165849.2926084772 -29752677.335926957 0 -29752677.335926957 22959960.418114856 0 0 0 0 48042476.267242432 -125616472.53223801 0 -125616472.53223801 -46797718.681282043 0 0 0 0 120888828.70671082 -110928709.54282379 0 -110928709.54282379 -50871119.613835335 0 0 0 0 278403.93389129639 467051784.35258675 0 467051784.35258675 -565377161.01859283 0 0 0 0 2345765.1946395915 -2563587.1772485226 0 -2563587.1772485226 -3160104.3473467119 0 0 0 0 -76733398.553388596 -167725597.37001419 0 -167725597.37001419 -28705120.987552643 0 0 0 0 249078032.67019653 375292610.25516129 0 375292610.25516129 -1137843237.7440214 0 0 0 0 -46111346.899299622 -239735455.48496437 0 -239735455.48496437 -505215008.70225906 0 0 0 0 -16926338.427566528 -70538987.729549408 0 -70538987.729549408 -213463404.79415131 0 0 0 0 38813135.672302246 120349207.24582672 0 120349207.24582672 -524146253.75569153 0 0 0 0 -130433041.92414856 -52510852.860149384 0 -52510852.860149384 20999075.963531494 0 0 0 0 -23878296.43573761 -53753511.549211502 0 -53753511.549211502 -40253767.59274292 0 0 0 0 -325781747.50013733 -66598007.931089878 0 -66598007.931089878 -77603094.65980351 0 0 0 0 -534226771.8458252 -605905100.81335354 0 -605905100.81335354 -511732161.1189127 0 0 0 0 -1119210597.0031662 -474594961.04867887 0 -474594961.04867887 -134928095.89564776 0 0 0 0 -686248552.10584259 -676593800.08680117 0 -676593800.08680117 -369577879.97852027 0 0 0 0 -720157620.26927185 -201281122.44262838 0 -201281122.44262838 31738151.595493972 0 0 0 0 -91096339.742546082 89671225.791377068 0 89671225.791377068 162260521.29959536 0 0 0 0 -84425944.329643726 -87689495.762380257 0 -87689495.762380257 49157487.890069962 0 0 0 0 -51114.002072252333 719524.59332705196 0 719524.59332705196 -1856823.7116552345 0 0 0 0 -590102080.97297668 -597265424.7647562 0 -597265424.7647562 -529647928.6795826 0 0 0 0 -857242477.70927238 -1094444078.6060932 0 -1094444078.6060932 -931338560.17796707 0 0 0 0 3648918.5752487183 -26600371.731976509 0 -26600371.731976509 90539636.212993622 0 0 0 0 67516587.854991913 -63743832.615922689 0 -63743832.615922689 4391304.2565879822 0 0 0 0 -1568798.9411240816 1061283.5032800175 0 1061283.5032800175 -4052561.5982608516 0 0 0 0 -2899123.3782928642 -6106694.32683146 0 -6106694.32683146 -9201773.1135194991 0 0 0 0 13118091.805618286 -112873806.17485213 0 -112873806.17485213 -33057843.82713294 0 0 0 0 21410098.871307373 30933537.377522349 0 30933537.377522349 -20105938.621802643 0 0 0 0 154979970.66547751 -8797215.8167258725 0 -8797215.8167258725 -107827984.0524869 0 0 0 0 19055430.075183868 -19449242.73200655 0 -19449242.73200655 18076055.256570816 0 0 0 0 -117445364.61670113 -63646050.649183035 0 -63646050.649183035 -100533212.88314438 0 0 0 0 -36610382.406322479 64718457.217214465 0 64718457.217214465 -107408369.86973143 0 0 0 0 -64550028.597618103 -82996966.332128227 0 -82996966.332128227 -83724658.763699055 0 0 0 0 -105873226.97358322 -7575767.5808544457 0 -7575767.5808544457 -212743318.33534265 0 0 0 0 -351336857.44527435 -28368525.130369902 0 -28368525.130369902 -59409567.372433662 0 0 0 0 -285898948.39291382 -249129340.82028085 0 -249129340.82028085 -560439029.06290865 0 0 0 0 -481902498.10696411 -503081522.72177815 0 -503081522.72177815 -245712898.46647799 0 0 0 0 -128933752.70233154 40904256.638971329 0 40904256.638971329 -17501271.982946873 0 0 0 0 -483697144.1373291 -187177252.90303254 0 -187177252.90303254 -70680916.809631467 0 0 0 0 -15708788.340660095 -173448482.43891573 0 -173448482.43891573 -85265500.686614037 0 0 0 0 -487120945.11358643 106825057.36281073 0 106825057.36281073 -912665794.42617941 0 0 0 0 -1226714173.4216843 -553304588.40430057 0 -553304588.40430057 -184701528.06903875 0 0 0 0 -1643313213.903656 -801328003.51742268 0 -801328003.51742268 -262121152.57172012 0 0 0 0 -572481125.21888733 -788682616.77123094 0 -788682616.77123094 -1085160627.436975 0 0 0 0 -54327446.274230957 -32968428.551997185 0 -32968428.551997185 4228715.636343956 0 0 0 0 -43197.095416408032 -1858380.3685143124 0 -1858380.3685143124 -718562.91338601895 0 0 0 0 54017724.061992645 -50397517.765509605 0 -50397517.765509605 -49564085.855028152 0 0 0 0 -54971471.470214844 -55679172.739664078 0 -55679172.739664078 -12958688.442129135 0 0 0 0 -55135840.001903772 -52628444.804047897 0 -52628444.804047897 36098897.20954895 0 0 0 0 -191720567.24227905 -94957895.437256336 0 -94957895.437256336 25816671.706965446 0 0 0 0 -53361629.778846741 -36390371.126126289 0 -36390371.126126289 15490561.357883453 0 0 0 0 -47442084.01146698 -35218903.069947243 0 -35218903.069947243 13237523.931442261 0 0 0 0 -38185902.600753784 -40419060.014804602 0 -40419060.014804602 -14653143.200622559 0 0 0 0 -23530666.852878571 37699051.322210312 0 37699051.322210312 56181159.448574543 0 0 0 0 -2526534.0050104782 -5346559.3891222607 0 -5346559.3891222607 1049024.6525216857 0 0 0 0 -39100311.352645874 -25623446.654264927 0 -25623446.654264927 26013997.567783356 0 0 0 0 -4274817.6472661942 -6168276.000486495 0 -6168276.000486495 -2964609.5293177087 0 0 0 0 59799622.059669495 97550736.894212723 0 97550736.894212723 1852359.7894979715 0 0 0 0 -21123276.342529297 -34551017.048324585 0 -34551017.048324585 -21815229.648677826 0 0 0 0 -18192945.753887177 -14426420.2394104 0 -14426420.2394104 -12752793.730522156 0 0 0 0 -39546840.955680847 -33591678.787513733 0 -33591678.787513733 -11584915.750213623 0 0 0 0 5150607.1897411346 -27770608.827596664 0 -27770608.827596664 -25897261.336929321 0 0 0 0 -10072516.682342529 -30809729.151773453 0 -30809729.151773453 -17056035.974456787 0 0 0 0 -9125806.7437419891 -34105852.854847908 0 -34105852.854847908 -15326356.194984436 0 0 0 0 -573771.25977117568 -3889456.4755283706 0 -3889456.4755283706 -266907.06018853467 0 0 0 0 -33555070.926174164 -48412884.365686417 0 -48412884.365686417 -24275958.622520447 0 0 0 0 -3746937.2347381897 -4965236.2070843689 0 -4965236.2070843689 -4863952.00698388 0 0 0 0 -50189426.493093491 -28526140.288097382 0 -28526140.288097382 -18328356.069107056 0 0 0 0 -18372012.550683975 -47318537.852746964 0 -47318537.852746964 58262405.312702179 0 0 0 0 -36064082.961585999 -28435209.875587463 0 -28435209.875587463 -49830071.089607239 0 0 0 0 -42657713.774749756 -30527277.819093704 0 -30527277.819093704 -14619235.916168213 0 0 0 0 -33108247.668754578 -41808960.421344757 0 -41808960.421344757 -13034392.231254578 0 0 0 0 -2353220.1371486336 -6454123.7245331407 0 -6454123.7245331407 3183849.61901474 0 0 0 0 -32861099.532497406 -12782045.151262283 0 -12782045.151262283 15166187.338504791 0 0 0 0 -35934640.089559555 -26869610.550956726 0 -26869610.550956726 -19620689.640655518 0 0 0 0 -41823180.784210205 -35637367.761917114 0 -35637367.761917114 -14413806.191947937 0 0 0 0 -29849705.499732971 -38143405.495933533 0 -38143405.495933533 -19112430.182697296 0 0 0 0 -48873999.579498291 -34017554.392914772 0 -34017554.392914772 -3381632.9417088032 0 0 0 0 -36393152.015592575 -25876450.963587761 0 -25876450.963587761 -4344942.0107860565 0 0 0 0 2827581.5726565458 -4941031.5627172813 0 -4941031.5627172813 -3085970.3622451834 0 0 0 0 -15733131.851989746 -19943303.775884867 0 -19943303.775884867 9661515.7228355408 0 0 0 0 -15669847.961097717 -19039689.940168381 0 -19039689.940168381 20494579.749668121 0 0 0 0 -9567119.8824996948 -14710128.003885269 0 -14710128.003885269 5618121.7218475342 0 0 0 0 10038960.619846344 -33036157.125160217 0 -33036157.125160217 15041402.374019623 0 0 0 0 -9844704.2022399902 -15031661.149621964 0 -15031661.149621964 14027824.018234253 0 0 0 0 8865289.9825429842 -22375376.172601581 0 -22375376.172601581 18016187.104235545 0 0 0 0 7716254.0801624879 -26305151.329869106 0 -26305151.329869106 15623777.965258112 0 0 0 0 -1781496.7724380493 -29927678.025159836 0 -29927678.025159836 22845974.365949631 0 0 0 0 16267625.726383209 -38400017.211087704 0 -38400017.211087704 17213226.29624939 0 0 0 0 11703474.559143066 -20711270.410335541 0 -20711270.410335541 9903949.5101776123 0 0 0 0 14824265.459293023 -30663983.361249655 0 -30663983.361249655 7600589.6566032004 0 0 0 0 2074447.0256441757 -20970552.276977003 0 -20970552.276977003 4040875.9689872796 0 0 0 0 -3899892.3075742088 -11082541.229133604 0 -11082541.229133604 6275591.452050982 0 0 0 0 -3601667.120388031 -15397460.992585897 0 -15397460.992585897 6062945.936668396 0 0 0 0 -8831509.4405899048 -13368417.077795982 0 -13368417.077795982 -1267985.7785072327 0 0 0 0 -32827378.324485779 -23642823.318349838 0 -23642823.318349838 19413338.090528071 0 0 0 0 -64952255.524028778 -52459541.917788982 0 -52459541.917788982 825025.28835296631 0 0 0 0 1449585.8710098267 -106817047.65134382 0 -106817047.65134382 -4787800.9258439541 0 0 0 0 890727.44740147679 -18247869.879213333 0 -18247869.879213333 -19017225.720407698 0 0 0 0 75213978.838882446 -54706667.557679474 0 -54706667.557679474 -13054131.772450328 0 0 0 0 8157425.8916397095 -56697982.268671989 0 -56697982.268671989 27757148.439464986 0 0 0 0 -26813522.310287476 -33835582.972138882 0 -33835582.972138882 -12952977.216674566 0 0 0 0 2587664.0548934937 -55289726.832820892 0 -55289726.832820892 -33567824.577587605 0 0 0 0 -28224808.592658997 -76041955.904469371 0 -76041955.904469371 3740243.4906776249 0 0 0 0 867176.19778909162 -19590336.684017904 0 -19590336.684017904 5744351.8209755197 0 0 0 0 90044026.002128601 -46157361.113336563 0 -46157361.113336563 -44131821.781814575 0 0 0 0 -55550760.077590942 -21027001.302563667 0 -21027001.302563667 -34134604.498447418 0 0 0 0 -236764260.08685303 -211756122.63136292 0 -211756122.63136292 191836793.81123352 0 0 0 0 -22628435.748062134 -19705566.915885925 0 -19705566.915885925 11125377.567466736 0 0 0 0 -383607.89805663005 -16915334.965398714 0 -16915334.965398714 -4777685.614137847 0 0 0 0 9416118.2858695984 -21786736.116011858 0 -21786736.116011858 -31378341.278045654 0 0 0 0 2307889.8794822367 -21561316.514200088 0 -21561316.514200088 -18775096.713376924 0 0 0 0 -13481394.311260648 -15444238.383447312 0 -15444238.383447312 18561313.412330542 0 0 0 0 -3975586.6188354492 -10889268.392272949 0 -10889268.392272949 14574883.536148071 0 0 0 0 -23708638.795087181 -21266953.975001745 0 -21266953.975001745 12479898.531949576 0 0 0 0 -6025674.6913221832 -18832536.793537956 0 -18832536.793537956 4154297.3000063635 0 0 0 0 -19026658.602973938 -21742451.975585938 0 -21742451.975585938 11967512.598804474 0 0 0 0 -9599468.5467147827 -17309636.523036957 0 -17309636.523036957 2380612.3243560791 0 0 0 0 -28710850.134765625 -18516570.537908554 0 -18516570.537908554 12330495.290126801 0 0 0 0 -1834236.3128391067 -22481878.987150766 0 -22481878.987150766 6907910.0076959543 0 0 0 0 -21507847.512278557 -14286475.590557098 0 -14286475.590557098 4954984.3465805054 0 0 0 0 27981464.474113464 -19104501.639556885 0 -19104501.639556885 -1810683.9911155701 0 0 0 0 2091167.9721298218 -19736801.676921844 0 -19736801.676921844 12995552.382946014 0 0 0 0 8631637.6287793294 -19711322.687473103 0 -19711322.687473103 -778546.76075458573 0 0 0 0 -10095867.08240509 -18000784.141841888 0 -18000784.141841888 -1512451.2446594238 0 0 0 0 246951887.46176147 -93479245.340255737 0 -93479245.340255737 16885824.585845947 0 0 0 0 -13982643.281539917 -22977996.339530945 0 -22977996.339530945 2954340.4062652588 0 0 0 0 1643086.7152185366 -20715432.906609092 0 -20715432.906609092 1100029.1413876917 0 0 0 0 4306843.1241760254 -24831738.199890137 0 -24831738.199890137 -3546502.1778259277 0 0 0 0 -22582952.155204773 -22285634.880931854 0 -22285634.880931854 5359314.1493110657 0 0 0 0 -37462051.535171509 -46472166.632270813 0 -46472166.632270813 1112467.0414276123 0 0 0 0 5606342.914226763 -14675365.677411597 0 -14675365.677411597 -3365832.9545764178 0 0 0 0 -3119596.9736557007 -31982191.046005249 0 -31982191.046005249 -16506232.301757812 0 0 0 0 -7811659.0745239258 -26830817.315078735 0 -26830817.315078735 -7800808.6023712158 0 0 0 0 -2160822.3376083374 -11273631.742269516 0 -11273631.742269516 -4623706.2430725098 0 0 0 0 -27309131.385749817 -8245803.7684249878 0 -8245803.7684249878 45514396.768981934 0 0 0 0 4668885.3399505615 -30647421.491600037 0 -30647421.491600037 -36019367.625793457 0 0 0 0 -6085551.8004608154 -43405035.761245728 0 -43405035.761245728 -26855707.682743073 0 0 0 0 -6183073.2915287018 -21483146.956823349 0 -21483146.956823349 17184471.365623474 0 0 0 0 -32453224.6378479 -21942798.825302124 0 -21942798.825302124 8398239.103767395 0 0 0 0 -2689422.1096976679 -21606595.087483943 0 -21606595.087483943 3627236.621412009 0 0 0 0 40212353.664176941 -25935841.177463531 0 -25935841.177463531 -7375871.8508262634 0 0 0 0 -23751355.229904175 -22983842.46395874 0 -22983842.46395874 -130318.31322860718 0 0 0 0 -19878340.262693405 -13887282.40255928 0 -13887282.40255928 10982674.561660767 0 0 0 0 -4933654.6631669132 -15868266.294127014 0 -15868266.294127014 6055436.6603738666 0 0 0 0 -25265754.916221619 -23493785.404029846 0 -23493785.404029846 3255284.5210876465 0 0 0 0 225660421.95468473 -676023404.29011631 0 -676023404.29011631 -874231030.15460205 0 0 0 0 -26173925.59513855 -22626954.337547302 0 -22626954.337547302 7802599.568605423 0 0 0 0 -26760323.821860313 -20313948.827001572 0 -20313948.827001572 1586113.0595397949 0 0 0 0 -260915778.58660889 -275406554.60922241 0 -275406554.60922241 123092987.82080841 0 0 0 0 -163487408.52275085 -122334320.36637115 0 -122334320.36637115 -146489495.62658691 0 0 0 0 -4377346.3033057144 -21844041.581400983 0 -21844041.581400983 780187.81700374186 0 0 0 0 -163536502.73165894 -148735257.57070923 0 -148735257.57070923 115804953.99765015 0 0 0 0 -17289635.513114929 -26198404.850551605 0 -26198404.850551605 2765163.1611099243 0 0 0 0 -22840438.111984253 -21963243.332756042 0 -21963243.332756042 1237491.5073900223 0 0 0 0 -23850287.429388046 -24052732.46767807 0 -24052732.46767807 2397812.9084320068 0 0 0 0 -29948942.793083191 -18677338.036193848 0 -18677338.036193848 3393404.5017089844 0 0 0 0 382471883.74681664 277366563.77695084 0 277366563.77695084 20823888.175327301 0 0 0 0 -7383109.2604607679 -20568020.722812612 0 -20568020.722812612 11145777.606100947 0 0 0 0 -37012374.412723541 -20653415.001281738 0 -20653415.001281738 10234347.349060059 0 0 0 0 -33839707.410650253 -18787059.69235611 0 -18787059.69235611 -2414628.5241241455 0 0 0 0 -56248441.090698242 -337863144.06182861 0 -337863144.06182861 164730987.14276123 0 0 0 0 96922525.459564209 -417194726.23158264 0 -417194726.23158264 112965837.48200417 0 0 0 0 -27350886.910104752 -27296170.569561005 0 -27296170.569561005 16069670.163543701 0 0 0 0 -37446142.494049072 -26165445.295181274 0 -26165445.295181274 9951996.1018066406 0 0 0 0 -22598483.211395264 -15164698.457473755 0 -15164698.457473755 16242818.439670563 0 0 0 0 -70397283.862091064 -153437825.52241516 0 -153437825.52241516 -9358341.9424438477 0 0 0 0 -16742116.221572876 -43505743.024711609 0 -43505743.024711609 243777516.40305328 0 0 0 0 -21302935.857208252 -73850275.144798279 0 -73850275.144798279 89964923.247657776 0 0 0 0 140056834.16451645 -144494223.55648804 0 -144494223.55648804 -10668023.593963623 0 0 0 0 -111766568.82110596 143607068.68417358 0 143607068.68417358 57088334.604644775 0 0 0 0 314449959.97900391 330114745.34411621 0 330114745.34411621 64523913.420623779 0 0 0 0 310940004.91659546 -106922223.08958054 0 -106922223.08958054 -14019834.409835815 0 0 0 0 -1331625.5026701577 -979179.3917792961 0 -979179.3917792961 72943.077536351979 0 0 0 0 -11874334.629241943 -53486778.847564697 0 -53486778.847564697 75156223.748306274 0 0 0 0 -8294131.4929097295 -14122729.288305135 0 -14122729.288305135 1869334.3592972308 0 0 0 0 477676.93315219879 -17204347.187241435 0 -17204347.187241435 -2500458.4739685059 0 0 0 0 -12437975.78250885 -23446913.989023209 0 -23446913.989023209 3026355.6170730591 0 0 0 0 712082.58942365646 -11575890.143716335 0 -11575890.143716335 4459604.8790283203 0 0 0 0 5405987.6368806064 -13197377.444211617 0 -13197377.444211617 -4603228.0195115507 0 0 0 0 -86795141.828495026 6803867.5132637024 0 6803867.5132637024 7010108.9620361328 0 0 0 0 4653579.1277160645 -41993645.348625183 0 -41993645.348625183 -150883907.9021492 0 0 0 0 2307143.2659952343 -1016990.5809447411 0 -1016990.5809447411 -1476722.2096210383 0 0 0 0 83229113.306396484 -25543421.920717239 0 -25543421.920717239 12521010.418228149 0 0 0 0 -10674810.034258433 -1806033.298075106 0 -1806033.298075106 8752747.0375709049 0 0 0 0 -4516229.3406906128 -5947126.4918289185 0 -5947126.4918289185 -52293397.00138855 0 0 0 0 -6979784.6549045593 -2150521.4616500512 0 -2150521.4616500512 9667403.9679491743 0 0 0 0 -27874778.176292419 14010447.730651855 0 14010447.730651855 43506341.54876709 0 0 0 0 -8137821.4875926971 -13133419.345344543 0 -13133419.345344543 37246326.044799805 0 0 0 0 -5815227.9786269702 -9050190.8836152628 0 -9050190.8836152628 5372133.3972184248 0 0 0 0 -20415673.328330994 -17806023.169589996 0 -17806023.169589996 17533455.473365784 0 0 0 0 -54364122.200164795 -16957869.6679039 0 -16957869.6679039 19646619.749675751 0 0 0 0 -54802112.174804688 -26640134.483810425 0 -26640134.483810425 86993098.090507507 0 0 0 0 -55436183.328605652 -65971019.362888336 0 -65971019.362888336 28027260.33706665 0 0 0 0 -5835367.1811065674 -45412147.336662292 0 -45412147.336662292 60031815.141777039 0 0 0 0 74897666.244625092 51482104.26309967 0 51482104.26309967 -17522131.424476624 0 0 0 0 -7261965.9017915148 -50180.74307682924 0 -50180.74307682924 4960572.1986784469 0 0 0 0 -50906955.208364487 -594126.24214744568 0 -594126.24214744568 2315319.8948669434 0 0 0 0 -91302405.923793793 32551919.93321991 0 32551919.93321991 183159928.79161835 0 0 0 0 -51415084.1510849 109604961.76166153 0 109604961.76166153 162710268.24058533 0 0 0 0 -55471222.910423279 -80717697.065063477 0 -80717697.065063477 -41853081.127277374 0 0 0 0 850944.90800300799 -1384357.8049249463 0 -1384357.8049249463 -3260885.5105635077 0 0 0 0 -27798113.988109589 25883810.601951599 0 25883810.601951599 160939827.19338989 0 0 0 0 -91638452.416969299 56126111.958984375 0 56126111.958984375 154602753.92876816 0 0 0 0 -48658834.970970154 99908658.418815613 0 99908658.418815613 37572047.37399292 0 0 0 0 -13431099.59286499 93731251.320987701 0 93731251.320987701 -94495953.868038177 0 0 0 0 -112711480.27120972 -337426296.40480804 0 -337426296.40480804 -403759275.38085175 0 0 0 0 -196665951.13393021 -323134517.55712128 0 -323134517.55712128 -175966110.64302063 0 0 0 0 -2859465.214328045 458404.40048637055 0 458404.40048637055 1866148.7674648333 0 0 0 0 -1017863775.4572525 72556594.099807739 0 72556594.099807739 1278191791.2309952 0 0 0 0 -281106359.84535217 -430979638.16398621 0 -430979638.16398621 -313703061.6193161 0 0 0 0 -14198676.330114365 153038694.9014225 0 153038694.9014225 -154014050.10409546 0 0 0 0 53806675.289905548 16320071.681501389 0 16320071.681501389 120290148.5754776 0 0 0 0 -6012946.7968177795 -286790627.376297 0 -286790627.376297 -298521647.90565491 0 0 0 0 -386613165.1156311 80650305.698646545 0 80650305.698646545 187671399.51535034 0 0 0 0 -265553409.01444626 -272554779.19926453 0 -272554779.19926453 -47006583.34942627 0 0 0 0 -142620286.10660553 -107841408.33972168 0 -107841408.33972168 162684954.59341431 0 0 0 0 -93518481.500417113 45280818.67882359 0 45280818.67882359 26429757.286262512 0 0 0 0 -66534881.77583313 -280424695.53533173 0 -280424695.53533173 -333931352.48725891 0 0 0 0 -1628190.5046496317 -841891.65155627206 0 -841891.65155627206 2127505.559930861 0 0 0 0 55557057.357948303 -22439520.986068726 0 -22439520.986068726 -411103510.99203491 0 0 0 0 -12423624.71056366 124425183.48320007 0 124425183.48320007 -327183126.26016235 0 0 0 0 -6327989.8798770905 -59225520.722799301 0 -59225520.722799301 -89305423.529708862 0 0 0 0 -27726001.385826111 -99957216.464614868 0 -99957216.464614868 -99409452.702735901 0 0 0 0 12627225.428806305 -294575551.31259155 0 -294575551.31259155 27821571.97895813 0 0 0 0 -2809489.4815320969 -184297333.8995924 0 -184297333.8995924 2605144.7807312012 0 0 0 0 38911779.160835266 -34163376.395355225 0 -34163376.395355225 -75667003.221992493 0 0 0 0 21458885.882301331 -75203976.442199707 0 -75203976.442199707 -11541083.658508301 0 0 0 0 -35245020.462078094 -44565103.589923859 0 -44565103.589923859 174043987.88876343 0 0 0 0 41327993.676490784 -14417337.509033203 0 -14417337.509033203 32961487.67357254 0 0 0 0 34402547.510210037 -31089072.763347626 0 -31089072.763347626 -75670192.509216309 0 0 0 0 39134342.19355011 5068639.022567749 0 5068639.022567749 -132817953.77419662 0 0 0 0 -65067908.304803848 32230975.009000778 0 32230975.009000778 -59724051.494033813 0 0 0 0 10988309.161209106 -22293784.403800964 0 -22293784.403800964 -56137146.809936523 0 0 0 0 6164233.4273796082 -17471686.327123642 0 -17471686.327123642 -60056721.032836914 0 0 0 0 -163725027.30383682 -117713107.02049255 0 -117713107.02049255 320410480.91223145 0 0 0 0 -209578453.37672901 20827107.33300972 0 20827107.33300972 104064625.60942078 0 0 0 0 -30654274.578179598 -82100559.594495773 0 -82100559.594495773 -5020954.754196167 0 0 0 0 11402511.699497223 -25500884.042236328 0 -25500884.042236328 -71530034.61656189 0 0 0 0 -26258430.765719369 -23061986.646393966 0 -23061986.646393966 2791901.117659241 0 0 0 0 -7293937.7117080335 -7316330.8068384193 0 -7316330.8068384193 -9790244.5550175048 0 0 0 0 -80126817.980033875 -203949859.95449829 0 -203949859.95449829 246160991.32400513 0 0 0 0 88174831.107086182 -223033049.66268921 0 -223033049.66268921 53274810.383483887 0 0 0 0 -57369167.440670013 9153789.5609436035 0 9153789.5609436035 -30775412.813404083 0 0 0 0 -15465942.194946235 -22749086.950964965 0 -22749086.950964965 -3956398.7835765183 0 0 0 0 -28185364.988765717 -26572174.922462463 0 -26572174.922462463 6497425.3523254395 0 0 0 0 10580077.154241562 -28378694.913887024 0 -28378694.913887024 -2442496.5673904419 0 0 0 0 -9951266.5475508347 -22531567.707712114 0 -22531567.707712114 -9144956.4870054238 0 0 0 0 -194222166.23802948 7557468.2695999146 0 7557468.2695999146 515594580.31474304 0 0 0 0 -3053150.490776062 -14616345.938179016 0 -14616345.938179016 8180701.314163208 0 0 0 0 -16279683.457030924 -18950130.35943212 0 -18950130.35943212 -813468.61049091816 0 0 0 0 141750090.68980408 453032.39112854004 0 453032.39112854004 178613232.99083519 0 0 0 0 7972303.7900390625 -70700127.778083801 0 -70700127.778083801 231149227.78052711 0 0 0 0 1414253.3306583678 -19127709.384047732 0 -19127709.384047732 -18952979.423794158 0 0 0 0 177316.849609375 -12215455.217712402 0 -12215455.217712402 -8022102.5386352539 0 0 0 0 3208821.7736129761 -20216031.311592102 0 -20216031.311592102 -14240773.043899536 0 0 0 0 -2708283.726039093 -12979537.18734486 0 -12979537.18734486 -7399038.2855254076 0 0 0 0 -4252719.0172923394 -21685742.203734327 0 -21685742.203734327 -10970750.233208671 0 0 0 0 -14581995.518337011 103358461.35825586 0 103358461.35825586 222838579.96226501 0 0 0 0 6021348.6491832733 -15556712.094841003 0 -15556712.094841003 -6543707.4529266357 0 0 0 0 24374669.624505043 -26509417.588329315 0 -26509417.588329315 -6904738.69921875 0 0 0 0 -2838346.5678138733 -18413181.096542358 0 -18413181.096542358 1883899.9736709595 0 0 0 0 -9126254.325217288 -21230798.917492669 0 -21230798.917492669 -8230104.8851590306 0 0 0 0 -15298245.565029144 -53755680.794204712 0 -53755680.794204712 -516514.17572784424 0 0 0 0 -14597998.37996006 -57467749.114269257 0 -57467749.114269257 18805666.364379883 0 0 0 0 -23831291.196516991 -32725532.039989471 0 -32725532.039989471 6152089.1569213867 0 0 0 0 -2179750.6139659882 -50783321.174621582 0 -50783321.174621582 -141340.9538269043 0 0 0 0 -67720574.432593226 -64752067.049476624 0 -64752067.049476624 58762034.382598877 0 0 0 0 -65713950.305938721 -47016482.796005249 0 -47016482.796005249 16792147.33253479 0 0 0 0 -40282190.607040405 -78520710.857337952 0 -78520710.857337952 7167650.2941894531 0 0 0 0 -42389981.332942963 -78340828.391174316 0 -78340828.391174316 12969360.947555542 0 0 0 0 -51445881.87578392 -90152188.668533325 0 -90152188.668533325 36038551.592300415 0 0 0 0 -75078620.688613892 -84133409.797866821 0 -84133409.797866821 87552636.603404999 0 0 0 0 -88370351.458637238 -109990819.75830078 0 -109990819.75830078 64521893.759017944 0 0 0 0 -15877466.394202903 -18465396.913415845 0 -18465396.913415845 1695159.4894175269 0 0 0 0 -12353396.316855788 -18762018.040932577 0 -18762018.040932577 -5932169.3875274435 0 0 0 0 -12593785.476882935 -19505191.414913177 0 -19505191.414913177 -4130340.8195428848 0 0 0 0 -6237463.3997344971 -21137113.493408203 0 -21137113.493408203 -13312616.270584106 0 0 0 0 26609196.640934944 -26523999.212291241 0 -26523999.212291241 -42580443.413070679 0 0 0 0 8947287.4207669497 -15287641.567746261 0 -15287641.567746261 -9825146.5553525463 0 0 0 0 14432155.768249512 -26151523.264335632 0 -26151523.264335632 -8838342.849357605 0 0 0 0 1416442.0694458634 -2752352.90569444 0 -2752352.90569444 -2672290.853113804 0 0 0 0 33280614.331175685 -106886452.47758955 0 -106886452.47758955 19764047.426132202 0 0 0 0 -761300.75225809962 -1262259.838165462 0 -1262259.838165462 -1605817.1366160959 0 0 0 0 34914336.474148512 -38521643.693980098 0 -38521643.693980098 -52645941.271057129 0 0 0 0 -18496364.997634888 -42964901.318870544 0 -42964901.318870544 -42206363.256942749 0 0 0 0 -112372158.05134583 3669458.071395874 0 3669458.071395874 67538394.769378662 0 0 0 0 29329260.798477173 -116799456.84710693 0 -116799456.84710693 -157093642.36982727 0 0 0 0 -4402803.6819267273 24259497.382573128 0 24259497.382573128 -160117912.01330566 0 0 0 0 -6818171.6445680186 317577.13920821995 0 317577.13920821995 6378530.4735531062 0 0 0 0 6980635.7955703735 -35906834.284564972 0 -35906834.284564972 -32618919.040214539 0 0 0 0 -132484490.16691589 75038349.188846588 0 75038349.188846588 -150324111.1085968 0 0 0 0 -7815654.2967125066 -23530399.027621083 0 -23530399.027621083 -2327960.4352679551 0 0 0 0 16167868.435768127 -21518916.008289337 0 -21518916.008289337 -22359544.428604126 0 0 0 0 -1129451.5400050879 -17808559.362636361 0 -17808559.362636361 -7233565.4602097347 0 0 0 0 -15930282.151515961 -35442052.205055237 0 -35442052.205055237 4690271.967628479 0 0 0 0 16537665.485992432 -24461766.400222778 0 -24461766.400222778 -33511314.793052673 0 0 0 0 -1739430.9109183475 -4052591.0135732293 0 -4052591.0135732293 225999.15304835141 0 0 0 0 1236467.2862326372 -18522056.433481641 0 -18522056.433481641 -5833657.7760339752 0 0 0 0 -3940363.5975865019 -14635433.752028029 0 -14635433.752028029 -5655421.5490628928 0 0 0 0 -5040222.7193450928 -19859886.250473022 0 -19859886.250473022 -4617853.3918151855 0 0 0 0 -4421989.3007822037 -21039898.862243652 0 -21039898.862243652 -2454358.6692199707 0 0 0 0 -9402574.1389350891 -22270144.495399475 0 -22270144.495399475 -3402853.3931274414 0 0 0 0 -13683724.119226456 -19875147.716686249 0 -19875147.716686249 -1370942.1248779297 0 0 0 0 -7471750.413984295 -17412207.727958992 0 -17412207.727958992 -2854904.6419901252 0 0 0 0 -10317065.329658508 -18384123.319309235 0 -18384123.319309235 -3021862.8865966797 0 0 0 0 8272939.8447036743 -22460264.852844238 0 -22460264.852844238 -288083.28190612793 0 0 0 0 -3500997.3944274364 -14322069.757433772 0 -14322069.757433772 -3787543.2120128125 0 0 0 0 -20793295.663342953 -19565610.781032085 0 -19565610.781032085 -6410143.1278686523 0 0 0 0 -3050755.24772208 -21227938.900534108 0 -21227938.900534108 -12378418.806173116 0 0 0 0 -21372332.629165649 -18618384.735839844 0 -18618384.735839844 -2979084.3214759827 0 0 0 0 -13491158.537201405 -41399258.039687634 0 -41399258.039687634 -23682703.610748291 0 0 0 0 -18833232.324312076 -15402531.2531811 0 -15402531.2531811 781645.3984939307 0 0 0 0 -15822519.412807941 -29481042.429365873 0 -29481042.429365873 -10884554.596633911 0 0 0 0 -6119566.8995513916 -22767005.824554443 0 -22767005.824554443 -10960060.536743164 0 0 0 0 -5852118.6280517578 -24769374.374458313 0 -24769374.374458313 -8879785.9993515015 0 0 0 0 -5082765.0797653198 -23652371.250511169 0 -23652371.250511169 -12548405.780286789 0 0 0 0 1724347.4738960266 -29502594.86700058 0 -29502594.86700058 -21148530.805114746 0 0 0 0 -7788956.7757644653 -31473300.612739563 0 -31473300.612739563 -10554144.015594482 0 0 0 0 17685730.461486816 -19074631.118751526 0 -19074631.118751526 -5105295.0601387024 0 0 0 0 -3503404.3429489136 -34255827.846298218 0 -34255827.846298218 -15820113.045143127 0 0 0 0 -13224211.825152054 -22815393.569952741 0 -22815393.569952741 -12049764.780631408 0 0 0 0 16662988.359588623 -16446665.896095276 0 -16446665.896095276 -4703192.3092651367 0 0 0 0 -8131825.1323410552 -18691486.228713915 0 -18691486.228713915 -6516778.180516988 0 0 0 0 12265588.078619078 -6463404.6007648725 0 -6463404.6007648725 -11024090.415423594 0 0 0 0 36418080.216552734 -83845460.625076294 0 -83845460.625076294 25601643.039703369 0 0 0 0 57892646.661483765 6333196.1729545593 0 6333196.1729545593 -39279627.345052719 0 0 0 0 39204550.949050903 -45486900.298248291 0 -45486900.298248291 -34221838.143630981 0 0 0 0 22645498.702423096 -38886550.535545349 0 -38886550.535545349 29087644.430603027 0 0 0 0 56673810.522979736 -19379039.139751434 0 -19379039.139751434 2961076.6797180176 0 0 0 0 -7819232.1545745954 -3843306.9724769592 0 -3843306.9724769592 1093340.9737237319 0 0 0 0 -13034648.737595337 -25395208.935303707 0 -25395208.935303707 -8682917.4349832907 0 0 0 0 -168699163.34191895 3653689.721282959 0 3653689.721282959 -25109073.609695435 0 0 0 0 68749153.766830444 -10096793.750694275 0 -10096793.750694275 -3699701.3746185303 0 0 0 0 95474909.223815918 -40797597.417549133 0 -40797597.417549133 -56657289.437728882 0 0 0 0 26440119.543551356 -24430136.375943918 0 -24430136.375943918 -26717192.33819297 0 0 0 0 18969045.142516315 -16841585.577585578 0 -16841585.577585578 -17246393.556681663 0 0 0 0 -148837350.81744385 104248528.45413208 0 104248528.45413208 479266523.29370117 0 0 0 0 78049419.244781494 -49252792.833236694 0 -49252792.833236694 -30775083.156240463 0 0 0 0 23582863.697957993 7979695.0264573097 0 7979695.0264573097 -9175679.1039733887 0 0 0 0 22598348.303771973 -217966678.62185669 0 -217966678.62185669 -757237791.01318359 0 0 0 0 -477820.79455566406 -47044868.391113281 0 -47044868.391113281 -34281213.420501709 0 0 0 0 73438611.132720947 -62992466.368701935 0 -62992466.368701935 -78901799.765769958 0 0 0 0 31573734.433532715 -67618689.922035217 0 -67618689.922035217 -79312096.563001633 0 0 0 0 -2668665.4540319443 -43783374.648289204 0 -43783374.648289204 5375645.6324462891 0 0 0 0 8942743.6931729764 -3117474.6781653818 0 -3117474.6781653818 -5294182.196065098 0 0 0 0 23812318.386360168 -16082826.574928284 0 -16082826.574928284 -14376206.626876831 0 0 0 0 -13329416.377804628 -23756845.614759147 0 -23756845.614759147 -6015135.6067898348 0 0 0 0 -9469010.2562408447 -72849128.755962372 0 -72849128.755962372 -126885600.65383148 0 0 0 0 -1673865.257393837 -62863779.51414001 0 -62863779.51414001 -73884913.266937256 0 0 0 0 -2611396.1366729736 -38585293.535667419 0 -38585293.535667419 -35537953.029388428 0 0 0 0 5313643.8500061035 -56167191.203369141 0 -56167191.203369141 -76900076.740001678 0 0 0 0 -40662049.555236816 -58730090.353954792 0 -58730090.353954792 -27342805.919265747 0 0 0 0 -40032660.307857513 -63541625.078336716 0 -63541625.078336716 -30902358.069641113 0 0 0 0 -92659324.877670288 -85809238.572757721 0 -85809238.572757721 -11384433.03918457 0 0 0 0 -7878312.3608703613 -37891632.203262329 0 -37891632.203262329 -15961961.095611572 0 0 0 0 -51334761.75088501 -54746460.942314148 0 -54746460.942314148 5172737.116104126 0 0 0 0 5867831.3029785156 -62896821.422531128 0 -62896821.422531128 -2373762.5483322144 0 0 0 0 52923916.989105225 -32243633.670264244 0 -32243633.670264244 -4657549.4816741943 0 0 0 0 -76169328.454101562 21630337.465591431 0 21630337.465591431 39418006.931171417 0 0 0 0 -54316080.28150177 -51077954.336885452 0 -51077954.336885452 20069157.811935425 0 0 0 0 -128462595.09701538 -65324909.933586121 0 -65324909.933586121 51706365.168449402 0 0 0 0 -122871521.6149292 -70598431.338783264 0 -70598431.338783264 41356485.838874817 0 0 0 0 -113139579.50037384 -100771132.57277775 0 -100771132.57277775 23315784.797897339 0 0 0 0 -86927893.794006348 -94266296.878005981 0 -94266296.878005981 15429730.836143494 0 0 0 0 -89714562.382965088 -80563690.168418884 0 -80563690.168418884 1694740.8976211548 0 0 0 0 -17323760.507827759 -90800016.207687378 0 -90800016.207687378 -5977881.1983642578 0 0 0 0 -20562244.704583168 -11450799.73808527 0 -11450799.73808527 21155214.846107483 0 0 0 0 -141511629.5921936 -32766591.040481567 0 -32766591.040481567 -16436473.918979645 0 0 0 0 -93787915.042266846 -81417544.208398819 0 -81417544.208398819 1916396.8818511963 0 0 0 0 -69774268.086521149 -28875280.800134659 0 -28875280.800134659 -21430213.261512756 0 0 0 0 -88921598.773376465 -78196558.224617004 0 -78196558.224617004 -12476690.978056431 0 0 0 0 -99720711.25302124 -77972957.85200119 0 -77972957.85200119 6767735.6208343506 0 0 0 0 -44325564.522583008 15916189.738285065 0 15916189.738285065 9436712.8200454712 0 0 0 0 3947192.6787338257 3742158.9638309479 0 3742158.9638309479 12266365.209541321 0 0 0 0 -61526555.587478638 -44426147.365592957 0 -44426147.365592957 -2271081.9754943848 0 0 0 0 8449109.4178009033 -31525255.552043915 0 -31525255.552043915 -53207460.382091522 0 0 0 0 -378063.85970647633 -1116503.589945294 0 -1116503.589945294 287178.142417036 0 0 0 0 111804897.4850769 99702534.335769653 0 99702534.335769653 -332344531.48915863 0 0 0 0 -54273994.353729248 46981904.530517578 0 46981904.530517578 -134541900.74756622 0 0 0 0 -177589362.42840576 142399385.66869354 0 142399385.66869354 -116295368.09498215 0 0 0 0 -136448174.88043213 -167056715.94102478 0 -167056715.94102478 -246629336.9880867 0 0 0 0 -147197934.92132568 60162483.287288666 0 60162483.287288666 82344880.337158203 0 0 0 0 -76630932.018737793 -100020428.98194504 0 -100020428.98194504 -67196897.331375122 0 0 0 0 -138819916.58526611 -73909925.094703674 0 -73909925.094703674 -12383267.434670925 0 0 0 0 -106263192.41296387 -44999861.467716217 0 -44999861.467716217 -21711278.575675964 0 0 0 0 -277412439.55749512 -79396177.714439392 0 -79396177.714439392 -28565499.913887024 0 0 0 0 -280963062.83404541 -254003227.42173004 0 -254003227.42173004 -165718813.6591568 0 0 0 0 -405428902.85626221 -98530024.108406067 0 -98530024.108406067 60662268.019884109 0 0 0 0 -95010305.659439087 -104848378.01699448 0 -104848378.01699448 -93290566.677391052 0 0 0 0 -85853458.393951416 -88378818.924171448 0 -88378818.924171448 -66580170.082334995 0 0 0 0 -91833792.720550537 333322357.49076843 0 333322357.49076843 -378530041.19229507 0 0 0 0 -34905018.829769135 -98393210.912526131 0 -98393210.912526131 -332335396.67727661 0 0 0 0 -1812173.4204967618 -406365.58787960932 0 -406365.58787960932 415717.31921391748 0 0 0 0 -311307800.66293526 684645437.23812294 0 684645437.23812294 786355121.42810059 0 0 0 0 -129610427.66758728 -65315214.918621063 0 -65315214.918621063 46863337.669445038 0 0 0 0 -1186567.2169144526 -1260821.1285495907 0 -1260821.1285495907 896478.60546638072 0 0 0 0 -374444544.02109528 -49725797.020582199 0 -49725797.020582199 331195811.7310257 0 0 0 0 -169655016.81462097 6531072.9237632751 0 6531072.9237632751 42776480.667366028 0 0 0 0 -106728752.54351807 27579565.486736298 0 27579565.486736298 39068208.565139771 0 0 0 0 227249096.22862244 136681787.16379929 0 136681787.16379929 -43515335.353225708 0 0 0 0 -61267372.891174316 -146115339.55755615 0 -146115339.55755615 168751553.7330513 0 0 0 0 -480901.84648004919 -471033.22459298372 0 -471033.22459298372 176551.60670104623 0 0 0 0 -515020074.11332703 227993538.13703156 0 227993538.13703156 73899001.259384155 0 0 0 0 -130880871.60055542 -342386036.71413422 0 -342386036.71413422 -1310434953.3837585 0 0 0 0 48881863.568817139 195530893.57836914 0 195530893.57836914 -177988735.44333649 0 0 0 0 73729274.998764038 -91258786.866397858 0 -91258786.866397858 177425419.73552704 0 0 0 0 -226635002.03723907 -236086087.80854034 0 -236086087.80854034 161774892.54850769 0 0 0 0 486408281.05962372 207165544.10422897 0 207165544.10422897 396629891.39687347 0 0 0 0 77986089.625518799 -389375697.1525383 0 -389375697.1525383 937970384.83343124 0 0 0 0 1028457963.4953156 -898924403.26062584 0 -898924403.26062584 492154925.72686005 0 0 0 0 231167982.90359497 -394551146.77659225 0 -394551146.77659225 189110506.2419014 0 0 0 0 233273758.09693146 -391098178.52396107 0 -391098178.52396107 187948884.90161133 0 0 0 0 -220746857.05979919 -3469386.1827049255 0 -3469386.1827049255 294331280.31984711 0 0 0 0 393881202.67374039 -495472297.47313476 0 -495472297.47313476 24803078.617401123 0 0 0 0 -248055580.52754211 58385062.969776154 0 58385062.969776154 28058188.296455383 0 0 0 0 -757100.37720673531 -843834.50429674983 0 -843834.50429674983 767257.15183442831 0 0 0 0 244779559.93354034 -380561594.39601898 0 -380561594.39601898 133519380.05715179 0 0 0 0 17050289.794433594 -105830336.14006042 0 -105830336.14006042 75095646.194541931 0 0 0 0 -149382483.3026886 -42776895.832572937 0 -42776895.832572937 51297443.520935059 0 0 0 0 -49428502.129875183 24710752.160797119 0 24710752.160797119 1729115.591835022 0 0 0 0 -31065807.352638245 21383764.194730759 0 21383764.194730759 13468630.273628235 0 0 0 0 -53245273.979125977 18833809.455581665 0 18833809.455581665 14107798.85912323 0 0 0 0 -59095029.098741531 -18481430.443053007 0 -18481430.443053007 35420902.333297729 0 0 0 0 -103374790.09146118 -5246818.4101924896 0 -5246818.4101924896 31476241.576080322 0 0 0 0 -1167308.3835906982 -5384647.1815261841 0 -5384647.1815261841 11980925.763809204 0 0 0 0 5520032.6785091264 -16770777.120630465 0 -16770777.120630465 1381943.133604832 0 0 0 0 18328838.520706177 -13868010.011455536 0 -13868010.011455536 -12326588.963180542 0 0 0 0 -19149210.701370239 -24093631.552471161 0 -24093631.552471161 13957588.546707153 0 0 0 0 -4566437.9692488164 -10319239.447917828 0 -10319239.447917828 528460.1198143363 0 0 0 0 -29703365.554000854 -18384135.183876038 0 -18384135.183876038 10972828.045402527 0 0 0 0 6104650.151763916 -15522589.61504364 0 -15522589.61504364 3863089.8226318359 0 0 0 0 11590660.744232178 -22740269.297122955 0 -22740269.297122955 1010321.6251983643 0 0 0 0 15648113.106750488 -11944280.692829132 0 -11944280.692829132 6141892.503112793 0 0 0 0 930116.3989149332 -1750654.3811274618 0 -1750654.3811274618 -640585.35624914058 0 0 0 0 -12235857.137845432 -11951302.873609424 0 -11951302.873609424 2119890.4421695918 0 0 0 0 -2802783.4058399871 -16638252.666887987 0 -16638252.666887987 -2577777.1654612496 0 0 0 0 6583535.8831100464 -14449392.36031723 0 -14449392.36031723 1234552.4654884338 0 0 0 0 4287217.63230896 -13178799.946128845 0 -13178799.946128845 6333616.7597122192 0 0 0 0 16539373.581726074 -10805096.42792511 0 -10805096.42792511 -7954010.231628418 0 0 0 0 13017085.26499939 -16423906.433097839 0 -16423906.433097839 -46752873.026678085 0 0 0 0 -13725178.233444214 -24949983.95759201 0 -24949983.95759201 -23704380.479007721 0 0 0 0 -4810756.3678974658 -2397288.8093008846 0 -2397288.8093008846 1262545.4891397245 0 0 0 0 9660761.8358154297 11639505.104240417 0 11639505.104240417 -69217587.305427551 0 0 0 0 -104591287.74396133 28696810.081801414 0 28696810.081801414 3625088.329864502 0 0 0 0 -18029075.435440063 3154166.0607299805 0 3154166.0607299805 -6243804.9706821442 0 0 0 0 
</DataArray>
<DataArray type="Float64" Name="cross_section_updated" format="ascii">
1 1 0.048936613123430589 1 1 1 1 0.048936033132018705 1 1 1 1 1 1 1 1 1 1 1 1 0.052719073768190676 1 1 1 1 0.052721206428957973 1 1 1 1 1 1 1 0.050087443570583798 1 1 1 1 1 1 1 1 0.050095610253071937 1 1 1 1 1 1 1 1 1 1 1 0.050191700426841276 0.050127321404130759 1 1 1 1 1 1 1 1 0.060911143325942295 1 1 1 1 1 1 1 1 1 1 1 1 1 1 1 1 1 1 1 1 1 1 0.059118613728928585 1 1 1 1 1 1 1 1 1 1 1 0.060938701785791097 1 1 1 0.05432315452829177 1 1 1 1 1 1 1 1 1 1 1 1 1 1 1 1 1 1 1 1 1 1 1 1 1 1 1 1 1 1 1 1 1 1 1 1 1 1 1 1 1 1 1 1 1 0.049952207739234984 1 0.052863755819794522 1 1 1 1 1 1 1 1 1 1 1 1 1 1 1 1 1 1 1 1 1 1 1 1 1 1 0.065164761792354087 1 1 0.051662146627175096 1 0.053025382884051175 1 1 1 1 1 1 1 1 1 1 1 1 1 1 0.041200419086646546 1 0.04085302694425335 1 1 1 1 1 1 1 0.074708328073626304 1 0.057060949411655765 1 1 1 1 1 1 0.049727105071202891 1 1 0.080359939827006968 1 1 1 1 1 1 0.085423236684577714 0.018449508854124608 1 1 0.049087416168465084 1 0.032136086613580125 1 0.049209063925030203 0.047297756322245033 1 1 1 0.025222699168925306 1 1 1 1 1 1 1 1 1 1 1 1 1 0.01317683222621284 1 1 1 1 1 1 1 0.0081559377514219683 1 1 1 1 1 1 1 0.0035934560375079777 1 1 1 1 0.049208166432326422 1 1 1 1 1 1 0.048890316923069221 1 1 1 0.047097621769293316 1 1 1 1 1 1 1 0.04416098327745499 1 1 1 1 1 1 0.045275391273467122 1 1 1 1 1 1 0.055164187338312881 1 1 1 1 1 1 1 0.04842318604645509 1 1 1 1 1 1 1 1 1 1 1 1 1 1 1 1 1 1 1 1 1 0.044701573605266533 0.04964370125323038 1 1 1 1 1 0.070333214651069578 1 1 1 1 1 1 1 0.041580714369917962 1 0.071357983068436909 1 1 1 0.03657183192772083 1 1 1 0.053974761380232342 1 0.049927403732001815 1 1 1 1 1 1 1 0.097208503682034042 1 1 1 1 1 1 1 6.9388939039072284e-17 1 1 1 0.049970478729290835 1 1 1 1 1 1 1 1 1 1 1 1 1 1 1 1 1 1 1 1 1 1 1 1 1 1 1 1 1 1 1 1 0.094289821345137706 1 1 1 1 1 1 1 1 1 1 1 1 1 1 1 1 1 1 1 1 1 1 1 1 1 1 1 1 1 1 1 1 0.051416431943997129 1 1 1 1 1 1 1 1 1 1 1 1 1 1 1 1 1 1 1 1 0.050743918594530493 1 1 1 1 1 1 1 0.049370428635045822 1 1 1 1 1 0.047989640184506563 1 1 0.050006463135597402 1 0.060846153267887761 1 1 1 1 0.064295161204542928 1 1 0.067743785302622095 1 1 1 1 1 1 0.0533005240647186 1 1 1 1 1 1 1 1 1 1 1 1 1 1 1 1 1 1 1 0.062914041406481366 1 1 1 1 1 1 1 1 1 1 1 0.049744645593138785 0.065147893175648966 1 1 1 1 1 1 1 1 1 1 1 1 1 1 1 1 1 1 1 1 1 0.052796873044096346 1 0.050923931186307225 0.056333732882005043 1 1 0.048262593941782603 1 1 1 1 1 1 1 1 1 1 1 1 1 0.059363900340949419 1 1 1 1 1 1 1 0.049996492630008604 0.048799926925137294 1 1 1 1 1 1 1 1 0.051658064671838352 0.047819044169753369 1 1 1 0.047481671471693812 1 1 1 1 1 1 1 1 1 1 1 1 1 1 1 1 1 1 1 1 1 1 1 1 1 1 1 1 1 1 1 1 1 1 1 0.048995620590336589 1 1 0.050356409999415742 1 1 1 1 0.050677324518083246 1 1 1 0.050327664653432622 1 1 1 0.050081542023856479 1 1 0.050246494086685183 1 1 1 1 1 1 1 1 1 1 1 1 1 1 1 1 1 1 1 1 1 0.050491605693333413 1 1 1 0.050607406326418872 1 1 1 1 1 0.051701989840707924 1 1 1 1 1 1 0.050200647658448685 1 1 1 1 1 1 1 1 1 1 1 1 1 1 1 1 1 1 0.050084879305687752 1 1 1 1 1 1 1 1 1 1 1 1 1 1 1 1 1 1 1 1 1 0.050320914518667499 1 1 1 1 1 1 1 1 1 1 1 1 1 1 1 0.049119054439557074 1 1 1 1 1 1 1 1 1 1 1 1 1 1 1 1 1 1 0.043784541560284024 1 1 1 1 1 1 1 0.051303658644513708 1 1 1 1 1 1 1 1 1 1 1 1 1 1 1 1 1 1 1 1 1 0.048773416262300646 1 1 1 1 1 1 1 1 1 0.046267357311728471 1 1 1 1 1 1 1 1 0.08961076063337628 1 1 1 1 1 1 1 1 1 1 1 1 1 1 1 1 1 1 1 1.5265566588595902e-16 1 1 1 1 1 0.083532307525455388 1 1 1 0.050219064533598361 1 1 1 1 1 1 0.058080538454807595 1 1 1 1 1 1 1 1 1 1 0.046974961190083368 1 1 1 1 1 1 1 1 1 1 1 1 0.065212795745527005 1 0.040489084851487271 1 1 1 1 1 1 1 0.0046137851432724655 1 0.10948699149949537 1 1 1 1 1 1 1 1 1 1 1 1 1 1 1 1 1 1 1 1 1 1 1 1 1 1 1 1 1 1 1 1 1 1 1 1 1 1 1 1 1 1 1 1 1 0.056585935847980898 0.048522988656928681 1 1 0.050124339951886532 1 1 1 1 1 1 1 1 1 1 1 1 1 1 1 1 0.051219961090499186 1 1 1 1 0.0087807469781761571 1 1 0.04941615520666634 1 1 1 1 1 1 0.01584019714865452 1 0.020657285540249537 1 1 0.050311395639847198 1 1 1 1 1 1 1 1 1 1 0.040851769150315242 1 1 1 1 1 0.049465222183168261 0.049902843159196977 1 1 1 1 0.033066930922766608 1 1 0.028782845013606104 1 0.072842869500864132 1 1 1 1 1 0.047057372332387257 1 1 0.049979632963004075 1 1 1 1 1 1 1 1 1 1 1 1 0.0498159792244584 1 1 1 1 1 1 1 1 1 1 1 1 1 1 1 0.04399865903223682 1 0.049998631745958935 1 0.052458479044440245 0.05386437358014718 1 0.044081853561449058 1 1 0.049960812689025358 1 1 1 1 1 1 0.065889459851243351 1 0.049693208819604082 1 1 0.071251227040381088 1 1 1 0.042585007293486084 1 1 0.050005491616786323 1 1 1 1 1 0.075202214181115945 1 1 0.050008752676120274 1 1 1 1 1 0.049941914672972418 1 0.040342202537453936 1 1 0.041374039276636777 1 1 0.054242016009960571 1 1 1 1 1 1 1 1 0.051595007322387997 1 1 1 1 1 1 1 1 1 1 0.049113408445744522 1 1 1 1 0.047355407436229333 1 1 0.048273303704593568 1 1 1 1 1 0.051609524056995981 1 1 1 1 1 0.049985957726400493 1 0.049657822228290578 1 1 1 1 1 1 0.049881592428126634 1 1 1 1 1 1 1 1 0.050150125523374736 0.04146163533701059 0.046773375374843849 1 1 1 1 0.051901248739731086 1 0.046042059692023324 1 1 1 0.041212710186390458 0.049969550385203683 1 1 1 0.046587710773088105 1 1 1 0.040736534911869418 1 0.052553428478315643 1 0.045331925688767705 0.045155090307200323 1 0.050013196007073102 1 1 1 1 0.037439862022615469 1 1 1 0.050268677281628885 1 0.036756824013177869 1 0.070034975871370739 1 1 1 1 1 1 1 0.050008308386211231 1 1 1 1 0.062191544582526063 1 1 1 1 1 1 1 1 0.050015204501976079 1 0.050030154546564926 0.050816624206138042 1 1 1 0.052425895325838578 1 1 1 1 0.055394679987715606 0.051893342543938778 1 1 0.057973444943910261 0.049644648175434777 1 1 1 1 1 0.049854131765403958 1 1 1 1 1 1 1 1 0.049909295518875435 1 0.04981647983728188 1 1 1 1 1 1 1 1 1 1 1 1 1 1 1 1 1 0.049850521661116448 1 1 1 1 1 1 1 1 1 1 1 1 1 1 1 1 1 1 1 1 1 1 1 1 1 0.050026367722308174 1 0.049580477384270183 1 1 1 1 1 0.050004747381227468 0.049995228054642654 1 1 1 1 0.050210973975700193 0.050019443203532771 1 0.049229708016205118 1 1 0.051189880458072212 1 1 0.047695219747663706 1 1 1 1 0.050374740001821933 0.050372567939253945 1 1 1 1 1 1 1 1 0.050009244979175055 1 1 0.050041028086840342 1 1 1 0.05034318043952752 1 1 0.050076023540802116 1 1 1 1 1 1 0.04956691197249348 1 1 1 1 1 1 0.054712337602659006 1 1 1 1 1 0.048649152769354873 1 1 0.042466824395828509 0.057097552587017528 1 1 0.054676377716172994 1 1 0.050021179138974456 1 1 1 1 1 1 1 1 1 1 1 1 0.042798934967680266 1 0.051212014053425459 1 1 0.050518025195284331 1 1 1 1 1 1 0.049989832325277379 1 1 1 0.051231007387599267 0.043900052990273275 0.049999283957095041 1 1 1 0.053296553630266121 0.04937523988443146 1 0.051584152954813119 0.042141783151058945 1 1 0.047805373858464326 1 1 0.050828597877287093 1 0.051765653113500634 1 0.048309114503044912 1 1 1 0.050187659733737552 0.051069176471501054 1 1 0.050335742784072504 0.050865176796748464 0.047977019236318058 0.048244141126011483 1 1 1 0.049863536451872137 0.04993899730865848 1 1 0.052258198229240604 0.043173506902732278 0.048437122055801037 1 0.052375422626922435 0.049558686621210962 1 1 0.047350464635784607 1 0.048348518061965412 0.05265627248929533 1 0.044573383901505052 1 1 0.050018240045882123 1 0.044899064209928327 0.049454359112457685 1 1 1 1 0.049680605085907048 0.045533754724877445 1 1 0.050016369405183135 1 1 1 0.050075230644895594 1 1 1 1 1 1 1 1 1 1 1 1 1 1 1 1 1 1 1 1 1 1 1 1 1 1 1 1 1 1 1 1 1 1 1 1 1 1 1 1 1 1 1 1 1 1 1 1 1 1 1 1 1 1 1 1 1 1 0.058561019264255984 1 0.052853295837273544 1 1 1 1 1 1 1 1 1 1 1 1 1 1 0.060301346401605151 1 1 1 1 1 1 1 1 1 1 0.05315801358008132 1 1 1 1 1 1 1 1 1 1 1 1 1 1 1 1 1 1 1 1 1 1 1 1 1 1 1 1 1 1 1 1 1 1 1 1 1 1 1 1 1 1 1 1 1 1 0.050212912102933244 1 1 1 0.050992019065646578 1 0.048564669191306364 1 1 1 1 1 0.046078786454715352 1 0.049510817948620223 1 1 1 1 1 1 1 1 1 1 1 1 1 1 1 1 1 1 1 1 1 1 1 1 1 0.049722137147351346 1 1 1 1 1 1 0.069030134278293021 1 0.056178326821742924 1 1 1 0.080485428229325473 1 1 0.082460106062797314 1 1 1 1 1 1 1 1 1 1 1 1 1 1 1 1 1 1 1 1 1 1 1 1 1 1 1 1 1 1 1 1 1 1 1 1 1 0.045011545457429636 1 0.060319632747422483 1 1 1 1 1 1 1 1 1 1 0.049315509209405459 1 1 1 1 1 1 1 1 1 1 1 1 1 1 1 1 1 0.056875776547943409 1 1 1 0.049954391174851426 0.089653397039087146 1 0.071153602755848117 1 1 1 1 1 1 1 1 0.048652921863720111 1 1 1 1 0.049204777642586274 1 1 1 1 1 1 1 0.05045734826183499 1 1 0.066128367992686676 1 0.078812185153189621 1 1 0.048936060385172619 1 1 0.069358984994020864 0.049926464700904415 1 1 1 1 1 1 1 1 1 1 1 1 1 1 1 0.096023478018421288 1 0.058974485197447468 1 1 1 0.046523500936317401 1 0.050197803998846588 1 1 1 1 1 1 1 1 1 1 1 1 0.049631778566199172 1 0.049217346215335356 1 1 1 1 1 1 1 1 0.048992823649204313 1 1 0.051721884814742665 1 1 1 0.051043482673280884 0.05263541438512697 1 1 1 1 1 1 1 1 1 1 1 1 1 1 1 1 1 1 1 1 1 0.051559739078039762 1 1 1 1 1 0.050000792927259077 1 0.049805914323555821 1 1 1 1 0.049451481886770593 1 1 0.050342139116566195 1 1 1 1 1 0.052141321445544599 1 1 1 1 0.044847545307295976 1 1 1 1 1 1 1 0.05170094215637426 1 1 1 0.048460119030936971 1 1 1 1 1 1 1 1 1 1 1 0.048706823275121304 1 1 1 1 1 1 1 1 0.050073568856756762 1 1 1 1 1 1 0.050055196871922024 1 1 1 1 1 1 0.04967191203535222 1 1 1 1 1 1 1 1 1 1 1 0.052521159036224369 1 1 1 0.05017415674564607 1 1 1 0.048861200244004005 1 0.050283199348593946 1 1 1 1 1 1 0.049690284020186971 1 1 1 1 1 1 1 1 1 1 1 1 1 1 1 0.048705588338218114 1 1 1 1 1 0.043155971891715772 1 1 1 1 1 1 1 1 0.04758940744934953 1 1 1 1 1 1 1 1 1 1 1 1 1 1 1 1 0.050631597438463974 1 1 1 1 0.048702653687809315 1 1 1 1 1 1 1 1 1 1 1 1 1 1 1 1 1 1 1 1 1 1 1 1 1 1 0.058656001759679194 1 1 1 0.050044910125078335 1 0.049028775697967882 1 1 1 1 0.05358538758401496 1 0.04954210199130854 1 1 1 1 1 0.050545435583657664 1 1 1 1 1 1 1 1 1 0.060434800424307343 1 1 1 1 1 1 1 1 1 1 1 1 1 1 1 1 1 1 1 1 1 1 1 1 0.05110794600897195 0.05065305542210511 1 1 1 1 1 0.050863914966089038 1 1 1 0.052942757355116617 1 1 1 0.051872762878209924 1 1 0.046470471155225151 1 0.050997067744471145 1 1 1 1 0.049484993463470905 1 1 1 1 0.048187771685814784 0.049684725725044863 1 1 1 1 1 1 1 1 1 1 1 1 0.051097391191943939 1 1 1 1 0.049914096266388853 1 1 1 1 1 0.049798711578750834 1 1 0.050005752937449299 1 1 1 1 1 1 1 1 1 1 1 1 1 1 1 1 0.049788808549820061 1 1 0.049531172855797417 1 1 1 0.049166745421285574 1 1 1 1 1 1 1 1 1 1 1 0.049635572565488166 1 1 1 1 1 1 1 1 1 1 1 1 1 1 1 1 0.04948740164478474 1 1 0.03974141510638203 1 0.03687192559106682 1 1 0.041170867124356386 1 0.048414724381340105 1 0.03854975232268322 1 1 1 1 1 1 1 1 1 1 1 1 1 0.039756020379906151 1 0.040901470617172177 0.052066289902650519 1 1 0.037395097245807293 0.049831362134305189 1 1 0.05000988576946367 0.056293569691720897 1 1 1 0.035632403676732927 1 0.063939999367659067 1 1 0.038237553815453462 1 1 1 1 0.014384064309314637 0.024266598566124065 1 0.034250187762769446 1 1 0.056212606211042834 0.05000472188875861 1 1 0.057318257658367254 1 1 1 0.064570407533491261 1 1 1 0.042083710166736954 0.045932084586041894 0.063270025019924181 1 1 0.058712227645461759 1 0.060826599747572381 0.05000326426101856 1 1 1 1 1 1 1 1 1 1 1 0.050863997966578589 0.049696632029438054 1 0.068288710761299026 1 0.030385879137806882 1 0.058071384834159537 1 1 1 0.050421907970127314 1 1 1 1 1 0.049816560831638115 1 1 1 1 1 1 1 1 1 1 1 1 1 1 1 1 1 1 1 1 1 1 1 1 0.04780263034740212 1 1 1 1 1 1 1 1 1 1 1 1 1 1 1 1 1 1 0.059416320075687971 1 1 1 1 1 1 1 1 1 1 1 0.017711867318883044 1 1 1 1 1 0.063702923892593827 1 1 1 1 1 1 1 1 1 1 1 1 1 1 0.046652965730958819 1 1 1 1 1 1 1 1 1 1 1 1 1 1 0.059397684570445773 1 0.034637472287354629 1 1 1 1 0.040357901316572881 1 1 1 1 1 1 1 1 1 1 1 1 0.07137918288273451 1 0.049778088438127442 1 1 1 1 0.050006673633362281 1 1 1 1 1 1 1 0.038617685150119825 1 1 1 1 1 1 1 0.049988488014132963 1 1 1 0.072349562810997789 1 0.050010784724110531 1 1 1 1 1 1 1 1 1 0.062511149606871527 1 1 1 1 1 1 1 1 1 1 1 1 1 1 1 1 1 1 1 1 1 1 1 1 1 1 1 1 1 1 1 1 1 1 1 1 1 1 1 1 1 1 1 0.052169982181397234 1 1 0.049479332521474392 1 1 1 1 1 1 1 1 1 1 0.050697327904843 1 1 1 1 1 0.047669002136413938 1 1 0.049968667990217319 1 1 1 1 1 1 0.068128985412622883 1 1 1 1 0.049906429326970467 1 1 0.063792411063274712 1 0.056404424045626705 1 1 1 1 1 1 1 1 1 1 1 0.053665827528922058 1 0.063160602242234409 1 1 1 1 0.051196631806661494 1 1 1 1 1 1 1 1 1 1 1 1 1 1 1 1 1 1 1 1 1 0.04394029674130423 1 1 1 1 0.048022698043011382 1 1 1 1 1 1 1 0.055233776918891031 1 1 1 1 1 0.03864546925355699 1 1 1 0.059647640819866031 1 1 1 0.042262745587884162 1 1 0.047543564799251689 1 1 1 0.061452971541862141 1 1 0.054205957514586532 1 1 1 1 1 1 1 1 1 1 1 1 1 1 1 1 1 1 1 1 1 1 1 1 1 1 1 1 1 1 1 0.0483376341113907 1 1 1 1 1 1 1 1 1 1 1 0.05128888823629435 1 1 1 1 1 1 1 1 1 1 1 1 1 1 1 0.053857509574686255 0.053046906090817275 1 1 1 0.045103984814317113 1 1 1 1 0.050921691219908194 1 1 0.04535413128648455 1 1 1 1 1 1 1 1 1 1 1 1 1 0.044410061928446529 0.047853213287786953 1 1 1 1 1 1 1 1 1 1 1 0.034332367550054796 1 1 0.043189957419949181 1 1 1 1 1 1 1 1 1 1 1 1 1 1 1 1 1 1 1 0.038351819928299877 1 1 1 0.04993389097746373 1 1 1 1 1 0.052822120253274915 1 1 1 1 1 1 1 1 1 1 1 1 1 1 1 1 1 1 1 1 0.045986648669762036 1 1 0.047959235684220718 1 1 1 1 1 1 1 1 1 1 1 1 1 1 1 1 1 1 1 0.045449255925773049 1 1 1 1 1 1 1 1 1 1 1 1 1 1 1 1 1 1 1 1 1 1 1 1 1 1 1 1 1 1 1 1 0.050306753994174294 1 1 1 1 1 1 0.058485145987117237 1 1 1 1 1 0.05519650693165723 1 1 1 1 0.051942734710131333 1 1 1 1 1 1 1 1 1 1 1 1 1 1 1 1 1 1 1 1 1 1 0.050423543453017416 1 1 1 1 1 1 1 0.050097060556500053 1 1 0.053295436813597094 1 1 0.050351477100406314 1 1 1 1 1 1 0.051082714352504346 1 1 1 1 1 1 1 1 1 1 0.06759748444917113 1 0.034393084639653945 1 1 1 1 1 1 1 1 0.050115304465182177 1 1 0.06824756655510722 1 1 1 0.039491282688170426 1 1 1 0.042991570375125299 1 1 1 0.049999836878483264 0.050098505407706453 1 1 0.052808023553516485 1 1 0.05625753209000374 1 1 0.050024150238875714 1 1 1 1 1 1 1 1 1 0.050024121579234422 1 1 1 0.05968296452460875 1 1 1 0.063087672067399028 1 1 1 0.0500306527311946 1 0.05008812560977971 1 1 0.045203085229604978 1 1 1 1 1 1 1 1 0.061676125831132605 1 1 0.052163181236281851 1 1 1 1 1 1 1 1 1 1 1 1 1 0.059889714497234479 1 0.050027725175078766 1 1 1 0.048496872532937829 0.044273201705147661 1 0.055006136383164934 1 1 1 1 0.050001036492657136 1 0.0488249478201912 1 1 1 1 1 1 1 1 1 0.049764075176893172 1 1 1 1 1 1 1 1 1 1 1 1 1 1 1 1 1 1 1 1 1 1 1 1 1 1 1 1 0.050820891527502701 1 1 1 1 1 1 0.049454937404489113 1 1 1 1 1 1 0.04956557703698064 1 1 1 1 1 1 0.04983308291887871 1 1 1 0.049855202688301327 1 1 1 0.050221471507887069 1 1 0.070742052187328597 1 1 1 1 1 1 0.042000645368349174 1 1 1 0.070255826177961403 0.049982557806606431 1 1 1 1 1 1 1 1 1 1 1 1 1 1 1 1 1 0.049904992085283928 1 1 1 1 1 1 1 0.050082316570937507 1 1 1 1 1 0.057197956186921049 1 1 1 1 1 0.049993957449616502 1 1 0.048352450783817343 1 1 1 1 0.049834164868979049 1 1 1 1 1 1 0.040982216558486266 1 0.071165379682146382 1 0.04033741195191138 0.057597756358813715 1 0.04984898810342573 1 1 1 0.049454661747747583 1 1 1 1 1 0.048613295606133769 1 1 1 0.049952467701584624 1 1 1 1 0.049837472340124644 0.051432325496651735 0.047011436742754945 1 1 1 1 0.049911073331804008 0.056575758604293327 1 0.055466749451343583 1 1 1 1 1 1 0.049999180575792002 1 0.051013059227675711 1 1 0.051024853105819272 1 1 1 0.049744958362860942 1 1 0.054222759131057133 1 1 1 1 1 1 1 1 1 1 1 1 0.050307423748624402 1 1 1 1 0.05373063919519229 1 1 1 1 0.056892100507848792 1 1 1 1 1 1 1 1 1 0.050945571267775533 0.047582097178858633 0.044464547658348882 1 1 1 0.049993925200005535 0.049933490881617235 1 1 0.051687381277458852 1 0.049368437031166237 1 1 1 1 1 1 1 0.059128013389866063 1 1 1 1 1 1 1 1 1 1 1 1 1 1 1 1 0.050225595773411576 1 1 1 1 1 1 1 1 1 0.050693102739051435 1 1 0.055865672125343095 1 0.055558357608567394 1 0.052186921761763441 1 1 0.061097093231190225 1 1 1 0.05000004794628362 0.04232377457512957 1 1 0.049539357316333126 1 1 1 0.060268847154063304 1 1 1 1 0.049824701560213361 1 1 1 1 1 1 1 1 1 1 1 0.056262361613674906 0.050004549122305474 1 1 1 1 1 1 1 1 1 1 1 1 1 1 1 1 1 1 1 1 1 1 1 1 1 1 1 1 1 1 1 1 0.049983663149527693 1 1 1 1 1 1 1 1 1 1 1 1 1 1 1 1 1 1 1 0.045279412266943569 1 1 1 1 1 1 0.050024176644459149 0.05562639316614798 1 1 0.053796171305236729 0.053082504592313812 1 1 1 0.052971930894617228 1 1 1 1 1 1 1 1 1 1 1 1 1 1 1 1 1 1 1 1 1 1 1 0.045134958518810983 1 0.062784047340519053 1 0.048368632036831755 1 1 1 1 1 1 0.050188022665112367 1 0.047275865937516634 0.049246993181556543 1 1 0.018956379871104045 1 1 1 1 1 1 0.050161264116936985 0.023722192381332025 1 1 0.040086972158145232 0.057711492918356588 1 1 0.052915085563475246 0.050049529362782223 1 1 1 1 1 1 1 1 0.050210242990939152 1 1 1 1 1 0.045310858037045938 1 1 0.023204701044468957 1 1 1 0.050079614801071204 1 1 1 1 1 1 1 1 1 1 1 1 1 1 1 1 1 1 1 1 1 1 1 1 1 1 1 1 1 1 1 1 1 1 0.049061484260113933 1 1 0.058907645365229147 1 0.065379218023430788 0.047496409119348694 1 1 1 1 1 1 1 1 1 0.068484404597700138 1 1 1 1 1 0.07116152202499379 1 1 1 1 1 1 1 0.051864773563435086 1 1 1 1 1 1 1 1 0.055525703812963248 1 1 1 1 1 0.058965754440302456 1 1 1 1 1 1 1 1 1 1 1 1 1 1 1 1 1 1 1 1 1 1 1 1 1 1 1 1 1 1 0.050762833596211504 0.050513256090911035 1 1 1 1 1 1 1 0.049480035280511987 1 1 1 0.052490189512171624 1 0.051425173005039106 1 1 1 1 1 1 1 1 1 1 1 1 1 1 1 1 1 1 1 1 1 0.049847287777957869 1 1 1 1 1 1 0.057888438706213158 1 1 1 1 1 1 1 0.050354630096434067 1 1 0.049941176742206342 1 1 1 1 1 1 0.062404932218389629 1 1 1 0.046959853315528745 1 1 0.056083492561201133 0.051167867083088042 1 1 1 1 1 1 1 1 1 1 1 1 1 1 1 1 1 1 1 1 1 1 1 1 1 1 1 1 0.049722443286387169 1 1 1 1 1 1 1 1 1 1 1 1 1 1 1 1 1 1 1 0.051724869110946842 1 1 1 0.053759581346536474 0.049951577985023074 1 1 1 1 1 0.049965263124488977 1 1 1 0.050166533981046244 1 1 1 1 1 0.050496251181972637 1 1 1 1 1 1 1 1 1 1 1 1 1 1 1 1 1 1 1 1 1 0.049094642718088458 1 1 1 1 1 1 0.046279624472213829 1 1 1 1 1 1 1 1 1 1 1 1 0.05094552272091063 1 1 1 1 0.04615985507059038 1 0.050941857643446761 1 1 1 1 1 1 1 1 1 1 1 1 1 0.041344900655975375 1 1 1 1 1 0.036372405522019646 1 1 1 1 1 1 0.046168915372537429 1 1 1 1 1 1 1 1 1 1 1 1 0.048888155483542944 1 1 0.045945738237794034 1 1 0.05292955014970499 1 1 0.050935184244677828 1 1 1 1 1 1 1 1 1 1 0.043827879157347094 1 1 1 1 1 1 1 1 0.049998440150204299 1 1 1 0.049931948122114746 1 1 1 0.043906106420212698 1 1 0.040949620956596391 1 1 1 0.054017775386612149 1 1 1 1 1 0.041745446764236485 1 0.049999354160398773 1 1 1 1 0.050085431176586301 0.041000058017151828 1 1 1 0.019622019430219281 1 1 1 1 0.049815270685557009 1 1 1 1 1 1 1 1 1 1 1 1 1 1 1 0.049706563907628079 1 1 0.044674241784512903 0.056944266463684723 1 1 1 1 0.0563478646651734 1 1 1 1 1 1 0.049869902436469764 1 1 1 1 1 1 0.049958445914253732 1 1 1 1 1 1 1 1 0.051688758275693719 1 1 1 1 1 1 1 1 1 1 0.049783573319947393 1 1 0.053755360915096015 1 1 0.052187030588647945 1 1 1 1 1 0.036586431920550166 0.050002035793579591 1 1 0.050028607185053267 0.049536537627650062 1 0.048183371943722825 1 0.054955397324298411 1 0.055759654630631067 0.046205796698487539 1 1 0.043913750298494564 1 0.050930763088220851 1 0.052069490795976989 1 0.049804901511724772 1 0.050605758268770368 1 1 0.04998724131272908 1 0.04216941447765904 1 0.052962770061508124 1 1 1 1 1 1 0.048983582082969324 1 1 1 0.049983690553784058 1 1 1 1 1 1 1 1 1 0.049875584137179692 1 1 0.051284595069786346 1 0.049996009919733561 1 0.04764390944993914 1 1 1 1.6323553619912445e-11 0.049899874680571249 1 1 1 1 1 1 1 1 1 1 1 0.04990202532997997 1 1 1 1 1 0.050749940475010039 1 1 1 1 1 1 1 1 1 1 1 1 1 1 1 1 1 0.050332100510357553 1 1 1 1 1 1 0.052877144088387951 1 1 1 0.051938999375568257 1 1 0.049499160306305273 1 1 1 0.056803851064452203 1 0.062113943734264959 0.048412718462792784 1 1 1 1 1 1 1 1 1 0.053070978145040908 1 1 1 1 1 1 1 0.050023942221610981 1 0.051079641300501175 1 0.050366771818905372 1 1 1 1 1 1 1 1 1 1 1 1 1 1 1 1 1 1 1 1 1 1 1 1 1 1 1 1 1 1 1 1 1 1 1 1 1 0.032472358500674196 1 1 0.033012287574807647 0.06307929718016661 1 1 1 1 0.0629748590871686 1 1 1 1 1 0.058297560832970455 1 1 0.049962161921166925 0.023577045826784632 1 1 1 1 1 1 0.039013512412066617 1 0.049988360242555888 1 1 0.054829521263337663 0.049062476655060416 1 0.047018727334219773 1 1 1 0.047875901342734159 1 1 1 1 0.046816167724195043 1 1 1 0.05561610703044851 1 1 0.03823590987750209 0.050124932345492035 1 1 1 0.067884754050646035 1 1 1 1 0.049779996900024534 1 1 0.053449475114201145 1 1 1 0.046798368652042815 1 1 0.052792331830519186 1 1 1 0.038279309299872062 1 0.056459882030397812 1 1 0.058310595052653257 1 1 0.056454722490037766 0.049996196252445772 1 1 0.031877978657437842 1 0.049909904795748181 0.062606240542544073 1 1 1 1 0.039466009662003684 1 1 1 1 0.035484832640947261 1 1 1 1 1 1 1 1 1 1 1 1 0.073221713335447455 1 1 1 1 0.049995631660776807 1 0.039051443214353908 1 1 1 1 1 0.057797932785041764 0.050010704595273847 0.049880702788284922 1 1 1 1 1 1 1 1 0.061026793811224916 1 1 1 1 1 1 0.055704331135893764 1 1 1 1 0.060562255467157121 1 1 1 1 1 1 1 1 1 1 1 1 1 1 1 1 1 1 0.054401453601676142 1 0.031585274476299358 1 1 0.040751370872534248 0.040502161695673465 1 0.056992923105264756 1 1 0.049105616117503817 1 0.051105843392360739 1 0.054519851988170748 1 0.05142016053454683 1 1 1 1 0.050529077135173808 1 1 1 0.05279795239092587 1 1 1 1 1 1 1 1 1 1 1 1 1 1 1 1 1 1 1 1 1 1 1 1 1 0.050314618991847027 1 1 1 1 1 0.085659110299882629 1 1 1 1 1 1 1 1 1 1 1 0.050628828546883428 1 1 1 1 1 0.050298577682361734 1 1 0.049559141204480246 0.082555421821890448 1 1 1 0.060112897341449617 1 1 0.045310563345990637 0.061653107532717591 1 0.077868413161752248 1 1 1 1 1 1 1 1 1 1 1 1 1 1 1 1 0.050995405133900107 1 1 1 1 0.048975295346330869 1 1 1 1 1 1 1 1 0.045074166065162721 0.047679804316566529 1 1 0.050052981702976895 1 1 1 1 1 1 1 1 1 0.050256524557499224 0.046926863493255547 1 1 0.050004843913673921 1 1 1 0.049573591785862674 1 1 1 1 1 1 1 1 1 1 1 1 1 1 1 1 1 1 1 1 1 1 1 1 1 1 0.050330219007443527 1 1 1 1 1 1 1 1 1 1 1 1 1 1 1 1 1 1 1 1 0.03567073645837078 1 1 1 0.052853337393026043 0.050074798350650915 1 1 1 0.036277181433627646 1 1 0.049891957399894035 1 1 1 1 1 0.048817195843987957 1 0.051451183108813005 1 1 1 1 1 1 1 1 0.049556011761782745 1 1 1 0.043666201426774895 1 1 0.048398004633635763 1 0.050023603472297604 1 1 1 0.055161981403000465 1 1 1 0.06530460791712972 1 1 1 1 1 1 1 1 1 1 1 1 1 1 1 1 1 0.074543141539649083 1 1 1 1 1 1 1 1 1 0.051100785141360815 1 1 1 1 1 1 1 1 0.082672533062532541 1 1 1 1 1 1 1 1 1 1 1 1 1 0.049914510146564055 1 1 1 0.049837931521577977 1 1 1 1 1 1 1 1 1 1 1 1 1 1 1 1 1 1 1 0.053021625282149001 1 1 1 0.044879513020310305 1 0.04990234286997456 1 1 1 0.031911892344656384 1 1 1 0.04991843480382667 0.047476314456531651 1 1 1 1 1 1 1 1 1 1 1 1 1 1 1 1 1 1 1 1 1 1 0.050178046233133163 1 1 1 1 0.050461643252843816 1 1 1 1 0.050283597019710656 1 1 1 1 1 1 1 0.04772298657700666 1 1 1 1 0.04855803548224407 1 1 1 1 1 1 0.049476307037085915 1 1 1 1 1 1 0.049216961404024533 1 1 1 0.050014884853626734 1 1 1 1 1 1 1 1 1 0.05095286931769652 1 1 1 1 1 1 0.052671148973472123 1 1 1 1 1 1 1 1 1 1 1 0.050008284565844156 1 1 0.048260498558643485 1 1 1 1 1 0.050456356121556141 1 1 0.054795134015319331 1 1 1 1 1 1 1 0.029695369688822068 0.050773866800687018 1 1 1 1 0.049422360530348437 1 1 1 1 1 1 0.049993667105067835 1 1 1 1 1 1 1 1 1 1 0.048833384046500131 1 1 1 1 1 1 1 1 1 1 1 1 0.050946056248932253 1 0.050247215719170638 1 1 1 0.062494834634355054 1 1 0.017935788410500694 1 1 1 1 0.056867448807450642 1 1 1 1 1 0.017323636662162759 1 1 1 1 1 1 1 1 0.017536018493107965 1 1 1 1 0.051809763796583821 1 1 1 1 1 1 1 0.050647606934480643 1 1 1 1 1 1 1 1 1 1 0.051706826499995293 1 1 1 0.049524420979307586 1 0.048551298447848772 1 1 1 1 1 1 0.050116743672130232 1 0.045218522820707249 1 0.049834369816798132 1 1 1 1 0.051670812590440617 1 1 1 1 1 1 1 1 1 1 1 1 1 1 0.049693769244074308 1 0.038455296060821341 1 1 1 1 1 1 1 0.050515932165197577 1 1 1 1 1 1 1 1 1 1 1 1 1 0.035847912590113273 1 1 1 1 0.032726866285300624 1 1 1 1 1 1 1 1 1 1 1 1 1 1 1 1 1 1 1 1 1 1 1 1 0.049663770793145698 1 1 1 1 0.036684730675765227 1 1 1 0.04980141936417834 1 1 0.049997735555321846 1 1 0.049720333920682827 1 1 1 1 1 1 1 1 1 1 1 1 1 1 1 0.049903664542196711 1 1 0.049976764981732938 1 1 1 1 1 1 1 0.062820134353698154 1 1 1 1 1 0.067477879727419809 1 1 1 0.013992701181515965 1 1 1 0.0089519678920315648 1 1 1 1 1 1 1 0.045431470650071699 1 1 1 0.047360975173157432 1 0.050359867483550064 0.056032976493060299 1 1 1 1 1 0.051705717261787687 1 1 1 1 1 1 1 1 1 1 0.051611220136457296 1 1 1 1 1 1 1 1 1 1 1 1 1 1 1 1 1 1 1 1 1 1 1 1 1 1 1 1 1 1 1 1 1 1 1 1 1 0.050050064197833408 1 1 1 1 1 1 1 1 1 1 1 1 1 1 1 1 0.049533211294615284 1 1 1 1 1 1 1 1 1 0.050049995920136731 1 1 1 1 1 1 1 0.04981287737393246 1 1 1 1 1 1 1 1 1 1 1 1 1 1 1 1 1 1 1 1 1 0.051460961305408129 1 1 1 1 1 1 1 1 1 1 1 1 1 1 1 1 1 0.05101770861494654 1 1 1 1 1 1 1 1 1 1 1 1 1 1 1 1 1 1 1 1 1 1 1 1 1 1 1 1 1 1 1 1 1 1 1 1 1 1 1 1 1 1 1 1 1 1 0.048533929330473118 1 1 1 1 1 1 1 1 1 1 1 1 1 0.046986563335370039 1 0.050014186993438056 1 1 1 1 1 0.050125328969053848 1 1 1 1 1 0.051293198074277194 0.05448168411758092 1 1 1 1 1 1 1 1 1 1 1 1 1 1 1 1 1 0.051192520720244557 0.047721186607495206 1 1 1 1 1 1 0.049359676908387377 1 0.047612587288511782 1 1 1 1 1 1 1 1 1 0.048374150765733454 1 1 1 1 1 1 1 1 1 1 1 1 1 1 1 1 1 1 1 0.050717545739262196 1 1 1 1 1 0.049077891330762645 1 0.04816310741820682 1 1 1 1 1 1 1 0.048280385359813854 1 1 1 0.049085216087444178 1 1 1 0.043650049201522885 1 1 0.044814044423405211 1 1 1 0.056466270734562396 1 1 0.054560292002502314 1 0.039956934390819515 1 0.052881276559353041 1 1 0.0473655804662763 1 1 1 1 1 1 1 1 1 1 1 1 1 1 1 1 1 1 1 1 1 0.050205687178907769 1 0.037256036739872191 1 1 1 1 1 1 1 0.038669906984380761 1 1 1 1 1 1 1 1 1 1 1 1 1 1 1 1 1 1 1 0.050220572032534501 1 1 1 0.05044082561419945 1 1 1 1 1 1 1 1 1 1 0.051784884450153695 1 1 1 1 0.053255580225775978 1 1 0.050855993501925725 1 1 1 1 1 0.048646670905445021 1 1 1 1 0.049204776851108203 1 0.051793423230372018 1 1 0.034700222885995877 1 1 1 1 1 1 1 0.035052808783761547 1 1 0.049608843043692639 1 0.036987978428742047 1 1 1 1 1 1 1 1 1 1 1 1 1 1 1 1 1 1 0.050315635180390235 1 1 1 1 1 1 1 0.051216452065900926 1 1 1 1 0.045511147280223041 1 1 1 1 1 1 1 1 1 0.050415167887726292 1 1 1 1 0.051786330956012518 1 1 1 1 1 1 1 1 1 1 1 1 0.04954294941463315 1 1 1 1 1 1 1 1 1 0.040250385012784357 1 1 1 1 1 1 1 1 1 1 1 1 0.045161606892337204 1 1 0.048839863085397429 1 1 1 1 1 1 1 1 1 0.05062421037924078 2.0816681711721685e-17 0.063245304213135373 1 1 1 0.049995298583379914 1 1 1 1 1 1 0.07744282891990098 1 1 1 0.05439207567086661 0.049870545379411227 1 1 1 1 1 1 1 1 1 1 1 1 0.035832033206314458 1 1 1 0.050123437155343564 0.082971170984002557 1 1 1 1 1 0.086501269486798191 1 1 1 1 0.084586443554260399 1 1 1 1 0.049764803072157374 1 1 1 1 1 0.013580483665522693 0.03265019373657907 0.057261422425073039 1 1 1 0.043026281860443383 0.039667843388953919 1 1 1 1 1 1 1 1 1 0.057982605012074591 0.050332444614807015 1 1 1 0.049335264037833199 0.050066994922604559 1 1 1 1 1 1 1 1 1 1 1 1 1 1 1 1 1 0.059722651995095966 1 0.061616381862774586 1 1 1 1 0.075767762353671927 1 1 1 1 1 1 1 0.073767026017398193 1 1 1 1 1 1 1 0.063796359238565623 1 1 0.032228313203335614 1 0.065925115638814952 0.075408097118144973 1 1 1 0.036597607943058386 0.050013530503391551 1 1 1 0.050037602452796696 0.049137771836178117 1 1 1 1 1 1 1 1 1 1 0.050274293048800614 1 1 1 1 1 1 1 0.044357282188995303 1 1 1 1 0.035465810311289335 1 1 1 1 1 1 0.077622423844580873 1 1 1 1 0.049644691603853347 1 0.07076503783067184 1 1 1 1 1 1 1 1 1 1 1 1 1 1 0.081179382542829748 1 1 1 1 1 1 1 0.081656916671584007 1 1 1 1 0.050052197208543259 1 1 1 0.043781951339435035 1 1 1 1 1 1 1 1 1 1 1 1 1 1 1 1 1 1 1 1 1 1 0.045749786337630688 1 0.048424453471009071 1 1 0.04900477493442363 1 1 1 0.047637509196198621 1 1 0.047104515907698839 1 1 1 1 1 1 1 1 1 1 1 1 1 1 1 1 1 1 1 1 0.04603760171427905 0.052667443365454647 0.05176207286890927 1 1 1 1 1 1 1 1 1 1 1 1 1 0.041872250990266487 1 1 1 0.054197139940688276 1 1 0.032198655676049577 1 1 1 1 0.039199272510603241 1 1 0.040480430436699334 0.051163952949690131 1 1 1 1 0.048255352224265684 1 1 0.052558363915093442 1 0.050814140829229831 1 1 1 1 1 1 1 1 1 1 1 1 0.054021584255826788 1 1 1 1 1 1 1 0.046305520114120043 1 0.050375249415567182 1 1 1 1 0.046314247389922958 1 1 1 1 1 1 1 1 1 1 1 1 1 1 1 1 1 1 1 1 1 1 1 0.044232281792910694 1 1 1 0.050581235323519082 1 0.061972645171064739 1 1 1 0.028156277624532572 1 1 1 1 1 0.050090785860705332 1 1 0.061410189563824498 1 1 1 1 1 1 1 1 0.048627329437559236 1 1 1 1 1 0.047755441267971342 1 1 1 1 1 1 1 1 1 1 1 1 1 1 0.047232006118280934 1 1 1 1 0.046808227630713461 1 1 1 1 1 1 1 1 1 1 1 1 0.050565082069878933 1 1 1 1 0.049549624173660489 1 1 1 1 1 1 1 1 1 1 1 1 1 0.054050501088437897 1 1 0.050386550782076898 1 1 1 0.049051107925126694 1 1 1 1 1 1 1 1 1 1 1 1 1 0.051019940266317829 0.034449923395795896 1 0.047983023385497051 0.044263369561583853 1 1 1 0.052930519572651644 0.0079009360225902152 1 0.045444749903637879 1 0.049496268896381715 1 0.030202011740451735 1 1 1 0.059686266337038586 1 0.049977384038848771 1 1 1 1 0.035207667533009863 1 1 1 1 1 1 0.057600123116079094 1 1 1 1 1 0.0042592060412734792 1 1 0.049982773679899534 1 1 0.065942768380723243 1 1 0.049732521458804288 1 1 1 1 1 0.076370242660264917 1 0.068061324270568907 1 1 1 1 1 1 1 1 1 1 1 1 1 0.051109206070934443 1 1 0.051177380300771139 1 1 1 1 1 1 1 1 1 0.054411011029572687 1 1 1 1 1 1 1 1 1 0.087489042271785597 1 1 0.051435022521245211 1 0.088021230070090009 1 1 1 1 1 1 1 0.059753385674309538 1 1 1 1 1 1 1 0.085775040628344124 1 0.044615915070596424 1 1 0.051727802209068016 1 1 1 0.049782688351972644 1 1 1 1 0.049758544171647871 1 1 1 1 1 0.049780753076503759 1 1 1 1 1 1 1 1 1 1 1 1 1 1 1 1 1 1 1 1 1 0.048395445685586319 1 1 0.048292644820366021 1 1 1 0.050519979820730733 1 1 1 1 0.049446823308440191 1 1 1 1 1 1 1 1 1 1 1 1 1 1 1 1 1 1 1 1 1 1 1 0.046135038886347374 1 1 1 1 1 1 0.03923524745699361 1 1 1 1 1 1 1 1 1 1 1 1 1 0.05011399610519357 1 0.019122923710119429 1 1 0.052569534712842876 1 1 1 1 0.01300902453960133 0.046206956237966459 1 0.048776511949476242 1 0.036825075961558686 1 1 1 1 1 0.0067969600580831194 1 1 2.2204460492503131e-16 -3.6082248300317588e-16 1 1 1 1 1 0.06046903381191409 1 1 0.049997250860259995 1 1 1 1 1 1 1 1 0.024743181356872451 0.058334464756337023 1 1 1 0.036279295822064711 1 0.049993671841458517 1 1 1 1 1 0.045440986572995515 1 0.058985264961428918 1 1 1 1 1 0.047333777687800629 0.049658684383661854 1 1 1 1 0.049957465949406039 1 1 1 1 0.04916254327595547 1 1 1 1 1 1 1 1 1 1 1 1 1 1 1 1 1 0.049322035999739333 1 1 0.049800504453538182 1 1 1 0.049819824356190277 1 1 1 1 1 1 1 1 1 1 1 1 1 1 1 1 1 1 1 0.048039643778716515 1 1 1 1 1 1 1 1 1 1 1 1 1 1 0.04654517039859056 0.051051828143366229 1 1 1 0.049903994235332483 1 1 1 1 1 0.048713498117947771 1 1 1 1 1 1 1 1 1 1 1 0.049726987752808087 1 1 0.049907163396617826 1 1 1 1 1 1 1 1 1 1 0.043370196848198116 1 1 1 0.036727145399898548 1 0.045880450699829461 1 0.053994552857210866 1 1 1 0.049987372775280065 0.055021187124227711 1 0.0410520908827742 1 1 0.051082579008484376 1 1 0.053234443879310214 0.036434037432324332 1 1 1 0.0363294508751505 1 1 0.058457832849319144 1 0.037274255897974194 1 1 1 0.061158407315812818 1 1 0.056708101195411378 0.05998755972581965 1 0.060476108033992101 1 1 0.064737169262709143 1 0.052362814212652826 1 1 1 1 1 1 1 1 1 0.050692952218040557 1 1 1 1 1 0.048949528269990258 1 1 1 1 1 1 1 1 1 1 0.064590157864671177 1 1 1 1 0.059455428183012859 0.06445817353753179 1 1 0.027046281405088735 1 0.023507917629258829 1 1 1 1 1 0.024857511174472765 1 1 0.064257516148474053 1 0.05000407701326938 1 1 1 1 1 1 1 0.06439192269340771 1 1 1 1 1 1 1 1 1 0.030550280101832319 1 0.050066886284218598 1 0.049955111104219588 1 0.055517917213435047 1 1 1 1 0.049791694685724211 1 1 1 1 1 0.049339418313267346 0.064934141780333091 1 1 1 1 1 1 0.051134066609737315 1 1 1 1 1 0.034015881234679801 1 1 1 1 0.028496687541317452 1 1 0.040634373801804846 1 0.031606380760855909 1 1 1 0.057360670652411273 1 0.023932845594405443 1 1 0.025518096808032048 0.050003142035685663 0.027937015528857023 1 1 1 1 1 1 0.049999242943387034 0.069834293897007987 0.053486721075573049 1 1 1 1 0.053180090195476121 1 0.046137429284024534 1 0.059246638001098285 1 1 1 1 1 1 0.04910905845765913 1 1 1 1 1 1 1 1 1 1 1 1 1 1 1 1 1 1 1 1 1 1 1 1 1 1 1 1 1 1 1 1 1 1 1 1 1 1 1 1 1 1 1 1 1 1 1 1 1 0.043603040140302876 1 1 1 0.032643445315637634 0.050063682904146645 1 1 1 1 1 1 1 1 1 1 1 1 1 1 1 1 1 1 1 0.060491908908608366 1 1 1 1 1 1 1 0.047651809105199089 1 1 0.065357782010915605 1 1 0.052932898081225213 1 1 0.040278933966395591 1 0.057815915239256582 1 1 0.058393678187611285 1 1 1 0.049840522800717088 1 0.037875318480784376 1 0.056886312720499307 0.055502924262299941 1 1 1 0.041018257345945761 0.049875856498659422 1 1 0.058357287106853395 1 1 0.037846617463040563 1 1 1 1 1 1 1 1 1 1 1 1 0.040421643053650848 1 1 1 1 0.042361350494721374 1 1 1 1 0.071837481636437148 1 1 1 1 1 1 1 1 1 0.053150275118922029 1 0.049987084141012258 1 1 1 1 0.057289422533321886 1 1 1 0.057661224655546003 1 1 1 1 1 1 0.068054374255766784 1 1 0.049443302751512513 1 1 1 0.024328511399944595 1 1 1 1 1 1 1 0.059822746785105158 1 1 1 1 1 0.055362819355799744 1 1 1 1 1 1 1 1 1 1 1 1 1 1 1 0.066747142435460705 1 1 1 1 1 0.052609500965983519 1 1 0.043167630870648843 1 0.056974760352670947 1 1 1 1 0.051124178405446329 0.050550226457545207 1 1 0.044504853551943307 1 1 1 1 1 1 1 1 1 1 1 0.049206724632126123 1 0.047775169773659365 1 1 1 1 1 0.049308037974639805 1 1 1 0.052177148106968219 1 1 1 0.050282328015340001 1 1 1 1 1 1 1 1 1 1 1 1 1 0.031478469791954317 1 1 1 1 1 1 1 0.057710430924657531 1 0.051436755862590097 1 1 1 1 1 1 1 0.050155185090253671 0.083095657119158922 1 1 1 1 1 1 1 1 1 0.048938611573136795 1 1 1 1 1 1 0.065896824031078174 0.049956855371271265 0.049993266862104778 1 0.074111193316905299 1 1 1 1 1 1 0.068539854853481047 1 0.050900312782260794 1 0.04732460736935399 1 0.08236244979448637 1 1 1 1 1 1 0.085212933214344269 1 1 0.050258026021338512 1 1 1 1 0.048997262822235828 1 1 1 1 1 1 1 1 1 1 1 1 1 1 1 1 1 1 1 1 1 0.00088838841400162849 1 0.051898478327412789 1 1 1 1 1 1 1 1 1 1 1 1 1 1 1 1 1 1 1 1 1 1 1 1 1 1 1 1 1 1 1 1 1 1 1 1 1 1 1 1 1 1 1 1 1 1 1 1 1 1 1 1 1 1 1 1 1 1 0.049645081999879229 1 1 1 1 1 1 1 1 1 1 1 1 1 1 1 1 1 1 1 1 1 1 1 0.049036295932741225 1 1 1 0.048151190814666664 1 0.050356206254064811 1 1 1 1 1 1 1 1 1 1 1 1 1 1 1 1 1 1 1 1 1 1 1 1 1 1 1 1 1 1 1 1 1 1 1 1 1 1 1 0.051278178642581183 1 0.047528340762812218 1 1 1 1 1 1 1 1 1 1 1 1 1 1 1 1 1 1 1 1 1 1 1 1 1 0.058379486990792019 1 1 1 1 1 1 1 1 1 1 1 1 1 1 1 1 1 1 1 1 1 1 1 1 1 1 1 1 1 1 1 1 1 1 1 1 1 1 1 1 1 1 1 1 1 1 1 1 1 1 1 1 1 1 1 1 1 1 1 1 1 1 1 1 1 1 1 1 1 0.091469472067370258 1 1 1 1 1 1 1 0.078252421628969809 1 1 0.051379978055827252 1 1 1 1 1 1 1 1 1 1 1 1 1 1 1 1 1 1 1 1 0.07020523841350898 1 1 1 1 1 1 1 1 1 1 1 1 1 1 1 1 1 1 1 1 1 1 1 1 1 1 1 1 1 1 1 1 0.050095643003875423 1 1 1 1 0.054537002141381352 1 0.049594614306946186 1 1 1 1 1 1 0.050060670819388683 1 1 0.050410849262897753 1 1 0.050162095217126876 0.05008069386546761 1 0.049932537372914365 1 1 1 0.050138486615561639 1 1 1 1 1 1 1 1 1 1 1 1 1 1 1 0.051833349359490979 1 1 1 1 1 1 1 1 0.050083357903205894 1 1 1 1 1 1 1 1 1 1 1 1 1 1 1 1 1 1 1 1 1 1 1 1 1 1 1 1 1 1 1 1 1 1 1 1 0.072200749261362301 1 1 1 1 1 1 1 0.044828423523225747 1 1 0.042980696303618532 1 0.077407438858080074 1 1 1 1 1 1 1 1 1 1 1 0.049996191333507391 0.049970789056399879 1 1 0.047343683147411858 1 1 0.049913054431539233 0.050420517812331839 1 1 1 1 0.052483312451222064 1 0.043093041785657642 1 1 0.053194529373100458 1 0.050535815678116651 0.046275579824068505 1 0.072270582539366399 1 0.048719656173152215 1 1 1 1 1 1 1 0.049755403791757996 1 0.050099807403978402 1 1 1 1 1 0.049974326036673927 1 1 1 0.069197446333746387 1 1 0.047609907192091419 1 0.050853859772354418 1 0.064745018734761003 0.05047547902197258 1 1 0.027390216403380338 1 1 1 1 1 1 0.06134746974473014 1 1 1 1 1 1 1 1 0.037899576474318922 0.049909806906701479 1 1 1 0.031357688363596273 1 1 1 1 0.051939177956495039 0.022714037913731791 1 0.032014347404692507 1 1 1 0.043500641114363192 1 1 1 1 1 1 1 1 1 1 1 1 1 1 1 1 0.046298488089345627 1 1 1 1 1 1 0.057280333119802622 1 0.061726217062128247 1 1 1 0.057094153183258375 0.065919219947228866 1 1 0.049911916896007241 1 0.050018619318934907 1 1 1 1 1 1 1 1 1 1 1 1 0.050023876426050995 0.04997508564466753 1 1 1 1 1 0.044886604571132763 1 1 1 1 1 1 1 0.043838219136452541 1 1 1 0.049999169856861064 1 0.066344284566892953 1 1 0.049883852788557656 1 1 1 1 1 1 1 1 1 0.047138731011474942 1 1 0.048828953057982002 1 1 1 1 1 1 1 1 1 1 1 0.056075844740956976 1 1 1 1 1 1 1 1 1 1 1 1 1 1 1 1 1 1 1 1 1 1 0.049390055911728376 1 1 1 1 1 1 1 1 1 1 1 0.049778040621724043 1 1 1 1 0.053975521942716473 1 1 1 1 1 1 1 1 1 1 1 0.050558055851517666 1 1 1 1 1 0.052543396802798244 1 0.050030600093824054 1 1 1 1 1 1 1 1 1 0.061771301789097663 1 1 0.070610523883221421 1 1 0.04326602175325462 1 1 1 1 0.048096271834829105 1 1 1 1 1 1 1 1 1 1 1 1 1 1 1 1 1 1 1 1 1 0.042462308631366893 1 1 0.063596418296763949 1 0.044685074386094349 1 1 1 1 1 1 1 1 1 0.059417487223138471 1 1 0.043816316644681899 0.050017120123247202 0.054296523821663764 1 1 1 0.049998320182467373 1 1 1 1 1 1 0.045241494426661755 0.050001725666874025 1 0.035947799629363661 1 1 0.033495457075361931 1 1 0.06094166679008816 1 1 1 1 0.060212339602880596 1 1 1 1 0.061831795617035876 1 1 1 1 1 1 1 1 1 1 1 0.052732984884809195 1 1 0.047977830332269648 1 0.0611749060271344 0.04971785359171408 1 1 0.049983141258706995 0.05534043784513442 0.047965027962010368 1 1 1 1 1 1 1 1 1 1 0.051249723204026335 1 1 1 1 1 1 1 1 1 0.052663038969918127 1 1 1 1 1 0.050409795179193154 1 1 1 1 1 1 1 1 1 1 0.054148386343799107 1 1 1 1 1 1 1 1 1 1 1 1 1 1 1 1 1 1 1 1 1 1 1 1 0.071770562881723288 0.045037183266429234 1 1 1 1 1 1 1 1 0.057820285896621096 1 1 1 1 1 1 1 1 1 1 1 1 1 1 1 1 0.052242069016679299 1 1 1 1 0.06798235934560326 1 1 1 0.033170712947905676 0.050028143200085015 1 1 1 1 1 1 0.050030812981996964 1 0.044620150365615605 1 1 1 0.053345008784257616 1 1 1 1 1 1 1 1 0.051236172603931596 1 0.068942734124524896 0.037144282223934302 1 1 1 1 1 1 1 1 1 1 1 1 0.046248074963682023 1 1 0.04586297395311293 1 0.048681562207406617 1 1 1 1 1 1 1 1 1 1 1 1 1 1 1 1 1 1 1 1 1 1 1 0.047563939280804726 1 1 1 1 1 0.075434687868619371 1 1 1 1 1 1 1 1 1 1 0.05090331903373467 1 1 1 0.050315233748064292 1 1 1 1 1 1 1 1 1 1 1 0.049805885792945835 0.070833095630986595 1 1 1 1 1 0.064508245311908408 1 1 1 0.059370123653131268 1 1 1 1 1 1 1 1 1 1 0.050193187569071526 1 1 1 1 1 1 1 0.049901829408074083 0.060304338895323432 1 0.040659904810147085 1 1 1 1 0.052707516424812736 1 1 1 1 1 0.057663525321284569 1 1 1 1 1 1 1 1 1 1 0.049976330004528641 1 1 1 1 1 1 1 1 1 1 0.056480913813560366 1 1 1 1 1 1 1 0.051992654883355541 1 1 1 1 1 1 1 1 1 1 1 1 1 1 1 1 1 1 1 1 0.049347328798658288 1 1 1 0.047974852227623072 1 1 1 1 1 1 1 1 1 1 1 1 1 0.045762082622294434 1 0.040338470975696816 0.055949443422382061 1 0.045927676357132768 0.064880228328498324 1 1 1 1 1 0.04982531278549919 1 1 1 1 1 1 1 0.054370527052984105 1 1 0.064680397964762743 1 1 0.039486814342152621 1 1 0.042704841085356167 1 1 0.055578437224261576 0.053547538524414746 0.047216853912761605 0.048998048539980993 1 1 0.051599632236129844 0.049927291250797923 1 1 0.040723953608981234 1 1 0.04614896969278745 1 1 1 1 0.056062217719225864 0.064972348860042772 0.052776723071812991 0.066474151958617597 1 1 1 0.04910898511897744 1 0.050163673183687016 1 0.040114698693689235 1 0.052546313010365428 0.043020649142923764 1 1 1 1 1 1 1 0.051628797472587827 1 1 0.079573554903675681 1 0.049597850234958857 1 1 0.05560573771850072 0.046344234853144539 1 1 1 1 1 1 1 1 1 1 1 1 1 1 1 1 1 0.050326240898358521 1 1 1 1 1 1 1 1 1 1 1 1 1 1 1 1 1 0.049378962137408403 1 1 1 1 1 1 1 1 1 1 1 1 1 1 0.03081997038439023 0.047560070713492567 1 1 1 1 0.049994551296770245 1 0.030292830517410031 1 1 1 0.054755421990139524 0.047284495858602602 1 0.050537446874095587 1 1 1 1 1 1 1 1 1 1 1 1 1 1 1 1 1 1 1 0.028458241111708332 1 0.049924673202636258 1 1 1 1 0.050340426148896299 1 1 1 1 1 1 1 1 1 1 1 1 1 1 1 1 1 1 1 1 0.050228031752348204 1 1 1 1 1 1 1 1 1 1 1 1 1 1 0.049271441619577236 1 1 1 1 1 1 1 1 1 1 1 1 1 1 1 1 1 1 1 1 1 1 1 1 1 1 1 1 1 1 1 1 1 1 1 1 1 1 1 1 1 1 1 1 1 1 1 1 1 1 1 1 1 1 1 1 1 1 1 1 1 1 0.059979731996708953 1 1 1 0.058605816281728923 1 1 0.054597748861047915 1 1 1 1 1 1 1 1 1 1 1 0.054008067420681004 1 1 1 1 0.048683838329615411 1 1 1 1 1 1 1 1 1 1 1 1 1 1 1 1 1 1 1 1 1 1 1 1 1 1 1 1 1 0.04975744372056301 1 1 1 1 0.049757221994299231 1 1 1 1 1 1 1 1 1 1 0.050680916916837945 1 1 0.051436584443560043 1 1 1 1 1 1 1 1 1 1 1 1 0.048998409074183069 1 1 1 1 1 1 1 1 0.051014843997166021 1 1 1 1 1 1 1 1 1 1 0.058308684017852372 1 0.046750248274192857 1 1 1 0.065555315715797133 1 1 1 0.047002943422990634 1 0.076720247124390684 1 0.062152361446877212 0.049755810116311805 1 1 1 1 1 0.049735175967080533 1 1 1 1 1 1 1 1 1 1 1 1 1 1 1 1 1 1 1 1 1 1 1 0.049735371421615007 1 1 0.045841761230548728 1 1 1 0.048843589369517715 1 0.049921350267291734 1 1 1 1 1 1 1 1 1 1 1 1 0.049723064581882803 1 1 1 1 1 1 1 1 1 1 1 1 1 1 1 1 1 1 1 0.04946881595660238 1 1 1 1 1 1 1 1 1 1 1 1 1 1 1 1 1 1 1 1 1 1 1 1 1 1 1 0.049704237781265023 1 1 1 1 1 1 1 1 1 1 1 1 1 1 1 1 1 1 0.049546629285113733 1 1 1 0.049324285938788529 1 1 1 0.050247167103241883 0.049898048834880721 1 1 1 1 1 0.050273911338571856 1 1 1 1 1 1 1 0.050948576570135948 0.050661943410148499 1 1 1 0.04971434408310009 1 0.049614911775513734 1 1 1 1 1 1 0.031759449596303377 0.043389309661774129 1 1 0.043719174591083695 0.046855552100712641 1 1 1 1 1 1 1 1 1 1 0.050033300417248794 1 1 1 1 1 1 0.049397202101884245 1 1 1 1 1 1 1 1 1 1 1 1 1 1 1 1 1 0.050101259398999579 1 1 1 1 0.056570112212811885 1 1 0.050315382930246635 1 1 1 1 1 1 1 1 1 1 1 0.047113093701192751 1 0.042847960714178152 1 0.040979233122089814 1 1 1 1 1 1 1 1 1 1 1 1 1 1 1 1 1 1 1 0.05094561949753116 1 1 0.052703608214898563 1 1 1 0.049971953306814608 1 1 0.048066231671418859 1 1 1 1 0.055538228270933868 1 1 1 1 1 1 1 0.05616706299756196 1 1 1 1 1 1 1 1 1 1 1 1 1 1 1 1 1 1 1 1 1 1 1 1 1 1 1 1 1 0.062222214259396058 1 1 1 1 1 1 1 1 1 1 1 1 1 1 1 1 1 1 1 1 1 1 1 1 1 1 1 1 1 1 1 1 1 1 1 1 1 0.047138196726872583 0.042444263421348292 0.057135465748282932 1 1 0.033946564336115773 1 1 1 0.049401038364705399 1 0.049935022454163439 1 1 1 1 1 0.04987256046487977 1 1 1 1 1 1 1 0.029970127107911151 1 1 1 1 1 1 1 1 1 1 1 1 1 1 0.04614751437079806 1 1 1 0.049945216924560956 1 0.026347140309148628 1 1 1 1 1 1 1 1 0.051806375716226059 1 1 1 1 1 1 1 0.050003119613292263 1 0.049879491284811679 1 0.041194633959395724 1 1 1 1 1 1 1 1 0.05367228444403864 1 1 0.051658640428594124 0.048766766790903048 0.054882337957070669 1 0.028916218089824669 1 0.061152845841799947 1 1 1 1 1 1 1 1 1 1 1 1 1 1 1 1 1 1 1 1 1 0.067007906679188878 1 1 0.044781699699763103 0.058038961978514124 1 1 1 0.050085283740804308 1 1 1 1 1 1 1 0.048734042027724939 1 0.049554630335616225 1 1 1 1 0.050018386353850627 1 1 0.046999455147714253 1 1 1 1 1 1 1 0.036910080950604288 1 1 0.036470766176320529 1 1 1 0.036589498349318572 1 1 1 1 1 1 1 1 1 0.048656331630748444 1 1 1 1 1 1 0.046817193331205167 1 1 0.03092926613559889 1 1 1 1 0.021303283616538778 1 1 1 1 1 1 0.052454493339764707 0.053565433749511483 0.043418829080959863 1 1 1 0.050099980569338544 1 0.050014464636911012 1 0.04717974851873679 1 1 1 1 1 1 0.041793978984322522 1 1 1 0.038015483738930871 1 1 1 0.048005470685593077 1 1 1 1 1 1 1 1 1 1 1 1 0.050213345448566461 1 1 1 0.049836094240667345 1 1 1 1 1 0.050636096374574099 0.039906369524133012 1 1 0.049711902128322494 1 0.03994004674918146 0.044197242618844765 0.057476022776432038 1 1 1 0.050159607101920467 1 1 1 1 1 0.029222196780610235 1 1 1 1 1 1 1 1 1 1 1 1 0.049929993771961778 1 1 1 1 1 1 0.058573603959438128 1 1 0.05765452169581918 1 1 0.049897716609139789 1 1 1 1 1 0.050343584053113122 1 1 0.047795139941776546 1 0.050121871852591648 1 0.049871225730393653 1 1 1 1 1 1 0.049801219502355443 1 1 1 1 0.050404711290159124 1 1 1 1 1 1 1 1 1 1 0.051218187767375661 1 1 1 1 1 0.05118263607762065 1 1 1 1 1 1 1 1 1 1 1 1 1 1 1 0.050882962502351914 1 1 1 1 1 0.052771876705262524 1 0.052479234594046201 1 1 1 1 1 0.048576166956882161 1 1 1 1 1 0.046373565931754027 1 1 1 1 1 0.050844261237977487 1 1 1 1 1 1 1 1 1 1 0.05402162546540705 1 0.050008388334043918 1 0.02723773671639626 1 1 0.05945391888539546 1 1 1 1 1 1 1 1 0.046947828477691023 1 0.053857256137237339 1 1 1 1 1 1 1 1 1 1 0.055014194058362553 1 1 1 1 1 1 1 1 1 1 0.050812372646352702 1 1 1 0.035359458140783118 1 0.053238633739999847 0.025579479283318413 1 1 1 0.047439778512990097 1 1 1 0.039191820634795843 0.050057125838648936 1 1 1 1 1 1 1 1 1 1 0.050002264190733378 0.050083092823761333 1 1 1 1 1 0.049937339316520182 1 1 1 1 1 1 1 1 1 1 0.039040910284936586 1 0.053778380447110419 0.0475942604783023 0.046069017674573096 1 1 1 1 1 1 1 1 0.04863915437156166 1 1 1 1 1 1 1 1 1 1 1 1 1 1 1 1 1 1 1 1 1 1 1 1 1 1 1 1 1 0.052204610338309962 1 1 1 1 0.050812541022234745 1 1 1 1 1 1 1 1 0.049035961273316553 1 1 1 1 1 1 1 1 0.051392658333472938 1 1 1 1 1 1 1 1 1 1 1 1 1 1 1 1 1 1 1 1 1 1 1 1 1 1 0.055026068285719154 1 1 1 1 1 1 0.06466427872065697 1 0.031191911251882067 1 1 0.051688543946565385 1 1 1 0.027837000620724091 1 0.054628233803180715 1 1 1 0.04981999504124697 1 1 1 0.037227262139917811 1 1 1 1 1 1 0.046541907818994102 1 1 1 1 1 1 1 1 1 1 1 1 1 1 1 1 1 1 1 1 1 1 1 1 1 1 1 0.045875903603880538 1 0.040098765731487698 1 1 1 1 0.044222862127607107 1 1 1 1 1 1 1 1 1 1 1 1 1 0.047363379770535105 1 1 0.046399341043851738 1 1 0.045270926955670678 1 1 1 1 1 0.037242123947557854 1 1 1 1 1 1 1 1 0.048460130086549369 1 0.045365242411124093 1 1 1 1 1 0.050537000228216791 0.052879217540715631 1 1 0.049462794668287791 1 1 1 0.041072807691335103 1 1 1 1 1 1 1 0.05054119767648356 1 1 1 1 1 1 1 1 1 1 1 1 1 1 1 1 0.046532981067860232 1 1 1 1 1 0.042943572684857483 1 0.046125765044332093 1 1 1 1 1 1 1 1 1 1 1 1 0.045767463718750206 1 0.0454938491121296 1 1 1 1 1 1 0.039297159921148239 0.048949656078224851 1 1 1 1 1 1 1 1 1 1 1 1 1 1 1 1 1 1 1 1 1 0.050325601756276678 1 1 0.050919169561751992 1 1 1 1 1 0.048026504559322003 1 1 1 1 1 1 0.050107810130345612 1 1 1 1 1 1 1 1 1 1 1 1 1 1 1 1 0.049312327940876755 1 1 0.043712343392281694 1 1 1 1 0.052713844446232588 1 1 1 1 1 1 1 1 1 1 1 0.051239431592861276 1 1 1 1 1 1 1 1 1 1 1 1 1 1 1 1 1 1 1 0.043803310809018642 1 1 1 1 1 1 1 1 1 1 1 1 0.049445596696001862 1 1 1 1 1 1 1 1 1 1 1 1 1 0.050248944722827836 0.0022876415069600503 1 1 1 1 1 1 0.028045322288433205 1 1 1 1 1 1 1 1 1 1 1 1 1 1 1 1 1 1 1 1 1 1 1 1 1 1 1 1 1 1 1 1 1 1 1 0.050384792547893201 1 1 1 1 1 1 1 1 0.05033681822200492 1 1 1 1 1 1 1 1 1 1 1 1 0.049649146162881685 1 1 1 1 0.030217367602677139 1 0.015824562618232688 1 1 1 1 1 1 1 1 0.05157850787426671 1 1 1 1 1 1 1 1 1 1 0.053052920727638023 1 1 1 0.062066418868751333 1 1 0.052407312518571766 1 1 1 1 0.067945586947835132 1 1 0.070849835770567471 1 1 1 1 1 1 1 1 0.057438647962681569 1 1 1 0.062785166407181958 1 1 1 1 1 1 1 0.037452120727332533 1 0.049810007824943645 1 0.02184268403603247 1 0.027475157485308467 0.015949975442734576 1 1 1 0.0496914830285951 0.050201503129934558 0.056171526288114781 1 1 0.022765487749157549 1 1 1 0.072074772991833916 1 1 1 1 0.049291989272643881 1 1 1 1 1 1 1 1 1 1 1 1 1 1 1 1 1 1 1 1 1 1 1 1 1 1 1 1 1 1 1 1 1 1 1 1 1 1 0.049547443399900012 1 1 1 1 1 1 1 1 0.053938506343562523 1 1 1 1 0.054713934400749342 1 1 0.0514997410795522 1 1 0.053326192417394863 1 1 1 1 0.05136173151021442 1 1 1 1 1 0.051759102197152095 1 1 1 1 1 1 1 1 1 1 1 1 1 0.05654595447257478 0.050528051995917131 1 1 1 0.052703063932366123 1 1 1 1 1 1 1 1 1 1 1 1 1 1 0.049021940263462072 1 1 1 1 1 1 0.049325052301667241 1 1 0.048770648997669135 1 1 1 1 1 1 1 1 1 1 0.046871305676918121 1 1 1 1 1 0.044591465615048911 1 1 1 1 1 1 1 1 1 1 0.057496443428781796 1 1 1 1 1 1 1 1 1 1 1 1 1 1 1 0.050050578985949758 1 1 1 1 1 1 1 1 1 1 1 1 1 1 1 1 1 1 1 1 1 1 1 0.049869921151208571 1 0.054156874909056407 1 1 1 0.049417364551108581 1 1 1 1 1 1 1 1 1 0.051146788270984504 1 1 1 0.057252175304931305 1 1 1 1 1 1 1 1 1 1 1 1 1 1 1 1 0.030994927315493595 1 1 1 1 1 0.058982108158352385 1 1 1 0.029619903637614988 1 0.049973579548278191 1 1 1 1 1 1 0.032841196383077129 1 1 1 1 1 1 1 1 1 1 1 1 1 1 1 1 1 1 1 1 1 1 1 1 1 1 1 0.055200799665772335 1 1 0.051647645767151168 1 1 1 1 1 1 1 0.049329841485507203 1 1 1 1 0.050338091238685226 1 1 0.050336985428021591 1 1 1 1 1 1 0.049814936657904589 1 1 1 0.049910404305132952 1 1 1 0.049910162984832349 1 1 1 1 1 0.046758926572564544 1 1 1 1 1 0.041736689949543021 1 1 1 1 1 1 1 1 0.035373424711613782 1 1 0.05058422427303369 1 1 1 1 0.051771894441897226 1 1 1 1 0.053065641045624348 1 1 1 1 0.032362769482058171 1 1 1 0.037209486507315356 1 0.049868664707981458 1 1 1 1 1 1 1 1 1 1 0.049745567342221235 1 1 1 1 1 1 1 0.049536773235880752 0.033944562387361099 1 1 1 1 1 0.030277636205915309 1 1 1 1 1 0.035852559998861278 1 1 1 0.048550721477919667 1 1 0.050099403442056704 1 1 0.052353166707070506 1 1 1 0.02904408507706472 1 1 1 1 1 1 0.048985073486255526 1 1 1 1 1 0.049839928962858479 1 1 1 1 1 0.049932744644452048 1 1 1 1 1 1 0.049412510663684378 1 1 1 1 0.057101762730192338 1 1 1 1 1 0.05061397338800025 1 1 1 1 1 1 1 1 1 1 0.057715136448145896 1 1 1 1 1 1 1 0.053908045352667272 1 1 1 1 0.051074121267170619 0.053057511372656692 1 1 0.038594224409938462 1 1 1 1 1 1 1 0.046071502742969922 1 1 1 1 1 1 1 0.05525862479472253 1 0.051603517499253362 1 1 0.053140244074948398 1 1 1 1 0.048319240211508838 1 0.053045846395704137 1 1 1 1 1 1 1 1 1 1 0.050208125675438975 1 1 1 1 1 0.050134384610569842 1 1 1 0.056278259011361978 1 1 1 1 0.050120022635537526 1 1 0.032980642174726071 1 1 1 1 1 0.040101105762381697 1 0.063442795002502564 1 0.050007827377423181 0.043453180034236122 1 1 1 1 0.05764292257832495 0.048978133176680601 1 1 1 1 1 1 1 1 1 1 1 1 1 0.049658873869225538 1 1 1 1 1 1 0.051358873467417285 0.050175107737725613 1 1 1 1 1 1 1 1 1 1 1 1 1 0.050688385788181141 1 1 1 1 1 1 1 1 1 1 1 1 1 1 1 1 1 1 1 1 1 1 1 1 1 1 1 1 1 1 1 1 1 0.050183130301740986 1 1 0.050568507265715219 1 1 1 1 1 1 1 0.050913428959891316 1 1 1 0.049762924489745411 1 1 0.037664497359966714 1 1 1 0.054036496077804481 0.050018645149478777 1 1 1 1 0.060744577575523803 0.050876070806508369 1 1 1 1 1 1 1 1 1 1 1 1 1 1 0.064391560340861381 1 1 0.050003815234201492 1 1 1 0.06621074654256752 1 1 1 1 0.049689650741574554 1 1 0.081502163390780161 1 1 1 1 1 1 1 1 1 1 1 0.098964148175400418 1 1 1 1 1 1 1 0.11177317622815748 1 1 1 1 1 1 1 1 1 1 1 1 1 1 1 1 1 1 0.047952630550306408 1 1 1 1 1 1 0.039804737741853093 1 0.051479784741607339 1 1 1 1 1 0.047823059014994382 1 1 0.042715992268090378 1 1 1 0.085747715654174522 1 1 1 0.049124838491829463 1 1 1 1 1 1 1 1 1 1 1 1 1 1 0.049192939047670706 1 1 1 1 0.047654318008004876 0.042365029130594187 1 1 1 1 1 1 1 1 1 1 1 1 1 1 1 1 1 1 1 0.050648453278424495 1 1 1 1 1 1 1 1 0.053858280594342639 1 0.052024760167803955 1 1 1 1 1 1 1 0.050010156684548189 1 0.050536610749978228 1 1 1 1 1 0.055794737886068466 1 1 1 1 1 1 0.050334503194286805 1 1 1 1 1 0.044336180754756482 0.039786011366216095 1 1 1 0.034600152930068337 0.062927762615075836 0.059593578550254954 1 1 1 1 1 0.033915999027866559 1 1 1 1 1 0.068095320460798664 1 1 1 1 0.061428985416531606 1 0.033925867320835863 0.043935132138042801 1 0.061916223526136724 0.052244647043411294 1 1 1 0.054375575946583217 1 1 1 0.062663158413017978 1 1 1 0.057151439324785822 1 1 1 0.059019158908891506 1 1 1 1 1 1 1 1 0.051816536127355046 1 1 1 0.053916808585419453 1 1 1 1 1 1 0.049546228061984152 1 1 1 1 1 1 0.057689294186165287 1 1 1 1 1 1 1 1 1 1 1 1 1 1 0.050453882754214349 1 0.035733132208640342 1 1 1 0.057231760051660995 1 1 0.049778942184777797 1 0.042389987712133141 1 0.046988066444279809 1 1 0.057767413492968836 1 1 1 1 1 1 0.045329447806789366 1 1 1 1 0.050198113974843347 1 1 1 1 1 1 0.048395354702240628 1 1 1 1 1 1 1 1 1 1 0.049015937333815235 1 1 1 1 1 1 1 1 1 1 1 1 1 1 1 1 1 1 1 0.023692416563666725 0.046461626795940965 1 1 1 0.030048395099584624 1 1 0.036127490510729422 1 1 0.034345329427955207 1 1 0.056542767201531868 1 1 0.044290480540614449 0.053318045229343927 1 1 1 1 0.029461501622101538 1 1 1 1 1 1 1 1 1 1 1 0.033853143836093051 0.057838541770465074 1 1 1 0.0380205455401329 1 0.049969173725475144 1 0.049970751274376661 1 1 1 1 1 0.049741711125089287 1 1 0.04699666203929348 1 0.044226610840013787 1 1 0.049978115430883804 0.044351560396535164 0.044703006169705038 1 1 1 1 0.046878541640107893 1 1 0.046201416447162399 1 0.039143981778709924 1 1 0.056413431956563759 1 1 1 1 1 1 1 1 0.040239930826286227 1 0.040563824333546154 0.045965340634350552 1 1 1 1 1 0.049849081603748478 0.042889711822572826 1 1 1 0.031891690361535649 0.038265000383649619 1 1 1 1 1 1 1 1 0.049931334267091801 1 0.045021057142501805 1 1 1 1 1 1 1 1 1 1 1 1 1 1 1 1 1 1 1 1 1 1 1 1 1 1 1 1 1 0.049761934240189244 1 1 1 1 1 1 1 1 1 1 1 1 1 1 1 0.048514781152852141 1 1 0.049856513238332179 1 1 1 1 1 0.049832358078985069 1 1 1 1 1 1 1 1 1 1 1 1 1 0.050024155159347092 1 1 1 1 1 1 1 1 1 0.050952263407357194 1 1 0.04272350130470981 1 1 1 1 0.050002248356848661 0.051579060845250768 0.034823225947129027 1 1 1 1 1 0.045567032941946334 1 1 1 
</DataArray>
</CellData>
</Piece>
</UnstructuredGrid>
</VTKFile>
