<?xml version="1.0"?>
<VTKFile type="UnstructuredGrid" version="0.1" byte_order="LittleEndian">
<UnstructuredGrid>
<Piece NumberOfPoints="30713" NumberOfCells="10774">
<Points>
<DataArray type="Float64" NumberOfComponents="3" format="ascii">
-0.5 -0.5 0 -0.4796025021615643 -0.46577812904961879 0 -0.5 -0.44221410203244482 0 -0.5 -0.5 0 -0.4796025021615643 -0.46577812904961879 0 -0.4296306360314639 -0.5 0 -0.44795875673434038 -0.45041287517128459 0 -0.4796025021615643 -0.46577812904961879 0 -0.4296306360314639 -0.5 0 -0.44795875673434038 -0.45041287517128459 0 -0.47664897719421812 -0.43902784418536489 0 -0.4796025021615643 -0.46577812904961879 0 -0.44795875673434038 -0.45041287517128459 0 -0.47664897719421812 -0.43902784418536489 0 -0.46223310917408972 -0.42688402049767871 0 -0.47664897719421812 -0.43902784418536489 0 -0.4796025021615643 -0.46577812904961879 0 -0.47664897719421812 -0.43902784418536489 0 -0.4796025021615643 -0.46577812904961879 0 -0.5 -0.44221410203244482 0 -0.47664897719421812 -0.43902784418536489 0 -0.5 -0.44221410203244482 0 -0.4836380270115111 -0.41856072433257541 0 -0.5 -0.44221410203244482 0 -0.4836380270115111 -0.41856072433257541 0 -0.49999999999999889 -0.36826803302627609 0 -0.4836380270115111 -0.41856072433257541 0 -0.47369545222687248 -0.41227755932111099 0 -0.47144222327388652 -0.39186990506962149 0 -0.4836380270115111 -0.41856072433257541 0 -0.47369545222687248 -0.41227755932111099 0 -0.47664897719421812 -0.43902784418536489 0 -0.4836380270115111 -0.41856072433257541 0 -0.47369545222687248 -0.41227755932111099 0 -0.47664897719421812 -0.43902784418536489 0 -0.47369545222687248 -0.41227755932111099 0 -0.46223310917408972 -0.42688402049767871 0 -0.47664897719421812 -0.43902784418536489 0 -0.47369545222687248 -0.41227755932111099 0 -0.4836380270115111 -0.41856072433257541 0 -0.48056068800344581 -0.3793781299487724 0 -0.49999999999999889 -0.36826803302627609 0 -0.4836380270115111 -0.41856072433257541 0 -0.47144222327388652 -0.39186990506962149 0 -0.48056068800344581 -0.3793781299487724 0 -0.47369545222687248 -0.41227755932111099 0 -0.47144222327388652 -0.39186990506962149 0 -0.47369545222687248 -0.41227755932111099 0 -0.47144222327388652 -0.39186990506962149 0 -0.46195930817469222 -0.40486095635100999 0 -0.47144222327388652 -0.39186990506962149 0 -0.47092109800804749 -0.38715003661911701 0 -0.48056068800344581 -0.3793781299487724 0 -0.47144222327388652 -0.39186990506962149 0 -0.48056068800344581 -0.3793781299487724 0 -0.47144222327388652 -0.39186990506962149 0 -0.47092109800804749 -0.38715003661911701 0 -0.47144222327388652 -0.39186990506962149 0 -0.47092109800804749 -0.38715003661911701 0 -0.4650025884817458 -0.39019220821080691 0 -0.47092109800804749 -0.38715003661911701 0 -0.47100499257762229 -0.37891364744392297 0 -0.48056068800344581 -0.3793781299487724 0 -0.45359641667340878 -0.37751742946319078 0 -0.46407784612286601 -0.37624863758214971 0 -0.46336279109416512 -0.38378345268581149 0 -0.47100499257762229 -0.37891364744392297 0 -0.46407784612286601 -0.37624863758214971 0 -0.46336279109416512 -0.38378345268581149 0 -0.47092109800804749 -0.38715003661911701 0 -0.47100499257762229 -0.37891364744392297 0 -0.46336279109416512 -0.38378345268581149 0 -0.47092109800804749 -0.38715003661911701 0 -0.46336279109416512 -0.38378345268581149 0 -0.4650025884817458 -0.39019220821080691 0 -0.46336279109416512 -0.38378345268581149 0 -0.4650025884817458 -0.39019220821080691 0 -0.45803607684490738 -0.39096138753577919 0 -0.45359641667340878 -0.37751742946319078 0 -0.46336279109416512 -0.38378345268581149 0 -0.45803607684490738 -0.39096138753577919 0 -0.45359641667340878 -0.37751742946319078 0 -0.45803607684490738 -0.39096138753577919 0 -0.44856245441100723 -0.38554969188081728 0 -0.45803607684490738 -0.39096138753577919 0 -0.46195930817469222 -0.40486095635100999 0 -0.44017972070311129 -0.39109744489349407 0 -0.47144222327388652 -0.39186990506962149 0 -0.46195930817469222 -0.40486095635100999 0 -0.47144222327388652 -0.39186990506962149 0 -0.4650025884817458 -0.39019220821080691 0 -0.46195930817469222 -0.40486095635100999 0 -0.4650025884817458 -0.39019220821080691 0 -0.45803607684490738 -0.39096138753577919 0 -0.46195930817469222 -0.40486095635100999 0 -0.46195930817469222 -0.40486095635100999 0 -0.44017972070311129 -0.39109744489349407 0 -0.46195930817469222 -0.40486095635100999 0 -0.44017972070311129 -0.39109744489349407 0 -0.44187303809623463 -0.41042716763586079 0 -0.45803607684490738 -0.39096138753577919 0 -0.44017972070311129 -0.39109744489349407 0 -0.44856245441100723 -0.38554969188081728 0 -0.44017972070311129 -0.39109744489349407 0 -0.44856245441100723 -0.38554969188081728 0 -0.44097683473770349 -0.3832729449940232 0 -0.45359641667340878 -0.37751742946319078 0 -0.44097683473770349 -0.3832729449940232 0 -0.43806423624155388 -0.37321122993703859 0 -0.45359641667340878 -0.37751742946319078 0 -0.44856245441100723 -0.38554969188081728 0 -0.44097683473770349 -0.3832729449940232 0 -0.46195930817469222 -0.40486095635100999 0 -0.46223310917408972 -0.42688402049767871 0 -0.4454355997108892 -0.42749749182207158 0 -0.47369545222687248 -0.41227755932111099 0 -0.46195930817469222 -0.40486095635100999 0 -0.46223310917408972 -0.42688402049767871 0 -0.46195930817469222 -0.40486095635100999 0 -0.4454355997108892 -0.42749749182207158 0 -0.47369545222687248 -0.41227755932111099 0 -0.46195930817469222 -0.40486095635100999 0 -0.46195930817469222 -0.40486095635100999 0 -0.44187303809623463 -0.41042716763586079 0 -0.4454355997108892 -0.42749749182207158 0 -0.44795875673434038 -0.45041287517128459 0 -0.4454355997108892 -0.42749749182207158 0 -0.42273666922531011 -0.43149097083211352 0 -0.44795875673434038 -0.45041287517128459 0 -0.46223310917408972 -0.42688402049767871 0 -0.4454355997108892 -0.42749749182207158 0 -0.44187303809623463 -0.41042716763586079 0 -0.4454355997108892 -0.42749749182207158 0 -0.42273666922531011 -0.43149097083211352 0 -0.44187303809623463 -0.41042716763586079 0 -0.42273666922531011 -0.43149097083211352 0 -0.42025936247602952 -0.40857695173762038 0 -0.42025936247602952 -0.40857695173762038 0 -0.40033900424894708 -0.42605645858174612 0 -0.42273666922531011 -0.43149097083211352 0 -0.42025936247602952 -0.40857695173762038 0 -0.40033900424894708 -0.42605645858174612 0 -0.42273666922531011 -0.43149097083211352 0 -0.40033900424894708 -0.42605645858174612 0 -0.39855622360383719 -0.44977165092666882 0 -0.44097683473770349 -0.3832729449940232 0 -0.42493645186783829 -0.38146453033356231 0 -0.43806423624155388 -0.37321122993703859 0 -0.44017972070311129 -0.39109744489349407 0 -0.44097683473770349 -0.3832729449940232 0 -0.42493645186783829 -0.38146453033356231 0 -0.44017972070311129 -0.39109744489349407 0 -0.42493645186783829 -0.38146453033356231 0 -0.44017972070311129 -0.39109744489349407 0 -0.42025936247602952 -0.40857695173762038 0 -0.44017972070311129 -0.39109744489349407 0 -0.42025936247602952 -0.40857695173762038 0 -0.42493645186783829 -0.38146453033356231 0 -0.44017972070311129 -0.39109744489349407 0 -0.44187303809623463 -0.41042716763586079 0 -0.42025936247602952 -0.40857695173762038 0 -0.42025936247602952 -0.40857695173762038 0 -0.40782776772219592 -0.39017550812413121 0 -0.39773422813715242 -0.40794786661445559 0 -0.42025936247602952 -0.40857695173762038 0 -0.42493645186783829 -0.38146453033356231 0 -0.40782776772219592 -0.39017550812413121 0 -0.42493645186783829 -0.38146453033356231 0 -0.40782776772219592 -0.39017550812413121 0 -0.40969318303256508 -0.37183161577363072 0 -0.42493645186783829 -0.38146453033356231 0 -0.40969318303256508 -0.37183161577363072 0 -0.40782776772219592 -0.39017550812413121 0 -0.38651561309739402 -0.38105657616138727 0 -0.40969318303256508 -0.37183161577363072 0 -0.40782776772219592 -0.39017550812413121 0 -0.38651561309739402 -0.38105657616138727 0 -0.39773422813715242 -0.40794786661445559 0 -0.38016542019472988 -0.40284463733166881 0 -0.38651561309739402 -0.38105657616138727 0 -0.38016542019472988 -0.40284463733166881 0 -0.38651561309739402 -0.38105657616138727 0 -0.39773422813715242 -0.40794786661445559 0 -0.38016542019472988 -0.40284463733166881 0 -0.38651561309739402 -0.38105657616138727 0 -0.36209188078544141 -0.38151430749239162 0 -0.42025936247602952 -0.40857695173762038 0 -0.40033900424894708 -0.42605645858174612 0 -0.39773422813715242 -0.40794786661445559 0 -0.40033900424894708 -0.42605645858174612 0 -0.39773422813715242 -0.40794786661445559 0 -0.37381522729206579 -0.42463269850195018 0 -0.38016542019472988 -0.40284463733166881 0 -0.37381522729206579 -0.42463269850195018 0 -0.38016542019472988 -0.40284463733166881 0 -0.39773422813715242 -0.40794786661445559 0 -0.37381522729206579 -0.42463269850195018 0 -0.38041864602186448 -0.44353596542587193 0 -0.3771800029154922 -0.44258213213812081 0 -0.37381522729206579 -0.42463269850195018 0 -0.40033900424894708 -0.42605645858174612 0 -0.38041864602186448 -0.44353596542587193 0 -0.37381522729206579 -0.42463269850195018 0 -0.40033900424894708 -0.42605645858174612 0 -0.38041864602186448 -0.44353596542587193 0 -0.38041864602186448 -0.44353596542587193 0 -0.39855622360383719 -0.44977165092666882 0 -0.38580912934990641 -0.45629036053451683 0 -0.38041864602186448 -0.44353596542587193 0 -0.3780650829032246 -0.44922802270579798 0 -0.38580912934990641 -0.45629036053451683 0 -0.40033900424894708 -0.42605645858174612 0 -0.38041864602186448 -0.44353596542587193 0 -0.39855622360383719 -0.44977165092666882 0 -0.39855622360383719 -0.44977165092666882 0 -0.38580912934990641 -0.45629036053451683 0 -0.39027431341256302 -0.47078249965800539 0 -0.39855622360383719 -0.44977165092666882 0 -0.39027431341256302 -0.47078249965800539 0 -0.41828475117838199 -0.46214013322098879 0 -0.38580912934990641 -0.45629036053451683 0 -0.37668774397240717 -0.46871399163092892 0 -0.39027431341256302 -0.47078249965800539 0 -0.3780650829032246 -0.44922802270579798 0 -0.38580912934990641 -0.45629036053451683 0 -0.37361521456007563 -0.46198031558937991 0 -0.38580912934990641 -0.45629036053451683 0 -0.37668774397240717 -0.46871399163092892 0 -0.37361521456007563 -0.46198031558937991 0 -0.39027431341256302 -0.47078249965800539 0 -0.37956724531253799 -0.5 0 -0.371738837516012 -0.48213327349515839 0 -0.37668774397240717 -0.46871399163092892 0 -0.39027431341256302 -0.47078249965800539 0 -0.371738837516012 -0.48213327349515839 0 -0.39027431341256302 -0.47078249965800539 0 -0.37956724531253799 -0.5 0 -0.4296306360314639 -0.5 0 -0.39027431341256302 -0.47078249965800539 0 -0.4296306360314639 -0.5 0 -0.41828475117838199 -0.46214013322098879 0 -0.44795875673434038 -0.45041287517128459 0 -0.4296306360314639 -0.5 0 -0.41828475117838199 -0.46214013322098879 0 -0.44795875673434038 -0.45041287517128459 0 -0.42273666922531011 -0.43149097083211352 0 -0.41828475117838199 -0.46214013322098879 0 -0.42273666922531011 -0.43149097083211352 0 -0.39855622360383719 -0.44977165092666882 0 -0.41828475117838199 -0.46214013322098879 0 -0.4481494421527672 -0.27307206148091739 0 -0.43501608176296391 -0.26323107289320352 0 -0.44120351272546382 -0.24949574112818459 0 -0.4481494421527672 -0.27307206148091739 0 -0.45878606715996467 -0.2517945377954553 0 -0.44120351272546382 -0.24949574112818459 0 -0.4481494421527672 -0.27307206148091739 0 -0.46414995585309438 -0.26812759076830017 0 -0.45739896910911398 -0.28779552072960779 0 -0.46414995585309438 -0.26812759076830017 0 -0.47411565387608912 -0.28147152373078899 0 -0.45739896910911398 -0.28779552072960779 0 -0.46414995585309438 -0.26812759076830017 0 -0.45878606715996467 -0.2517945377954553 0 -0.47129466414523008 -0.25628396392672281 0 -0.4481494421527672 -0.27307206148091739 0 -0.45878606715996467 -0.2517945377954553 0 -0.4481494421527672 -0.27307206148091739 0 -0.46414995585309438 -0.26812759076830017 0 -0.45878606715996467 -0.2517945377954553 0 -0.47129466414523008 -0.25628396392672281 0 -0.48582973257501127 -0.25763976050719561 0 -0.47165946515002383 -0.23937771820523421 0 -0.46414995585309438 -0.26812759076830017 0 -0.47129466414523008 -0.25628396392672281 0 -0.4761063260358705 -0.26667314598723812 0 -0.47129466414523008 -0.25628396392672281 0 -0.48582973257501127 -0.25763976050719561 0 -0.4761063260358705 -0.26667314598723812 0 -0.48582973257501127 -0.25763976050719561 0 -0.5 -0.25513944678205691 0 -0.49999999999999922 -0.27590180280915672 0 -0.48582973257501127 -0.25763976050719561 0 -0.5 -0.25513944678205691 0 -0.48710415002468499 -0.24282043388613209 0 -0.48582973257501127 -0.25763976050719561 0 -0.49999999999999922 -0.27590180280915672 0 -0.48514677569188841 -0.27346459274950308 0 -0.48582973257501127 -0.25763976050719561 0 -0.49999999999999922 -0.27590180280915672 0 -0.49999999999999922 -0.27590180280915672 0 -0.48514677569188841 -0.27346459274950308 0 -0.48907102878827191 -0.28729190772806701 0 -0.48582973257501127 -0.25763976050719561 0 -0.48514677569188841 -0.27346459274950308 0 -0.4761063260358705 -0.26667314598723812 0 -0.48514677569188841 -0.27346459274950308 0 -0.47411565387608912 -0.28147152373078899 0 -0.48907102878827191 -0.28729190772806701 0 -0.48514677569188841 -0.27346459274950308 0 -0.4761063260358705 -0.26667314598723812 0 -0.47411565387608912 -0.28147152373078899 0 -0.46414995585309438 -0.26812759076830017 0 -0.4761063260358705 -0.26667314598723812 0 -0.47411565387608912 -0.28147152373078899 0 -0.47411565387608912 -0.28147152373078899 0 -0.47737307772250831 -0.30441644480972219 0 -0.45739896910911398 -0.28779552072960779 0 -0.47411565387608912 -0.28147152373078899 0 -0.48907102878827191 -0.28729190772806701 0 -0.47737307772250831 -0.30441644480972219 0 -0.49999999999999922 -0.27590180280915672 0 -0.48907102878827191 -0.28729190772806701 0 -0.5 -0.29899336036343649 0 -0.5 -0.29899336036343649 0 -0.47737307772250831 -0.30441644480972219 0 -0.5 -0.32208491791771637 0 -0.48907102878827191 -0.28729190772806701 0 -0.5 -0.29899336036343649 0 -0.47737307772250831 -0.30441644480972219 0 -0.47737307772250831 -0.30441644480972219 0 -0.45487878486712219 -0.30635626904442642 0 -0.46127229185120361 -0.3240877760304941 0 -0.47737307772250831 -0.30441644480972219 0 -0.45487878486712219 -0.30635626904442642 0 -0.45739896910911398 -0.28779552072960779 0 -0.4481494421527672 -0.27307206148091739 0 -0.43751281714556961 -0.2943495851663796 0 -0.4481494421527672 -0.27307206148091739 0 -0.45739896910911398 -0.28779552072960779 0 -0.43751281714556961 -0.2943495851663796 0 -0.45487878486712219 -0.30635626904442642 0 -0.45739896910911398 -0.28779552072960779 0 -0.43751281714556961 -0.2943495851663796 0 -0.45487878486712219 -0.30635626904442642 0 -0.43751281714556961 -0.2943495851663796 0 -0.43952015911572773 -0.32367795115954001 0 -0.45487878486712219 -0.30635626904442642 0 -0.43952015911572773 -0.32367795115954001 0 -0.46127229185120361 -0.3240877760304941 0 -0.43952015911572773 -0.32367795115954001 0 -0.45811721083860218 -0.34360584383462889 0 -0.43738272563599823 -0.3445670503430277 0 -0.43952015911572773 -0.32367795115954001 0 -0.45811721083860218 -0.34360584383462889 0 -0.46127229185120361 -0.3240877760304941 0 -0.45811721083860218 -0.34360584383462889 0 -0.46127229185120361 -0.3240877760304941 0 -0.48042197780348139 -0.32943312311428752 0 -0.47737307772250831 -0.30441644480972219 0 -0.46127229185120361 -0.3240877760304941 0 -0.48042197780348139 -0.32943312311428752 0 -0.47737307772250831 -0.30441644480972219 0 -0.5 -0.32208491791771637 0 -0.48042197780348139 -0.32943312311428752 0 -0.48042197780348139 -0.32943312311428752 0 -0.47997330167250268 -0.34837717177981758 0 -0.5 -0.34517647547199631 0 -0.5 -0.32208491791771637 0 -0.48042197780348139 -0.32943312311428752 0 -0.5 -0.34517647547199631 0 -0.45811721083860218 -0.34360584383462889 0 -0.48042197780348139 -0.32943312311428752 0 -0.47997330167250268 -0.34837717177981758 0 -0.47997330167250268 -0.34837717177981758 0 -0.48370508039349358 -0.3596867966085977 0 -0.46683656235286708 -0.36382835887995391 0 -0.47997330167250268 -0.34837717177981758 0 -0.5 -0.34517647547199631 0 -0.4910265411781557 -0.35636005374862217 0 -0.5 -0.34517647547199631 0 -0.4910265411781557 -0.35636005374862217 0 -0.49999999999999889 -0.36826803302627609 0 -0.47997330167250268 -0.34837717177981758 0 -0.4910265411781557 -0.35636005374862217 0 -0.48370508039349358 -0.3596867966085977 0 -0.48056068800344581 -0.3793781299487724 0 -0.49999999999999889 -0.36826803302627609 0 -0.48967915273300577 -0.36688635482792381 0 -0.49999999999999889 -0.36826803302627609 0 -0.48967915273300577 -0.36688635482792381 0 -0.4910265411781557 -0.35636005374862217 0 -0.49999999999999889 -0.36826803302627609 0 -0.48967915273300577 -0.36688635482792381 0 -0.4910265411781557 -0.35636005374862217 0 -0.48967915273300577 -0.36688635482792381 0 -0.48370508039349358 -0.3596867966085977 0 -0.48056068800344581 -0.3793781299487724 0 -0.48967915273300577 -0.36688635482792381 0 -0.48967915273300577 -0.36688635482792381 0 -0.48370508039349358 -0.3596867966085977 0 -0.46683656235286708 -0.36382835887995391 0 -0.48967915273300577 -0.36688635482792381 0 -0.46683656235286708 -0.36382835887995391 0 -0.48056068800344581 -0.3793781299487724 0 -0.48967915273300577 -0.36688635482792381 0 -0.46683656235286708 -0.36382835887995391 0 -0.47100499257762229 -0.37891364744392297 0 -0.48056068800344581 -0.3793781299487724 0 -0.46683656235286708 -0.36382835887995391 0 -0.47100499257762229 -0.37891364744392297 0 -0.46407784612286601 -0.37624863758214971 0 -0.46683656235286708 -0.36382835887995391 0 -0.45359641667340878 -0.37751742946319078 0 -0.46683656235286708 -0.36382835887995391 0 -0.44399397197272861 -0.3607703629319825 0 -0.46683656235286708 -0.36382835887995391 0 -0.44399397197272861 -0.3607703629319825 0 -0.45359641667340878 -0.37751742946319078 0 -0.46407784612286601 -0.37624863758214971 0 -0.46683656235286708 -0.36382835887995391 0 -0.45811721083860218 -0.34360584383462889 0 -0.46683656235286708 -0.36382835887995391 0 -0.44399397197272861 -0.3607703629319825 0 -0.45811721083860218 -0.34360584383462889 0 -0.47997330167250268 -0.34837717177981758 0 -0.46683656235286708 -0.36382835887995391 0 -0.45811721083860218 -0.34360584383462889 0 -0.44399397197272861 -0.3607703629319825 0 -0.43738272563599823 -0.3445670503430277 0 -0.45359641667340878 -0.37751742946319078 0 -0.44399397197272861 -0.3607703629319825 0 -0.43806423624155388 -0.37321122993703859 0 -0.44399397197272861 -0.3607703629319825 0 -0.43806423624155388 -0.37321122993703859 0 -0.42598069302047681 -0.36144329791835139 0 -0.42493645186783829 -0.38146453033356231 0 -0.43806423624155388 -0.37321122993703859 0 -0.42598069302047681 -0.36144329791835139 0 -0.44399397197272861 -0.3607703629319825 0 -0.42598069302047681 -0.36144329791835139 0 -0.43738272563599823 -0.3445670503430277 0 -0.42598069302047681 -0.36144329791835139 0 -0.43738272563599823 -0.3445670503430277 0 -0.41978121940281787 -0.33858576713634458 0 -0.42598069302047681 -0.36144329791835139 0 -0.40874018764436387 -0.35320083507525002 0 -0.41978121940281787 -0.33858576713634458 0 -0.42598069302047681 -0.36144329791835139 0 -0.40874018764436387 -0.35320083507525002 0 -0.40969318303256508 -0.37183161577363072 0 -0.42493645186783829 -0.38146453033356231 0 -0.42598069302047681 -0.36144329791835139 0 -0.40969318303256508 -0.37183161577363072 0 -0.40874018764436387 -0.35320083507525002 0 -0.40969318303256508 -0.37183161577363072 0 -0.39286580600005799 -0.35926851499110612 0 -0.38651561309739402 -0.38105657616138727 0 -0.40969318303256508 -0.37183161577363072 0 -0.39286580600005799 -0.35926851499110612 0 -0.38651561309739402 -0.38105657616138727 0 -0.39286580600005799 -0.35926851499110612 0 -0.38651561309739402 -0.38105657616138727 0 -0.39286580600005799 -0.35926851499110612 0 -0.37280849883296052 -0.36641451320680629 0 -0.39286580600005799 -0.35926851499110612 0 -0.36977235834195399 -0.34934779599433158 0 -0.37280849883296052 -0.36641451320680629 0 -0.39286580600005799 -0.35926851499110612 0 -0.39538003676590228 -0.33487497955681711 0 -0.36977235834195399 -0.34934779599433158 0 -0.40874018764436387 -0.35320083507525002 0 -0.39286580600005799 -0.35926851499110612 0 -0.39538003676590228 -0.33487497955681711 0 -0.39538003676590228 -0.33487497955681711 0 -0.37050570296111213 -0.32702209936679633 0 -0.36977235834195399 -0.34934779599433158 0 -0.39538003676590228 -0.33487497955681711 0 -0.3958146382736516 -0.31381871192280802 0 -0.37050570296111213 -0.32702209936679633 0 -0.3958146382736516 -0.31381871192280802 0 -0.38078398853849482 -0.30263723977611801 0 -0.37050570296111213 -0.32702209936679633 0 -0.39538003676590228 -0.33487497955681711 0 -0.3958146382736516 -0.31381871192280802 0 -0.41603565599535758 -0.31115041122017628 0 -0.39538003676590228 -0.33487497955681711 0 -0.41978121940281787 -0.33858576713634458 0 -0.41603565599535758 -0.31115041122017628 0 -0.40874018764436387 -0.35320083507525002 0 -0.39538003676590228 -0.33487497955681711 0 -0.41978121940281787 -0.33858576713634458 0 -0.43952015911572773 -0.32367795115954001 0 -0.43738272563599823 -0.3445670503430277 0 -0.41978121940281787 -0.33858576713634458 0 -0.43952015911572773 -0.32367795115954001 0 -0.41978121940281787 -0.33858576713634458 0 -0.41603565599535758 -0.31115041122017628 0 -0.43751281714556961 -0.2943495851663796 0 -0.43952015911572773 -0.32367795115954001 0 -0.41603565599535758 -0.31115041122017628 0 -0.43751281714556961 -0.2943495851663796 0 -0.42037381241825778 -0.2916998050818097 0 -0.41603565599535758 -0.31115041122017628 0 -0.43751281714556961 -0.2943495851663796 0 -0.42037381241825778 -0.2916998050818097 0 -0.42559608155654488 -0.27549847093302499 0 -0.42037381241825778 -0.2916998050818097 0 -0.40344823976052568 -0.28791935434846838 0 -0.42559608155654488 -0.27549847093302499 0 -0.41603565599535758 -0.31115041122017628 0 -0.40344823976052568 -0.28791935434846838 0 -0.42037381241825778 -0.2916998050818097 0 -0.41603565599535758 -0.31115041122017628 0 -0.40344823976052568 -0.28791935434846838 0 -0.3958146382736516 -0.31381871192280802 0 -0.38078398853849482 -0.30263723977611801 0 -0.40344823976052568 -0.28791935434846838 0 -0.3958146382736516 -0.31381871192280802 0 -0.41603565599535758 -0.31115041122017628 0 -0.40344823976052568 -0.28791935434846838 0 -0.38078398853849482 -0.30263723977611801 0 -0.37625948624760919 -0.28235963186629398 0 -0.40344823976052568 -0.28791935434846838 0 -0.40344823976052568 -0.28791935434846838 0 -0.39086082352569368 -0.26468829747676031 0 -0.40942013230211499 -0.2644654256874252 0 -0.40344823976052568 -0.28791935434846838 0 -0.39086082352569368 -0.26468829747676031 0 -0.37625948624760919 -0.28235963186629398 0 -0.39086082352569368 -0.26468829747676031 0 -0.36677113567380282 -0.26507429512300668 0 -0.37625948624760919 -0.28235963186629398 0 -0.40344823976052568 -0.28791935434846838 0 -0.39086082352569368 -0.26468829747676031 0 -0.39086082352569368 -0.26468829747676031 0 -0.36677113567380282 -0.26507429512300668 0 -0.37827340729086167 -0.24145724060505219 0 -0.39086082352569368 -0.26468829747676031 0 -0.39578023564404619 -0.2469971000569984 0 -0.37827340729086167 -0.24145724060505219 0 -0.39086082352569368 -0.26468829747676031 0 -0.37827340729086167 -0.24145724060505219 0 -0.39086082352569368 -0.26468829747676031 0 -0.40942013230211499 -0.2644654256874252 0 -0.39578023564404619 -0.2469971000569984 0 -0.40942013230211499 -0.2644654256874252 0 -0.42384622579845083 -0.25312276154348362 0 -0.41175618553993398 -0.2379445807027365 0 -0.40942013230211499 -0.2644654256874252 0 -0.42559608155654488 -0.27549847093302499 0 -0.42384622579845083 -0.25312276154348362 0 -0.40344823976052568 -0.28791935434846838 0 -0.40942013230211499 -0.2644654256874252 0 -0.42559608155654488 -0.27549847093302499 0 -0.4481494421527672 -0.27307206148091739 0 -0.42559608155654488 -0.27549847093302499 0 -0.43501608176296391 -0.26323107289320352 0 -0.4481494421527672 -0.27307206148091739 0 -0.43751281714556961 -0.2943495851663796 0 -0.42559608155654488 -0.27549847093302499 0 -0.43501608176296391 -0.26323107289320352 0 -0.42384622579845083 -0.25312276154348362 0 -0.44120351272546382 -0.24949574112818459 0 -0.42559608155654488 -0.27549847093302499 0 -0.43501608176296391 -0.26323107289320352 0 -0.42384622579845083 -0.25312276154348362 0 -0.31481767172726638 -0.25715273008896899 0 -0.33186699404099201 -0.25686980085883232 0 -0.31481767172726638 -0.25715273008896899 0 -0.32661292928788088 -0.26720690936284691 0 -0.33186699404099201 -0.25686980085883232 0 -0.31481767172726638 -0.25715273008896899 0 -0.33186699404099201 -0.25686980085883232 0 -0.31755530080346489 -0.2411523452232473 0 -0.31481767172726638 -0.25715273008896899 0 -0.32661292928788088 -0.26720690936284691 0 -0.31481767172726638 -0.25715273008896899 0 -0.32661292928788088 -0.26720690936284691 0 -0.31144331717670609 -0.26914798144670482 0 -0.32661292928788088 -0.26720690936284691 0 -0.32342589519733472 -0.2835574034071443 0 -0.31144331717670609 -0.26914798144670482 0 -0.32342589519733472 -0.2835574034071443 0 -0.30488548268887072 -0.28021638298007812 0 -0.31144331717670609 -0.26914798144670482 0 -0.32661292928788088 -0.26720690936284691 0 -0.33840818684849361 -0.27726108863672672 0 -0.33689946557660078 -0.26548444692150469 0 -0.32661292928788088 -0.26720690936284691 0 -0.33840818684849361 -0.27726108863672672 0 -0.32661292928788088 -0.26720690936284691 0 -0.33840818684849361 -0.27726108863672672 0 -0.32342589519733472 -0.2835574034071443 0 -0.33840818684849361 -0.27726108863672672 0 -0.33689946557660078 -0.26548444692150469 0 -0.34895624935355363 -0.26539124775846917 0 -0.33689946557660078 -0.26548444692150469 0 -0.33986926885163599 -0.25615481083809588 0 -0.34895624935355363 -0.26539124775846917 0 -0.33186699404099201 -0.25686980085883232 0 -0.33986926885163599 -0.25615481083809588 0 -0.33446970901363371 -0.24086095368531801 0 -0.33689946557660078 -0.26548444692150469 0 -0.33186699404099201 -0.25686980085883232 0 -0.33986926885163599 -0.25615481083809588 0 -0.32661292928788088 -0.26720690936284691 0 -0.33689946557660078 -0.26548444692150469 0 -0.33186699404099201 -0.25686980085883232 0 -0.33986926885163599 -0.25615481083809588 0 -0.35634132469611141 -0.25144731204415671 0 -0.34895624935355363 -0.26539124775846917 0 -0.35634132469611141 -0.25144731204415671 0 -0.34895624935355363 -0.26539124775846917 0 -0.36677113567380282 -0.26507429512300668 0 -0.35634132469611141 -0.25144731204415671 0 -0.36677113567380282 -0.26507429512300668 0 -0.37827340729086167 -0.24145724060505219 0 -0.37625948624760919 -0.28235963186629398 0 -0.36677113567380282 -0.26507429512300668 0 -0.35604685086801041 -0.27923859379670352 0 -0.33840818684849361 -0.27726108863672672 0 -0.34895624935355363 -0.26539124775846917 0 -0.35604685086801041 -0.27923859379670352 0 -0.34895624935355363 -0.26539124775846917 0 -0.36677113567380282 -0.26507429512300668 0 -0.35604685086801041 -0.27923859379670352 0 -0.35604685086801041 -0.27923859379670352 0 -0.34465267002156541 -0.29124340693448941 0 -0.36231386616845301 -0.29387476943094842 0 -0.33840818684849361 -0.27726108863672672 0 -0.35604685086801041 -0.27923859379670352 0 -0.34465267002156541 -0.29124340693448941 0 -0.37625948624760919 -0.28235963186629398 0 -0.35604685086801041 -0.27923859379670352 0 -0.36231386616845301 -0.29387476943094842 0 -0.38078398853849482 -0.30263723977611801 0 -0.37625948624760919 -0.28235963186629398 0 -0.36231386616845301 -0.29387476943094842 0 -0.38078398853849482 -0.30263723977611801 0 -0.36231386616845301 -0.29387476943094842 0 -0.35406057255830831 -0.3106415515408969 0 -0.34465267002156541 -0.29124340693448941 0 -0.36231386616845301 -0.29387476943094842 0 -0.35406057255830831 -0.3106415515408969 0 -0.34465267002156541 -0.29124340693448941 0 -0.35406057255830831 -0.3106415515408969 0 -0.33366064848879229 -0.3028870347945169 0 -0.33840818684849361 -0.27726108863672672 0 -0.34465267002156541 -0.29124340693448941 0 -0.32342589519733472 -0.2835574034071443 0 -0.34465267002156541 -0.29124340693448941 0 -0.33366064848879229 -0.3028870347945169 0 -0.32342589519733472 -0.2835574034071443 0 -0.32342589519733472 -0.2835574034071443 0 -0.31035110645304459 -0.30012276208368521 0 -0.30488548268887072 -0.28021638298007812 0 -0.33366064848879229 -0.3028870347945169 0 -0.32342589519733472 -0.2835574034071443 0 -0.31035110645304459 -0.30012276208368521 0 -0.33366064848879229 -0.3028870347945169 0 -0.31629236751937723 -0.32540024821564539 0 -0.31035110645304459 -0.30012276208368521 0 -0.33366064848879229 -0.3028870347945169 0 -0.31629236751937723 -0.32540024821564539 0 -0.31629236751937723 -0.32540024821564539 0 -0.3310452326646186 -0.34294034016348252 0 -0.31488820110532639 -0.34534266864826429 0 -0.34299765983740688 -0.32868824140547742 0 -0.3310452326646186 -0.34294034016348252 0 -0.35362355812991197 -0.34363047429756421 0 -0.31629236751937723 -0.32540024821564539 0 -0.34299765983740688 -0.32868824140547742 0 -0.3310452326646186 -0.34294034016348252 0 -0.35406057255830831 -0.3106415515408969 0 -0.33366064848879229 -0.3028870347945169 0 -0.34299765983740688 -0.32868824140547742 0 -0.33366064848879229 -0.3028870347945169 0 -0.31629236751937723 -0.32540024821564539 0 -0.34299765983740688 -0.32868824140547742 0 -0.35406057255830831 -0.3106415515408969 0 -0.34299765983740688 -0.32868824140547742 0 -0.37050570296111213 -0.32702209936679633 0 -0.38078398853849482 -0.30263723977611801 0 -0.35406057255830831 -0.3106415515408969 0 -0.37050570296111213 -0.32702209936679633 0 -0.37050570296111213 -0.32702209936679633 0 -0.35362355812991197 -0.34363047429756421 0 -0.36977235834195399 -0.34934779599433158 0 -0.34299765983740688 -0.32868824140547742 0 -0.37050570296111213 -0.32702209936679633 0 -0.35362355812991197 -0.34363047429756421 0 -0.35362355812991197 -0.34363047429756421 0 -0.36977235834195399 -0.34934779599433158 0 -0.34876845939157541 -0.3598025208861812 0 -0.3310452326646186 -0.34294034016348252 0 -0.35362355812991197 -0.34363047429756421 0 -0.34876845939157541 -0.3598025208861812 0 -0.36977235834195399 -0.34934779599433158 0 -0.37280849883296052 -0.36641451320680629 0 -0.34876845939157541 -0.3598025208861812 0 -0.37280849883296052 -0.36641451320680629 0 -0.34876845939157541 -0.3598025208861812 0 -0.36209188078544141 -0.38151430749239162 0 -0.34876845939157541 -0.3598025208861812 0 -0.36209188078544141 -0.38151430749239162 0 -0.34324574717955519 -0.37725809497374507 0 -0.33182620748491642 -0.36476212292617732 0 -0.34324574717955519 -0.37725809497374507 0 -0.32756725958466498 -0.38159338486395272 0 -0.34876845939157541 -0.3598025208861812 0 -0.33182620748491642 -0.36476212292617732 0 -0.34324574717955519 -0.37725809497374507 0 -0.3310452326646186 -0.34294034016348252 0 -0.34876845939157541 -0.3598025208861812 0 -0.33182620748491642 -0.36476212292617732 0 -0.3310452326646186 -0.34294034016348252 0 -0.32043933983212569 -0.35494334835135821 0 -0.31488820110532639 -0.34534266864826429 0 -0.3310452326646186 -0.34294034016348252 0 -0.33182620748491642 -0.36476212292617732 0 -0.32043933983212569 -0.35494334835135821 0 -0.32043933983212569 -0.35494334835135821 0 -0.31488820110532639 -0.34534266864826429 0 -0.31061559689865598 -0.35740325505115589 0 -0.32043933983212569 -0.35494334835135821 0 -0.31668126241395211 -0.37006602429361601 0 -0.31061559689865598 -0.35740325505115589 0 -0.33182620748491642 -0.36476212292617732 0 -0.31668126241395211 -0.37006602429361601 0 -0.32756725958466498 -0.38159338486395272 0 -0.33182620748491642 -0.36476212292617732 0 -0.32043933983212569 -0.35494334835135821 0 -0.31668126241395211 -0.37006602429361601 0 -0.31668126241395211 -0.37006602429361601 0 -0.30240859354401978 -0.3695956898429521 0 -0.31061559689865598 -0.35740325505115589 0 -0.31488820110532639 -0.34534266864826429 0 -0.31061559689865598 -0.35740325505115589 0 -0.29892408654996228 -0.34791346163677411 0 -0.30240859354401978 -0.3695956898429521 0 -0.31061559689865598 -0.35740325505115589 0 -0.29892408654996228 -0.34791346163677411 0 -0.30240859354401978 -0.3695956898429521 0 -0.29892408654996228 -0.34791346163677411 0 -0.28702915250189109 -0.34481117792824362 0 -0.28671039754210609 -0.36374516010925761 0 -0.2740082660204004 -0.35369927569399651 0 -0.29892408654996228 -0.34791346163677411 0 -0.28671039754210609 -0.36374516010925761 0 -0.29892408654996228 -0.34791346163677411 0 -0.28702915250189109 -0.34481117792824362 0 -0.28671039754210609 -0.36374516010925761 0 -0.28671039754210609 -0.36374516010925761 0 -0.29021519794757139 -0.37973819547442278 0 -0.27449670853425001 -0.37957685858174123 0 -0.30240859354401978 -0.3695956898429521 0 -0.28671039754210609 -0.36374516010925761 0 -0.29021519794757139 -0.37973819547442278 0 -0.30240859354401978 -0.3695956898429521 0 -0.29892408654996228 -0.34791346163677411 0 -0.28671039754210609 -0.36374516010925761 0 -0.28671039754210609 -0.36374516010925761 0 -0.27449670853425001 -0.37957685858174123 0 -0.27607832392769749 -0.36530386808618748 0 -0.26784187709605689 -0.369623917432643 0 -0.2740082660204004 -0.35369927569399651 0 -0.28671039754210609 -0.36374516010925761 0 -0.27607832392769749 -0.36530386808618748 0 -0.27449670853425001 -0.37957685858174123 0 -0.28671039754210609 -0.36374516010925761 0 -0.27607832392769749 -0.36530386808618748 0 -0.2740082660204004 -0.35369927569399651 0 -0.27607832392769749 -0.36530386808618748 0 -0.26784187709605689 -0.369623917432643 0 -0.27449670853425001 -0.37957685858174123 0 -0.26784187709605689 -0.369623917432643 0 -0.25245816929728071 -0.38323153237828739 0 -0.2451454088654226 -0.35763892004037418 0 -0.26784187709605689 -0.369623917432643 0 -0.25907852719504249 -0.34184643407585968 0 -0.26784187709605689 -0.369623917432643 0 -0.25907852719504249 -0.34184643407585968 0 -0.2451454088654226 -0.35763892004037418 0 -0.26784187709605689 -0.369623917432643 0 -0.2740082660204004 -0.35369927569399651 0 -0.25907852719504249 -0.34184643407585968 0 -0.28702915250189109 -0.34481117792824362 0 -0.2740082660204004 -0.35369927569399651 0 -0.27275475268367422 -0.33458190051087439 0 -0.28702915250189109 -0.34481117792824362 0 -0.27275475268367422 -0.33458190051087439 0 -0.27594600551866028 -0.31815512983867078 0 -0.2740082660204004 -0.35369927569399651 0 -0.27275475268367422 -0.33458190051087439 0 -0.25907852719504249 -0.34184643407585968 0 -0.27275475268367422 -0.33458190051087439 0 -0.25907852719504249 -0.34184643407585968 0 -0.25031517729402808 -0.31406895071907642 0 -0.25907852719504249 -0.34184643407585968 0 -0.25031517729402808 -0.31406895071907642 0 -0.27275475268367422 -0.33458190051087439 0 -0.25031517729402808 -0.31406895071907642 0 -0.27594600551866028 -0.31815512983867078 0 -0.28702915250189109 -0.34481117792824362 0 -0.27594600551866028 -0.31815512983867078 0 -0.29425544379128521 -0.31886298824716669 0 -0.28702915250189109 -0.34481117792824362 0 -0.27594600551866028 -0.31815512983867078 0 -0.29892408654996228 -0.34791346163677411 0 -0.29425544379128521 -0.31886298824716669 0 -0.29892408654996228 -0.34791346163677411 0 -0.28702915250189109 -0.34481117792824362 0 -0.29425544379128521 -0.31886298824716669 0 -0.31629236751937723 -0.32540024821564539 0 -0.31488820110532639 -0.34534266864826429 0 -0.29892408654996228 -0.34791346163677411 0 -0.31629236751937723 -0.32540024821564539 0 -0.29892408654996228 -0.34791346163677411 0 -0.31629236751937723 -0.32540024821564539 0 -0.29892408654996228 -0.34791346163677411 0 -0.29425544379128521 -0.31886298824716669 0 -0.31629236751937723 -0.32540024821564539 0 -0.29425544379128521 -0.31886298824716669 0 -0.31035110645304459 -0.30012276208368521 0 -0.29425544379128521 -0.31886298824716669 0 -0.31035110645304459 -0.30012276208368521 0 -0.28958680103260781 -0.28981251485755949 0 -0.31035110645304459 -0.30012276208368521 0 -0.28958680103260781 -0.28981251485755949 0 -0.30488548268887072 -0.28021638298007812 0 -0.29425544379128521 -0.31886298824716669 0 -0.28958680103260781 -0.28981251485755949 0 -0.27594600551866028 -0.31815512983867078 0 -0.29425544379128521 -0.31886298824716669 0 -0.28958680103260781 -0.28981251485755949 0 -0.27594600551866028 -0.31815512983867078 0 -0.28958680103260781 -0.28981251485755949 0 -0.26486285853542962 -0.29149908174909822 0 -0.27594600551866028 -0.31815512983867078 0 -0.26486285853542962 -0.29149908174909822 0 -0.25031517729402808 -0.31406895071907642 0 -0.27594600551866028 -0.31815512983867078 0 -0.26486285853542962 -0.29149908174909822 0 -0.25031517729402808 -0.31406895071907642 0 -0.26486285853542962 -0.29149908174909822 0 -0.2415518273930137 -0.28629146736229322 0 -0.28958680103260781 -0.28981251485755949 0 -0.26486285853542962 -0.29149908174909822 0 -0.27045533466320298 -0.27322045936056383 0 -0.26486285853542962 -0.29149908174909822 0 -0.25377971155219892 -0.26484303365952572 0 -0.2415518273930137 -0.28629146736229322 0 -0.26486285853542962 -0.29149908174909822 0 -0.25377971155219892 -0.26484303365952572 0 -0.26486285853542962 -0.29149908174909822 0 -0.27045533466320298 -0.27322045936056383 0 -0.25377971155219892 -0.26484303365952572 0 -0.27045533466320298 -0.27322045936056383 0 -0.25377971155219892 -0.26484303365952572 0 -0.26013154223708912 -0.25806023269999628 0 -0.26013154223708912 -0.25806023269999628 0 -0.2874746069821778 -0.25760648139448361 0 -0.27165696455741878 -0.24100303800880821 0 -0.27045533466320298 -0.27322045936056383 0 -0.26013154223708912 -0.25806023269999628 0 -0.2874746069821778 -0.25760648139448361 0 -0.26013154223708912 -0.25806023269999628 0 -0.2874746069821778 -0.25760648139448361 0 -0.28958680103260781 -0.28981251485755949 0 -0.2874746069821778 -0.25760648139448361 0 -0.30488548268887072 -0.28021638298007812 0 -0.28958680103260781 -0.28981251485755949 0 -0.27045533466320298 -0.27322045936056383 0 -0.2874746069821778 -0.25760648139448361 0 -0.2874746069821778 -0.25760648139448361 0 -0.30488548268887072 -0.28021638298007812 0 -0.31144331717670609 -0.26914798144670482 0 -0.31481767172726638 -0.25715273008896899 0 -0.2874746069821778 -0.25760648139448361 0 -0.31144331717670609 -0.26914798144670482 0 -0.31481767172726638 -0.25715273008896899 0 -0.2874746069821778 -0.25760648139448361 0 -0.31481767172726638 -0.25715273008896899 0 -0.2874746069821778 -0.25760648139448361 0 -0.29399753445413962 -0.23940581853785151 0 -0.33273387545973249 -0.46615090551801902 0 -0.33866614053283067 -0.44827621270037837 0 -0.34164395357145411 -0.47742871266450299 0 -0.33866614053283067 -0.44827621270037837 0 -0.34164395357145411 -0.47742871266450299 0 -0.33273387545973249 -0.46615090551801902 0 -0.33866614053283067 -0.44827621270037837 0 -0.32516555449079648 -0.46192724814430941 0 -0.33866614053283067 -0.44827621270037837 0 -0.32377679631950018 -0.45014221257918108 0 -0.32516555449079648 -0.46192724814430941 0 -0.33866614053283067 -0.44827621270037837 0 -0.33714928883424933 -0.43342638213180112 0 -0.31862847457770072 -0.43658404954716118 0 -0.33866614053283067 -0.44827621270037837 0 -0.31862847457770072 -0.43658404954716118 0 -0.33866614053283067 -0.44827621270037837 0 -0.34576997453837499 -0.44052842308109919 0 -0.33714928883424933 -0.43342638213180112 0 -0.33866614053283067 -0.44827621270037837 0 -0.33714928883424933 -0.43342638213180112 0 -0.33866614053283067 -0.44827621270037837 0 -0.32377679631950018 -0.45014221257918108 0 -0.31862847457770072 -0.43658404954716118 0 -0.32377679631950018 -0.45014221257918108 0 -0.31264701567667341 -0.45378133992487552 0 -0.31862847457770072 -0.43658404954716118 0 -0.32377679631950018 -0.45014221257918108 0 -0.31264701567667341 -0.45378133992487552 0 -0.32516555449079648 -0.46192724814430941 0 -0.33273387545973249 -0.46615090551801902 0 -0.32516555449079648 -0.46192724814430941 0 -0.32545985324384991 -0.47697144856288498 0 -0.31264701567667341 -0.45378133992487552 0 -0.32516555449079648 -0.46192724814430941 0 -0.3155114889726226 -0.46807824524772412 0 -0.3155114889726226 -0.46807824524772412 0 -0.32545985324384991 -0.47697144856288498 0 -0.31118894205956982 -0.47994490590141642 0 -0.32545985324384991 -0.47697144856288498 0 -0.31759508105210121 -0.48924307795461519 0 -0.31118894205956982 -0.47994490590141642 0 -0.32516555449079648 -0.46192724814430941 0 -0.3155114889726226 -0.46807824524772412 0 -0.32545985324384991 -0.47697144856288498 0 -0.31324821908155231 -0.5 0 -0.31939943048029729 -0.49924164852753372 0 -0.33732238874123682 -0.5 0 -0.31324821908155231 -0.5 0 -0.31939943048029729 -0.49924164852753372 0 -0.31759508105210121 -0.48924307795461519 0 -0.32545985324384991 -0.47697144856288498 0 -0.31759508105210121 -0.48924307795461519 0 -0.33052169202587578 -0.48833518059601849 0 -0.31939943048029729 -0.49924164852753372 0 -0.33052169202587578 -0.48833518059601849 0 -0.31939943048029729 -0.49924164852753372 0 -0.31759508105210121 -0.48924307795461519 0 -0.33052169202587578 -0.48833518059601849 0 -0.31939943048029729 -0.49924164852753372 0 -0.33052169202587578 -0.48833518059601849 0 -0.33732238874123682 -0.5 0 -0.34320120434690071 -0.49267404626555161 0 -0.34164395357145411 -0.47742871266450299 0 -0.33052169202587578 -0.48833518059601849 0 -0.34320120434690071 -0.49267404626555161 0 -0.34164395357145411 -0.47742871266450299 0 -0.33052169202587578 -0.48833518059601849 0 -0.34320120434690071 -0.49267404626555161 0 -0.33732238874123682 -0.5 0 -0.34320120434690071 -0.49267404626555161 0 -0.34394952166368808 -0.49999999999999722 0 -0.34320120434690071 -0.49267404626555161 0 -0.33732238874123682 -0.5 0 -0.34320120434690071 -0.49267404626555161 0 -0.33732238874123682 -0.5 0 -0.34394952166368808 -0.49999999999999722 0 -0.32545985324384991 -0.47697144856288498 0 -0.33052169202587578 -0.48833518059601849 0 -0.34164395357145411 -0.47742871266450299 0 -0.33273387545973249 -0.46615090551801902 0 -0.32545985324384991 -0.47697144856288498 0 -0.34164395357145411 -0.47742871266450299 0 -0.33052169202587578 -0.48833518059601849 0 -0.34164395357145411 -0.47742871266450299 0 -0.34164395357145411 -0.47742871266450299 0 -0.35461079321022893 -0.47845585577471239 0 -0.35463934842867101 -0.46611584755420338 0 -0.34164395357145411 -0.47742871266450299 0 -0.35463934842867101 -0.46611584755420338 0 -0.37956724531253799 -0.5 0 -0.34394952166368808 -0.49999999999999722 0 -0.371738837516012 -0.48213327349515839 0 -0.34320120434690071 -0.49267404626555161 0 -0.34164395357145411 -0.47742871266450299 0 -0.35461079321022893 -0.47845585577471239 0 -0.35461079321022893 -0.47845585577471239 0 -0.36602038207355758 -0.46423766528387339 0 -0.35463934842867101 -0.46611584755420338 0 -0.35461079321022893 -0.47845585577471239 0 -0.34394952166368808 -0.49999999999999722 0 -0.371738837516012 -0.48213327349515839 0 -0.34320120434690071 -0.49267404626555161 0 -0.35461079321022893 -0.47845585577471239 0 -0.34394952166368808 -0.49999999999999722 0 -0.34320120434690071 -0.49267404626555161 0 -0.35461079321022893 -0.47845585577471239 0 -0.35461079321022893 -0.47845585577471239 0 -0.371738837516012 -0.48213327349515839 0 -0.36760073266906179 -0.47244547130416731 0 -0.35461079321022893 -0.47845585577471239 0 -0.36602038207355758 -0.46423766528387339 0 -0.35461079321022893 -0.47845585577471239 0 -0.36760073266906179 -0.47244547130416731 0 -0.36602038207355758 -0.46423766528387339 0 -0.37668774397240717 -0.46871399163092892 0 -0.36760073266906179 -0.47244547130416731 0 -0.36894590657310311 -0.46868657033616279 0 -0.37668774397240717 -0.46871399163092892 0 -0.371738837516012 -0.48213327349515839 0 -0.36760073266906179 -0.47244547130416731 0 -0.37668774397240717 -0.46871399163092892 0 -0.37238535316705917 -0.4660174786213882 0 -0.36894590657310311 -0.46868657033616279 0 -0.37668774397240717 -0.46871399163092892 0 -0.37238535316705917 -0.4660174786213882 0 -0.37361521456007563 -0.46198031558937991 0 -0.36760073266906179 -0.47244547130416731 0 -0.36894590657310311 -0.46868657033616279 0 -0.36602038207355758 -0.46423766528387339 0 -0.3780650829032246 -0.44922802270579798 0 -0.36602038207355758 -0.46423766528387339 0 -0.36049828779478232 -0.46101547226999789 0 -0.37238535316705917 -0.4660174786213882 0 -0.37361521456007563 -0.46198031558937991 0 -0.37031989604059179 -0.46527612734594848 0 -0.37361521456007563 -0.46198031558937991 0 -0.37031989604059179 -0.46527612734594848 0 -0.36602038207355758 -0.46423766528387339 0 -0.36894590657310311 -0.46868657033616279 0 -0.37031989604059179 -0.46527612734594848 0 -0.36602038207355758 -0.46423766528387339 0 -0.37238535316705917 -0.4660174786213882 0 -0.36894590657310311 -0.46868657033616279 0 -0.37031989604059179 -0.46527612734594848 0 -0.3780650829032246 -0.44922802270579798 0 -0.37361521456007563 -0.46198031558937991 0 -0.36602038207355758 -0.46423766528387339 0 -0.3780650829032246 -0.44922802270579798 0 -0.36602038207355758 -0.46423766528387339 0 -0.36602038207355758 -0.46423766528387339 0 -0.36049828779478232 -0.46101547226999789 0 -0.35463934842867101 -0.46611584755420338 0 -0.36602038207355758 -0.46423766528387339 0 -0.36049828779478232 -0.46101547226999789 0 -0.33866614053283067 -0.44827621270037837 0 -0.36049828779478232 -0.46101547226999789 0 -0.35463934842867101 -0.46611584755420338 0 -0.33866614053283067 -0.44827621270037837 0 -0.34164395357145411 -0.47742871266450299 0 -0.35463934842867101 -0.46611584755420338 0 -0.33866614053283067 -0.44827621270037837 0 -0.36049828779478232 -0.46101547226999789 0 -0.36049828779478232 -0.46101547226999789 0 -0.35463934842867101 -0.46611584755420338 0 -0.33866614053283067 -0.44827621270037837 0 -0.36049828779478232 -0.46101547226999789 0 -0.35410198669733622 -0.4468080701905649 0 -0.33866614053283067 -0.44827621270037837 0 -0.34576997453837499 -0.44052842308109919 0 -0.35410198669733622 -0.4468080701905649 0 -0.34576997453837499 -0.44052842308109919 0 -0.35410198669733622 -0.4468080701905649 0 -0.35316248208908418 -0.43360302730165229 0 -0.35410198669733622 -0.4468080701905649 0 -0.3619718943665089 -0.43548877354029231 0 -0.35316248208908418 -0.43360302730165229 0 -0.3771800029154922 -0.44258213213812081 0 -0.36746503438940181 -0.4464207596722316 0 -0.37381522729206579 -0.42463269850195018 0 -0.38041864602186448 -0.44353596542587193 0 -0.3780650829032246 -0.44922802270579798 0 -0.36049828779478232 -0.46101547226999789 0 -0.38041864602186448 -0.44353596542587193 0 -0.36049828779478232 -0.46101547226999789 0 -0.38041864602186448 -0.44353596542587193 0 -0.3771800029154922 -0.44258213213812081 0 -0.36049828779478232 -0.46101547226999789 0 -0.3771800029154922 -0.44258213213812081 0 -0.36049828779478232 -0.46101547226999789 0 -0.35410198669733622 -0.4468080701905649 0 -0.36746503438940181 -0.4464207596722316 0 -0.3619718943665089 -0.43548877354029231 0 -0.3771800029154922 -0.44258213213812081 0 -0.36049828779478232 -0.46101547226999789 0 -0.36746503438940181 -0.4464207596722316 0 -0.36049828779478232 -0.46101547226999789 0 -0.35410198669733622 -0.4468080701905649 0 -0.36746503438940181 -0.4464207596722316 0 -0.36746503438940181 -0.4464207596722316 0 -0.3619718943665089 -0.43548877354029231 0 -0.37381522729206579 -0.42463269850195018 0 -0.36746503438940181 -0.4464207596722316 0 -0.37381522729206579 -0.42463269850195018 0 -0.3619718943665089 -0.43548877354029231 0 -0.36131474136465658 -0.4259793120350619 0 -0.37381522729206579 -0.42463269850195018 0 -0.38016542019472988 -0.40284463733166881 0 -0.37381522729206579 -0.42463269850195018 0 -0.36590423751784651 -0.41332120989244892 0 -0.36590423751784651 -0.41332120989244892 0 -0.35350743205039259 -0.41700476162259692 0 -0.36050904665047018 -0.40095896363347749 0 -0.36131474136465658 -0.4259793120350619 0 -0.36590423751784651 -0.41332120989244892 0 -0.35350743205039259 -0.41700476162259692 0 -0.36131474136465658 -0.4259793120350619 0 -0.37381522729206579 -0.42463269850195018 0 -0.36590423751784651 -0.41332120989244892 0 -0.35350743205039259 -0.41700476162259692 0 -0.36050904665047018 -0.40095896363347749 0 -0.34195136160495299 -0.40740606992886541 0 -0.35350743205039259 -0.41700476162259692 0 -0.33962350007419229 -0.42092221385177719 0 -0.34195136160495299 -0.40740606992886541 0 -0.36131474136465658 -0.4259793120350619 0 -0.35350743205039259 -0.41700476162259692 0 -0.35316248208908418 -0.43360302730165229 0 -0.35350743205039259 -0.41700476162259692 0 -0.35316248208908418 -0.43360302730165229 0 -0.33962350007419229 -0.42092221385177719 0 -0.34576997453837499 -0.44052842308109919 0 -0.35316248208908418 -0.43360302730165229 0 -0.33714928883424933 -0.43342638213180112 0 -0.3619718943665089 -0.43548877354029231 0 -0.36131474136465658 -0.4259793120350619 0 -0.35316248208908418 -0.43360302730165229 0 -0.38651561309739402 -0.38105657616138727 0 -0.37280849883296052 -0.36641451320680629 0 -0.36209188078544141 -0.38151430749239162 0 -0.38016542019472988 -0.40284463733166881 0 -0.36209188078544141 -0.38151430749239162 0 -0.36050904665047018 -0.40095896363347749 0 -0.38016542019472988 -0.40284463733166881 0 -0.36590423751784651 -0.41332120989244892 0 -0.36050904665047018 -0.40095896363347749 0 -0.36050904665047018 -0.40095896363347749 0 -0.34314434900395618 -0.3942910367848656 0 -0.34195136160495299 -0.40740606992886541 0 -0.36209188078544141 -0.38151430749239162 0 -0.36050904665047018 -0.40095896363347749 0 -0.34314434900395618 -0.3942910367848656 0 -0.36209188078544141 -0.38151430749239162 0 -0.34324574717955519 -0.37725809497374507 0 -0.34314434900395618 -0.3942910367848656 0 -0.34324574717955519 -0.37725809497374507 0 -0.34314434900395618 -0.3942910367848656 0 -0.32756725958466498 -0.38159338486395272 0 -0.34314434900395618 -0.3942910367848656 0 -0.32531647209399878 -0.3965474713508676 0 -0.32756725958466498 -0.38159338486395272 0 -0.34314434900395618 -0.3942910367848656 0 -0.32531647209399878 -0.3965474713508676 0 -0.34195136160495299 -0.40740606992886541 0 -0.32531647209399878 -0.3965474713508676 0 -0.34195136160495299 -0.40740606992886541 0 -0.32952630613697093 -0.41129122346227448 0 -0.32531647209399878 -0.3965474713508676 0 -0.32004758037023778 -0.40737638863454029 0 -0.30589310053807722 -0.39127791804912998 0 -0.32531647209399878 -0.3965474713508676 0 -0.32952630613697093 -0.41129122346227448 0 -0.32004758037023778 -0.40737638863454029 0 -0.31668126241395211 -0.37006602429361601 0 -0.32756725958466498 -0.38159338486395272 0 -0.30589310053807722 -0.39127791804912998 0 -0.32531647209399878 -0.3965474713508676 0 -0.32756725958466498 -0.38159338486395272 0 -0.30589310053807722 -0.39127791804912998 0 -0.33714928883424933 -0.43342638213180112 0 -0.33962350007419229 -0.42092221385177719 0 -0.32241035322127959 -0.42137650663541798 0 -0.35316248208908418 -0.43360302730165229 0 -0.33714928883424933 -0.43342638213180112 0 -0.33962350007419229 -0.42092221385177719 0 -0.33962350007419229 -0.42092221385177719 0 -0.32952630613697093 -0.41129122346227448 0 -0.32241035322127959 -0.42137650663541798 0 -0.33962350007419229 -0.42092221385177719 0 -0.34195136160495299 -0.40740606992886541 0 -0.32952630613697093 -0.41129122346227448 0 -0.32952630613697093 -0.41129122346227448 0 -0.32241035322127959 -0.42137650663541798 0 -0.32004758037023778 -0.40737638863454029 0 -0.32241035322127959 -0.42137650663541798 0 -0.32004758037023778 -0.40737638863454029 0 -0.3093776075321345 -0.41296014625530802 0 -0.32241035322127959 -0.42137650663541798 0 -0.3095749182301934 -0.42137864551898829 0 -0.3093776075321345 -0.41296014625530802 0 -0.33714928883424933 -0.43342638213180112 0 -0.32241035322127959 -0.42137650663541798 0 -0.31862847457770072 -0.43658404954716118 0 -0.32241035322127959 -0.42137650663541798 0 -0.31862847457770072 -0.43658404954716118 0 -0.3095749182301934 -0.42137864551898829 0 -0.31862847457770072 -0.43658404954716118 0 -0.29859080862256998 -0.42489188639394471 0 -0.30537856944810521 -0.43922964783109131 0 -0.31862847457770072 -0.43658404954716118 0 -0.29859080862256998 -0.42489188639394471 0 -0.3095749182301934 -0.42137864551898829 0 -0.31862847457770072 -0.43658404954716118 0 -0.29859080862256998 -0.42489188639394471 0 -0.29859080862256998 -0.42489188639394471 0 -0.29560741519855549 -0.43603546257029752 0 -0.30537856944810521 -0.43922964783109131 0 -0.3095749182301934 -0.42137864551898829 0 -0.3093776075321345 -0.41296014625530802 0 -0.29886734719728231 -0.41108063876310968 0 -0.29859080862256998 -0.42489188639394471 0 -0.3095749182301934 -0.42137864551898829 0 -0.29886734719728231 -0.41108063876310968 0 -0.29859080862256998 -0.42489188639394471 0 -0.29886734719728231 -0.41108063876310968 0 -0.29025550637218922 -0.41777993220008269 0 -0.29886734719728231 -0.41108063876310968 0 -0.29025550637218922 -0.41777993220008269 0 -0.2874470812796161 -0.40889484605737092 0 -0.29025550637218922 -0.41777993220008269 0 -0.28764435303618707 -0.42768227459620722 0 -0.27872794172529058 -0.41635001518978149 0 -0.29025550637218922 -0.41777993220008269 0 -0.2874470812796161 -0.40889484605737092 0 -0.27872794172529058 -0.41635001518978149 0 -0.28764435303618707 -0.42768227459620722 0 -0.2750380875687391 -0.4440185743713202 0 -0.28764435303618707 -0.42768227459620722 0 -0.29560741519855549 -0.43603546257029752 0 -0.28821451261246522 -0.44281160701401873 0 -0.29859080862256998 -0.42489188639394471 0 -0.29025550637218922 -0.41777993220008269 0 -0.28764435303618707 -0.42768227459620722 0 -0.29859080862256998 -0.42489188639394471 0 -0.28764435303618707 -0.42768227459620722 0 -0.29560741519855549 -0.43603546257029752 0 -0.30240859354401978 -0.3695956898429521 0 -0.30589310053807722 -0.39127791804912998 0 -0.30240859354401978 -0.3695956898429521 0 -0.30589310053807722 -0.39127791804912998 0 -0.29021519794757139 -0.37973819547442278 0 -0.31668126241395211 -0.37006602429361601 0 -0.30240859354401978 -0.3695956898429521 0 -0.30589310053807722 -0.39127791804912998 0 -0.32004758037023778 -0.40737638863454029 0 -0.3093776075321345 -0.41296014625530802 0 -0.30589310053807722 -0.39127791804912998 0 -0.3093776075321345 -0.41296014625530802 0 -0.30589310053807722 -0.39127791804912998 0 -0.3093776075321345 -0.41296014625530802 0 -0.29886734719728231 -0.41108063876310968 0 -0.30589310053807722 -0.39127791804912998 0 -0.29886734719728231 -0.41108063876310968 0 -0.30589310053807722 -0.39127791804912998 0 -0.29025970158268533 -0.39653241808415218 0 -0.29886734719728231 -0.41108063876310968 0 -0.2874470812796161 -0.40889484605737092 0 -0.29025970158268533 -0.39653241808415218 0 -0.2874470812796161 -0.40889484605737092 0 -0.29025970158268533 -0.39653241808415218 0 -0.27660522699707141 -0.39740140078942632 0 -0.29025970158268533 -0.39653241808415218 0 -0.28261001201894809 -0.38765409420672009 0 -0.27660522699707141 -0.39740140078942632 0 -0.29025970158268533 -0.39653241808415218 0 -0.29021519794757139 -0.37973819547442278 0 -0.28261001201894809 -0.38765409420672009 0 -0.30589310053807722 -0.39127791804912998 0 -0.29025970158268533 -0.39653241808415218 0 -0.29021519794757139 -0.37973819547442278 0 -0.29021519794757139 -0.37973819547442278 0 -0.28261001201894809 -0.38765409420672009 0 -0.27449670853425001 -0.37957685858174123 0 -0.26784187709605689 -0.369623917432643 0 -0.27660522699707141 -0.39740140078942632 0 -0.25245816929728071 -0.38323153237828739 0 -0.28261001201894809 -0.38765409420672009 0 -0.27449670853425001 -0.37957685858174123 0 -0.27660522699707141 -0.39740140078942632 0 -0.26784187709605689 -0.369623917432643 0 -0.27449670853425001 -0.37957685858174123 0 -0.27660522699707141 -0.39740140078942632 0 -0.26784187709605689 -0.369623917432643 0 -0.27660522699707141 -0.39740140078942632 0 -0.27660522699707141 -0.39740140078942632 0 -0.25245816929728071 -0.38323153237828739 0 -0.25977092972913868 -0.4088241447162006 0 -0.25245816929728071 -0.38323153237828739 0 -0.25977092972913868 -0.4088241447162006 0 -0.25245816929728071 -0.38323153237828739 0 -0.25977092972913868 -0.4088241447162006 0 -0.2432840298032683 -0.39441896726820219 0 -0.28764435303618707 -0.42768227459620722 0 -0.26777377056946838 -0.42543485738059078 0 -0.2750380875687391 -0.4440185743713202 0 -0.28764435303618707 -0.42768227459620722 0 -0.26777377056946838 -0.42543485738059078 0 -0.27872794172529058 -0.41635001518978149 0 -0.2874470812796161 -0.40889484605737092 0 -0.27660522699707141 -0.39740140078942632 0 -0.27872794172529058 -0.41635001518978149 0 -0.26777377056946838 -0.42543485738059078 0 -0.27872794172529058 -0.41635001518978149 0 -0.25977092972913868 -0.4088241447162006 0 -0.27660522699707141 -0.39740140078942632 0 -0.27872794172529058 -0.41635001518978149 0 -0.25977092972913868 -0.4088241447162006 0 -0.26777377056946838 -0.42543485738059078 0 -0.25977092972913868 -0.4088241447162006 0 -0.2488694775605618 -0.41883445018876198 0 -0.26777377056946838 -0.42543485738059078 0 -0.2512026002219776 -0.4334496619109558 0 -0.2488694775605618 -0.41883445018876198 0 -0.26777377056946838 -0.42543485738059078 0 -0.2512026002219776 -0.4334496619109558 0 -0.2750380875687391 -0.4440185743713202 0 -0.25092739163012229 -0.44936045679039671 0 -0.26243182210129101 -0.46035487414643322 0 -0.2750380875687391 -0.4440185743713202 0 -0.2512026002219776 -0.4334496619109558 0 -0.25092739163012229 -0.44936045679039671 0 -0.2750380875687391 -0.4440185743713202 0 -0.26243182210129101 -0.46035487414643322 0 -0.24982555663384171 -0.47669117392154509 0 -0.23795953162294131 -0.45858345740293138 0 -0.25092739163012229 -0.44936045679039671 0 -0.26243182210129101 -0.46035487414643322 0 -0.23795953162294131 -0.45858345740293138 0 -0.26243182210129101 -0.46035487414643322 0 -0.24982555663384171 -0.47669117392154509 0 -0.26243182210129101 -0.46035487414643322 0 -0.2750380875687391 -0.4440185743713202 0 -0.28733256533038071 -0.45835790600356502 0 -0.26243182210129101 -0.46035487414643322 0 -0.28733256533038071 -0.45835790600356502 0 -0.28252967594342993 -0.47626116495802601 0 -0.26243182210129101 -0.46035487414643322 0 -0.2750380875687391 -0.4440185743713202 0 -0.28764435303618707 -0.42768227459620722 0 -0.2750380875687391 -0.4440185743713202 0 -0.28821451261246522 -0.44281160701401873 0 -0.29560741519855549 -0.43603546257029752 0 -0.28821451261246522 -0.44281160701401873 0 -0.29825066405283462 -0.44642372939618952 0 -0.28821451261246522 -0.44281160701401873 0 -0.28733256533038071 -0.45835790600356502 0 -0.29825066405283462 -0.44642372939618952 0 -0.2750380875687391 -0.4440185743713202 0 -0.28821451261246522 -0.44281160701401873 0 -0.28733256533038071 -0.45835790600356502 0 -0.28733256533038071 -0.45835790600356502 0 -0.30309607939222349 -0.46776628370513412 0 -0.28252967594342993 -0.47626116495802601 0 -0.28733256533038071 -0.45835790600356502 0 -0.30033158111302799 -0.45658231475744099 0 -0.29825066405283462 -0.44642372939618952 0 -0.28733256533038071 -0.45835790600356502 0 -0.30033158111302799 -0.45658231475744099 0 -0.30309607939222349 -0.46776628370513412 0 -0.31264701567667341 -0.45378133992487552 0 -0.3155114889726226 -0.46807824524772412 0 -0.30309607939222349 -0.46776628370513412 0 -0.31264701567667341 -0.45378133992487552 0 -0.30033158111302799 -0.45658231475744099 0 -0.30309607939222349 -0.46776628370513412 0 -0.31264701567667341 -0.45378133992487552 0 -0.30537856944810521 -0.43922964783109131 0 -0.29825066405283462 -0.44642372939618952 0 -0.31264701567667341 -0.45378133992487552 0 -0.31862847457770072 -0.43658404954716118 0 -0.30537856944810521 -0.43922964783109131 0 -0.29560741519855549 -0.43603546257029752 0 -0.30537856944810521 -0.43922964783109131 0 -0.29825066405283462 -0.44642372939618952 0 -0.31264701567667341 -0.45378133992487552 0 -0.30033158111302799 -0.45658231475744099 0 -0.29825066405283462 -0.44642372939618952 0 -0.30563369937173229 -0.49047440788635349 0 -0.29696220524357048 -0.48318405557573618 0 -0.28917404942186781 -0.5 0 -0.31324821908155231 -0.5 0 -0.30563369937173229 -0.49047440788635349 0 -0.28917404942186781 -0.5 0 -0.30563369937173229 -0.49047440788635349 0 -0.31118894205956982 -0.47994490590141642 0 -0.29696220524357048 -0.48318405557573618 0 -0.31324821908155231 -0.5 0 -0.31759508105210121 -0.48924307795461519 0 -0.30563369937173229 -0.49047440788635349 0 -0.31759508105210121 -0.48924307795461519 0 -0.30563369937173229 -0.49047440788635349 0 -0.31118894205956982 -0.47994490590141642 0 -0.3155114889726226 -0.46807824524772412 0 -0.30309607939222349 -0.46776628370513412 0 -0.31118894205956982 -0.47994490590141642 0 -0.30309607939222349 -0.46776628370513412 0 -0.31118894205956982 -0.47994490590141642 0 -0.29696220524357048 -0.48318405557573618 0 -0.30309607939222349 -0.46776628370513412 0 -0.29696220524357048 -0.48318405557573618 0 -0.28252967594342993 -0.47626116495802601 0 -0.29696220524357048 -0.48318405557573618 0 -0.28252967594342993 -0.47626116495802601 0 -0.28917404942186781 -0.5 0 -0.28917404942186781 -0.5 0 -0.26698214691173688 -0.48298521661010207 0 -0.26509987976218319 -0.50000000000000289 0 -0.28252967594342993 -0.47626116495802601 0 -0.28917404942186781 -0.5 0 -0.26698214691173688 -0.48298521661010207 0 -0.26243182210129101 -0.46035487414643322 0 -0.28252967594342993 -0.47626116495802601 0 -0.26698214691173688 -0.48298521661010207 0 -0.26243182210129101 -0.46035487414643322 0 -0.26698214691173688 -0.48298521661010207 0 -0.24982555663384171 -0.47669117392154509 0 -0.26698214691173688 -0.48298521661010207 0 -0.26509987976218319 -0.50000000000000289 0 -0.24982555663384171 -0.47669117392154509 0 -0.26509987976218319 -0.50000000000000289 0 -0.23791338684745181 -0.5 0 -0.24982555663384171 -0.47669117392154509 0 -0.26509987976218319 -0.50000000000000289 0 -0.24982555663384171 -0.47669117392154509 0 -0.24982555663384171 -0.47669117392154509 0 -0.23342396038619589 -0.49794579479112971 0 -0.23791338684745181 -0.5 0 -0.24982555663384171 -0.47669117392154509 0 -0.23342396038619589 -0.49794579479112971 0 -0.2369085755027428 -0.48467641813949142 0 -0.24982555663384171 -0.47669117392154509 0 -0.23342396038619589 -0.49794579479112971 0 -0.2369085755027428 -0.48467641813949142 0 -0.24982555663384171 -0.47669117392154509 0 -0.24083661762187969 -0.47742042053951378 0 -0.24982555663384171 -0.47669117392154509 0 -0.24198704235774299 -0.47193169085185632 0 -0.23795953162294131 -0.45858345740293138 0 -0.24982555663384171 -0.47669117392154509 0 -0.24198704235774299 -0.47193169085185632 0 -0.24083661762187969 -0.47742042053951378 0 -0.24198704235774299 -0.47193169085185632 0 -0.23462529599319179 -0.47638239924516229 0 -0.22914918826865949 -0.47003028401301739 0 -0.24198704235774299 -0.47193169085185632 0 -0.23462529599319179 -0.47638239924516229 0 -0.24083661762187969 -0.47742042053951378 0 -0.2369085755027428 -0.48467641813949142 0 -0.23462529599319179 -0.47638239924516229 0 -0.24083661762187969 -0.47742042053951378 0 -0.2369085755027428 -0.48467641813949142 0 -0.23462529599319179 -0.47638239924516229 0 -0.2237711437775288 -0.47905326601459819 0 -0.23462529599319179 -0.47638239924516229 0 -0.22914918826865949 -0.47003028401301739 0 -0.2237711437775288 -0.47905326601459819 0 -0.22914918826865949 -0.47003028401301739 0 -0.2237711437775288 -0.47905326601459819 0 -0.21905902684728601 -0.46485357546488038 0 -0.2217339757136553 -0.49108211181105971 0 -0.23342396038619589 -0.49794579479112971 0 -0.21072689393272051 -0.5 0 -0.23791338684745181 -0.5 0 -0.23342396038619589 -0.49794579479112971 0 -0.21072689393272051 -0.5 0 -0.2237711437775288 -0.47905326601459819 0 -0.2217339757136553 -0.49108211181105971 0 -0.2134944161349672 -0.48688508397056229 0 -0.2237711437775288 -0.47905326601459819 0 -0.2217339757136553 -0.49108211181105971 0 -0.2297911923298481 -0.48989958049608001 0 -0.2217339757136553 -0.49108211181105971 0 -0.23342396038619589 -0.49794579479112971 0 -0.2297911923298481 -0.48989958049608001 0 -0.2369085755027428 -0.48467641813949142 0 -0.2237711437775288 -0.47905326601459819 0 -0.2297911923298481 -0.48989958049608001 0 -0.2369085755027428 -0.48467641813949142 0 -0.23342396038619589 -0.49794579479112971 0 -0.2297911923298481 -0.48989958049608001 0 -0.2512026002219776 -0.4334496619109558 0 -0.25092739163012229 -0.44936045679039671 0 -0.2260935066120415 -0.44047574088431751 0 -0.25092739163012229 -0.44936045679039671 0 -0.23795953162294131 -0.45858345740293138 0 -0.2260935066120415 -0.44047574088431751 0 -0.24982555663384171 -0.47669117392154509 0 -0.23795953162294131 -0.45858345740293138 0 -0.24198704235774299 -0.47193169085185632 0 -0.23795953162294131 -0.45858345740293138 0 -0.22666657532877821 -0.45715513691232729 0 -0.21905902684728601 -0.46485357546488038 0 -0.22666657532877821 -0.45715513691232729 0 -0.21134610829981321 -0.4423785829727987 0 -0.24198704235774299 -0.47193169085185632 0 -0.22666657532877821 -0.45715513691232729 0 -0.24198704235774299 -0.47193169085185632 0 -0.22914918826865949 -0.47003028401301739 0 -0.22666657532877821 -0.45715513691232729 0 -0.22914918826865949 -0.47003028401301739 0 -0.21905902684728601 -0.46485357546488038 0 -0.22666657532877821 -0.45715513691232729 0 -0.22666657532877821 -0.45715513691232729 0 -0.2260935066120415 -0.44047574088431751 0 -0.21134610829981321 -0.4423785829727987 0 -0.23795953162294131 -0.45858345740293138 0 -0.2260935066120415 -0.44047574088431751 0 -0.23795953162294131 -0.45858345740293138 0 -0.22666657532877821 -0.45715513691232729 0 -0.2260935066120415 -0.44047574088431751 0 -0.22666657532877821 -0.45715513691232729 0 -0.21134610829981321 -0.4423785829727987 0 -0.20919650123700179 -0.44030529208340408 0 -0.21134610829981321 -0.4423785829727987 0 -0.19671434101443239 -0.44951751335712642 0 -0.20919650123700179 -0.44030529208340408 0 -0.21134610829981321 -0.4423785829727987 0 -0.21134610829981321 -0.4423785829727987 0 -0.20752872518358159 -0.46888954166665092 0 -0.21905902684728601 -0.46485357546488038 0 -0.21134610829981321 -0.4423785829727987 0 -0.20752872518358159 -0.46888954166665092 0 -0.21134610829981321 -0.4423785829727987 0 -0.19671434101443239 -0.44951751335712642 0 -0.20752872518358159 -0.46888954166665092 0 -0.18986653562514691 -0.46438551291594082 0 -0.19671434101443239 -0.44951751335712642 0 -0.20752872518358159 -0.46888954166665092 0 -0.18986653562514691 -0.46438551291594082 0 -0.19671434101443239 -0.44951751335712642 0 -0.18023634199191091 -0.4512624017511786 0 -0.20919650123700179 -0.44030529208340408 0 -0.19671434101443239 -0.44951751335712642 0 -0.18237280893653929 -0.42794721042919948 0 -0.20371134206735009 -0.49540050036050309 0 -0.21072689393272051 -0.5 0 -0.2134944161349672 -0.48688508397056229 0 -0.2217339757136553 -0.49108211181105971 0 -0.21072689393272051 -0.5 0 -0.2134944161349672 -0.48688508397056229 0 -0.20371134206735009 -0.49540050036050309 0 -0.2134944161349672 -0.48688508397056229 0 -0.20752872518358159 -0.46888954166665092 0 -0.20371134206735009 -0.49540050036050309 0 -0.20752872518358159 -0.46888954166665092 0 -0.2237711437775288 -0.47905326601459819 0 -0.21905902684728601 -0.46485357546488038 0 -0.20752872518358159 -0.46888954166665092 0 -0.2237711437775288 -0.47905326601459819 0 -0.2134944161349672 -0.48688508397056229 0 -0.20752872518358159 -0.46888954166665092 0 -0.20371134206735009 -0.49540050036050309 0 -0.20752872518358159 -0.46888954166665092 0 -0.18987916757596709 -0.48126921403171291 0 -0.18986653562514691 -0.46438551291594082 0 -0.20752872518358159 -0.46888954166665092 0 -0.18987916757596709 -0.48126921403171291 0 -0.20371134206735009 -0.49540050036050309 0 -0.18987916757596709 -0.48126921403171291 0 -0.18354040101798921 -0.5 0 -0.20371134206735009 -0.49540050036050309 0 -0.21072689393272051 -0.5 0 -0.18354040101798921 -0.5 0 -0.18987916757596709 -0.48126921403171291 0 -0.18354040101798921 -0.5 0 -0.17248205389775059 -0.48418540453736431 0 -0.18354040101798921 -0.5 0 -0.1563539081032578 -0.5 0 -0.17248205389775059 -0.48418540453736431 0 -0.1563539081032578 -0.5 0 -0.15762881501516951 -0.47295331460233292 0 -0.17248205389775059 -0.48418540453736431 0 -0.15762881501516951 -0.47295331460233292 0 -0.17248205389775059 -0.48418540453736431 0 -0.17549605273464081 -0.46711581712586259 0 -0.18986653562514691 -0.46438551291594082 0 -0.18987916757596709 -0.48126921403171291 0 -0.17549605273464081 -0.46711581712586259 0 -0.18987916757596709 -0.48126921403171291 0 -0.17248205389775059 -0.48418540453736431 0 -0.17549605273464081 -0.46711581712586259 0 -0.18986653562514691 -0.46438551291594082 0 -0.17549605273464081 -0.46711581712586259 0 -0.18023634199191091 -0.4512624017511786 0 -0.17549605273464081 -0.46711581712586259 0 -0.18023634199191091 -0.4512624017511786 0 -0.16216712844419121 -0.44684659434440399 0 -0.19671434101443239 -0.44951751335712642 0 -0.18023634199191091 -0.4512624017511786 0 -0.18237280893653929 -0.42794721042919948 0 -0.18023634199191091 -0.4512624017511786 0 -0.16216712844419121 -0.44684659434440399 0 -0.18237280893653929 -0.42794721042919948 0 -0.15762881501516951 -0.47295331460233292 0 -0.17549605273464081 -0.46711581712586259 0 -0.16216712844419121 -0.44684659434440399 0 -0.15762881501516951 -0.47295331460233292 0 -0.16216712844419121 -0.44684659434440399 0 -0.1428716109667105 -0.4613515140981862 0 -0.16216712844419121 -0.44684659434440399 0 -0.1428716109667105 -0.4613515140981862 0 -0.13668226336520051 -0.44096541369099418 0 -0.1428716109667105 -0.4613515140981862 0 -0.13668226336520051 -0.44096541369099418 0 -0.1178034574566436 -0.46010343538450288 0 -0.1428716109667105 -0.4613515140981862 0 -0.1178034574566436 -0.46010343538450288 0 -0.1428716109667105 -0.4613515140981862 0 -0.12201308722369179 -0.47872970509738189 0 -0.1178034574566436 -0.46010343538450288 0 -0.1428716109667105 -0.4613515140981862 0 -0.141509352307817 -0.48252464214496282 0 -0.12201308722369179 -0.47872970509738189 0 -0.12916741518852651 -0.5 0 -0.141509352307817 -0.48252464214496282 0 -0.12201308722369179 -0.47872970509738189 0 -0.1563539081032578 -0.5 0 -0.15762881501516951 -0.47295331460233292 0 -0.141509352307817 -0.48252464214496282 0 -0.1563539081032578 -0.5 0 -0.12916741518852651 -0.5 0 -0.141509352307817 -0.48252464214496282 0 -0.15762881501516951 -0.47295331460233292 0 -0.1428716109667105 -0.4613515140981862 0 -0.141509352307817 -0.48252464214496282 0 -0.1423740195244329 -0.39612512618484591 0 -0.1560226147132516 -0.3890192052489021 0 -0.15554911663607679 -0.41558912877499471 0 -0.1423740195244329 -0.39612512618484591 0 -0.12872542433561451 -0.40323104712078989 0 -0.15554911663607679 -0.41558912877499471 0 -0.1423740195244329 -0.39612512618484591 0 -0.1560226147132516 -0.3890192052489021 0 -0.1560226147132516 -0.3890192052489021 0 -0.1399213685487059 -0.37348959169376672 0 -0.1560226147132516 -0.3890192052489021 0 -0.16156929806202969 -0.36998071032210472 0 -0.1399213685487059 -0.37348959169376672 0 -0.1423740195244329 -0.39612512618484591 0 -0.1560226147132516 -0.3890192052489021 0 -0.13835186775085789 -0.38637256647853252 0 -0.1560226147132516 -0.3890192052489021 0 -0.13835186775085789 -0.38637256647853252 0 -0.1399213685487059 -0.37348959169376672 0 -0.13835186775085789 -0.38637256647853252 0 -0.12864128780162801 -0.37901133353404692 0 -0.1399213685487059 -0.37348959169376672 0 -0.12864128780162801 -0.37901133353404692 0 -0.12803078355642639 -0.39335119599340629 0 -0.1215653314550899 -0.38448720158061123 0 -0.13835186775085789 -0.38637256647853252 0 -0.12864128780162801 -0.37901133353404692 0 -0.12803078355642639 -0.39335119599340629 0 -0.1423740195244329 -0.39612512618484591 0 -0.13835186775085789 -0.38637256647853252 0 -0.12803078355642639 -0.39335119599340629 0 -0.1423740195244329 -0.39612512618484591 0 -0.12803078355642639 -0.39335119599340629 0 -0.12872542433561451 -0.40323104712078989 0 -0.1423740195244329 -0.39612512618484591 0 -0.12872542433561451 -0.40323104712078989 0 -0.12872542433561451 -0.40323104712078989 0 -0.12595416694725159 -0.42271309971756882 0 -0.15554911663607679 -0.41558912877499471 0 -0.16216712844419121 -0.44684659434440399 0 -0.13668226336520051 -0.44096541369099418 0 -0.15554911663607679 -0.41558912877499471 0 -0.13668226336520051 -0.44096541369099418 0 -0.12595416694725159 -0.42271309971756882 0 -0.15554911663607679 -0.41558912877499471 0 -0.13668226336520051 -0.44096541369099418 0 -0.12595416694725159 -0.42271309971756882 0 -0.1157480997403291 -0.43918870982630931 0 -0.12872542433561451 -0.40323104712078989 0 -0.15554911663607679 -0.41558912877499471 0 -0.15554911663607679 -0.41558912877499471 0 -0.18237280893653929 -0.42794721042919948 0 -0.16216712844419121 -0.44684659434440399 0 -0.15554911663607679 -0.41558912877499471 0 -0.18237280893653929 -0.42794721042919948 0 -0.15554911663607679 -0.41558912877499471 0 -0.18237280893653929 -0.42794721042919948 0 -0.17374724355450119 -0.40611456752706993 0 -0.17374724355450119 -0.40611456752706993 0 -0.19147187239575161 -0.42320992980523692 0 -0.18237280893653929 -0.42794721042919948 0 -0.17374724355450119 -0.40611456752706993 0 -0.19147187239575161 -0.42320992980523692 0 -0.17374724355450119 -0.40611456752706993 0 -0.18328875142079831 -0.39176184545094878 0 -0.16957468039651449 -0.38196354084302342 0 -0.17374724355450119 -0.40611456752706993 0 -0.18328875142079831 -0.39176184545094878 0 -0.198677113840459 -0.39863795040142491 0 -0.1560226147132516 -0.3890192052489021 0 -0.17374724355450119 -0.40611456752706993 0 -0.1560226147132516 -0.3890192052489021 0 -0.15554911663607679 -0.41558912877499471 0 -0.17374724355450119 -0.40611456752706993 0 -0.1560226147132516 -0.3890192052489021 0 -0.17374724355450119 -0.40611456752706993 0 -0.16957468039651449 -0.38196354084302342 0 -0.1560226147132516 -0.3890192052489021 0 -0.16957468039651449 -0.38196354084302342 0 -0.16156929806202969 -0.36998071032210472 0 -0.16957468039651449 -0.38196354084302342 0 -0.16156929806202969 -0.36998071032210472 0 -0.18312674607977761 -0.37490787643714518 0 -0.1560226147132516 -0.3890192052489021 0 -0.16957468039651449 -0.38196354084302342 0 -0.16957468039651449 -0.38196354084302342 0 -0.18312674607977761 -0.37490787643714518 0 -0.18328875142079831 -0.39176184545094878 0 -0.16957468039651449 -0.38196354084302342 0 -0.18312674607977761 -0.37490787643714518 0 -0.20188575773290229 -0.37840820058046842 0 -0.198677113840459 -0.39863795040142491 0 -0.18312674607977761 -0.37490787643714518 0 -0.198677113840459 -0.39863795040142491 0 -0.18312674607977761 -0.37490787643714518 0 -0.18328875142079831 -0.39176184545094878 0 -0.198677113840459 -0.39863795040142491 0 -0.18312674607977761 -0.37490787643714518 0 -0.20188575773290229 -0.37840820058046842 0 -0.18312674607977761 -0.37490787643714518 0 -0.21711963695025499 -0.4022825866032389 0 -0.22001179229936529 -0.38219714884077371 0 -0.21711963695025499 -0.4022825866032389 0 -0.20942357520574539 -0.39038147160647652 0 -0.22001179229936529 -0.38219714884077371 0 -0.198677113840459 -0.39863795040142491 0 -0.21711963695025499 -0.4022825866032389 0 -0.20942357520574539 -0.39038147160647652 0 -0.20188575773290229 -0.37840820058046842 0 -0.198677113840459 -0.39863795040142491 0 -0.20942357520574539 -0.39038147160647652 0 -0.20188575773290229 -0.37840820058046842 0 -0.22001179229936529 -0.38219714884077371 0 -0.20777152782867631 -0.36570887820560782 0 -0.20188575773290229 -0.37840820058046842 0 -0.22001179229936529 -0.38219714884077371 0 -0.20188575773290229 -0.37840820058046842 0 -0.20942357520574539 -0.39038147160647652 0 -0.22001179229936529 -0.38219714884077371 0 -0.20919650123700179 -0.44030529208340408 0 -0.19147187239575161 -0.42320992980523692 0 -0.20919650123700179 -0.44030529208340408 0 -0.18237280893653929 -0.42794721042919948 0 -0.19147187239575161 -0.42320992980523692 0 -0.20919650123700179 -0.44030529208340408 0 -0.18237280893653929 -0.42794721042919948 0 -0.198677113840459 -0.39863795040142491 0 -0.19147187239575161 -0.42320992980523692 0 -0.21422748160114161 -0.42236802436570359 0 -0.17374724355450119 -0.40611456752706993 0 -0.198677113840459 -0.39863795040142491 0 -0.19147187239575161 -0.42320992980523692 0 -0.21711963695025499 -0.4022825866032389 0 -0.21422748160114161 -0.42236802436570359 0 -0.198677113840459 -0.39863795040142491 0 -0.21711963695025499 -0.4022825866032389 0 -0.21422748160114161 -0.42236802436570359 0 -0.198677113840459 -0.39863795040142491 0 -0.21422748160114161 -0.42236802436570359 0 -0.2260935066120415 -0.44047574088431751 0 -0.21134610829981321 -0.4423785829727987 0 -0.21422748160114161 -0.42236802436570359 0 -0.20919650123700179 -0.44030529208340408 0 -0.21134610829981321 -0.4423785829727987 0 -0.21422748160114161 -0.42236802436570359 0 -0.20919650123700179 -0.44030529208340408 0 -0.19147187239575161 -0.42320992980523692 0 -0.21422748160114161 -0.42236802436570359 0 -0.21134610829981321 -0.4423785829727987 0 -0.21422748160114161 -0.42236802436570359 0 -0.2260935066120415 -0.44047574088431751 0 -0.21422748160114161 -0.42236802436570359 0 -0.23507861243123451 -0.42420659259402688 0 -0.2260935066120415 -0.44047574088431751 0 -0.21422748160114161 -0.42236802436570359 0 -0.21711963695025499 -0.4022825866032389 0 -0.23507861243123451 -0.42420659259402688 0 -0.23838929158167591 -0.40591843477984563 0 -0.21711963695025499 -0.4022825866032389 0 -0.21422748160114161 -0.42236802436570359 0 -0.23507861243123451 -0.42420659259402688 0 -0.25977092972913868 -0.4088241447162006 0 -0.2488694775605618 -0.41883445018876198 0 -0.23838929158167591 -0.40591843477984563 0 -0.2488694775605618 -0.41883445018876198 0 -0.23507861243123451 -0.42420659259402688 0 -0.23838929158167591 -0.40591843477984563 0 -0.2512026002219776 -0.4334496619109558 0 -0.2260935066120415 -0.44047574088431751 0 -0.23507861243123451 -0.42420659259402688 0 -0.2512026002219776 -0.4334496619109558 0 -0.2488694775605618 -0.41883445018876198 0 -0.23507861243123451 -0.42420659259402688 0 -0.23324302902473679 -0.3849629204268572 0 -0.22001179229936529 -0.38219714884077371 0 -0.23577821958803541 -0.37161188932628908 0 -0.23324302902473679 -0.3849629204268572 0 -0.22001179229936529 -0.38219714884077371 0 -0.22999150881325839 -0.39486222483174899 0 -0.23324302902473679 -0.3849629204268572 0 -0.22001179229936529 -0.38219714884077371 0 -0.21711963695025499 -0.4022825866032389 0 -0.22001179229936529 -0.38219714884077371 0 -0.22999150881325839 -0.39486222483174899 0 -0.21711963695025499 -0.4022825866032389 0 -0.22999150881325839 -0.39486222483174899 0 -0.23838929158167591 -0.40591843477984563 0 -0.23324302902473679 -0.3849629204268572 0 -0.22999150881325839 -0.39486222483174899 0 -0.2432840298032683 -0.39441896726820219 0 -0.22999150881325839 -0.39486222483174899 0 -0.23838929158167591 -0.40591843477984563 0 -0.2432840298032683 -0.39441896726820219 0 -0.25977092972913868 -0.4088241447162006 0 -0.23838929158167591 -0.40591843477984563 0 -0.2432840298032683 -0.39441896726820219 0 -0.25245816929728071 -0.38323153237828739 0 -0.23324302902473679 -0.3849629204268572 0 -0.2432840298032683 -0.39441896726820219 0 -0.25245816929728071 -0.38323153237828739 0 -0.23324302902473679 -0.3849629204268572 0 -0.23577821958803541 -0.37161188932628908 0 -0.23577821958803541 -0.37161188932628908 0 -0.22271828528646909 -0.3634010988763004 0 -0.2451454088654226 -0.35763892004037418 0 -0.25245816929728071 -0.38323153237828739 0 -0.2451454088654226 -0.35763892004037418 0 -0.25245816929728071 -0.38323153237828739 0 -0.23577821958803541 -0.37161188932628908 0 -0.2451454088654226 -0.35763892004037418 0 -0.22001179229936529 -0.38219714884077371 0 -0.23577821958803541 -0.37161188932628908 0 -0.22271828528646909 -0.3634010988763004 0 -0.22001179229936529 -0.38219714884077371 0 -0.22271828528646909 -0.3634010988763004 0 -0.22271828528646909 -0.3634010988763004 0 -0.2254247782735698 -0.34460504891182658 0 -0.2451454088654226 -0.35763892004037418 0 -0.22271828528646909 -0.3634010988763004 0 -0.2254247782735698 -0.34460504891182658 0 -0.20958004973447111 -0.34567779780467423 0 -0.22271828528646909 -0.3634010988763004 0 -0.2254247782735698 -0.34460504891182658 0 -0.25907852719504249 -0.34184643407585968 0 -0.2451454088654226 -0.35763892004037418 0 -0.23783264843356461 -0.3320463077024608 0 -0.2451454088654226 -0.35763892004037418 0 -0.23783264843356461 -0.3320463077024608 0 -0.2254247782735698 -0.34460504891182658 0 -0.2451454088654226 -0.35763892004037418 0 -0.23783264843356461 -0.3320463077024608 0 -0.25907852719504249 -0.34184643407585968 0 -0.25031517729402808 -0.31406895071907642 0 -0.23783264843356461 -0.3320463077024608 0 -0.25031517729402808 -0.31406895071907642 0 -0.23783264843356461 -0.3320463077024608 0 -0.2305198880017065 -0.30645369536454742 0 -0.23783264843356461 -0.3320463077024608 0 -0.2198345851489088 -0.32667323567980461 0 -0.2305198880017065 -0.30645369536454742 0 -0.23783264843356461 -0.3320463077024608 0 -0.2305198880017065 -0.30645369536454742 0 -0.2198345851489088 -0.32667323567980461 0 -0.2305198880017065 -0.30645369536454742 0 -0.21397943383588461 -0.31168348279397962 0 -0.2254247782735698 -0.34460504891182658 0 -0.23783264843356461 -0.3320463077024608 0 -0.2198345851489088 -0.32667323567980461 0 -0.2254247782735698 -0.34460504891182658 0 -0.2198345851489088 -0.32667323567980461 0 -0.20958004973447111 -0.34567779780467423 0 -0.2198345851489088 -0.32667323567980461 0 -0.2001369579006948 -0.32503304757062018 0 -0.20958004973447111 -0.34567779780467423 0 -0.2198345851489088 -0.32667323567980461 0 -0.2001369579006948 -0.32503304757062018 0 -0.21397943383588461 -0.31168348279397962 0 -0.2001369579006948 -0.32503304757062018 0 -0.21397943383588461 -0.31168348279397962 0 -0.19912399721676691 -0.30797627273252798 0 -0.2001369579006948 -0.32503304757062018 0 -0.18267407345384909 -0.3323879160777421 0 -0.18259107178148681 -0.31385511416146589 0 -0.2001369579006948 -0.32503304757062018 0 -0.19912399721676691 -0.30797627273252798 0 -0.18259107178148681 -0.31385511416146589 0 -0.2001369579006948 -0.32503304757062018 0 -0.19354393276880369 -0.33913599811975498 0 -0.20958004973447111 -0.34567779780467423 0 -0.2001369579006948 -0.32503304757062018 0 -0.19354393276880369 -0.33913599811975498 0 -0.18267407345384909 -0.3323879160777421 0 -0.19354393276880369 -0.33913599811975498 0 -0.1971821658232123 -0.35565857362636161 0 -0.20958004973447111 -0.34567779780467423 0 -0.19354393276880369 -0.33913599811975498 0 -0.1971821658232123 -0.35565857362636161 0 -0.1860858139120373 -0.35167007781023379 0 -0.1971821658232123 -0.35565857362636161 0 -0.18634710372261801 -0.36427438024838987 0 -0.1860858139120373 -0.35167007781023379 0 -0.1971821658232123 -0.35565857362636161 0 -0.19538925565476961 -0.36773385699619809 0 -0.18634710372261801 -0.36427438024838987 0 -0.20188575773290229 -0.37840820058046842 0 -0.19538925565476961 -0.36773385699619809 0 -0.18312674607977761 -0.37490787643714518 0 -0.19538925565476961 -0.36773385699619809 0 -0.18312674607977761 -0.37490787643714518 0 -0.18634710372261801 -0.36427438024838987 0 -0.20188575773290229 -0.37840820058046842 0 -0.19538925565476961 -0.36773385699619809 0 -0.20777152782867631 -0.36570887820560782 0 -0.1971821658232123 -0.35565857362636161 0 -0.19538925565476961 -0.36773385699619809 0 -0.20777152782867631 -0.36570887820560782 0 -0.22001179229936529 -0.38219714884077371 0 -0.22271828528646909 -0.3634010988763004 0 -0.20777152782867631 -0.36570887820560782 0 -0.1971821658232123 -0.35565857362636161 0 -0.20777152782867631 -0.36570887820560782 0 -0.20958004973447111 -0.34567779780467423 0 -0.22271828528646909 -0.3634010988763004 0 -0.20777152782867631 -0.36570887820560782 0 -0.20958004973447111 -0.34567779780467423 0 -0.2327884774920003 -0.25851398400550929 0 -0.20642497597254139 -0.25895147970483412 0 -0.22932925639100921 -0.24754917515438071 0 -0.2327884774920003 -0.25851398400550929 0 -0.2198657700190195 -0.27791829633131099 0 -0.20642497597254139 -0.25895147970483412 0 -0.2327884774920003 -0.25851398400550929 0 -0.20642497597254139 -0.25895147970483412 0 -0.2327884774920003 -0.25851398400550929 0 -0.22932925639100921 -0.24754917515438071 0 -0.2327884774920003 -0.25851398400550929 0 -0.24161585012034709 -0.24970102092900151 0 -0.22932925639100921 -0.24754917515438071 0 -0.25377971155219892 -0.26484303365952572 0 -0.26013154223708912 -0.25806023269999628 0 -0.2327884774920003 -0.25851398400550929 0 -0.26013154223708912 -0.25806023269999628 0 -0.2327884774920003 -0.25851398400550929 0 -0.26013154223708912 -0.25806023269999628 0 -0.2327884774920003 -0.25851398400550929 0 -0.24161585012034709 -0.24970102092900151 0 -0.2327884774920003 -0.25851398400550929 0 -0.2415518273930137 -0.28629146736229322 0 -0.25377971155219892 -0.26484303365952572 0 -0.2327884774920003 -0.25851398400550929 0 -0.2415518273930137 -0.28629146736229322 0 -0.2327884774920003 -0.25851398400550929 0 -0.2198657700190195 -0.27791829633131099 0 -0.2415518273930137 -0.28629146736229322 0 -0.2198657700190195 -0.27791829633131099 0 -0.2305198880017065 -0.30645369536454742 0 -0.20735517427352021 -0.29587728799762603 0 -0.2198657700190195 -0.27791829633131099 0 -0.2415518273930137 -0.28629146736229322 0 -0.2305198880017065 -0.30645369536454742 0 -0.25031517729402808 -0.31406895071907642 0 -0.2415518273930137 -0.28629146736229322 0 -0.25031517729402808 -0.31406895071907642 0 -0.2415518273930137 -0.28629146736229322 0 -0.2305198880017065 -0.30645369536454742 0 -0.2305198880017065 -0.30645369536454742 0 -0.21397943383588461 -0.31168348279397962 0 -0.20735517427352021 -0.29587728799762603 0 -0.21397943383588461 -0.31168348279397962 0 -0.19912399721676691 -0.30797627273252798 0 -0.20735517427352021 -0.29587728799762603 0 -0.19118372387670249 -0.29692981251093031 0 -0.19912399721676691 -0.30797627273252798 0 -0.18259107178148681 -0.31385511416146589 0 -0.19118372387670249 -0.29692981251093031 0 -0.19912399721676691 -0.30797627273252798 0 -0.20735517427352021 -0.29587728799762603 0 -0.19118372387670249 -0.29692981251093031 0 -0.20735517427352021 -0.29587728799762603 0 -0.19084203441772951 -0.27762887670394309 0 -0.2198657700190195 -0.27791829633131099 0 -0.20735517427352021 -0.29587728799762603 0 -0.19084203441772951 -0.27762887670394309 0 -0.2198657700190195 -0.27791829633131099 0 -0.19084203441772951 -0.27762887670394309 0 -0.20642497597254139 -0.25895147970483412 0 -0.19084203441772951 -0.27762887670394309 0 -0.1885791050457328 -0.2683245218661478 0 -0.20642497597254139 -0.25895147970483412 0 -0.19084203441772951 -0.27762887670394309 0 -0.20642497597254139 -0.25895147970483412 0 -0.19084203441772951 -0.27762887670394309 0 -0.1885791050457328 -0.2683245218661478 0 -0.18521248502882451 -0.27781058906700379 0 -0.20642497597254139 -0.25895147970483412 0 -0.18342469062229511 -0.25933316367486919 0 -0.19970885068544869 -0.23609859820718729 0 -0.1885791050457328 -0.2683245218661478 0 -0.20642497597254139 -0.25895147970483412 0 -0.18342469062229511 -0.25933316367486919 0 -0.20642497597254139 -0.25895147970483412 0 -0.18342469062229511 -0.25933316367486919 0 -0.16042440527204871 -0.2597148476449046 0 -0.14631434680008301 -0.25852047062182959 0 -0.16605665867624281 -0.23738026128637379 0 -0.17177812463033251 -0.2507005330133284 0 -0.18342469062229511 -0.25933316367486919 0 -0.18045656709976621 -0.2402909038046919 0 -0.16042440527204871 -0.2597148476449046 0 -0.18342469062229511 -0.25933316367486919 0 -0.16042440527204871 -0.2597148476449046 0 -0.17177812463033251 -0.2507005330133284 0 -0.18342469062229511 -0.25933316367486919 0 -0.16042440527204871 -0.2597148476449046 0 -0.18342469062229511 -0.25933316367486919 0 -0.17699133918727339 -0.26789850018008871 0 -0.1885791050457328 -0.2683245218661478 0 -0.18342469062229511 -0.25933316367486919 0 -0.17699133918727339 -0.26789850018008871 0 -0.17699133918727339 -0.26789850018008871 0 -0.18521248502882451 -0.27781058906700379 0 -0.16812442445477099 -0.27286282208880203 0 -0.1885791050457328 -0.2683245218661478 0 -0.17699133918727339 -0.26789850018008871 0 -0.18521248502882451 -0.27781058906700379 0 -0.18521248502882451 -0.27781058906700379 0 -0.16812442445477099 -0.27286282208880203 0 -0.1590848977018047 -0.28547402247558368 0 -0.16042440527204871 -0.2597148476449046 0 -0.17699133918727339 -0.26789850018008871 0 -0.16812442445477099 -0.27286282208880203 0 -0.16042440527204871 -0.2597148476449046 0 -0.16812442445477099 -0.27286282208880203 0 -0.15564818197151231 -0.27087667624111411 0 -0.16812442445477099 -0.27286282208880203 0 -0.1590848977018047 -0.28547402247558368 0 -0.15564818197151231 -0.27087667624111411 0 -0.1590848977018047 -0.28547402247558368 0 -0.1752590928629176 -0.29630627370305179 0 -0.15979531442725611 -0.29980777881561932 0 -0.19118372387670249 -0.29692981251093031 0 -0.19084203441772951 -0.27762887670394309 0 -0.1752590928629176 -0.29630627370305179 0 -0.18521248502882451 -0.27781058906700379 0 -0.1590848977018047 -0.28547402247558368 0 -0.18521248502882451 -0.27781058906700379 0 -0.1590848977018047 -0.28547402247558368 0 -0.1752590928629176 -0.29630627370305179 0 -0.19084203441772951 -0.27762887670394309 0 -0.1752590928629176 -0.29630627370305179 0 -0.19084203441772951 -0.27762887670394309 0 -0.18521248502882451 -0.27781058906700379 0 -0.1752590928629176 -0.29630627370305179 0 -0.1752590928629176 -0.29630627370305179 0 -0.18259107178148681 -0.31385511416146589 0 -0.15967615130810561 -0.31498367070216071 0 -0.19118372387670249 -0.29692981251093031 0 -0.1752590928629176 -0.29630627370305179 0 -0.18259107178148681 -0.31385511416146589 0 -0.1752590928629176 -0.29630627370305179 0 -0.15967615130810561 -0.31498367070216071 0 -0.1752590928629176 -0.29630627370305179 0 -0.15979531442725611 -0.29980777881561932 0 -0.15967615130810561 -0.31498367070216071 0 -0.15979531442725611 -0.29980777881561932 0 -0.14758205433755461 -0.30822719030638263 0 -0.15967615130810561 -0.31498367070216071 0 -0.15979531442725611 -0.29980777881561932 0 -0.1475480547078537 -0.29815061837642282 0 -0.14758205433755461 -0.30822719030638263 0 -0.1475480547078537 -0.29815061837642282 0 -0.14758205433755461 -0.30822719030638263 0 -0.13590568881325971 -0.30511142912001271 0 -0.14758205433755461 -0.30822719030638263 0 -0.13590568881325971 -0.30511142912001271 0 -0.13628203871759209 -0.31404087062342401 0 -0.13590568881325971 -0.30511142912001271 0 -0.13628203871759209 -0.31404087062342401 0 -0.1292429050924693 -0.31257644643643578 0 -0.13590568881325971 -0.30511142912001271 0 -0.1292429050924693 -0.31257644643643578 0 -0.12196983205615 -0.30661612654307158 0 -0.13590568881325971 -0.30511142912001271 0 -0.1329573103747847 -0.29313745588416362 0 -0.12196983205615 -0.30661612654307158 0 -0.1475480547078537 -0.29815061837642282 0 -0.13590568881325971 -0.30511142912001271 0 -0.1329573103747847 -0.29313745588416362 0 -0.1329573103747847 -0.29313745588416362 0 -0.1442928356288542 -0.2778112183744505 0 -0.12657203492392319 -0.27966067995728527 0 -0.1590848977018047 -0.28547402247558368 0 -0.1329573103747847 -0.29313745588416362 0 -0.1442928356288542 -0.2778112183744505 0 -0.1590848977018047 -0.28547402247558368 0 -0.1329573103747847 -0.29313745588416362 0 -0.1590848977018047 -0.28547402247558368 0 -0.1475480547078537 -0.29815061837642282 0 -0.1329573103747847 -0.29313745588416362 0 -0.1590848977018047 -0.28547402247558368 0 -0.15979531442725611 -0.29980777881561932 0 -0.1475480547078537 -0.29815061837642282 0 -0.15564818197151231 -0.27087667624111411 0 -0.1442928356288542 -0.2778112183744505 0 -0.14631434680008301 -0.25852047062182959 0 -0.1590848977018047 -0.28547402247558368 0 -0.15564818197151231 -0.27087667624111411 0 -0.1442928356288542 -0.2778112183744505 0 -0.12657203492392319 -0.27966067995728527 0 -0.12977635900157031 -0.26187432748979489 0 -0.14631434680008301 -0.25852047062182959 0 -0.1442928356288542 -0.2778112183744505 0 -0.12657203492392319 -0.27966067995728527 0 -0.14631434680008301 -0.25852047062182959 0 -0.12657203492392319 -0.27966067995728527 0 -0.14631434680008301 -0.25852047062182959 0 -0.12977635900157031 -0.26187432748979489 0 -0.14631434680008301 -0.25852047062182959 0 -0.13829127047383091 -0.23754831417523359 0 -0.12977635900157031 -0.26187432748979489 0 -0.1189470077529053 -0.2524830818323302 0 -0.13829127047383091 -0.23754831417523359 0 -0.16042440527204871 -0.2597148476449046 0 -0.15564818197151231 -0.27087667624111411 0 -0.14631434680008301 -0.25852047062182959 0 -0.16422430789325609 -0.34606249713971893 0 -0.17351571534744839 -0.36024131204065968 0 -0.17716923291121289 -0.34386231067304751 0 -0.16422430789325609 -0.34606249713971893 0 -0.16295316057595299 -0.35948168559705412 0 -0.17351571534744839 -0.36024131204065968 0 -0.16422430789325609 -0.34606249713971893 0 -0.17351571534744839 -0.36024131204065968 0 -0.16422430789325609 -0.34606249713971893 0 -0.17716923291121289 -0.34386231067304751 0 -0.16422430789325609 -0.34606249713971893 0 -0.16207532149407389 -0.34278311449195192 0 -0.16422430789325609 -0.34606249713971893 0 -0.16295316057595299 -0.35948168559705412 0 -0.1526577212724948 -0.35859152348480022 0 -0.16295316057595299 -0.35948168559705412 0 -0.16156929806202969 -0.36998071032210472 0 -0.1526577212724948 -0.35859152348480022 0 -0.16295316057595299 -0.35948168559705412 0 -0.16156929806202969 -0.36998071032210472 0 -0.17351571534744839 -0.36024131204065968 0 -0.16156929806202969 -0.36998071032210472 0 -0.18312674607977761 -0.37490787643714518 0 -0.16156929806202969 -0.36998071032210472 0 -0.17351571534744839 -0.36024131204065968 0 -0.18312674607977761 -0.37490787643714518 0 -0.17351571534744839 -0.36024131204065968 0 -0.18312674607977761 -0.37490787643714518 0 -0.17351571534744839 -0.36024131204065968 0 -0.18312674607977761 -0.37490787643714518 0 -0.18634710372261801 -0.36427438024838987 0 -0.19354393276880369 -0.33913599811975498 0 -0.1860858139120373 -0.35167007781023379 0 -0.17716923291121289 -0.34386231067304751 0 -0.17351571534744839 -0.36024131204065968 0 -0.18634710372261801 -0.36427438024838987 0 -0.1860858139120373 -0.35167007781023379 0 -0.17351571534744839 -0.36024131204065968 0 -0.1860858139120373 -0.35167007781023379 0 -0.17716923291121289 -0.34386231067304751 0 -0.19354393276880369 -0.33913599811975498 0 -0.17716923291121289 -0.34386231067304751 0 -0.18267407345384909 -0.3323879160777421 0 -0.18267407345384909 -0.3323879160777421 0 -0.17146730757805911 -0.326695514284712 0 -0.16985791868576169 -0.34002697105311402 0 -0.17716923291121289 -0.34386231067304751 0 -0.18267407345384909 -0.3323879160777421 0 -0.16985791868576169 -0.34002697105311402 0 -0.18267407345384909 -0.3323879160777421 0 -0.18259107178148681 -0.31385511416146589 0 -0.17146730757805911 -0.326695514284712 0 -0.18259107178148681 -0.31385511416146589 0 -0.17146730757805911 -0.326695514284712 0 -0.15967615130810561 -0.31498367070216071 0 -0.17146730757805911 -0.326695514284712 0 -0.15967615130810561 -0.31498367070216071 0 -0.1607205753237532 -0.33301175934683358 0 -0.16422430789325609 -0.34606249713971893 0 -0.17716923291121289 -0.34386231067304751 0 -0.16985791868576169 -0.34002697105311402 0 -0.16985791868576169 -0.34002697105311402 0 -0.1607205753237532 -0.33301175934683358 0 -0.16207532149407389 -0.34278311449195192 0 -0.16422430789325609 -0.34606249713971893 0 -0.16985791868576169 -0.34002697105311402 0 -0.16207532149407389 -0.34278311449195192 0 -0.17146730757805911 -0.326695514284712 0 -0.16985791868576169 -0.34002697105311402 0 -0.1607205753237532 -0.33301175934683358 0 -0.16422430789325609 -0.34606249713971893 0 -0.16207532149407389 -0.34278311449195192 0 -0.1561290311770627 -0.34154591596112338 0 -0.1607205753237532 -0.33301175934683358 0 -0.16207532149407389 -0.34278311449195192 0 -0.1561290311770627 -0.34154591596112338 0 -0.1607205753237532 -0.33301175934683358 0 -0.1561290311770627 -0.34154591596112338 0 -0.14409320975329559 -0.33366106770127091 0 -0.1561290311770627 -0.34154591596112338 0 -0.14409320975329559 -0.33366106770127091 0 -0.14646733743157209 -0.34908056376000962 0 -0.1561290311770627 -0.34154591596112338 0 -0.14409320975329559 -0.33366106770127091 0 -0.14758205433755461 -0.30822719030638263 0 -0.15967615130810561 -0.31498367070216071 0 -0.1436086233729118 -0.31836027171968412 0 -0.15967615130810561 -0.31498367070216071 0 -0.14409320975329559 -0.33366106770127091 0 -0.1436086233729118 -0.31836027171968412 0 -0.15967615130810561 -0.31498367070216071 0 -0.14409320975329559 -0.33366106770127091 0 -0.15967615130810561 -0.31498367070216071 0 -0.1607205753237532 -0.33301175934683358 0 -0.14409320975329559 -0.33366106770127091 0 -0.14758205433755461 -0.30822719030638263 0 -0.1436086233729118 -0.31836027171968412 0 -0.13628203871759209 -0.31404087062342401 0 -0.14409320975329559 -0.33366106770127091 0 -0.13063654721013879 -0.32042514651904619 0 -0.12472352250231709 -0.32097169325498831 0 -0.14409320975329559 -0.33366106770127091 0 -0.12472352250231709 -0.32097169325498831 0 -0.1436086233729118 -0.31836027171968412 0 -0.13628203871759209 -0.31404087062342401 0 -0.13063654721013879 -0.32042514651904619 0 -0.14409320975329559 -0.33366106770127091 0 -0.1436086233729118 -0.31836027171968412 0 -0.13063654721013879 -0.32042514651904619 0 -0.13063654721013879 -0.32042514651904619 0 -0.12472352250231709 -0.32097169325498831 0 -0.13063654721013879 -0.32042514651904619 0 -0.1292429050924693 -0.31257644643643578 0 -0.12472352250231709 -0.32097169325498831 0 -0.1292429050924693 -0.31257644643643578 0 -0.12472352250231709 -0.32097169325498831 0 -0.12196983205615 -0.30661612654307158 0 -0.13628203871759209 -0.31404087062342401 0 -0.13063654721013879 -0.32042514651904619 0 -0.1292429050924693 -0.31257644643643578 0 -0.14409320975329559 -0.33366106770127091 0 -0.12871036696988811 -0.3520986303803012 0 -0.14409320975329559 -0.33366106770127091 0 -0.1213844187624377 -0.33721816996556198 0 -0.12472352250231709 -0.32097169325498831 0 -0.14409320975329559 -0.33366106770127091 0 -0.12871036696988811 -0.3520986303803012 0 -0.1213844187624377 -0.33721816996556198 0 -0.14409320975329559 -0.33366106770127091 0 -0.12871036696988811 -0.3520986303803012 0 -0.14646733743157209 -0.34908056376000962 0 -0.12871036696988811 -0.3520986303803012 0 -0.14646733743157209 -0.34908056376000962 0 -0.12871036696988811 -0.3520986303803012 0 -0.14058250211077741 -0.35728181915260138 0 -0.14646733743157209 -0.34908056376000962 0 -0.12871036696988811 -0.3520986303803012 0 -0.1347456115575168 -0.36109708443528299 0 -0.1238201223841411 -0.35795997813865121 0 -0.12871036696988811 -0.3520986303803012 0 -0.1238201223841411 -0.35795997813865121 0 -0.12871036696988811 -0.3520986303803012 0 -0.14058250211077741 -0.35728181915260138 0 -0.1347456115575168 -0.36109708443528299 0 -0.16422430789325609 -0.34606249713971893 0 -0.14646733743157209 -0.34908056376000962 0 -0.16422430789325609 -0.34606249713971893 0 -0.14646733743157209 -0.34908056376000962 0 -0.1526577212724948 -0.35859152348480022 0 -0.16422430789325609 -0.34606249713971893 0 -0.1561290311770627 -0.34154591596112338 0 -0.14646733743157209 -0.34908056376000962 0 -0.14058250211077741 -0.35728181915260138 0 -0.14646733743157209 -0.34908056376000962 0 -0.1526577212724948 -0.35859152348480022 0 -0.16156929806202969 -0.36998071032210472 0 -0.1399213685487059 -0.37348959169376672 0 -0.14033147332241541 -0.36554129370261301 0 -0.16156929806202969 -0.36998071032210472 0 -0.14033147332241541 -0.36554129370261301 0 -0.16156929806202969 -0.36998071032210472 0 -0.1526577212724948 -0.35859152348480022 0 -0.14033147332241541 -0.36554129370261301 0 -0.14058250211077741 -0.35728181915260138 0 -0.1526577212724948 -0.35859152348480022 0 -0.14033147332241541 -0.36554129370261301 0 -0.1399213685487059 -0.37348959169376672 0 -0.1347456115575168 -0.36109708443528299 0 -0.1238201223841411 -0.35795997813865121 0 -0.12864128780162801 -0.37901133353404692 0 -0.1399213685487059 -0.37348959169376672 0 -0.1238201223841411 -0.35795997813865121 0 -0.1399213685487059 -0.37348959169376672 0 -0.1238201223841411 -0.35795997813865121 0 -0.1399213685487059 -0.37348959169376672 0 -0.14033147332241541 -0.36554129370261301 0 -0.1347456115575168 -0.36109708443528299 0 -0.14058250211077741 -0.35728181915260138 0 -0.14033147332241541 -0.36554129370261301 0 -0.1347456115575168 -0.36109708443528299 0 -0.12054057227179681 -0.37498575146636209 0 -0.1134389780801022 -0.37040260668792202 0 -0.1238201223841411 -0.35795997813865121 0 -0.12864128780162801 -0.37901133353404692 0 -0.12054057227179681 -0.37498575146636209 0 -0.1238201223841411 -0.35795997813865121 0 -0.1134389780801022 -0.37040260668792202 0 -0.099148097680610989 -0.35712318670056692 0 -0.1193861501970697 -0.35368342253069268 0 -0.1134389780801022 -0.37040260668792202 0 -0.1193861501970697 -0.35368342253069268 0 -0.1238201223841411 -0.35795997813865121 0 -0.1134389780801022 -0.37040260668792202 0 -0.1238201223841411 -0.35795997813865121 0 -0.1134389780801022 -0.37040260668792202 0 -0.097483730611736805 -0.36960019039196801 0 -0.1030578337760638 -0.38284523523719322 0 -0.1134389780801022 -0.37040260668792202 0 -0.097483730611736805 -0.36960019039196801 0 -0.099148097680610989 -0.35712318670056692 0 -0.1019450206590352 -0.34813536291645231 0 -0.1193861501970697 -0.35368342253069268 0 -0.1041446332164887 -0.33898301572468698 0 -0.099148097680610989 -0.35712318670056692 0 -0.1019450206590352 -0.34813536291645231 0 -0.1193861501970697 -0.35368342253069268 0 -0.099148097680610989 -0.35712318670056692 0 -0.1193861501970697 -0.35368342253069268 0 -0.099148097680610989 -0.35712318670056692 0 -0.1019450206590352 -0.34813536291645231 0 -0.093084855162265556 -0.34495712096666598 0 -0.1019450206590352 -0.34813536291645231 0 -0.1041446332164887 -0.33898301572468698 0 -0.093084855162265556 -0.34495712096666598 0 -0.12871036696988811 -0.3520986303803012 0 -0.1193861501970697 -0.35368342253069268 0 -0.1213844187624377 -0.33721816996556198 0 -0.1193861501970697 -0.35368342253069268 0 -0.1041446332164887 -0.33898301572468698 0 -0.12871036696988811 -0.3520986303803012 0 -0.1193861501970697 -0.35368342253069268 0 -0.12871036696988811 -0.3520986303803012 0 -0.1193861501970697 -0.35368342253069268 0 -0.1238201223841411 -0.35795997813865121 0 -0.1193861501970697 -0.35368342253069268 0 -0.1238201223841411 -0.35795997813865121 0 -0.1213844187624377 -0.33721816996556198 0 -0.1068133193691118 -0.32262715108683743 0 -0.1041446332164887 -0.33898301572468698 0 -0.1193861501970697 -0.35368342253069268 0 -0.1213844187624377 -0.33721816996556198 0 -0.1041446332164887 -0.33898301572468698 0 -0.12472352250231709 -0.32097169325498831 0 -0.1068133193691118 -0.32262715108683743 0 -0.1019347715106619 -0.30604243855152902 0 -0.1213844187624377 -0.33721816996556198 0 -0.12472352250231709 -0.32097169325498831 0 -0.1068133193691118 -0.32262715108683743 0 -0.12472352250231709 -0.32097169325498831 0 -0.1068133193691118 -0.32262715108683743 0 -0.12472352250231709 -0.32097169325498831 0 -0.1019347715106619 -0.30604243855152902 0 -0.1068133193691118 -0.32262715108683743 0 -0.088903116235906104 -0.32428260891868288 0 -0.1019347715106619 -0.30604243855152902 0 -0.1068133193691118 -0.32262715108683743 0 -0.088903116235906104 -0.32428260891868288 0 -0.086797397074746291 -0.32225164780583382 0 -0.1019347715106619 -0.30604243855152902 0 -0.1041446332164887 -0.33898301572468698 0 -0.087835011697409329 -0.33907385396946571 0 -0.093084855162265556 -0.34495712096666598 0 -0.1068133193691118 -0.32262715108683743 0 -0.1041446332164887 -0.33898301572468698 0 -0.088903116235906104 -0.32428260891868288 0 -0.1041446332164887 -0.33898301572468698 0 -0.088903116235906104 -0.32428260891868288 0 -0.1041446332164887 -0.33898301572468698 0 -0.087835011697409329 -0.33907385396946571 0 -0.087751592692684954 -0.3327350852103701 0 -0.087835011697409329 -0.33907385396946571 0 -0.093084855162265556 -0.34495712096666598 0 -0.080974063852714856 -0.34550645969010868 0 -0.1041446332164887 -0.33898301572468698 0 -0.087751592692684954 -0.3327350852103701 0 -0.088903116235906104 -0.32428260891868288 0 -0.084522612748251541 -0.32468750319889972 0 -0.077951619611889955 -0.32529486660900392 0 -0.073352589565366805 -0.33664844424011631 0 -0.084522612748251541 -0.32468750319889972 0 -0.073352589565366805 -0.33664844424011631 0 -0.087751592692684954 -0.3327350852103701 0 -0.084522612748251541 -0.32468750319889972 0 -0.073352589565366805 -0.33664844424011631 0 -0.087835011697409329 -0.33907385396946571 0 -0.087751592692684954 -0.3327350852103701 0 -0.073352589565366805 -0.33664844424011631 0 -0.087835011697409329 -0.33907385396946571 0 -0.073352589565366805 -0.33664844424011631 0 -0.080974063852714856 -0.34550645969010868 0 -0.086797397074746291 -0.32225164780583382 0 -0.088903116235906104 -0.32428260891868288 0 -0.1019347715106619 -0.30604243855152902 0 -0.087751592692684954 -0.3327350852103701 0 -0.088903116235906104 -0.32428260891868288 0 -0.084522612748251541 -0.32468750319889972 0 -0.086797397074746291 -0.32225164780583382 0 -0.088903116235906104 -0.32428260891868288 0 -0.084522612748251541 -0.32468750319889972 0 -0.086797397074746291 -0.32225164780583382 0 -0.088903116235906104 -0.32428260891868288 0 -0.088903116235906104 -0.32428260891868288 0 -0.084522612748251541 -0.32468750319889972 0 -0.084522612748251541 -0.32468750319889972 0 -0.077951619611889955 -0.32529486660900392 0 -0.084522612748251541 -0.32468750319889972 0 -0.082592605320002455 -0.32241733069846129 0 -0.077951619611889955 -0.32529486660900392 0 -0.082592605320002455 -0.32241733069846129 0 -0.077951619611889955 -0.32529486660900392 0 -0.086797397074746291 -0.32225164780583382 0 -0.084522612748251541 -0.32468750319889972 0 -0.082592605320002455 -0.32241733069846129 0 -0.086797397074746291 -0.32225164780583382 0 -0.084522612748251541 -0.32468750319889972 0 -0.082592605320002455 -0.32241733069846129 0 -0.077951619611889955 -0.32529486660900392 0 -0.073855808332435838 -0.30976951630472888 0 -0.086797397074746291 -0.32225164780583382 0 -0.073855808332435838 -0.30976951630472888 0 -0.086797397074746291 -0.32225164780583382 0 -0.082592605320002455 -0.32241733069846129 0 -0.073855808332435838 -0.30976951630472888 0 -0.077951619611889955 -0.32529486660900392 0 -0.057763279127852361 -0.32716089493474643 0 -0.077951619611889955 -0.32529486660900392 0 -0.067340080838689101 -0.31896228648216968 0 -0.057763279127852361 -0.32716089493474643 0 -0.077951619611889955 -0.32529486660900392 0 -0.067340080838689101 -0.31896228648216968 0 -0.073855808332435838 -0.30976951630472888 0 -0.067340080838689101 -0.31896228648216968 0 -0.073855808332435838 -0.30976951630472888 0 -0.059789616282578277 -0.31362386808019949 0 -0.077951619611889955 -0.32529486660900392 0 -0.057066404085074671 -0.3382442617284025 0 -0.077951619611889955 -0.32529486660900392 0 -0.057066404085074671 -0.3382442617284025 0 -0.057763279127852361 -0.32716089493474643 0 -0.073352589565366805 -0.33664844424011631 0 -0.062182566382482513 -0.34860938528133351 0 -0.057066404085074671 -0.3382442617284025 0 -0.077951619611889955 -0.32529486660900392 0 -0.073352589565366805 -0.33664844424011631 0 -0.057066404085074671 -0.3382442617284025 0 -0.073352589565366805 -0.33664844424011631 0 -0.062182566382482513 -0.34860938528133351 0 -0.072179375723749717 -0.34927946977445917 0 -0.065477613654032055 -0.35507010879029621 0 -0.062182566382482513 -0.34860938528133351 0 -0.073352589565366805 -0.33664844424011631 0 -0.072179375723749717 -0.34927946977445917 0 -0.062182566382482513 -0.34860938528133351 0 -0.073352589565366805 -0.33664844424011631 0 -0.072179375723749717 -0.34927946977445917 0 -0.080974063852714856 -0.34550645969010868 0 -0.072179375723749717 -0.34927946977445917 0 -0.065477613654032055 -0.35507010879029621 0 -0.078910045164152537 -0.36056295087044249 0 -0.072179375723749717 -0.34927946977445917 0 -0.078910045164152537 -0.36056295087044249 0 -0.080974063852714856 -0.34550645969010868 0 -0.065477613654032055 -0.35507010879029621 0 -0.078910045164152537 -0.36056295087044249 0 -0.058384720506502369 -0.36405154130052497 0 -0.078910045164152537 -0.36056295087044249 0 -0.058384720506502369 -0.36405154130052497 0 -0.070942724486098896 -0.36933461351051428 0 -0.058384720506502369 -0.36405154130052497 0 -0.070942724486098896 -0.36933461351051428 0 -0.078910045164152537 -0.36056295087044249 0 -0.058384720506502369 -0.36405154130052497 0 -0.070942724486098896 -0.36933461351051428 0 -0.078910045164152537 -0.36056295087044249 0 -0.097483730611736805 -0.36960019039196801 0 -0.078910045164152537 -0.36056295087044249 0 -0.087000279131081965 -0.37608992437385241 0 -0.070942724486098896 -0.36933461351051428 0 -0.087000279131081965 -0.37608992437385241 0 -0.070942724486098896 -0.36933461351051428 0 -0.078910045164152537 -0.36056295087044249 0 -0.087000279131081965 -0.37608992437385241 0 -0.097483730611736805 -0.36960019039196801 0 -0.099148097680610989 -0.35712318670056692 0 -0.078910045164152537 -0.36056295087044249 0 -0.078910045164152537 -0.36056295087044249 0 -0.093084855162265556 -0.34495712096666598 0 -0.099148097680610989 -0.35712318670056692 0 -0.078910045164152537 -0.36056295087044249 0 -0.099148097680610989 -0.35712318670056692 0 -0.078910045164152537 -0.36056295087044249 0 -0.093084855162265556 -0.34495712096666598 0 -0.078910045164152537 -0.36056295087044249 0 -0.093084855162265556 -0.34495712096666598 0 -0.080974063852714856 -0.34550645969010868 0 -0.1189470077529053 -0.2524830818323302 0 -0.099602745031979828 -0.26741784948942682 0 -0.1019754198311405 -0.2504958421485593 0 -0.099602745031979828 -0.26741784948942682 0 -0.081368145388621041 -0.25504177425338681 0 -0.1019754198311405 -0.2504958421485593 0 -0.1189470077529053 -0.2524830818323302 0 -0.099602745031979828 -0.26741784948942682 0 -0.1189470077529053 -0.2524830818323302 0 -0.11415600226878141 -0.27193138862162219 0 -0.099602745031979828 -0.26741784948942682 0 -0.12977635900157031 -0.26187432748979489 0 -0.1189470077529053 -0.2524830818323302 0 -0.11415600226878141 -0.27193138862162219 0 -0.12657203492392319 -0.27966067995728527 0 -0.12977635900157031 -0.26187432748979489 0 -0.11415600226878141 -0.27193138862162219 0 -0.12657203492392319 -0.27966067995728527 0 -0.11415600226878141 -0.27193138862162219 0 -0.112955891368233 -0.28673343451149202 0 -0.11415600226878141 -0.27193138862162219 0 -0.099602745031979828 -0.26741784948942682 0 -0.10210270635357969 -0.28508021328486438 0 -0.099602745031979828 -0.26741784948942682 0 -0.10210270635357969 -0.28508021328486438 0 -0.091492075118045357 -0.2840213886196909 0 -0.09400065896862525 -0.29260371451469153 0 -0.10210270635357969 -0.28508021328486438 0 -0.091492075118045357 -0.2840213886196909 0 -0.10136427636003301 -0.29504409120595698 0 -0.09400065896862525 -0.29260371451469153 0 -0.10210270635357969 -0.28508021328486438 0 -0.10581314928240231 -0.29191465707376357 0 -0.112955891368233 -0.28673343451149202 0 -0.10682972304776429 -0.30080088929274201 0 -0.10136427636003301 -0.29504409120595698 0 -0.10581314928240231 -0.29191465707376357 0 -0.10210270635357969 -0.28508021328486438 0 -0.10136427636003301 -0.29504409120595698 0 -0.10581314928240231 -0.29191465707376357 0 -0.10682972304776429 -0.30080088929274201 0 -0.10581314928240231 -0.29191465707376357 0 -0.10210270635357969 -0.28508021328486438 0 -0.112955891368233 -0.28673343451149202 0 -0.12657203492392319 -0.27966067995728527 0 -0.10682972304776429 -0.30080088929274201 0 -0.1329573103747847 -0.29313745588416362 0 -0.12657203492392319 -0.27966067995728527 0 -0.10682972304776429 -0.30080088929274201 0 -0.12657203492392319 -0.27966067995728527 0 -0.112955891368233 -0.28673343451149202 0 -0.10682972304776429 -0.30080088929274201 0 -0.11415600226878141 -0.27193138862162219 0 -0.10210270635357969 -0.28508021328486438 0 -0.112955891368233 -0.28673343451149202 0 -0.12472352250231709 -0.32097169325498831 0 -0.12196983205615 -0.30661612654307158 0 -0.1019347715106619 -0.30604243855152902 0 -0.1329573103747847 -0.29313745588416362 0 -0.10682972304776429 -0.30080088929274201 0 -0.12196983205615 -0.30661612654307158 0 -0.1019347715106619 -0.30604243855152902 0 -0.10682972304776429 -0.30080088929274201 0 -0.1329573103747847 -0.29313745588416362 0 -0.12196983205615 -0.30661612654307158 0 -0.10682972304776429 -0.30080088929274201 0 -0.086797397074746291 -0.32225164780583382 0 -0.1019347715106619 -0.30604243855152902 0 -0.097921984586771108 -0.30341360127653522 0 -0.10136427636003301 -0.29504409120595698 0 -0.10682972304776429 -0.30080088929274201 0 -0.097921984586771108 -0.30341360127653522 0 -0.1019347715106619 -0.30604243855152902 0 -0.10682972304776429 -0.30080088929274201 0 -0.097921984586771108 -0.30341360127653522 0 -0.10682972304776429 -0.30080088929274201 0 -0.097921984586771108 -0.30341360127653522 0 -0.1019347715106619 -0.30604243855152902 0 -0.10682972304776429 -0.30080088929274201 0 -0.10136427636003301 -0.29504409120595698 0 -0.09400065896862525 -0.29260371451469153 0 -0.097921984586771108 -0.30341360127653522 0 -0.1019347715106619 -0.30604243855152902 0 -0.097921984586771108 -0.30341360127653522 0 -0.097921984586771108 -0.30341360127653522 0 -0.084192149344215109 -0.30490596422086752 0 -0.081495782924987603 -0.29265254866294832 0 -0.097921984586771108 -0.30341360127653522 0 -0.081495782924987603 -0.29265254866294832 0 -0.086797397074746291 -0.32225164780583382 0 -0.084192149344215109 -0.30490596422086752 0 -0.073855808332435838 -0.30976951630472888 0 -0.086797397074746291 -0.32225164780583382 0 -0.097921984586771108 -0.30341360127653522 0 -0.084192149344215109 -0.30490596422086752 0 -0.084192149344215109 -0.30490596422086752 0 -0.075114490047941851 -0.30115385349804119 0 -0.081495782924987603 -0.29265254866294832 0 -0.084192149344215109 -0.30490596422086752 0 -0.073855808332435838 -0.30976951630472888 0 -0.075114490047941851 -0.30115385349804119 0 -0.073855808332435838 -0.30976951630472888 0 -0.060914219590129048 -0.29728738480362021 0 -0.059789616282578277 -0.31362386808019949 0 -0.075114490047941851 -0.30115385349804119 0 -0.081495782924987603 -0.29265254866294832 0 -0.060914219590129048 -0.29728738480362021 0 -0.073855808332435838 -0.30976951630472888 0 -0.075114490047941851 -0.30115385349804119 0 -0.060914219590129048 -0.29728738480362021 0 -0.073855808332435838 -0.30976951630472888 0 -0.060914219590129048 -0.29728738480362021 0 -0.080258482311054341 -0.28235261714652332 0 -0.060914219590129048 -0.29728738480362021 0 -0.080258482311054341 -0.28235261714652332 0 -0.062391088223847223 -0.26906378058622238 0 -0.060914219590129048 -0.29728738480362021 0 -0.080258482311054341 -0.28235261714652332 0 -0.081495782924987603 -0.29265254866294832 0 -0.060914219590129048 -0.29728738480362021 0 -0.09400065896862525 -0.29260371451469153 0 -0.097921984586771108 -0.30341360127653522 0 -0.081495782924987603 -0.29265254866294832 0 -0.080258482311054341 -0.28235261714652332 0 -0.081495782924987603 -0.29265254866294832 0 -0.091492075118045357 -0.2840213886196909 0 -0.09400065896862525 -0.29260371451469153 0 -0.081495782924987603 -0.29265254866294832 0 -0.091492075118045357 -0.2840213886196909 0 -0.099602745031979828 -0.26741784948942682 0 -0.080258482311054341 -0.28235261714652332 0 -0.081368145388621041 -0.25504177425338681 0 -0.099602745031979828 -0.26741784948942682 0 -0.080258482311054341 -0.28235261714652332 0 -0.099602745031979828 -0.26741784948942682 0 -0.080258482311054341 -0.28235261714652332 0 -0.091492075118045357 -0.2840213886196909 0 -0.080258482311054341 -0.28235261714652332 0 -0.081368145388621041 -0.25504177425338681 0 -0.062391088223847223 -0.26906378058622238 0 -0.081368145388621041 -0.25504177425338681 0 -0.062391088223847223 -0.26906378058622238 0 -0.058933065379499022 -0.24738575062504861 0 -0.04549003223474532 -0.26150878588591858 0 -0.058933065379499022 -0.24738575062504861 0 -0.034926702071121543 -0.2453513073930933 0 -0.04549003223474532 -0.26150878588591858 0 -0.027161463802796621 -0.26473293228227829 0 -0.034926702071121543 -0.2453513073930933 0 -0.04549003223474532 -0.26150878588591858 0 -0.062391088223847223 -0.26906378058622238 0 -0.058933065379499022 -0.24738575062504861 0 -0.04549003223474532 -0.26150878588591858 0 -0.062391088223847223 -0.26906378058622238 0 -0.044037841696462167 -0.28101015854294997 0 -0.044037841696462167 -0.28101015854294997 0 -0.027161463802796621 -0.26473293228227829 0 -0.04549003223474532 -0.26150878588591858 0 -0.044037841696462167 -0.28101015854294997 0 -0.027161463802796621 -0.26473293228227829 0 -0.044037841696462167 -0.28101015854294997 0 -0.02317898413285217 -0.28290511643764932 0 -0.027161463802796621 -0.26473293228227829 0 -0.044037841696462167 -0.28101015854294997 0 -0.060914219590129048 -0.29728738480362021 0 -0.0391504088749524 -0.31409016819492402 0 -0.044037841696462167 -0.28101015854294997 0 -0.023571208935173529 -0.30066268682603298 0 -0.0391504088749524 -0.31409016819492402 0 -0.044037841696462167 -0.28101015854294997 0 -0.060914219590129048 -0.29728738480362021 0 -0.062391088223847223 -0.26906378058622238 0 -0.044037841696462167 -0.28101015854294997 0 -0.060914219590129048 -0.29728738480362021 0 -0.060914219590129048 -0.29728738480362021 0 -0.059789616282578277 -0.31362386808019949 0 -0.0391504088749524 -0.31409016819492402 0 -0.060914219590129048 -0.29728738480362021 0 -0.0391504088749524 -0.31409016819492402 0 -0.023571208935173529 -0.30066268682603298 0 -0.0391504088749524 -0.31409016819492402 0 -0.01553048492300965 -0.31783488607443389 0 -0.023571208935173529 -0.30066268682603298 0 -0.0072435639786168696 -0.30869702927543019 0 -0.01553048492300965 -0.31783488607443389 0 -0.023571208935173529 -0.30066268682603298 0 -0.0072435639786168696 -0.30869702927543019 0 -0.008621258408915651 -0.29373514309621218 0 -0.0072435639786168696 -0.30869702927543019 0 0.0015534473510252071 -0.31897980324349212 0 0.0041645049102895801 -0.30504752886096342 0 -0.0072435639786168696 -0.30869702927543019 0 -0.008621258408915651 -0.29373514309621218 0 0.0041645049102895801 -0.30504752886096342 0 -0.008621258408915651 -0.29373514309621218 0 -0.010402133666752571 -0.27343245814051742 0 0.0047068597912733644 -0.28758019441823612 0 -0.008621258408915651 -0.29373514309621218 0 -0.02317898413285217 -0.28290511643764932 0 -0.010402133666752571 -0.27343245814051742 0 -0.044037841696462167 -0.28101015854294997 0 -0.023571208935173529 -0.30066268682603298 0 -0.02317898413285217 -0.28290511643764932 0 -0.023571208935173529 -0.30066268682603298 0 -0.008621258408915651 -0.29373514309621218 0 -0.02317898413285217 -0.28290511643764932 0 -0.02317898413285217 -0.28290511643764932 0 -0.010402133666752571 -0.27343245814051742 0 -0.027161463802796621 -0.26473293228227829 0 -0.010402133666752571 -0.27343245814051742 0 0.0047068597912733644 -0.28758019441823612 0 0.0041914794392815292 -0.26734073968512723 0 -0.010402133666752571 -0.27343245814051742 0 -0.01033888325303035 -0.24839992844066119 0 0.0041914794392815292 -0.26734073968512723 0 -0.027161463802796621 -0.26473293228227829 0 -0.01033888325303035 -0.24839992844066119 0 -0.034926702071121543 -0.2453513073930933 0 -0.010402133666752571 -0.27343245814051742 0 -0.027161463802796621 -0.26473293228227829 0 -0.01033888325303035 -0.24839992844066119 0 -0.027161463802796621 -0.26473293228227829 0 -0.01033888325303035 -0.24839992844066119 0 -0.036181188558259449 -0.35119365684780107 0 -0.057066404085074671 -0.3382442617284025 0 -0.046236784665735262 -0.35894098214213299 0 -0.036181188558259449 -0.35119365684780107 0 -0.034792021234790929 -0.36593249244285131 0 -0.046236784665735262 -0.35894098214213299 0 -0.036181188558259449 -0.35119365684780107 0 -0.05126840336002312 -0.35057289891743648 0 -0.034792021234790929 -0.36593249244285131 0 -0.024412038906165629 -0.37928745162210142 0 -0.041076027114489863 -0.37690284532816171 0 -0.034792021234790929 -0.36593249244285131 0 -0.045338350162461953 -0.36852892716077579 0 -0.041076027114489863 -0.37690284532816171 0 -0.045338350162461953 -0.36852892716077579 0 -0.05408768396458126 -0.37182106541757309 0 -0.041076027114489863 -0.37690284532816171 0 -0.046236784665735262 -0.35894098214213299 0 -0.034792021234790929 -0.36593249244285131 0 -0.045338350162461953 -0.36852892716077579 0 -0.046236784665735262 -0.35894098214213299 0 -0.045338350162461953 -0.36852892716077579 0 -0.054201226427750722 -0.36476258961039892 0 -0.070942724486098896 -0.36933461351051428 0 -0.05408768396458126 -0.37182106541757309 0 -0.058384720506502369 -0.36405154130052497 0 -0.046236784665735262 -0.35894098214213299 0 -0.058384720506502369 -0.36405154130052497 0 -0.046236784665735262 -0.35894098214213299 0 -0.058384720506502369 -0.36405154130052497 0 -0.0562229185426429 -0.35583673809532762 0 -0.046236784665735262 -0.35894098214213299 0 -0.054201226427750722 -0.36476258961039892 0 -0.058384720506502369 -0.36405154130052497 0 -0.045338350162461953 -0.36852892716077579 0 -0.054201226427750722 -0.36476258961039892 0 -0.05408768396458126 -0.37182106541757309 0 -0.054201226427750722 -0.36476258961039892 0 -0.05408768396458126 -0.37182106541757309 0 -0.058384720506502369 -0.36405154130052497 0 -0.054201226427750722 -0.36476258961039892 0 -0.058384720506502369 -0.36405154130052497 0 -0.065477613654032055 -0.35507010879029621 0 -0.0562229185426429 -0.35583673809532762 0 -0.062182566382482513 -0.34860938528133351 0 -0.065477613654032055 -0.35507010879029621 0 -0.058384720506502369 -0.36405154130052497 0 -0.0562229185426429 -0.35583673809532762 0 -0.0562229185426429 -0.35583673809532762 0 -0.05126840336002312 -0.35057289891743648 0 -0.062182566382482513 -0.34860938528133351 0 -0.036181188558259449 -0.35119365684780107 0 -0.05126840336002312 -0.35057289891743648 0 -0.057066404085074671 -0.3382442617284025 0 -0.046236784665735262 -0.35894098214213299 0 -0.0562229185426429 -0.35583673809532762 0 -0.05126840336002312 -0.35057289891743648 0 -0.05126840336002312 -0.35057289891743648 0 -0.062182566382482513 -0.34860938528133351 0 -0.057066404085074671 -0.3382442617284025 0 -0.057066404085074671 -0.3382442617284025 0 -0.057763279127852361 -0.32716089493474643 0 -0.0432808464546394 -0.33802744781816341 0 -0.059789616282578277 -0.31362386808019949 0 -0.057763279127852361 -0.32716089493474643 0 -0.0391504088749524 -0.31409016819492402 0 -0.057763279127852361 -0.32716089493474643 0 -0.037574938643814768 -0.32902692326048888 0 -0.067340080838689101 -0.31896228648216968 0 -0.059789616282578277 -0.31362386808019949 0 -0.057763279127852361 -0.32716089493474643 0 -0.057763279127852361 -0.32716089493474643 0 -0.0391504088749524 -0.31409016819492402 0 -0.037574938643814768 -0.32902692326048888 0 -0.0391504088749524 -0.31409016819492402 0 -0.037574938643814768 -0.32902692326048888 0 -0.017386598159776969 -0.33089295158622928 0 -0.036181188558259449 -0.35119365684780107 0 -0.057066404085074671 -0.3382442617284025 0 -0.0432808464546394 -0.33802744781816341 0 -0.057763279127852361 -0.32716089493474643 0 -0.0432808464546394 -0.33802744781816341 0 -0.037574938643814768 -0.32902692326048888 0 -0.0432808464546394 -0.33802744781816341 0 -0.037574938643814768 -0.32902692326048888 0 -0.029921667652251661 -0.339672901414516 0 -0.036181188558259449 -0.35119365684780107 0 -0.0432808464546394 -0.33802744781816341 0 -0.029921667652251661 -0.339672901414516 0 -0.037574938643814768 -0.32902692326048888 0 -0.029921667652251661 -0.339672901414516 0 -0.017386598159776969 -0.33089295158622928 0 -0.017386598159776969 -0.33089295158622928 0 -0.0097759858824575524 -0.35070649071062521 0 -0.021457925691958719 -0.34790202445550089 0 -0.037574938643814768 -0.32902692326048888 0 -0.017386598159776969 -0.33089295158622928 0 -0.029921667652251661 -0.339672901414516 0 -0.017386598159776969 -0.33089295158622928 0 -0.021457925691958719 -0.34790202445550089 0 -0.0391504088749524 -0.31409016819492402 0 -0.017386598159776969 -0.33089295158622928 0 -0.0391504088749524 -0.31409016819492402 0 -0.017386598159776969 -0.33089295158622928 0 -0.01553048492300965 -0.31783488607443389 0 -0.0072435639786168696 -0.30869702927543019 0 -0.01553048492300965 -0.31783488607443389 0 0.0015534473510252071 -0.31897980324349212 0 -0.01553048492300965 -0.31783488607443389 0 -0.0051984166299227641 -0.33201951728844858 0 0.0015534473510252071 -0.31897980324349212 0 -0.017386598159776969 -0.33089295158622928 0 -0.01553048492300965 -0.31783488607443389 0 -0.0051984166299227641 -0.33201951728844858 0 -0.017386598159776969 -0.33089295158622928 0 -0.0051984166299227641 -0.33201951728844858 0 0.0055334797010514053 -0.34858843279801549 0 -0.017386598159776969 -0.33089295158622928 0 -0.0097759858824575524 -0.35070649071062521 0 0.0055334797010514053 -0.34858843279801549 0 -0.017386598159776969 -0.33089295158622928 0 0.0055334797010514053 -0.34858843279801549 0 -0.017386598159776969 -0.33089295158622928 0 -0.0051984166299227641 -0.33201951728844858 0 -0.0097759858824575524 -0.35070649071062521 0 -0.021457925691958719 -0.34790202445550089 0 -0.015295973031444331 -0.3641430519671997 0 -0.0097759858824575524 -0.35070649071062521 0 -0.00027291223016019873 -0.36200599274618178 0 0.0055334797010514053 -0.34858843279801549 0 -0.0097759858824575524 -0.35070649071062521 0 -0.015295973031444331 -0.3641430519671997 0 -0.00027291223016019873 -0.36200599274618178 0 -0.036181188558259449 -0.35119365684780107 0 -0.015295973031444331 -0.3641430519671997 0 -0.036181188558259449 -0.35119365684780107 0 -0.021457925691958719 -0.34790202445550089 0 -0.015295973031444331 -0.3641430519671997 0 -0.036181188558259449 -0.35119365684780107 0 -0.029921667652251661 -0.339672901414516 0 -0.021457925691958719 -0.34790202445550089 0 -0.036181188558259449 -0.35119365684780107 0 -0.034792021234790929 -0.36593249244285131 0 -0.015295973031444331 -0.3641430519671997 0 -0.034792021234790929 -0.36593249244285131 0 -0.015295973031444331 -0.3641430519671997 0 -0.024412038906165629 -0.37928745162210142 0 -0.015295973031444331 -0.3641430519671997 0 -0.0069566213403100194 -0.37666569485815599 0 0.0055892424953708567 -0.37709244708659828 0 -0.015295973031444331 -0.3641430519671997 0 -0.00027291223016019873 -0.36200599274618178 0 0.0055892424953708567 -0.37709244708659828 0 -0.015295973031444331 -0.3641430519671997 0 -0.0069566213403100194 -0.37666569485815599 0 -0.024412038906165629 -0.37928745162210142 0 -0.015295973031444331 -0.3641430519671997 0 0.0055892424953708567 -0.37709244708659828 0 -0.0069566213403100194 -0.37666569485815599 0 -0.011403695676688129 -0.38925659810766411 0 -0.024412038906165629 -0.37928745162210142 0 -0.0069566213403100194 -0.37666569485815599 0 -0.011403695676688129 -0.38925659810766411 0 0.00068527185139777367 -0.39171991296266812 0 -0.011403695676688129 -0.38925659810766411 0 -0.0053933843029720964 -0.40289512607066869 0 -0.020136093578976388 -0.40656441737657423 0 -0.011403695676688129 -0.38925659810766411 0 -0.0053933843029720964 -0.40289512607066869 0 0.00068527185139777367 -0.39171991296266812 0 -0.011403695676688129 -0.38925659810766411 0 -0.024657632886837939 -0.39216228735528802 0 -0.020136093578976388 -0.40656441737657423 0 -0.024657632886837939 -0.39216228735528802 0 -0.038223385694266108 -0.40535713767961612 0 -0.020136093578976388 -0.40656441737657423 0 -0.011403695676688129 -0.38925659810766411 0 -0.024657632886837939 -0.39216228735528802 0 -0.024412038906165629 -0.37928745162210142 0 -0.024657632886837939 -0.39216228735528802 0 -0.024412038906165629 -0.37928745162210142 0 -0.036830998593654157 -0.38893822044859527 0 -0.024412038906165629 -0.37928745162210142 0 -0.041076027114489863 -0.37690284532816171 0 -0.036830998593654157 -0.38893822044859527 0 -0.041076027114489863 -0.37690284532816171 0 -0.036830998593654157 -0.38893822044859527 0 -0.054583055090182811 -0.3873458755950655 0 -0.036830998593654157 -0.38893822044859527 0 -0.038223385694266108 -0.40535713767961612 0 -0.054583055090182811 -0.3873458755950655 0 -0.024657632886837939 -0.39216228735528802 0 -0.036830998593654157 -0.38893822044859527 0 -0.038223385694266108 -0.40535713767961612 0 -0.038223385694266108 -0.40535713767961612 0 -0.054583055090182811 -0.3873458755950655 0 -0.054583055090182811 -0.3873458755950655 0 -0.057210765093186053 -0.41064515190595868 0 -0.070251213769418244 -0.39599506201310869 0 -0.038223385694266108 -0.40535713767961612 0 -0.054583055090182811 -0.3873458755950655 0 -0.057210765093186053 -0.41064515190595868 0 -0.070942724486098896 -0.36933461351051428 0 -0.05408768396458126 -0.37182106541757309 0 -0.054583055090182811 -0.3873458755950655 0 -0.05408768396458126 -0.37182106541757309 0 -0.041076027114489863 -0.37690284532816171 0 -0.054583055090182811 -0.3873458755950655 0 -0.060330581999441753 -0.43405725071616091 0 -0.057210765093186053 -0.41064515190595868 0 -0.040761664736767601 -0.42957258387162173 0 -0.038223385694266108 -0.40535713767961612 0 -0.040761664736767601 -0.42957258387162173 0 -0.021863716298349361 -0.42336839976416668 0 -0.038223385694266108 -0.40535713767961612 0 -0.057210765093186053 -0.41064515190595868 0 -0.040761664736767601 -0.42957258387162173 0 -0.040761664736767601 -0.42957258387162173 0 -0.021863716298349361 -0.42336839976416668 0 -0.01800472775719579 -0.44023485706561721 0 -0.038223385694266108 -0.40535713767961612 0 -0.021863716298349361 -0.42336839976416668 0 -0.038223385694266108 -0.40535713767961612 0 -0.021863716298349361 -0.42336839976416668 0 -0.020136093578976388 -0.40656441737657423 0 -0.0053933843029720964 -0.40289512607066869 0 -0.020136093578976388 -0.40656441737657423 0 -0.0017926683884428381 -0.41909229766128209 0 -0.021863716298349361 -0.42336839976416668 0 -0.020136093578976388 -0.40656441737657423 0 -0.0017926683884428381 -0.41909229766128209 0 -0.021863716298349361 -0.42336839976416668 0 -0.0055040469024326194 -0.4413796618487173 0 -0.021863716298349361 -0.42336839976416668 0 -0.0017926683884428381 -0.41909229766128209 0 -0.0055040469024326194 -0.4413796618487173 0 -0.021863716298349361 -0.42336839976416668 0 -0.0055040469024326194 -0.4413796618487173 0 -0.01800472775719579 -0.44023485706561721 0 -0.0055040469024326194 -0.4413796618487173 0 -0.013022402921451921 -0.45187392691078759 0 -0.0024386041876752612 -0.45929620790011488 0 -0.0055040469024326194 -0.4413796618487173 0 -0.013022402921451921 -0.45187392691078759 0 -0.01800472775719579 -0.44023485706561721 0 -0.0024386041876752612 -0.45929620790011488 0 -0.012522535594381389 -0.46911507720245138 0 0.0041221806730474906 -0.47146052586586129 0 -0.013022402921451921 -0.45187392691078759 0 -0.0024386041876752612 -0.45929620790011488 0 -0.012522535594381389 -0.46911507720245138 0 -0.0024386041876752612 -0.45929620790011488 0 -0.012522535594381389 -0.46911507720245138 0 -0.026642100165574539 -0.44934383053703658 0 -0.012522535594381389 -0.46911507720245138 0 -0.022762367460245611 -0.4790857490281234 0 -0.026642100165574539 -0.44934383053703658 0 -0.012522535594381389 -0.46911507720245138 0 -0.026642100165574539 -0.44934383053703658 0 -0.022762367460245611 -0.4790857490281234 0 -0.041546474729843602 -0.45657149987214218 0 -0.013022402921451921 -0.45187392691078759 0 -0.026642100165574539 -0.44934383053703658 0 -0.012522535594381389 -0.46911507720245138 0 -0.040761664736767601 -0.42957258387162173 0 -0.026642100165574539 -0.44934383053703658 0 -0.01800472775719579 -0.44023485706561721 0 -0.013022402921451921 -0.45187392691078759 0 -0.026642100165574539 -0.44934383053703658 0 -0.01800472775719579 -0.44023485706561721 0 -0.0053131720197490684 -0.49999999999999262 0 -0.022762367460245611 -0.4790857490281234 0 -0.0053131720197490684 -0.49999999999999262 0 -0.0019979191529869672 -0.48385241465166939 0 -0.022762367460245611 -0.4790857490281234 0 -0.0019979191529869672 -0.48385241465166939 0 -0.012522535594381389 -0.46911507720245138 0 0.0041221806730474906 -0.47146052586586129 0 -0.0019979191529869672 -0.48385241465166939 0 -0.012522535594381389 -0.46911507720245138 0 -0.022762367460245611 -0.4790857490281234 0 -0.0019979191529869672 -0.48385241465166939 0 -0.012522535594381389 -0.46911507720245138 0 -0.012522535594381389 -0.46911507720245138 0 -0.022762367460245611 -0.4790857490281234 0 -0.0053131720197490684 -0.49999999999999262 0 -0.022762367460245611 -0.4790857490281234 0 -0.022962986967160929 -0.5 0 -0.022762367460245611 -0.4790857490281234 0 -0.022962986967160929 -0.5 0 -0.042003394994412697 -0.49782101476734492 0 -0.022962986967160929 -0.5 0 -0.042003394994412697 -0.49782101476734492 0 -0.040612801914572783 -0.49999999999999911 0 -0.022762367460245611 -0.4790857490281234 0 -0.042003394994412697 -0.49782101476734492 0 -0.044241202316805887 -0.50000000000000155 0 -0.042003394994412697 -0.49782101476734492 0 -0.042003394994412697 -0.49782101476734492 0 -0.040612801914572783 -0.49999999999999911 0 -0.044241202316805887 -0.50000000000000155 0 -0.042003394994412697 -0.49782101476734492 0 -0.040612801914572783 -0.49999999999999911 0 -0.022762367460245611 -0.4790857490281234 0 -0.04039727869439047 -0.47590418294522507 0 -0.041546474729843602 -0.45657149987214218 0 -0.022762367460245611 -0.4790857490281234 0 -0.042003394994412697 -0.49782101476734492 0 -0.04039727869439047 -0.47590418294522507 0 -0.042003394994412697 -0.49782101476734492 0 -0.04039727869439047 -0.47590418294522507 0 -0.054835272715460591 -0.47771414636223902 0 -0.04039727869439047 -0.47590418294522507 0 -0.054835272715460591 -0.47771414636223902 0 -0.048964245204273817 -0.46693596618841338 0 -0.042003394994412697 -0.49782101476734492 0 -0.054835272715460591 -0.47771414636223902 0 -0.044241202316805887 -0.50000000000000155 0 -0.042003394994412697 -0.49782101476734492 0 -0.054835272715460591 -0.47771414636223902 0 -0.044241202316805887 -0.50000000000000155 0 -0.054835272715460591 -0.47771414636223902 0 -0.059517815837935029 -0.5 0 -0.054835272715460591 -0.47771414636223902 0 -0.059517815837935029 -0.5 0 -0.069436021093837286 -0.48774650454692869 0 -0.040761664736767601 -0.42957258387162173 0 -0.026642100165574539 -0.44934383053703658 0 -0.040761664736767601 -0.42957258387162173 0 -0.026642100165574539 -0.44934383053703658 0 -0.041546474729843602 -0.45657149987214218 0 -0.022762367460245611 -0.4790857490281234 0 -0.041546474729843602 -0.45657149987214218 0 -0.04039727869439047 -0.47590418294522507 0 -0.041546474729843602 -0.45657149987214218 0 -0.048964245204273817 -0.46693596618841338 0 -0.054835272715460591 -0.47771414636223902 0 -0.060770738350792983 -0.45726392338490929 0 -0.067667150436509976 -0.45760727795713407 0 -0.054835272715460591 -0.47771414636223902 0 -0.048964245204273817 -0.46693596618841338 0 -0.060770738350792983 -0.45726392338490929 0 -0.041546474729843602 -0.45657149987214218 0 -0.048964245204273817 -0.46693596618841338 0 -0.060770738350792983 -0.45726392338490929 0 -0.054835272715460591 -0.47771414636223902 0 -0.067667150436509976 -0.45760727795713407 0 -0.041546474729843602 -0.45657149987214218 0 -0.060770738350792983 -0.45726392338490929 0 -0.06389810185168722 -0.44659693222201757 0 -0.060330581999441753 -0.43405725071616091 0 -0.040761664736767601 -0.42957258387162173 0 -0.041546474729843602 -0.45657149987214218 0 -0.060330581999441753 -0.43405725071616091 0 -0.041546474729843602 -0.45657149987214218 0 -0.060330581999441753 -0.43405725071616091 0 -0.041546474729843602 -0.45657149987214218 0 -0.06389810185168722 -0.44659693222201757 0 -0.06389810185168722 -0.44659693222201757 0 -0.067667150436509976 -0.45760727795713407 0 -0.081230671555302461 -0.43635396334690302 0 -0.060330581999441753 -0.43405725071616091 0 -0.06389810185168722 -0.44659693222201757 0 -0.081230671555302461 -0.43635396334690302 0 -0.067667150436509976 -0.45760727795713407 0 -0.081230671555302461 -0.43635396334690302 0 -0.060770738350792983 -0.45726392338490929 0 -0.06389810185168722 -0.44659693222201757 0 -0.067667150436509976 -0.45760727795713407 0 -0.060770738350792983 -0.45726392338490929 0 -0.067667150436509976 -0.45760727795713407 0 -0.067667150436509976 -0.45760727795713407 0 -0.092735303946576753 -0.45885535667081973 0 -0.067667150436509976 -0.45760727795713407 0 -0.092735303946576753 -0.45885535667081973 0 -0.076766763355075734 -0.47442096371034548 0 -0.067667150436509976 -0.45760727795713407 0 -0.092735303946576753 -0.45885535667081973 0 -0.081230671555302461 -0.43635396334690302 0 -0.092735303946576753 -0.45885535667081973 0 -0.098592014140515355 -0.43714604887974351 0 -0.081230671555302461 -0.43635396334690302 0 -0.059517815837935029 -0.5 0 -0.074794429359064163 -0.49999999999999989 0 -0.069436021093837286 -0.48774650454692869 0 -0.074794429359064163 -0.49999999999999989 0 -0.069436021093837286 -0.48774650454692869 0 -0.0822941501111292 -0.48570135487318422 0 -0.054835272715460591 -0.47771414636223902 0 -0.069436021093837286 -0.48774650454692869 0 -0.076766763355075734 -0.47442096371034548 0 -0.054835272715460591 -0.47771414636223902 0 -0.067667150436509976 -0.45760727795713407 0 -0.076766763355075734 -0.47442096371034548 0 -0.069436021093837286 -0.48774650454692869 0 -0.076766763355075734 -0.47442096371034548 0 -0.0822941501111292 -0.48570135487318422 0 -0.092069778456290913 -0.4769744535599556 0 -0.0822941501111292 -0.48570135487318422 0 -0.098403758291377902 -0.48936485254869078 0 -0.092735303946576753 -0.45885535667081973 0 -0.076766763355075734 -0.47442096371034548 0 -0.092069778456290913 -0.4769744535599556 0 -0.076766763355075734 -0.47442096371034548 0 -0.092069778456290913 -0.4769744535599556 0 -0.0822941501111292 -0.48570135487318422 0 -0.074794429359064163 -0.49999999999999989 0 -0.10198092227379529 -0.5 0 -0.098403758291377902 -0.48936485254869078 0 -0.074794429359064163 -0.49999999999999989 0 -0.098403758291377902 -0.48936485254869078 0 -0.074794429359064163 -0.49999999999999989 0 -0.0822941501111292 -0.48570135487318422 0 -0.098403758291377902 -0.48936485254869078 0 -0.10198092227379529 -0.5 0 -0.098403758291377902 -0.48936485254869078 0 -0.1129927399628497 -0.49096463539950203 0 -0.098403758291377902 -0.48936485254869078 0 -0.1051230577291002 -0.47275810241557392 0 -0.12201308722369179 -0.47872970509738189 0 -0.092069778456290913 -0.4769744535599556 0 -0.098403758291377902 -0.48936485254869078 0 -0.1051230577291002 -0.47275810241557392 0 -0.092735303946576753 -0.45885535667081973 0 -0.092069778456290913 -0.4769744535599556 0 -0.1051230577291002 -0.47275810241557392 0 -0.1051230577291002 -0.47275810241557392 0 -0.12201308722369179 -0.47872970509738189 0 -0.1178034574566436 -0.46010343538450288 0 -0.098403758291377902 -0.48936485254869078 0 -0.12201308722369179 -0.47872970509738189 0 -0.098403758291377902 -0.48936485254869078 0 -0.12201308722369179 -0.47872970509738189 0 -0.1129927399628497 -0.49096463539950203 0 -0.12916741518852651 -0.5 0 -0.10198092227379529 -0.5 0 -0.1129927399628497 -0.49096463539950203 0 -0.12916741518852651 -0.5 0 -0.12201308722369179 -0.47872970509738189 0 -0.1129927399628497 -0.49096463539950203 0 -0.092735303946576753 -0.45885535667081973 0 -0.10646062012077021 -0.44892737821770451 0 -0.098592014140515355 -0.43714604887974351 0 -0.10646062012077021 -0.44892737821770451 0 -0.1157480997403291 -0.43918870982630931 0 -0.098592014140515355 -0.43714604887974351 0 -0.092735303946576753 -0.45885535667081973 0 -0.1178034574566436 -0.46010343538450288 0 -0.092735303946576753 -0.45885535667081973 0 -0.10646062012077021 -0.44892737821770451 0 -0.1178034574566436 -0.46010343538450288 0 -0.092735303946576753 -0.45885535667081973 0 -0.1051230577291002 -0.47275810241557392 0 -0.1178034574566436 -0.46010343538450288 0 -0.10646062012077021 -0.44892737821770451 0 -0.1178034574566436 -0.46010343538450288 0 -0.1157480997403291 -0.43918870982630931 0 -0.13668226336520051 -0.44096541369099418 0 -0.1178034574566436 -0.46010343538450288 0 -0.1157480997403291 -0.43918870982630931 0 -0.12595416694725159 -0.42271309971756882 0 -0.1157480997403291 -0.43918870982630931 0 -0.1094743917563832 -0.42564002231174702 0 -0.1157480997403291 -0.43918870982630931 0 -0.1094743917563832 -0.42564002231174702 0 -0.098592014140515355 -0.43714604887974351 0 -0.1094743917563832 -0.42564002231174702 0 -0.098592014140515355 -0.43714604887974351 0 -0.096200791222969345 -0.42016447273505297 0 -0.094794192674095903 -0.41510064873667252 0 -0.096200791222969345 -0.42016447273505297 0 -0.1124631077792919 -0.41169775992792151 0 -0.096200791222969345 -0.42016447273505297 0 -0.1124631077792919 -0.41169775992792151 0 -0.094794192674095903 -0.41510064873667252 0 -0.1124631077792919 -0.41169775992792151 0 -0.1083577137928894 -0.39384733412644207 0 -0.1094743917563832 -0.42564002231174702 0 -0.096200791222969345 -0.42016447273505297 0 -0.1124631077792919 -0.41169775992792151 0 -0.12872542433561451 -0.40323104712078989 0 -0.1124631077792919 -0.41169775992792151 0 -0.12872542433561451 -0.40323104712078989 0 -0.12595416694725159 -0.42271309971756882 0 -0.1124631077792919 -0.41169775992792151 0 -0.12595416694725159 -0.42271309971756882 0 -0.1094743917563832 -0.42564002231174702 0 -0.1124631077792919 -0.41169775992792151 0 -0.12803078355642639 -0.39335119599340629 0 -0.1127712251627896 -0.38693159706533742 0 -0.1083577137928894 -0.39384733412644207 0 -0.12803078355642639 -0.39335119599340629 0 -0.12872542433561451 -0.40323104712078989 0 -0.1083577137928894 -0.39384733412644207 0 -0.12872542433561451 -0.40323104712078989 0 -0.1083577137928894 -0.39384733412644207 0 -0.12872542433561451 -0.40323104712078989 0 -0.1124631077792919 -0.41169775992792151 0 -0.1083577137928894 -0.39384733412644207 0 -0.12054057227179681 -0.37498575146636209 0 -0.1215653314550899 -0.38448720158061123 0 -0.11523714163802461 -0.38306763739058097 0 -0.12864128780162801 -0.37901133353404692 0 -0.12054057227179681 -0.37498575146636209 0 -0.1215653314550899 -0.38448720158061123 0 -0.12803078355642639 -0.39335119599340629 0 -0.1215653314550899 -0.38448720158061123 0 -0.1127712251627896 -0.38693159706533742 0 -0.12803078355642639 -0.39335119599340629 0 -0.1127712251627896 -0.38693159706533742 0 -0.1127712251627896 -0.38693159706533742 0 -0.11523714163802461 -0.38306763739058097 0 -0.1030578337760638 -0.38284523523719322 0 -0.1215653314550899 -0.38448720158061123 0 -0.1127712251627896 -0.38693159706533742 0 -0.11523714163802461 -0.38306763739058097 0 -0.1127712251627896 -0.38693159706533742 0 -0.1083577137928894 -0.39384733412644207 0 -0.1127712251627896 -0.38693159706533742 0 -0.11523714163802461 -0.38306763739058097 0 -0.1134389780801022 -0.37040260668792202 0 -0.11523714163802461 -0.38306763739058097 0 -0.1030578337760638 -0.38284523523719322 0 -0.12054057227179681 -0.37498575146636209 0 -0.1134389780801022 -0.37040260668792202 0 -0.11523714163802461 -0.38306763739058097 0 -0.1030578337760638 -0.38284523523719322 0 -0.097898796538634786 -0.38902875240419599 0 -0.087000279131081965 -0.37608992437385241 0 -0.097483730611736805 -0.36960019039196801 0 -0.1030578337760638 -0.38284523523719322 0 -0.087000279131081965 -0.37608992437385241 0 -0.1030578337760638 -0.38284523523719322 0 -0.087000279131081965 -0.37608992437385241 0 -0.1134389780801022 -0.37040260668792202 0 -0.1030578337760638 -0.38284523523719322 0 -0.1030578337760638 -0.38284523523719322 0 -0.1063569309725536 -0.38796255377885158 0 -0.097898796538634786 -0.38902875240419599 0 -0.1063569309725536 -0.38796255377885158 0 -0.097898796538634786 -0.38902875240419599 0 -0.1083577137928894 -0.39384733412644207 0 -0.1127712251627896 -0.38693159706533742 0 -0.1030578337760638 -0.38284523523719322 0 -0.1063569309725536 -0.38796255377885158 0 -0.1127712251627896 -0.38693159706533742 0 -0.1030578337760638 -0.38284523523719322 0 -0.1127712251627896 -0.38693159706533742 0 -0.1063569309725536 -0.38796255377885158 0 -0.1083577137928894 -0.39384733412644207 0 -0.1030578337760638 -0.38284523523719322 0 -0.097898796538634786 -0.38902875240419599 0 -0.094794192674095903 -0.41510064873667252 0 -0.1083577137928894 -0.39384733412644207 0 -0.094794192674095903 -0.41510064873667252 0 -0.097898796538634786 -0.38902875240419599 0 -0.1083577137928894 -0.39384733412644207 0 -0.097898796538634786 -0.38902875240419599 0 -0.1083577137928894 -0.39384733412644207 0 -0.097898796538634786 -0.38902875240419599 0 -0.081210106153432854 -0.39405810531751251 0 -0.079114689269039834 -0.41154300156017981 0 -0.097898796538634786 -0.38902875240419599 0 -0.079114689269039834 -0.41154300156017981 0 -0.094794192674095903 -0.41510064873667252 0 -0.097898796538634786 -0.38902875240419599 0 -0.079114689269039834 -0.41154300156017981 0 -0.097898796538634786 -0.38902875240419599 0 -0.081210106153432854 -0.39405810531751251 0 -0.077575725036635484 -0.37966560529256299 0 -0.097898796538634786 -0.38902875240419599 0 -0.087000279131081965 -0.37608992437385241 0 -0.077575725036635484 -0.37966560529256299 0 -0.070942724486098896 -0.36933461351051428 0 -0.087000279131081965 -0.37608992437385241 0 -0.077575725036635484 -0.37966560529256299 0 -0.097898796538634786 -0.38902875240419599 0 -0.077575725036635484 -0.37966560529256299 0 -0.070942724486098896 -0.36933461351051428 0 -0.054583055090182811 -0.3873458755950655 0 -0.077575725036635484 -0.37966560529256299 0 -0.070942724486098896 -0.36933461351051428 0 -0.054583055090182811 -0.3873458755950655 0 -0.081210106153432854 -0.39405810531751251 0 -0.077575725036635484 -0.37966560529256299 0 -0.070251213769418244 -0.39599506201310869 0 -0.054583055090182811 -0.3873458755950655 0 -0.077575725036635484 -0.37966560529256299 0 -0.070251213769418244 -0.39599506201310869 0 -0.057210765093186053 -0.41064515190595868 0 -0.070251213769418244 -0.39599506201310869 0 -0.079114689269039834 -0.41154300156017981 0 -0.081210106153432854 -0.39405810531751251 0 -0.070251213769418244 -0.39599506201310869 0 -0.079114689269039834 -0.41154300156017981 0 -0.060330581999441753 -0.43405725071616091 0 -0.057210765093186053 -0.41064515190595868 0 -0.079114689269039834 -0.41154300156017981 0 -0.060330581999441753 -0.43405725071616091 0 -0.081230671555302461 -0.43635396334690302 0 -0.079114689269039834 -0.41154300156017981 0 -0.060330581999441753 -0.43405725071616091 0 -0.079114689269039834 -0.41154300156017981 0 -0.094794192674095903 -0.41510064873667252 0 -0.096200791222969345 -0.42016447273505297 0 -0.081230671555302461 -0.43635396334690302 0 -0.094794192674095903 -0.41510064873667252 0 -0.081230671555302461 -0.43635396334690302 0 -0.098592014140515355 -0.43714604887974351 0 -0.096200791222969345 -0.42016447273505297 0 -0.081230671555302461 -0.43635396334690302 0 -0.094794192674095903 -0.41510064873667252 0 -0.081230671555302461 -0.43635396334690302 0 -0.079114689269039834 -0.41154300156017981 0 -0.082306995610305758 -0.08199833927194744 0 -0.091038596249631967 -0.1022502043469387 0 -0.098728517578614686 -0.079028577402706413 0 -0.082306995610305758 -0.08199833927194744 0 -0.071626152086312123 -0.090903540405200489 0 -0.091038596249631967 -0.1022502043469387 0 -0.082306995610305758 -0.08199833927194744 0 -0.082320825325669478 -0.063077286907222072 0 -0.098728517578614686 -0.079028577402706413 0 -0.082320825325669478 -0.063077286907222072 0 -0.098728517578614686 -0.079028577402706413 0 -0.082320825325669478 -0.063077286907222072 0 -0.067820886811299941 -0.074732087297670571 0 -0.06405055176182059 -0.064115774356208702 0 -0.082306995610305758 -0.08199833927194744 0 -0.082320825325669478 -0.063077286907222072 0 -0.067820886811299941 -0.074732087297670571 0 -0.082306995610305758 -0.08199833927194744 0 -0.067820886811299941 -0.074732087297670571 0 -0.071626152086312123 -0.090903540405200489 0 -0.067820886811299941 -0.074732087297670571 0 -0.071626152086312123 -0.090903540405200489 0 -0.057021874381875198 -0.081913048695053406 0 -0.071626152086312123 -0.090903540405200489 0 -0.06540020462440814 -0.1019039962435685 0 -0.054953592273996092 -0.093935534799458265 0 -0.06540020462440814 -0.1019039962435685 0 -0.068166432568197877 -0.11567236747524209 0 -0.055858210685098532 -0.1083020577763965 0 -0.06540020462440814 -0.1019039962435685 0 -0.076924916557382622 -0.1050547227612849 0 -0.068166432568197877 -0.11567236747524209 0 -0.071626152086312123 -0.090903540405200489 0 -0.06540020462440814 -0.1019039962435685 0 -0.076924916557382622 -0.1050547227612849 0 -0.076924916557382622 -0.1050547227612849 0 -0.068166432568197877 -0.11567236747524209 0 -0.086849853749359204 -0.126350687417812 0 -0.068166432568197877 -0.11567236747524209 0 -0.057607193609730663 -0.1210914295626431 0 -0.064502829581788115 -0.13406045192987581 0 -0.076924916557382622 -0.1050547227612849 0 -0.091038596249631967 -0.1022502043469387 0 -0.086849853749359204 -0.126350687417812 0 -0.071626152086312123 -0.090903540405200489 0 -0.076924916557382622 -0.1050547227612849 0 -0.091038596249631967 -0.1022502043469387 0 -0.091038596249631967 -0.1022502043469387 0 -0.1045233517518457 -0.105564850692231 0 -0.098728517578614686 -0.079028577402706413 0 -0.1045233517518457 -0.105564850692231 0 -0.10919687791693029 -0.1186409229057481 0 -0.086849853749359204 -0.126350687417812 0 -0.10919687791693029 -0.1186409229057481 0 -0.086849853749359204 -0.126350687417812 0 -0.1119160919538824 -0.12927881236989891 0 -0.10919687791693029 -0.1186409229057481 0 -0.086849853749359204 -0.126350687417812 0 -0.091038596249631967 -0.1022502043469387 0 -0.1045233517518457 -0.105564850692231 0 -0.086849853749359204 -0.126350687417812 0 -0.10919687791693029 -0.1186409229057481 0 -0.1315439020844999 -0.1109311583936801 0 -0.10919687791693029 -0.1186409229057481 0 -0.1119160919538824 -0.12927881236989891 0 -0.1315439020844999 -0.1109311583936801 0 -0.1119160919538824 -0.12927881236989891 0 -0.12879004509182629 -0.1288610985368486 0 -0.1315439020844999 -0.1109311583936801 0 -0.1119160919538824 -0.12927881236989891 0 -0.1315439020844999 -0.1109311583936801 0 -0.10919687791693029 -0.1186409229057481 0 -0.11510008539621081 -0.10752919997246051 0 -0.1315439020844999 -0.1109311583936801 0 -0.1045233517518457 -0.105564850692231 0 -0.10919687791693029 -0.1186409229057481 0 -0.11510008539621081 -0.10752919997246051 0 -0.1151362098315607 -0.094979867898189754 0 -0.1315439020844999 -0.1109311583936801 0 -0.1151362098315607 -0.094979867898189754 0 -0.11510008539621081 -0.10752919997246051 0 -0.1315439020844999 -0.1109311583936801 0 -0.1151362098315607 -0.094979867898189754 0 -0.1222385501864571 -0.092999891337642415 0 -0.1315439020844999 -0.1109311583936801 0 -0.1045233517518457 -0.105564850692231 0 -0.1151362098315607 -0.094979867898189754 0 -0.11510008539621081 -0.10752919997246051 0 -0.1222385501864571 -0.092999891337642415 0 -0.1045821737239858 -0.077949743143033934 0 -0.1065604581495289 -0.076320593116858237 0 -0.13080009097338779 -0.089563899326495514 0 -0.1222385501864571 -0.092999891337642415 0 -0.1065604581495289 -0.076320593116858237 0 -0.13080009097338779 -0.089563899326495514 0 -0.1151362098315607 -0.094979867898189754 0 -0.1222385501864571 -0.092999891337642415 0 -0.1045821737239858 -0.077949743143033934 0 -0.1222385501864571 -0.092999891337642415 0 -0.1065604581495289 -0.076320593116858237 0 -0.1045821737239858 -0.077949743143033934 0 -0.1065604581495289 -0.076320593116858237 0 -0.1222307079192313 -0.074781137511556628 0 -0.13080009097338779 -0.089563899326495514 0 -0.1151362098315607 -0.094979867898189754 0 -0.098728517578614686 -0.079028577402706413 0 -0.1151362098315607 -0.094979867898189754 0 -0.098728517578614686 -0.079028577402706413 0 -0.1045821737239858 -0.077949743143033934 0 -0.1045233517518457 -0.105564850692231 0 -0.1151362098315607 -0.094979867898189754 0 -0.098728517578614686 -0.079028577402706413 0 -0.082320825325669478 -0.063077286907222072 0 -0.098728517578614686 -0.079028577402706413 0 -0.1065604581495289 -0.076320593116858237 0 -0.1065604581495289 -0.076320593116858237 0 -0.1117389752270939 -0.058272891124849083 0 -0.097906602084733438 -0.057778071669898359 0 -0.082320825325669478 -0.063077286907222072 0 -0.1065604581495289 -0.076320593116858237 0 -0.097906602084733438 -0.057778071669898359 0 -0.082320825325669478 -0.063077286907222072 0 -0.1065604581495289 -0.076320593116858237 0 -0.098728517578614686 -0.079028577402706413 0 -0.1065604581495289 -0.076320593116858237 0 -0.1045821737239858 -0.077949743143033934 0 -0.1065604581495289 -0.076320593116858237 0 -0.1222307079192313 -0.074781137511556628 0 -0.1117389752270939 -0.058272891124849083 0 -0.1222307079192313 -0.074781137511556628 0 -0.12225704169659669 -0.044761141985681221 0 -0.1222307079192313 -0.074781137511556628 0 -0.1117389752270939 -0.058272891124849083 0 -0.12225704169659669 -0.044761141985681221 0 -0.1117389752270939 -0.058272891124849083 0 -0.113462445194652 -0.031909302076920408 0 -0.1071297187780605 -0.039993716312605829 0 -0.1117389752270939 -0.058272891124849083 0 -0.113462445194652 -0.031909302076920408 0 -0.1117389752270939 -0.058272891124849083 0 -0.113462445194652 -0.031909302076920408 0 -0.1162330786516948 -0.034089496594384663 0 -0.1117389752270939 -0.058272891124849083 0 -0.12225704169659669 -0.044761141985681221 0 -0.1162330786516948 -0.034089496594384663 0 -0.12225704169659669 -0.044761141985681221 0 -0.1222622412010676 -0.038833807719936657 0 -0.1162330786516948 -0.034089496594384663 0 -0.12225704169659669 -0.044761141985681221 0 -0.1162330786516948 -0.034089496594384663 0 -0.12225704169659669 -0.044761141985681221 0 -0.1222622412010676 -0.038833807719936657 0 -0.1222622412010676 -0.038833807719936657 0 -0.1162330786516948 -0.034089496594384663 0 -0.113462445194652 -0.031909302076920408 0 -0.1071297187780605 -0.039993716312605829 0 -0.10911279668831771 -0.033831037331716808 0 -0.113462445194652 -0.031909302076920408 0 -0.1162330786516948 -0.034089496594384663 0 -0.1136222775058716 -0.02946437791291839 0 -0.1162330786516948 -0.034089496594384663 0 -0.1136222775058716 -0.02946437791291839 0 -0.113462445194652 -0.031909302076920408 0 -0.1162330786516948 -0.034089496594384663 0 -0.113462445194652 -0.031909302076920408 0 -0.1101840263705748 -0.031629496500937021 0 -0.10911279668831771 -0.033831037331716808 0 -0.1071297187780605 -0.039993716312605829 0 -0.1013127548420821 -0.037034875283333032 0 -0.1001513010443283 -0.045830730801066422 0 -0.1057300315924451 -0.034641702460023377 0 -0.1076755641146996 -0.03121104226415123 0 -0.1034193235390653 -0.031137841108310051 0 -0.1101840263705748 -0.031629496500937021 0 -0.10911279668831771 -0.033831037331716808 0 -0.1076755641146996 -0.03121104226415123 0 -0.10911279668831771 -0.033831037331716808 0 -0.1057300315924451 -0.034641702460023377 0 -0.1076755641146996 -0.03121104226415123 0 -0.1071297187780605 -0.039993716312605829 0 -0.10911279668831771 -0.033831037331716808 0 -0.1057300315924451 -0.034641702460023377 0 -0.1071297187780605 -0.039993716312605829 0 -0.1057300315924451 -0.034641702460023377 0 -0.1013127548420821 -0.037034875283333032 0 -0.1057300315924451 -0.034641702460023377 0 -0.1013127548420821 -0.037034875283333032 0 -0.1034193235390653 -0.031137841108310051 0 -0.098104995481570464 -0.032111538524359683 0 -0.1013127548420821 -0.037034875283333032 0 -0.092763401943093016 -0.039084524249335888 0 -0.098104995481570464 -0.032111538524359683 0 -0.1013127548420821 -0.037034875283333032 0 -0.1034193235390653 -0.031137841108310051 0 -0.098104995481570464 -0.032111538524359683 0 -0.092763401943093016 -0.039084524249335888 0 -0.091992740296529957 -0.032978433335589849 0 -0.1001513010443283 -0.045830730801066422 0 -0.089023577382565972 -0.049798952788260832 0 -0.092763401943093016 -0.039084524249335888 0 -0.1013127548420821 -0.037034875283333032 0 -0.1001513010443283 -0.045830730801066422 0 -0.092763401943093016 -0.039084524249335888 0 -0.1117389752270939 -0.058272891124849083 0 -0.1071297187780605 -0.039993716312605829 0 -0.1001513010443283 -0.045830730801066422 0 -0.1001513010443283 -0.045830730801066422 0 -0.097906602084733438 -0.057778071669898359 0 -0.089023577382565972 -0.049798952788260832 0 -0.1117389752270939 -0.058272891124849083 0 -0.1001513010443283 -0.045830730801066422 0 -0.097906602084733438 -0.057778071669898359 0 -0.1222818076516056 -0.01652843354261738 0 -0.12230137410214451 0.005776940634701893 0 -0.1155178281547062 -0.00046850373691600602 0 -0.1136222775058716 -0.02946437791291839 0 -0.1155178281547062 -0.00046850373691600602 0 -0.1222818076516056 -0.01652843354261738 0 -0.1136222775058716 -0.02946437791291839 0 -0.1155178281547062 -0.00046850373691600602 0 -0.1136222775058716 -0.02946437791291839 0 -0.1085359073263515 -0.007607323237334809 0 -0.1155178281547062 -0.00046850373691600602 0 -0.1222818076516056 -0.01652843354261738 0 -0.12230137410214451 0.005776940634701893 0 -0.1155178281547062 -0.00046850373691600602 0 -0.1085359073263515 -0.007607323237334809 0 -0.107397708295269 0.002490208923942749 0 -0.1222622412010676 -0.038833807719936657 0 -0.1222818076516056 -0.01652843354261738 0 -0.1222622412010676 -0.038833807719936657 0 -0.1162330786516948 -0.034089496594384663 0 -0.1222818076516056 -0.01652843354261738 0 -0.1162330786516948 -0.034089496594384663 0 -0.1222818076516056 -0.01652843354261738 0 -0.1136222775058716 -0.02946437791291839 0 -0.1136222775058716 -0.02946437791291839 0 -0.1052427592526447 -0.014619790274880719 0 -0.113462445194652 -0.031909302076920408 0 -0.1136222775058716 -0.02946437791291839 0 -0.1136222775058716 -0.02946437791291839 0 -0.11048529948463109 -0.0295666043309597 0 -0.1058666747710534 -0.025596219293837819 0 -0.1101840263705748 -0.031629496500937021 0 -0.11048529948463109 -0.0295666043309597 0 -0.1076755641146996 -0.03121104226415123 0 -0.113462445194652 -0.031909302076920408 0 -0.1136222775058716 -0.02946437791291839 0 -0.11048529948463109 -0.0295666043309597 0 -0.113462445194652 -0.031909302076920408 0 -0.11048529948463109 -0.0295666043309597 0 -0.113462445194652 -0.031909302076920408 0 -0.1101840263705748 -0.031629496500937021 0 -0.11048529948463109 -0.0295666043309597 0 -0.1136222775058716 -0.02946437791291839 0 -0.1052427592526447 -0.014619790274880719 0 -0.1085359073263515 -0.007607323237334809 0 -0.1076755641146996 -0.03121104226415123 0 -0.1058666747710534 -0.025596219293837819 0 -0.1034193235390653 -0.031137841108310051 0 -0.11048529948463109 -0.0295666043309597 0 -0.1076755641146996 -0.03121104226415123 0 -0.1058666747710534 -0.025596219293837819 0 -0.1058666747710534 -0.025596219293837819 0 -0.10062058656515981 -0.027856474661177921 0 -0.099922772808251445 -0.022895950908997861 0 -0.1058666747710534 -0.025596219293837819 0 -0.1034193235390653 -0.031137841108310051 0 -0.10062058656515981 -0.027856474661177921 0 -0.098104995481570464 -0.032111538524359683 0 -0.1034193235390653 -0.031137841108310051 0 -0.10062058656515981 -0.027856474661177921 0 -0.098104995481570464 -0.032111538524359683 0 -0.10062058656515981 -0.027856474661177921 0 -0.095296779003550353 -0.027255982491892251 0 -0.098104995481570464 -0.032111538524359683 0 -0.095296779003550353 -0.027255982491892251 0 -0.091992740296529957 -0.032978433335589849 0 -0.10062058656515981 -0.027856474661177921 0 -0.095296779003550353 -0.027255982491892251 0 -0.099922772808251445 -0.022895950908997861 0 -0.099922772808251445 -0.022895950908997861 0 -0.1052427592526447 -0.014619790274880719 0 -0.09080616650300366 -0.018906842772386231 0 -0.095296779003550353 -0.027255982491892251 0 -0.099922772808251445 -0.022895950908997861 0 -0.09080616650300366 -0.018906842772386231 0 -0.1058666747710534 -0.025596219293837819 0 -0.099922772808251445 -0.022895950908997861 0 -0.1052427592526447 -0.014619790274880719 0 -0.1136222775058716 -0.02946437791291839 0 -0.1058666747710534 -0.025596219293837819 0 -0.1052427592526447 -0.014619790274880719 0 -0.1052427592526447 -0.014619790274880719 0 -0.091613054005285716 -0.0084212123185173939 0 -0.09080616650300366 -0.018906842772386231 0 -0.1052427592526447 -0.014619790274880719 0 -0.096863240999418149 0.00022479736315716289 0 -0.1052427592526447 -0.014619790274880719 0 -0.091613054005285716 -0.0084212123185173939 0 -0.096863240999418149 0.00022479736315716289 0 -0.1085359073263515 -0.007607323237334809 0 -0.096863240999418149 0.00022479736315716289 0 -0.107397708295269 0.002490208923942749 0 -0.1052427592526447 -0.014619790274880719 0 -0.1085359073263515 -0.007607323237334809 0 -0.096863240999418149 0.00022479736315716289 0 -0.081549260858527553 -0.0074023824071820666 0 -0.087213483529468727 0.00022202246297349271 0 -0.07704828605407936 0.0049092754591547553 0 -0.081549260858527553 -0.0074023824071820666 0 -0.091613054005285716 -0.0084212123185173939 0 -0.087213483529468727 0.00022202246297349271 0 -0.091613054005285716 -0.0084212123185173939 0 -0.096863240999418149 0.00022479736315716289 0 -0.087213483529468727 0.00022202246297349271 0 -0.081549260858527553 -0.0074023824071820666 0 -0.091613054005285716 -0.0084212123185173939 0 -0.09080616650300366 -0.018906842772386231 0 -0.081549260858527553 -0.0074023824071820666 0 -0.079595837095632227 -0.01741501525200689 0 -0.09080616650300366 -0.018906842772386231 0 -0.079595837095632227 -0.01741501525200689 0 -0.081421305045585576 -0.025894486115921909 0 -0.073545740623814082 -0.021216410471443049 0 -0.079595837095632227 -0.01741501525200689 0 -0.09080616650300366 -0.018906842772386231 0 -0.081421305045585576 -0.025894486115921909 0 -0.09080616650300366 -0.018906842772386231 0 -0.089151683033247053 -0.028103036400461291 0 -0.081421305045585576 -0.025894486115921909 0 -0.095296779003550353 -0.027255982491892251 0 -0.09080616650300366 -0.018906842772386231 0 -0.089151683033247053 -0.028103036400461291 0 -0.095296779003550353 -0.027255982491892251 0 -0.089151683033247053 -0.028103036400461291 0 -0.091992740296529957 -0.032978433335589849 0 -0.089151683033247053 -0.028103036400461291 0 -0.081421305045585576 -0.025894486115921909 0 -0.085693003283171212 -0.034497134241117507 0 -0.081421305045585576 -0.025894486115921909 0 -0.072707548962240437 -0.028477359703206188 0 -0.073545740623814082 -0.021216410471443049 0 -0.072707548962240437 -0.028477359703206188 0 -0.06511983505156041 -0.022713802354768109 0 -0.073545740623814082 -0.021216410471443049 0 -0.081421305045585576 -0.025894486115921909 0 -0.072707548962240437 -0.028477359703206188 0 -0.078408804084394892 -0.033571299144674521 0 -0.072707548962240437 -0.028477359703206188 0 -0.06511983505156041 -0.022713802354768109 0 -0.065012090425961427 -0.033335829373159577 0 -0.06511983505156041 -0.022713802354768109 0 -0.070656712447230263 -0.01365495449310122 0 -0.06114468047605856 -0.014788460575339229 0 -0.06511983505156041 -0.022713802354768109 0 -0.073545740623814082 -0.021216410471443049 0 -0.070656712447230263 -0.01365495449310122 0 -0.079595837095632227 -0.01741501525200689 0 -0.073545740623814082 -0.021216410471443049 0 -0.070656712447230263 -0.01365495449310122 0 -0.081549260858527553 -0.0074023824071820666 0 -0.079595837095632227 -0.01741501525200689 0 -0.070656712447230263 -0.01365495449310122 0 -0.081549260858527553 -0.0074023824071820666 0 -0.070656712447230263 -0.01365495449310122 0 -0.069908215392903594 -0.002398961949724077 0 -0.070656712447230263 -0.01365495449310122 0 -0.059989889028608308 -0.0052361409502406208 0 -0.06114468047605856 -0.014788460575339229 0 -0.070656712447230263 -0.01365495449310122 0 -0.069908215392903594 -0.002398961949724077 0 -0.059989889028608308 -0.0052361409502406208 0 -0.081549260858527553 -0.0074023824071820666 0 -0.069908215392903594 -0.002398961949724077 0 -0.07704828605407936 0.0049092754591547553 0 -0.082320825325669478 -0.063077286907222072 0 -0.089023577382565972 -0.049798952788260832 0 -0.078071449985304103 -0.048476942438303763 0 -0.082320825325669478 -0.063077286907222072 0 -0.097906602084733438 -0.057778071669898359 0 -0.089023577382565972 -0.049798952788260832 0 -0.089023577382565972 -0.049798952788260832 0 -0.092763401943093016 -0.039084524249335888 0 -0.082911375615238148 -0.041870679811105593 0 -0.092763401943093016 -0.039084524249335888 0 -0.085693003283171212 -0.034497134241117507 0 -0.082911375615238148 -0.041870679811105593 0 -0.092763401943093016 -0.039084524249335888 0 -0.091992740296529957 -0.032978433335589849 0 -0.085693003283171212 -0.034497134241117507 0 -0.089151683033247053 -0.028103036400461291 0 -0.091992740296529957 -0.032978433335589849 0 -0.085693003283171212 -0.034497134241117507 0 -0.078408804084394892 -0.033571299144674521 0 -0.085693003283171212 -0.034497134241117507 0 -0.082911375615238148 -0.041870679811105593 0 -0.081421305045585576 -0.025894486115921909 0 -0.078408804084394892 -0.033571299144674521 0 -0.085693003283171212 -0.034497134241117507 0 -0.078408804084394892 -0.033571299144674521 0 -0.082911375615238148 -0.041870679811105593 0 -0.074700923192189808 -0.041192949666674042 0 -0.089023577382565972 -0.049798952788260832 0 -0.082911375615238148 -0.041870679811105593 0 -0.078071449985304103 -0.048476942438303763 0 -0.082911375615238148 -0.041870679811105593 0 -0.074700923192189808 -0.041192949666674042 0 -0.078071449985304103 -0.048476942438303763 0 -0.074700923192189808 -0.041192949666674042 0 -0.078071449985304103 -0.048476942438303763 0 -0.062008722271223192 -0.043330191983652733 0 -0.078408804084394892 -0.033571299144674521 0 -0.074700923192189808 -0.041192949666674042 0 -0.070567617787201956 -0.035981525974273412 0 -0.072707548962240437 -0.028477359703206188 0 -0.078408804084394892 -0.033571299144674521 0 -0.070567617787201956 -0.035981525974273412 0 -0.070567617787201956 -0.035981525974273412 0 -0.065012090425961427 -0.033335829373159577 0 -0.062008722271223192 -0.043330191983652733 0 -0.072707548962240437 -0.028477359703206188 0 -0.070567617787201956 -0.035981525974273412 0 -0.065012090425961427 -0.033335829373159577 0 -0.074700923192189808 -0.041192949666674042 0 -0.070567617787201956 -0.035981525974273412 0 -0.062008722271223192 -0.043330191983652733 0 -0.082320825325669478 -0.063077286907222072 0 -0.066136195314462326 -0.054234825774016941 0 -0.082320825325669478 -0.063077286907222072 0 -0.078071449985304103 -0.048476942438303763 0 -0.062008722271223192 -0.043330191983652733 0 -0.082320825325669478 -0.063077286907222072 0 -0.06405055176182059 -0.064115774356208702 0 -0.066136195314462326 -0.054234825774016941 0 -0.082320825325669478 -0.063077286907222072 0 -0.066136195314462326 -0.054234825774016941 0 -0.062008722271223192 -0.043330191983652733 0 -0.082320825325669478 -0.063077286907222072 0 -0.062008722271223192 -0.043330191983652733 0 -0.06405055176182059 -0.064115774356208702 0 -0.066136195314462326 -0.054234825774016941 0 -0.053432969726919972 -0.058329308567732552 0 -0.066136195314462326 -0.054234825774016941 0 -0.049951565303254619 -0.045392364640812907 0 -0.066136195314462326 -0.054234825774016941 0 -0.053432969726919972 -0.058329308567732552 0 -0.049951565303254619 -0.045392364640812907 0 -0.066136195314462326 -0.054234825774016941 0 -0.049951565303254619 -0.045392364640812907 0 -0.062008722271223192 -0.043330191983652733 0 -0.062008722271223192 -0.043330191983652733 0 -0.045145102766003142 -0.036753015625090472 0 -0.041696619216777787 -0.023583097060082481 0 -0.062008722271223192 -0.043330191983652733 0 -0.041696619216777787 -0.023583097060082481 0 -0.049951565303254619 -0.045392364640812907 0 -0.062008722271223192 -0.043330191983652733 0 -0.045145102766003142 -0.036753015625090472 0 -0.065012090425961427 -0.033335829373159577 0 -0.062008722271223192 -0.043330191983652733 0 -0.056672500038296082 -0.027250321662610742 0 -0.062008722271223192 -0.043330191983652733 0 -0.056672500038296082 -0.027250321662610742 0 -0.041696619216777787 -0.023583097060082481 0 -0.049951565303254619 -0.045392364640812907 0 -0.033659609698458513 -0.043574695574343847 0 -0.045145102766003142 -0.036753015625090472 0 -0.033659609698458513 -0.043574695574343847 0 -0.045145102766003142 -0.036753015625090472 0 -0.038408997340301551 -0.027884728866560349 0 -0.053432969726919972 -0.058329308567732552 0 -0.036289517733452528 -0.057509761673444848 0 -0.050541881630750601 -0.070205363234402476 0 -0.053432969726919972 -0.058329308567732552 0 -0.049951565303254619 -0.045392364640812907 0 -0.036289517733452528 -0.057509761673444848 0 -0.049951565303254619 -0.045392364640812907 0 -0.033659609698458513 -0.043574695574343847 0 -0.036289517733452528 -0.057509761673444848 0 -0.046895818556429339 -0.0063501871753587286 0 -0.059989889028608308 -0.0052361409502406208 0 -0.050740169376238417 0.0033643182093420852 0 -0.059989889028608308 -0.0052361409502406208 0 -0.06114468047605856 -0.014788460575339229 0 -0.053077376513154632 -0.013428116884592381 0 -0.046895818556429339 -0.0063501871753587286 0 -0.053077376513154632 -0.013428116884592381 0 -0.045518045575418491 -0.01457485822505426 0 -0.046895818556429339 -0.0063501871753587286 0 -0.059989889028608308 -0.0052361409502406208 0 -0.053077376513154632 -0.013428116884592381 0 -0.053077376513154632 -0.013428116884592381 0 -0.050636855980109863 -0.0197187872440329 0 -0.045518045575418491 -0.01457485822505426 0 -0.053077376513154632 -0.013428116884592381 0 -0.050636855980109863 -0.0197187872440329 0 -0.057330249611835908 -0.01957989774426867 0 -0.06114468047605856 -0.014788460575339229 0 -0.053077376513154632 -0.013428116884592381 0 -0.057330249611835908 -0.01957989774426867 0 -0.06511983505156041 -0.022713802354768109 0 -0.06114468047605856 -0.014788460575339229 0 -0.057330249611835908 -0.01957989774426867 0 -0.06511983505156041 -0.022713802354768109 0 -0.057330249611835908 -0.01957989774426867 0 -0.056672500038296082 -0.027250321662610742 0 -0.050636855980109863 -0.0197187872440329 0 -0.057330249611835908 -0.01957989774426867 0 -0.056672500038296082 -0.027250321662610742 0 -0.06511983505156041 -0.022713802354768109 0 -0.065012090425961427 -0.033335829373159577 0 -0.056672500038296082 -0.027250321662610742 0 -0.050636855980109863 -0.0197187872440329 0 -0.056672500038296082 -0.027250321662610742 0 -0.041696619216777787 -0.023583097060082481 0 -0.041696619216777787 -0.023583097060082481 0 -0.038408997340301551 -0.027884728866560349 0 -0.02181462367200997 -0.02374500763219145 0 -0.045145102766003142 -0.036753015625090472 0 -0.041696619216777787 -0.023583097060082481 0 -0.038408997340301551 -0.027884728866560349 0 -0.050636855980109863 -0.0197187872440329 0 -0.041696619216777787 -0.023583097060082481 0 -0.045518045575418491 -0.01457485822505426 0 -0.037249730022295847 -0.008510878977034432 0 -0.021384516162332241 -0.003836002136512084 0 -0.036950842078273947 0.0029240675261142271 0 -0.041696619216777787 -0.023583097060082481 0 -0.021384516162332241 -0.003836002136512084 0 -0.041696619216777787 -0.023583097060082481 0 -0.037249730022295847 -0.008510878977034432 0 -0.021384516162332241 -0.003836002136512084 0 -0.041696619216777787 -0.023583097060082481 0 -0.045518045575418491 -0.01457485822505426 0 -0.037249730022295847 -0.008510878977034432 0 -0.046895818556429339 -0.0063501871753587286 0 -0.045518045575418491 -0.01457485822505426 0 -0.037249730022295847 -0.008510878977034432 0 -0.046895818556429339 -0.0063501871753587286 0 -0.037249730022295847 -0.008510878977034432 0 -0.036950842078273947 0.0029240675261142271 0 -0.046895818556429339 -0.0063501871753587286 0 -0.050740169376238417 0.0033643182093420852 0 -0.036950842078273947 0.0029240675261142271 0 -0.021384516162332241 -0.003836002136512084 0 -0.02181462367200997 -0.02374500763219145 0 -0.0094871457169950629 -0.014805473805971411 0 -0.041696619216777787 -0.023583097060082481 0 -0.021384516162332241 -0.003836002136512084 0 -0.02181462367200997 -0.02374500763219145 0 -0.02181462367200997 -0.02374500763219145 0 -0.0052679241735068306 -0.028560888977273938 0 -0.0094871457169950629 -0.014805473805971411 0 -0.0052679241735068306 -0.028560888977273938 0 -0.0094871457169950629 -0.014805473805971411 0 0.0043587515491873936 -0.014993830545658039 0 -0.021384516162332241 -0.003836002136512084 0 -0.0094871457169950629 -0.014805473805971411 0 -0.0033274161263136641 -0.0028916397382215109 0 -0.0094871457169950629 -0.014805473805971411 0 -0.0033274161263136641 -0.0028916397382215109 0 0.0043587515491873936 -0.014993830545658039 0 -0.036289517733452528 -0.057509761673444848 0 -0.017391192185200931 -0.045592201430142053 0 -0.017194841656571209 -0.067959165293555501 0 -0.033659609698458513 -0.043574695574343847 0 -0.036289517733452528 -0.057509761673444848 0 -0.017391192185200931 -0.045592201430142053 0 -0.038408997340301551 -0.027884728866560349 0 -0.02181462367200997 -0.02374500763219145 0 -0.017391192185200931 -0.045592201430142053 0 -0.033659609698458513 -0.043574695574343847 0 -0.038408997340301551 -0.027884728866560349 0 -0.017391192185200931 -0.045592201430142053 0 -0.038408997340301551 -0.027884728866560349 0 -0.017391192185200931 -0.045592201430142053 0 -0.02181462367200997 -0.02374500763219145 0 -0.0052679241735068306 -0.028560888977273938 0 -0.017391192185200931 -0.045592201430142053 0 -0.0052679241735068306 -0.028560888977273938 0 -0.017391192185200931 -0.045592201430142053 0 0.00070039412316388828 -0.042988772572937373 0 -0.017391192185200931 -0.045592201430142053 0 -0.017194841656571209 -0.067959165293555501 0 0.0036266129698982988 -0.063299673993725547 0 -0.017391192185200931 -0.045592201430142053 0 0.0036266129698982988 -0.063299673993725547 0 -0.017391192185200931 -0.045592201430142053 0 0.0036266129698982988 -0.063299673993725547 0 0.00070039412316388828 -0.042988772572937373 0 -0.017194841656571209 -0.067959165293555501 0 0.0036266129698982988 -0.063299673993725547 0 -0.0038397302920209842 -0.081715654657055561 0 -0.017194841656571209 -0.067959165293555501 0 0.0036266129698982988 -0.063299673993725547 0 -0.0038397302920209842 -0.081715654657055561 0 -0.018021844997948702 -0.082850801278784095 0 -0.017194841656571209 -0.067959165293555501 0 -0.0038397302920209842 -0.081715654657055561 0 -0.010495744385868059 -0.095142562759429533 0 0.0052836198926441928 -0.095085612095652916 0 -0.0038397302920209842 -0.081715654657055561 0 -0.018021844997948702 -0.082850801278784095 0 -0.010495744385868059 -0.095142562759429533 0 -0.018021844997948702 -0.082850801278784095 0 -0.029475495201020791 -0.09025428348780444 0 -0.010495744385868059 -0.095142562759429533 0 -0.018021844997948702 -0.082850801278784095 0 -0.029475495201020791 -0.09025428348780444 0 -0.032639454009684772 -0.07559540667190745 0 -0.036289517733452528 -0.057509761673444848 0 -0.017194841656571209 -0.067959165293555501 0 -0.032639454009684772 -0.07559540667190745 0 -0.018021844997948702 -0.082850801278784095 0 -0.017194841656571209 -0.067959165293555501 0 -0.032639454009684772 -0.07559540667190745 0 -0.036289517733452528 -0.057509761673444848 0 -0.032639454009684772 -0.07559540667190745 0 -0.050541881630750601 -0.070205363234402476 0 -0.032639454009684772 -0.07559540667190745 0 -0.044313142838364752 -0.084793065063453354 0 -0.050541881630750601 -0.070205363234402476 0 -0.029475495201020791 -0.09025428348780444 0 -0.044313142838364752 -0.084793065063453354 0 -0.042031449609533908 -0.10093492719087691 0 -0.029475495201020791 -0.09025428348780444 0 -0.032639454009684772 -0.07559540667190745 0 -0.044313142838364752 -0.084793065063453354 0 -0.044313142838364752 -0.084793065063453354 0 -0.054953592273996092 -0.093935534799458265 0 -0.042031449609533908 -0.10093492719087691 0 -0.044313142838364752 -0.084793065063453354 0 -0.057021874381875198 -0.081913048695053406 0 -0.050541881630750601 -0.070205363234402476 0 -0.071626152086312123 -0.090903540405200489 0 -0.057021874381875198 -0.081913048695053406 0 -0.054953592273996092 -0.093935534799458265 0 -0.044313142838364752 -0.084793065063453354 0 -0.057021874381875198 -0.081913048695053406 0 -0.054953592273996092 -0.093935534799458265 0 -0.067820886811299941 -0.074732087297670571 0 -0.057021874381875198 -0.081913048695053406 0 -0.050541881630750601 -0.070205363234402476 0 -0.067820886811299941 -0.074732087297670571 0 -0.06405055176182059 -0.064115774356208702 0 -0.050541881630750601 -0.070205363234402476 0 -0.06405055176182059 -0.064115774356208702 0 -0.053432969726919972 -0.058329308567732552 0 -0.050541881630750601 -0.070205363234402476 0 -0.057607193609730663 -0.1210914295626431 0 -0.055858210685098532 -0.1083020577763965 0 -0.044723033425374557 -0.11669314775618859 0 -0.057607193609730663 -0.1210914295626431 0 -0.044723033425374557 -0.11669314775618859 0 -0.049545475806028888 -0.12857302825743949 0 -0.068166432568197877 -0.11567236747524209 0 -0.057607193609730663 -0.1210914295626431 0 -0.055858210685098532 -0.1083020577763965 0 -0.055858210685098532 -0.1083020577763965 0 -0.042031449609533908 -0.10093492719087691 0 -0.044723033425374557 -0.11669314775618859 0 -0.06540020462440814 -0.1019039962435685 0 -0.055858210685098532 -0.1083020577763965 0 -0.054953592273996092 -0.093935534799458265 0 -0.055858210685098532 -0.1083020577763965 0 -0.054953592273996092 -0.093935534799458265 0 -0.042031449609533908 -0.10093492719087691 0 -0.029475495201020791 -0.09025428348780444 0 -0.042031449609533908 -0.10093492719087691 0 -0.025435742918497321 -0.1108687870135035 0 -0.042031449609533908 -0.10093492719087691 0 -0.044723033425374557 -0.11669314775618859 0 -0.025435742918497321 -0.1108687870135035 0 -0.044723033425374557 -0.11669314775618859 0 -0.025435742918497321 -0.1108687870135035 0 -0.035266426568710783 -0.1260098753329473 0 -0.044723033425374557 -0.11669314775618859 0 -0.049545475806028888 -0.12857302825743949 0 -0.035266426568710783 -0.1260098753329473 0 -0.025435742918497321 -0.1108687870135035 0 -0.014472075279436241 -0.13214419719566819 0 -0.035266426568710783 -0.1260098753329473 0 -0.029475495201020791 -0.09025428348780444 0 -0.025435742918497321 -0.1108687870135035 0 -0.010495744385868059 -0.095142562759429533 0 -0.010495744385868059 -0.095142562759429533 0 -0.0025958054970703919 -0.1108461986794468 0 0.0052836198926441928 -0.095085612095652916 0 -0.025435742918497321 -0.1108687870135035 0 -0.010495744385868059 -0.095142562759429533 0 -0.0025958054970703919 -0.1108461986794468 0 -0.0025958054970703919 -0.1108461986794468 0 -0.014472075279436241 -0.13214419719566819 0 0.01321165485534428 -0.1225181779493993 0 -0.025435742918497321 -0.1108687870135035 0 -0.0025958054970703919 -0.1108461986794468 0 -0.014472075279436241 -0.13214419719566819 0 -0.014472075279436241 -0.13214419719566819 0 -0.0040234767693377452 -0.14533746150806531 0 0.0098183882980523978 -0.14052445188493071 0 -0.014472075279436241 -0.13214419719566819 0 0.01321165485534428 -0.1225181779493993 0 -0.014472075279436241 -0.13214419719566819 0 -0.035266426568710783 -0.1260098753329473 0 -0.042155805414216423 -0.14177021644193799 0 -0.014472075279436241 -0.13214419719566819 0 -0.042155805414216423 -0.14177021644193799 0 -0.014472075279436241 -0.13214419719566819 0 -0.01786534183672784 -0.15015047113120009 0 -0.042155805414216423 -0.14177021644193799 0 -0.01786534183672784 -0.15015047113120009 0 -0.031187470367893769 -0.16289583891938381 0 -0.042155805414216423 -0.14177021644193799 0 -0.01786534183672784 -0.15015047113120009 0 -0.042155805414216423 -0.14177021644193799 0 -0.01786534183672784 -0.15015047113120009 0 -0.0040234767693377452 -0.14533746150806531 0 0.0064251217407609237 -0.15853072582046221 0 -0.014472075279436241 -0.13214419719566819 0 -0.01786534183672784 -0.15015047113120009 0 -0.0040234767693377452 -0.14533746150806531 0 -0.01786534183672784 -0.15015047113120009 0 0.0064251217407609237 -0.15853072582046221 0 -0.013747516527166499 -0.17389570961916531 0 0.0059192720139073143 -0.16121500322637011 0 -0.01786534183672784 -0.15015047113120009 0 -0.013747516527166499 -0.17389570961916531 0 0.0059192720139073143 -0.16121500322637011 0 -0.01786534183672784 -0.15015047113120009 0 0.0064251217407609237 -0.15853072582046221 0 0.0059192720139073143 -0.16121500322637011 0 -0.013747516527166499 -0.17389570961916531 0 0.0059192720139073143 -0.16121500322637011 0 0.0048096667647859054 -0.1671030923990359 0 -0.013747516527166499 -0.17389570961916531 0 0.0048096667647859054 -0.1671030923990359 0 0.00058754342144544088 -0.1781215098312208 0 -0.01150169737454872 -0.18756902053197719 0 0.0001646438693213819 -0.19117858410377789 0 0.00058754342144544088 -0.1781215098312208 0 -0.013747516527166499 -0.17389570961916531 0 -0.01150169737454872 -0.18756902053197719 0 0.00058754342144544088 -0.1781215098312208 0 -0.013747516527166499 -0.17389570961916531 0 -0.031187470367893769 -0.16289583891938381 0 -0.033414305068240863 -0.18657641601195959 0 -0.013747516527166499 -0.17389570961916531 0 -0.033414305068240863 -0.18657641601195959 0 -0.01150169737454872 -0.18756902053197719 0 -0.013747516527166499 -0.17389570961916531 0 -0.033414305068240863 -0.18657641601195959 0 -0.01786534183672784 -0.15015047113120009 0 -0.013747516527166499 -0.17389570961916531 0 -0.031187470367893769 -0.16289583891938381 0 -0.031187470367893769 -0.16289583891938381 0 -0.043547957178990807 -0.1692252691618302 0 -0.046003483221663768 -0.15678767693409751 0 -0.043547957178990807 -0.1692252691618302 0 -0.033414305068240863 -0.18657641601195959 0 -0.054485734181756618 -0.17908155990897801 0 -0.031187470367893769 -0.16289583891938381 0 -0.043547957178990807 -0.1692252691618302 0 -0.033414305068240863 -0.18657641601195959 0 -0.054485734181756618 -0.17908155990897801 0 -0.054903764861064477 -0.16269025822813049 0 -0.071116475067273199 -0.16447307201430719 0 -0.054903764861064477 -0.16269025822813049 0 -0.058222418286152933 -0.14735680191920589 0 -0.071116475067273199 -0.16447307201430719 0 -0.043547957178990807 -0.1692252691618302 0 -0.054485734181756618 -0.17908155990897801 0 -0.054903764861064477 -0.16269025822813049 0 -0.043547957178990807 -0.1692252691618302 0 -0.046003483221663768 -0.15678767693409751 0 -0.054903764861064477 -0.16269025822813049 0 -0.058222418286152933 -0.14735680191920589 0 -0.042155805414216423 -0.14177021644193799 0 -0.046003483221663768 -0.15678767693409751 0 -0.058222418286152933 -0.14735680191920589 0 -0.042155805414216423 -0.14177021644193799 0 -0.058222418286152933 -0.14735680191920589 0 -0.042155805414216423 -0.14177021644193799 0 -0.064502829581788115 -0.13406045192987581 0 -0.046003483221663768 -0.15678767693409751 0 -0.054903764861064477 -0.16269025822813049 0 -0.058222418286152933 -0.14735680191920589 0 -0.042155805414216423 -0.14177021644193799 0 -0.064502829581788115 -0.13406045192987581 0 -0.049545475806028888 -0.12857302825743949 0 -0.042155805414216423 -0.14177021644193799 0 -0.064502829581788115 -0.13406045192987581 0 -0.057607193609730663 -0.1210914295626431 0 -0.049545475806028888 -0.12857302825743949 0 -0.064502829581788115 -0.13406045192987581 0 -0.049545475806028888 -0.12857302825743949 0 -0.035266426568710783 -0.1260098753329473 0 -0.042155805414216423 -0.14177021644193799 0 -0.031187470367893769 -0.16289583891938381 0 -0.046003483221663768 -0.15678767693409751 0 -0.042155805414216423 -0.14177021644193799 0 -0.01033888325303035 -0.24839992844066119 0 -0.018334106793192188 -0.22772139394599289 0 -0.034926702071121543 -0.2453513073930933 0 -0.01033888325303035 -0.24839992844066119 0 -0.018334106793192188 -0.22772139394599289 0 0.011016998157174621 -0.22790989670423789 0 -0.018334106793192188 -0.22772139394599289 0 0.011016998157174621 -0.22790989670423789 0 0.002343267580486873 -0.21200518235404081 0 -0.018334106793192188 -0.22772139394599289 0 0.002343267580486873 -0.21200518235404081 0 -0.018334106793192188 -0.22772139394599289 0 -0.015960411559838159 -0.20213820939965421 0 -0.034491342965683618 -0.2078803645924302 0 -0.018334106793192188 -0.22772139394599289 0 -0.015960411559838159 -0.20213820939965421 0 0.002343267580486873 -0.21200518235404081 0 -0.015960411559838159 -0.20213820939965421 0 0.0001646438693213819 -0.19117858410377789 0 0.002343267580486873 -0.21200518235404081 0 -0.01150169737454872 -0.18756902053197719 0 -0.015960411559838159 -0.20213820939965421 0 0.0001646438693213819 -0.19117858410377789 0 -0.033414305068240863 -0.18657641601195959 0 -0.015960411559838159 -0.20213820939965421 0 -0.034491342965683618 -0.2078803645924302 0 -0.033414305068240863 -0.18657641601195959 0 -0.01150169737454872 -0.18756902053197719 0 -0.015960411559838159 -0.20213820939965421 0 -0.033414305068240863 -0.18657641601195959 0 -0.053081093609315178 -0.19925712240475391 0 -0.033414305068240863 -0.18657641601195959 0 -0.053081093609315178 -0.19925712240475391 0 -0.034491342965683618 -0.2078803645924302 0 -0.033414305068240863 -0.18657641601195959 0 -0.054485734181756618 -0.17908155990897801 0 -0.053081093609315178 -0.19925712240475391 0 -0.054485734181756618 -0.17908155990897801 0 -0.053081093609315178 -0.19925712240475391 0 -0.071167852659993841 -0.1895652597211773 0 -0.053081093609315178 -0.19925712240475391 0 -0.049127940483406768 -0.22419686588260521 0 -0.072747882150389465 -0.21193782879754811 0 -0.053081093609315178 -0.19925712240475391 0 -0.034491342965683618 -0.2078803645924302 0 -0.049127940483406768 -0.22419686588260521 0 -0.018334106793192188 -0.22772139394599289 0 -0.049127940483406768 -0.22419686588260521 0 -0.034926702071121543 -0.2453513073930933 0 -0.018334106793192188 -0.22772139394599289 0 -0.034491342965683618 -0.2078803645924302 0 -0.049127940483406768 -0.22419686588260521 0 -0.049127940483406768 -0.22419686588260521 0 -0.058933065379499022 -0.24738575062504861 0 -0.074262239657883991 -0.2324650313851464 0 -0.049127940483406768 -0.22419686588260521 0 -0.058933065379499022 -0.24738575062504861 0 -0.034926702071121543 -0.2453513073930933 0 -0.1019754198311405 -0.2504958421485593 0 -0.081368145388621041 -0.25504177425338681 0 -0.094130288308605106 -0.236943616607003 0 -0.081368145388621041 -0.25504177425338681 0 -0.074262239657883991 -0.2324650313851464 0 -0.094130288308605106 -0.236943616607003 0 -0.081368145388621041 -0.25504177425338681 0 -0.058933065379499022 -0.24738575062504861 0 -0.074262239657883991 -0.2324650313851464 0 -0.049127940483406768 -0.22419686588260521 0 -0.074262239657883991 -0.2324650313851464 0 -0.072747882150389465 -0.21193782879754811 0 -0.074262239657883991 -0.2324650313851464 0 -0.090567473907726306 -0.21901113929659199 0 -0.094130288308605106 -0.236943616607003 0 -0.074262239657883991 -0.2324650313851464 0 -0.090567473907726306 -0.21901113929659199 0 -0.072747882150389465 -0.21193782879754811 0 -0.090567473907726306 -0.21901113929659199 0 -0.072747882150389465 -0.21193782879754811 0 -0.088955988838248859 -0.20034875453304829 0 -0.053081093609315178 -0.19925712240475391 0 -0.072747882150389465 -0.21193782879754811 0 -0.072747882150389465 -0.21193782879754811 0 -0.071167852659993841 -0.1895652597211773 0 -0.088955988838248859 -0.20034875453304829 0 -0.053081093609315178 -0.19925712240475391 0 -0.072747882150389465 -0.21193782879754811 0 -0.071167852659993841 -0.1895652597211773 0 -0.071167852659993841 -0.1895652597211773 0 -0.088955988838248859 -0.20034875453304829 0 -0.089314308917349164 -0.18080249472493179 0 -0.088955988838248859 -0.20034875453304829 0 -0.1070395709398487 -0.19195705395660601 0 -0.1042002021251295 -0.20854553785273991 0 -0.1070395709398487 -0.19195705395660601 0 -0.11401882678100569 -0.20195540835955081 0 -0.1042002021251295 -0.20854553785273991 0 -0.088955988838248859 -0.20034875453304829 0 -0.1070395709398487 -0.19195705395660601 0 -0.089314308917349164 -0.18080249472493179 0 -0.1070395709398487 -0.19195705395660601 0 -0.11401882678100569 -0.20195540835955081 0 -0.12285714094506681 -0.1957743456816306 0 -0.1070395709398487 -0.19195705395660601 0 -0.12285714094506681 -0.1957743456816306 0 -0.1211867600982251 -0.18255321318393519 0 -0.11401882678100569 -0.20195540835955081 0 -0.12285714094506681 -0.1957743456816306 0 -0.1217065935795634 -0.2117325673462214 0 -0.1217065935795634 -0.2117325673462214 0 -0.1042002021251295 -0.20854553785273991 0 -0.10910824236610089 -0.22382606660406629 0 -0.11401882678100569 -0.20195540835955081 0 -0.1217065935795634 -0.2117325673462214 0 -0.1042002021251295 -0.20854553785273991 0 -0.090567473907726306 -0.21901113929659199 0 -0.088955988838248859 -0.20034875453304829 0 -0.1042002021251295 -0.20854553785273991 0 -0.090567473907726306 -0.21901113929659199 0 -0.1042002021251295 -0.20854553785273991 0 -0.10910824236610089 -0.22382606660406629 0 -0.10910824236610089 -0.22382606660406629 0 -0.11719020361227291 -0.2380208240607789 0 -0.094130288308605106 -0.236943616607003 0 -0.090567473907726306 -0.21901113929659199 0 -0.10910824236610089 -0.22382606660406629 0 -0.094130288308605106 -0.236943616607003 0 -0.10910824236610089 -0.22382606660406629 0 -0.11719020361227291 -0.2380208240607789 0 -0.1281560503342522 -0.22842950161236819 0 -0.1217065935795634 -0.2117325673462214 0 -0.10910824236610089 -0.22382606660406629 0 -0.1281560503342522 -0.22842950161236819 0 -0.1189470077529053 -0.2524830818323302 0 -0.11719020361227291 -0.2380208240607789 0 -0.13829127047383091 -0.23754831417523359 0 -0.1019754198311405 -0.2504958421485593 0 -0.1189470077529053 -0.2524830818323302 0 -0.11719020361227291 -0.2380208240607789 0 -0.1019754198311405 -0.2504958421485593 0 -0.11719020361227291 -0.2380208240607789 0 -0.094130288308605106 -0.236943616607003 0 -0.091516283510577834 -0.14687594219210301 0 -0.074650897199049313 -0.14542248891471229 0 -0.071116475067273199 -0.16447307201430719 0 -0.091516283510577834 -0.14687594219210301 0 -0.071116475067273199 -0.16447307201430719 0 -0.091516283510577834 -0.14687594219210301 0 -0.086849853749359204 -0.126350687417812 0 -0.074650897199049313 -0.14542248891471229 0 -0.086849853749359204 -0.126350687417812 0 -0.064502829581788115 -0.13406045192987581 0 -0.074650897199049313 -0.14542248891471229 0 -0.086849853749359204 -0.126350687417812 0 -0.064502829581788115 -0.13406045192987581 0 -0.068166432568197877 -0.11567236747524209 0 -0.086849853749359204 -0.126350687417812 0 -0.064502829581788115 -0.13406045192987581 0 -0.058222418286152933 -0.14735680191920589 0 -0.064502829581788115 -0.13406045192987581 0 -0.074650897199049313 -0.14542248891471229 0 -0.058222418286152933 -0.14735680191920589 0 -0.074650897199049313 -0.14542248891471229 0 -0.071116475067273199 -0.16447307201430719 0 -0.071167852659993841 -0.1895652597211773 0 -0.071116475067273199 -0.16447307201430719 0 -0.089314308917349164 -0.18080249472493179 0 -0.054485734181756618 -0.17908155990897801 0 -0.071167852659993841 -0.1895652597211773 0 -0.071116475067273199 -0.16447307201430719 0 -0.071116475067273199 -0.16447307201430719 0 -0.089314308917349164 -0.18080249472493179 0 -0.092151179528237384 -0.16472480371085141 0 -0.091516283510577834 -0.14687594219210301 0 -0.071116475067273199 -0.16447307201430719 0 -0.092151179528237384 -0.16472480371085141 0 -0.091516283510577834 -0.14687594219210301 0 -0.092151179528237384 -0.16472480371085141 0 -0.11090975243562751 -0.1621919848809355 0 -0.092151179528237384 -0.16472480371085141 0 -0.1041203143838576 -0.176445910091452 0 -0.11090975243562751 -0.1621919848809355 0 -0.1070395709398487 -0.19195705395660601 0 -0.089314308917349164 -0.18080249472493179 0 -0.1041203143838576 -0.176445910091452 0 -0.089314308917349164 -0.18080249472493179 0 -0.092151179528237384 -0.16472480371085141 0 -0.1041203143838576 -0.176445910091452 0 -0.1070395709398487 -0.19195705395660601 0 -0.1041203143838576 -0.176445910091452 0 -0.1211867600982251 -0.18255321318393519 0 -0.1041203143838576 -0.176445910091452 0 -0.1211867600982251 -0.18255321318393519 0 -0.11090975243562751 -0.1621919848809355 0 -0.1211867600982251 -0.18255321318393519 0 -0.11090975243562751 -0.1621919848809355 0 -0.13038725318173899 -0.1692668771748114 0 -0.11090975243562751 -0.1621919848809355 0 -0.13178656412683051 -0.1532648349634198 0 -0.13038725318173899 -0.1692668771748114 0 -0.11090975243562751 -0.1621919848809355 0 -0.1162356768156366 -0.1459239347433795 0 -0.13178656412683051 -0.1532648349634198 0 -0.1162356768156366 -0.1459239347433795 0 -0.1208141266815925 -0.13585272859223779 0 -0.13158742251117009 -0.14122706983054459 0 -0.091516283510577834 -0.14687594219210301 0 -0.1162356768156366 -0.1459239347433795 0 -0.1119160919538824 -0.12927881236989891 0 -0.091516283510577834 -0.14687594219210301 0 -0.11090975243562751 -0.1621919848809355 0 -0.1162356768156366 -0.1459239347433795 0 -0.091516283510577834 -0.14687594219210301 0 -0.086849853749359204 -0.126350687417812 0 -0.1119160919538824 -0.12927881236989891 0 -0.091516283510577834 -0.14687594219210301 0 -0.1119160919538824 -0.12927881236989891 0 -0.1162356768156366 -0.1459239347433795 0 -0.1119160919538824 -0.12927881236989891 0 -0.1208141266815925 -0.13585272859223779 0 -0.1119160919538824 -0.12927881236989891 0 -0.1208141266815925 -0.13585272859223779 0 -0.12879004509182629 -0.1288610985368486 0 -0.12879004509182629 -0.1288610985368486 0 -0.14731668391529981 -0.1262651993438676 0 -0.13158742251117009 -0.14122706983054459 0 -0.1208141266815925 -0.13585272859223779 0 -0.12879004509182629 -0.1288610985368486 0 -0.13158742251117009 -0.14122706983054459 0 -0.14731668391529981 -0.1262651993438676 0 -0.14650789297144279 -0.147453780407417 0 -0.13158742251117009 -0.14122706983054459 0 -0.14731668391529981 -0.1262651993438676 0 -0.14650789297144279 -0.147453780407417 0 -0.1623174674334128 -0.14084871614004069 0 -0.14731668391529981 -0.1262651993438676 0 -0.1623174674334128 -0.14084871614004069 0 -0.14650789297144279 -0.147453780407417 0 -0.15813571814850061 -0.1608899406645273 0 -0.1623174674334128 -0.14084871614004069 0 -0.14650789297144279 -0.147453780407417 0 -0.13178656412683051 -0.1532648349634198 0 -0.143320520222533 -0.16095102528007291 0 -0.14650789297144279 -0.147453780407417 0 -0.13158742251117009 -0.14122706983054459 0 -0.13178656412683051 -0.1532648349634198 0 -0.1162356768156366 -0.1459239347433795 0 -0.13158742251117009 -0.14122706983054459 0 -0.13178656412683051 -0.1532648349634198 0 -0.13178656412683051 -0.1532648349634198 0 -0.13038725318173899 -0.1692668771748114 0 -0.143320520222533 -0.16095102528007291 0 -0.13038725318173899 -0.1692668771748114 0 -0.14520354605403291 -0.1746828816192324 0 -0.143320520222533 -0.16095102528007291 0 -0.13038725318173899 -0.1692668771748114 0 -0.13472494525288731 -0.18559367491560039 0 -0.14520354605403291 -0.1746828816192324 0 -0.1211867600982251 -0.18255321318393519 0 -0.13038725318173899 -0.1692668771748114 0 -0.13472494525288731 -0.18559367491560039 0 -0.13472494525288731 -0.18559367491560039 0 -0.14520354605403291 -0.1746828816192324 0 -0.15023047825112881 -0.18743141987869921 0 -0.14520354605403291 -0.1746828816192324 0 -0.15023047825112881 -0.18743141987869921 0 -0.1591290525940639 -0.17553627514199649 0 -0.14520354605403291 -0.1746828816192324 0 -0.15813571814850061 -0.1608899406645273 0 -0.1591290525940639 -0.17553627514199649 0 -0.14520354605403291 -0.1746828816192324 0 -0.143320520222533 -0.16095102528007291 0 -0.15813571814850061 -0.1608899406645273 0 -0.14650789297144279 -0.147453780407417 0 -0.143320520222533 -0.16095102528007291 0 -0.15813571814850061 -0.1608899406645273 0 -0.15813571814850061 -0.1608899406645273 0 -0.17235764030712719 -0.17110316336594911 0 -0.17731825095152559 -0.155432232936214 0 -0.15813571814850061 -0.1608899406645273 0 -0.1591290525940639 -0.17553627514199649 0 -0.17235764030712719 -0.17110316336594911 0 -0.15023047825112881 -0.18743141987869921 0 -0.1591290525940639 -0.17553627514199649 0 -0.16739702966272901 -0.1867740937956843 0 -0.1591290525940639 -0.17553627514199649 0 -0.16739702966272901 -0.1867740937956843 0 -0.17235764030712719 -0.17110316336594911 0 -0.16739702966272901 -0.1867740937956843 0 -0.17235764030712719 -0.17110316336594911 0 -0.18220394973554749 -0.18306764771794501 0 -0.17235764030712719 -0.17110316336594911 0 -0.1919498247169544 -0.16965681003946501 0 -0.16739702966272901 -0.1867740937956843 0 -0.18220394973554749 -0.18306764771794501 0 -0.17235764030712719 -0.17110316336594911 0 -0.17235764030712719 -0.17110316336594911 0 -0.17731825095152559 -0.155432232936214 0 -0.17235764030712719 -0.17110316336594911 0 -0.17731825095152559 -0.155432232936214 0 -0.1919498247169544 -0.16965681003946501 0 -0.17731825095152559 -0.155432232936214 0 -0.1919498247169544 -0.16965681003946501 0 -0.17731825095152559 -0.155432232936214 0 -0.18117790456834651 -0.14323930596653681 0 -0.1623174674334128 -0.14084871614004069 0 -0.17731825095152559 -0.155432232936214 0 -0.18117790456834651 -0.14323930596653681 0 -0.1989727434032296 -0.15840747833380861 0 -0.17731825095152559 -0.155432232936214 0 -0.18117790456834651 -0.14323930596653681 0 -0.18117790456834651 -0.14323930596653681 0 -0.17758741999090469 -0.12636481691046819 0 -0.1891092252296962 -0.1181836861629101 0 -0.18117790456834651 -0.14323930596653681 0 -0.1891092252296962 -0.1181836861629101 0 -0.18117790456834651 -0.14323930596653681 0 -0.17758741999090469 -0.12636481691046819 0 -0.1605364156086368 -0.12564467274939439 0 -0.18117790456834651 -0.14323930596653681 0 -0.1605364156086368 -0.12564467274939439 0 -0.1623174674334128 -0.14084871614004069 0 -0.18117790456834651 -0.14323930596653681 0 -0.1605364156086368 -0.12564467274939439 0 -0.14731668391529981 -0.1262651993438676 0 -0.1605364156086368 -0.12564467274939439 0 -0.1623174674334128 -0.14084871614004069 0 -0.15813571814850061 -0.1608899406645273 0 -0.17731825095152559 -0.155432232936214 0 -0.1623174674334128 -0.14084871614004069 0 -0.17731825095152559 -0.155432232936214 0 -0.1623174674334128 -0.14084871614004069 0 -0.14631434680008301 -0.25852047062182959 0 -0.16605665867624281 -0.23738026128637379 0 -0.14631434680008301 -0.25852047062182959 0 -0.13829127047383091 -0.23754831417523359 0 -0.16605665867624281 -0.23738026128637379 0 -0.1189470077529053 -0.2524830818323302 0 -0.13829127047383091 -0.23754831417523359 0 -0.11719020361227291 -0.2380208240607789 0 -0.13829127047383091 -0.23754831417523359 0 -0.1281560503342522 -0.22842950161236819 0 -0.1217065935795634 -0.2117325673462214 0 -0.1281560503342522 -0.22842950161236819 0 -0.13080956278619449 -0.21776761610503001 0 -0.1281560503342522 -0.22842950161236819 0 -0.1413105694641705 -0.2169550886902028 0 -0.13080956278619449 -0.21776761610503001 0 -0.1281560503342522 -0.22842950161236819 0 -0.15763553319475651 -0.22261354651813711 0 -0.13829127047383091 -0.23754831417523359 0 -0.15763553319475651 -0.22261354651813711 0 -0.16605665867624281 -0.23738026128637379 0 -0.13829127047383091 -0.23754831417523359 0 -0.1281560503342522 -0.22842950161236819 0 -0.15763553319475651 -0.22261354651813711 0 -0.1281560503342522 -0.22842950161236819 0 -0.1413105694641705 -0.2169550886902028 0 -0.15763553319475651 -0.22261354651813711 0 -0.13829127047383091 -0.23754831417523359 0 -0.15763553319475651 -0.22261354651813711 0 -0.1517248936974972 -0.21202473606373429 0 -0.1413105694641705 -0.2169550886902028 0 -0.15763553319475651 -0.22261354651813711 0 -0.1517248936974972 -0.21202473606373429 0 -0.13848449298713081 -0.20385331195529399 0 -0.15663202163319809 -0.20103001784744001 0 -0.1517248936974972 -0.21202473606373429 0 -0.1413105694641705 -0.2169550886902028 0 -0.13848449298713081 -0.20385331195529399 0 -0.12285714094506681 -0.1957743456816306 0 -0.1217065935795634 -0.2117325673462214 0 -0.13848449298713081 -0.20385331195529399 0 -0.1217065935795634 -0.2117325673462214 0 -0.13080956278619449 -0.21776761610503001 0 -0.13848449298713081 -0.20385331195529399 0 -0.1413105694641705 -0.2169550886902028 0 -0.13080956278619449 -0.21776761610503001 0 -0.13848449298713081 -0.20385331195529399 0 -0.12285714094506681 -0.1957743456816306 0 -0.13472494525288731 -0.18559367491560039 0 -0.13848449298713081 -0.20385331195529399 0 -0.12285714094506681 -0.1957743456816306 0 -0.1211867600982251 -0.18255321318393519 0 -0.13472494525288731 -0.18559367491560039 0 -0.13472494525288731 -0.18559367491560039 0 -0.15023047825112881 -0.18743141987869921 0 -0.13848449298713081 -0.20385331195529399 0 -0.15023047825112881 -0.18743141987869921 0 -0.13848449298713081 -0.20385331195529399 0 -0.15663202163319809 -0.20103001784744001 0 -0.16739702966272901 -0.1867740937956843 0 -0.15663202163319809 -0.20103001784744001 0 -0.17432566806733149 -0.19794923259440689 0 -0.15023047825112881 -0.18743141987869921 0 -0.16739702966272901 -0.1867740937956843 0 -0.15663202163319809 -0.20103001784744001 0 -0.16739702966272901 -0.1867740937956843 0 -0.18220394973554749 -0.18306764771794501 0 -0.17432566806733149 -0.19794923259440689 0 -0.18220394973554749 -0.18306764771794501 0 -0.17432566806733149 -0.19794923259440689 0 -0.18852687423950579 -0.19571376402629659 0 -0.182119211387956 -0.20649622763191189 0 -0.19176594755321091 -0.20609269114779 0 -0.18852687423950579 -0.19571376402629659 0 -0.17432566806733149 -0.19794923259440689 0 -0.182119211387956 -0.20649622763191189 0 -0.18852687423950579 -0.19571376402629659 0 -0.17432566806733149 -0.19794923259440689 0 -0.182119211387956 -0.20649622763191189 0 -0.1682230493351613 -0.21443943846843291 0 -0.182119211387956 -0.20649622763191189 0 -0.18131451088451209 -0.217941962841701 0 -0.19176594755321091 -0.20609269114779 0 -0.182119211387956 -0.20649622763191189 0 -0.18131451088451209 -0.217941962841701 0 -0.1682230493351613 -0.21443943846843291 0 -0.15663202163319809 -0.20103001784744001 0 -0.17432566806733149 -0.19794923259440689 0 -0.1682230493351613 -0.21443943846843291 0 -0.1517248936974972 -0.21202473606373429 0 -0.15663202163319809 -0.20103001784744001 0 -0.1682230493351613 -0.21443943846843291 0 -0.1517248936974972 -0.21202473606373429 0 -0.1682230493351613 -0.21443943846843291 0 -0.15763553319475651 -0.22261354651813711 0 -0.18131451088451209 -0.217941962841701 0 -0.1682230493351613 -0.21443943846843291 0 -0.15763553319475651 -0.22261354651813711 0 -0.1682230493351613 -0.21443943846843291 0 -0.15763553319475651 -0.22261354651813711 0 -0.18131451088451209 -0.217941962841701 0 -0.15763553319475651 -0.22261354651813711 0 -0.18131451088451209 -0.217941962841701 0 -0.15763553319475651 -0.22261354651813711 0 -0.16605665867624281 -0.23738026128637379 0 -0.18131451088451209 -0.217941962841701 0 -0.18045656709976621 -0.2402909038046919 0 -0.19970885068544869 -0.23609859820718729 0 -0.18131451088451209 -0.217941962841701 0 -0.18045656709976621 -0.2402909038046919 0 -0.16605665867624281 -0.23738026128637379 0 -0.17177812463033251 -0.2507005330133284 0 -0.18045656709976621 -0.2402909038046919 0 -0.16605665867624281 -0.23738026128637379 0 -0.16042440527204871 -0.2597148476449046 0 -0.17177812463033251 -0.2507005330133284 0 -0.16605665867624281 -0.23738026128637379 0 -0.20642497597254139 -0.25895147970483412 0 -0.22173108178713791 -0.24060589239681371 0 -0.20642497597254139 -0.25895147970483412 0 -0.19970885068544869 -0.23609859820718729 0 -0.22173108178713791 -0.24060589239681371 0 -0.18342469062229511 -0.25933316367486919 0 -0.18045656709976621 -0.2402909038046919 0 -0.19970885068544869 -0.23609859820718729 0 -0.18131451088451209 -0.217941962841701 0 -0.19970885068544869 -0.23609859820718729 0 -0.20499348857426769 -0.2132703791652647 0 -0.19970885068544869 -0.23609859820718729 0 -0.21842861498252231 -0.22416679406937751 0 -0.22173108178713791 -0.24060589239681371 0 -0.19970885068544869 -0.23609859820718729 0 -0.21842861498252231 -0.22416679406937751 0 -0.20499348857426769 -0.2132703791652647 0 -0.21842861498252231 -0.22416679406937751 0 -0.20499348857426769 -0.2132703791652647 0 -0.22867246626402321 -0.20859879548882851 0 -0.20499348857426769 -0.2132703791652647 0 -0.22867246626402321 -0.20859879548882851 0 -0.20499348857426769 -0.2132703791652647 0 -0.21735764229645779 -0.1946758326819574 0 -0.22867246626402321 -0.20859879548882851 0 -0.18131451088451209 -0.217941962841701 0 -0.20499348857426769 -0.2132703791652647 0 -0.20499348857426769 -0.2132703791652647 0 -0.19176594755321091 -0.20609269114779 0 -0.20187565267981311 -0.19704112207377561 0 -0.18131451088451209 -0.217941962841701 0 -0.20499348857426769 -0.2132703791652647 0 -0.19176594755321091 -0.20609269114779 0 -0.19176594755321091 -0.20609269114779 0 -0.20187565267981311 -0.19704112207377561 0 -0.18852687423950579 -0.19571376402629659 0 -0.20187565267981311 -0.19704112207377561 0 -0.18852687423950579 -0.19571376402629659 0 -0.1942275399708408 -0.18587214620003961 0 -0.18220394973554749 -0.18306764771794501 0 -0.18852687423950579 -0.19571376402629659 0 -0.1942275399708408 -0.18587214620003961 0 -0.20187565267981311 -0.19704112207377561 0 -0.1942275399708408 -0.18587214620003961 0 -0.20658139848238299 -0.18388138714271601 0 -0.20187565267981311 -0.19704112207377561 0 -0.21735764229645779 -0.1946758326819574 0 -0.20658139848238299 -0.18388138714271601 0 -0.20499348857426769 -0.2132703791652647 0 -0.20187565267981311 -0.19704112207377561 0 -0.21735764229645779 -0.1946758326819574 0 -0.21735764229645779 -0.1946758326819574 0 -0.2345624210729983 -0.1887438230683498 0 -0.22867246626402321 -0.20859879548882851 0 -0.2345624210729983 -0.1887438230683498 0 -0.2523500992859587 -0.20392039605963819 0 -0.2345624210729983 -0.1887438230683498 0 -0.2523500992859587 -0.20392039605963819 0 -0.25052020042525619 -0.1801716134451801 0 -0.2345624210729983 -0.1887438230683498 0 -0.22867246626402321 -0.20859879548882851 0 -0.2523500992859587 -0.20392039605963819 0 -0.2370371876017342 -0.22226030508879319 0 -0.2523500992859587 -0.20392039605963819 0 -0.22867246626402321 -0.20859879548882851 0 -0.2523500992859587 -0.20392039605963819 0 -0.22867246626402321 -0.20859879548882851 0 -0.2370371876017342 -0.22226030508879319 0 -0.2523500992859587 -0.20392039605963819 0 -0.2370371876017342 -0.22226030508879319 0 -0.25510422983317899 -0.2217755657247148 0 -0.2523500992859587 -0.20392039605963819 0 -0.21842861498252231 -0.22416679406937751 0 -0.22867246626402321 -0.20859879548882851 0 -0.2370371876017342 -0.22226030508879319 0 -0.2370371876017342 -0.22226030508879319 0 -0.22173108178713791 -0.24060589239681371 0 -0.21842861498252231 -0.22416679406937751 0 -0.2370371876017342 -0.22226030508879319 0 -0.22173108178713791 -0.24060589239681371 0 -0.2370371876017342 -0.22226030508879319 0 -0.2491753081327886 -0.2397790543766643 0 -0.25510422983317899 -0.2217755657247148 0 -0.2491753081327886 -0.2397790543766643 0 -0.24161585012034709 -0.24970102092900151 0 -0.22932925639100921 -0.24754917515438071 0 -0.2370371876017342 -0.22226030508879319 0 -0.2491753081327886 -0.2397790543766643 0 -0.22932925639100921 -0.24754917515438071 0 -0.20642497597254139 -0.25895147970483412 0 -0.22173108178713791 -0.24060589239681371 0 -0.22932925639100921 -0.24754917515438071 0 -0.2370371876017342 -0.22226030508879319 0 -0.22173108178713791 -0.24060589239681371 0 -0.22932925639100921 -0.24754917515438071 0 -0.20712110366106129 -0.14410312198197009 0 -0.1989727434032296 -0.15840747833380861 0 -0.2193260555999561 -0.15515072505689359 0 -0.20712110366106129 -0.14410312198197009 0 -0.2193260555999561 -0.15515072505689359 0 -0.2193728570606174 -0.13029972134536211 0 -0.2051761668958042 -0.13260727364905181 0 -0.19896203111506211 -0.12544230810181481 0 -0.2073194759790469 -0.123624156224627 0 -0.2051761668958042 -0.13260727364905181 0 -0.2193728570606174 -0.13029972134536211 0 -0.2073194759790469 -0.123624156224627 0 -0.20712110366106129 -0.14410312198197009 0 -0.2051761668958042 -0.13260727364905181 0 -0.2193728570606174 -0.13029972134536211 0 -0.20712110366106129 -0.14410312198197009 0 -0.2051761668958042 -0.13260727364905181 0 -0.19440809137062609 -0.13364416868658571 0 -0.18117790456834651 -0.14323930596653681 0 -0.19440809137062609 -0.13364416868658571 0 -0.1891092252296962 -0.1181836861629101 0 -0.2051761668958042 -0.13260727364905181 0 -0.19896203111506211 -0.12544230810181481 0 -0.19440809137062609 -0.13364416868658571 0 -0.19896203111506211 -0.12544230810181481 0 -0.19440809137062609 -0.13364416868658571 0 -0.1891092252296962 -0.1181836861629101 0 -0.18117790456834651 -0.14323930596653681 0 -0.19440809137062609 -0.13364416868658571 0 -0.19541996075081561 -0.1448485187422256 0 -0.18117790456834651 -0.14323930596653681 0 -0.19541996075081561 -0.1448485187422256 0 -0.1989727434032296 -0.15840747833380861 0 -0.18117790456834651 -0.14323930596653681 0 -0.1989727434032296 -0.15840747833380861 0 -0.20712110366106129 -0.14410312198197009 0 -0.19440809137062609 -0.13364416868658571 0 -0.19541996075081561 -0.1448485187422256 0 -0.20712110366106129 -0.14410312198197009 0 -0.19541996075081561 -0.1448485187422256 0 -0.1989727434032296 -0.15840747833380861 0 -0.17731825095152559 -0.155432232936214 0 -0.1919498247169544 -0.16965681003946501 0 -0.1989727434032296 -0.15840747833380861 0 -0.1919498247169544 -0.16965681003946501 0 -0.1989727434032296 -0.15840747833380861 0 -0.20356788721017019 -0.17138033155426721 0 -0.1919498247169544 -0.16965681003946501 0 -0.1942275399708408 -0.18587214620003961 0 -0.20658139848238299 -0.18388138714271601 0 -0.18220394973554749 -0.18306764771794501 0 -0.1919498247169544 -0.16965681003946501 0 -0.1942275399708408 -0.18587214620003961 0 -0.1919498247169544 -0.16965681003946501 0 -0.20658139848238299 -0.18388138714271601 0 -0.20356788721017019 -0.17138033155426721 0 -0.1919498247169544 -0.16965681003946501 0 -0.20658139848238299 -0.18388138714271601 0 -0.21735764229645779 -0.1946758326819574 0 -0.20658139848238299 -0.18388138714271601 0 -0.2167675822381139 -0.17357565070107911 0 -0.20658139848238299 -0.18388138714271601 0 -0.2167675822381139 -0.17357565070107911 0 -0.20356788721017019 -0.17138033155426721 0 -0.1989727434032296 -0.15840747833380861 0 -0.2167675822381139 -0.17357565070107911 0 -0.2193260555999561 -0.15515072505689359 0 -0.1989727434032296 -0.15840747833380861 0 -0.2167675822381139 -0.17357565070107911 0 -0.20356788721017019 -0.17138033155426721 0 -0.1989727434032296 -0.15840747833380861 0 -0.2167675822381139 -0.17357565070107911 0 -0.2167675822381139 -0.17357565070107911 0 -0.2366524336263483 -0.16368877646080771 0 -0.2193260555999561 -0.15515072505689359 0 -0.21735764229645779 -0.1946758326819574 0 -0.2345624210729983 -0.1887438230683498 0 -0.2167675822381139 -0.17357565070107911 0 -0.2345624210729983 -0.1887438230683498 0 -0.2167675822381139 -0.17357565070107911 0 -0.2345624210729983 -0.1887438230683498 0 -0.2167675822381139 -0.17357565070107911 0 -0.2366524336263483 -0.16368877646080771 0 -0.2345624210729983 -0.1887438230683498 0 -0.2366524336263483 -0.16368877646080771 0 -0.25052020042525619 -0.1801716134451801 0 -0.2366524336263483 -0.16368877646080771 0 -0.25052020042525619 -0.1801716134451801 0 -0.26050211234611509 -0.1599877012659767 0 -0.2366524336263483 -0.16368877646080771 0 -0.24483077947433771 -0.14451521426488609 0 -0.22937740668621481 -0.14274410866465051 0 -0.2366524336263483 -0.16368877646080771 0 -0.24483077947433771 -0.14451521426488609 0 -0.26050211234611509 -0.1599877012659767 0 -0.2193260555999561 -0.15515072505689359 0 -0.22937740668621481 -0.14274410866465051 0 -0.2193728570606174 -0.13029972134536211 0 -0.2366524336263483 -0.16368877646080771 0 -0.2193260555999561 -0.15515072505689359 0 -0.22937740668621481 -0.14274410866465051 0 -0.2193260555999561 -0.15515072505689359 0 -0.2193728570606174 -0.13029972134536211 0 -0.22937740668621481 -0.14274410866465051 0 -0.2193728570606174 -0.13029972134536211 0 -0.23403494293511001 -0.1305130731375477 0 -0.2193728570606174 -0.13029972134536211 0 -0.23403494293511001 -0.1305130731375477 0 -0.2286981406175522 -0.11815763822038509 0 -0.24483077947433771 -0.14451521426488609 0 -0.23403494293511001 -0.1305130731375477 0 -0.24775543351801971 -0.1271716734067021 0 -0.23403494293511001 -0.1305130731375477 0 -0.24775543351801971 -0.1271716734067021 0 -0.2371594913315731 -0.1179076726766555 0 -0.24483077947433771 -0.14451521426488609 0 -0.22937740668621481 -0.14274410866465051 0 -0.23403494293511001 -0.1305130731375477 0 -0.24775543351801971 -0.1271716734067021 0 -0.2371594913315731 -0.1179076726766555 0 -0.24759479375837559 -0.1099976290622537 0 -0.2371594913315731 -0.1179076726766555 0 -0.24759479375837559 -0.1099976290622537 0 -0.23350375323918199 -0.1066190063085292 0 -0.24759479375837559 -0.1099976290622537 0 -0.2455046225588319 -0.096889137395424055 0 -0.23350375323918199 -0.1066190063085292 0 -0.2455046225588319 -0.096889137395424055 0 -0.23350375323918199 -0.1066190063085292 0 -0.23133624417551041 -0.094529173723234564 0 -0.23350375323918199 -0.1066190063085292 0 -0.23133624417551041 -0.094529173723234564 0 -0.21941965852127859 -0.1054487176338306 0 -0.2193728570606174 -0.13029972134536211 0 -0.21941965852127859 -0.1054487176338306 0 -0.2286981406175522 -0.11815763822038509 0 -0.2193728570606174 -0.13029972134536211 0 -0.21941965852127859 -0.1054487176338306 0 -0.23403494293511001 -0.1305130731375477 0 -0.2371594913315731 -0.1179076726766555 0 -0.2286981406175522 -0.11815763822038509 0 -0.23350375323918199 -0.1066190063085292 0 -0.21941965852127859 -0.1054487176338306 0 -0.2286981406175522 -0.11815763822038509 0 -0.2371594913315731 -0.1179076726766555 0 -0.23350375323918199 -0.1066190063085292 0 -0.2286981406175522 -0.11815763822038509 0 -0.24594839773239541 -0.07146139660559539 0 -0.2314521629461696 -0.065657782584325627 0 -0.24088506747332439 -0.05241736200223588 0 -0.24594839773239541 -0.07146139660559539 0 -0.24088506747332439 -0.05241736200223588 0 -0.26094928471016832 -0.064704978678002095 0 -0.24594839773239541 -0.07146139660559539 0 -0.2411483338968804 -0.085826038383949046 0 -0.219466459981951 -0.080597713922299044 0 -0.2455046225588319 -0.096889137395424055 0 -0.23133624417551041 -0.094529173723234564 0 -0.2411483338968804 -0.085826038383949046 0 -0.23133624417551041 -0.094529173723234564 0 -0.21941965852127859 -0.1054487176338306 0 -0.219466459981951 -0.080597713922299044 0 -0.23133624417551041 -0.094529173723234564 0 -0.2411483338968804 -0.085826038383949046 0 -0.219466459981951 -0.080597713922299044 0 -0.21941965852127859 -0.1054487176338306 0 -0.219466459981951 -0.080597713922299044 0 -0.219466459981951 -0.080597713922299044 0 -0.2314521629461696 -0.065657782584325627 0 -0.2195087265970064 -0.058154657807168768 0 -0.24594839773239541 -0.07146139660559539 0 -0.219466459981951 -0.080597713922299044 0 -0.24594839773239541 -0.07146139660559539 0 -0.219466459981951 -0.080597713922299044 0 -0.2314521629461696 -0.065657782584325627 0 -0.219466459981951 -0.080597713922299044 0 -0.2195087265970064 -0.058154657807168768 0 -0.219466459981951 -0.080597713922299044 0 -0.21230431790148771 -0.072960996247709173 0 -0.2195087265970064 -0.058154657807168768 0 -0.20703635818780039 -0.067916653574146529 0 -0.21230431790148771 -0.072960996247709173 0 -0.2195087265970064 -0.058154657807168768 0 -0.20703635818780039 -0.067916653574146529 0 -0.21230431790148771 -0.072960996247709173 0 -0.20593114137055321 -0.075875053820403604 0 -0.21230431790148771 -0.072960996247709173 0 -0.20593114137055321 -0.075875053820403604 0 -0.21015063017812621 -0.081933615449051103 0 -0.20703635818780039 -0.067916653574146529 0 -0.20593114137055321 -0.075875053820403604 0 -0.19822162542740429 -0.078405798232365154 0 -0.21941965852127859 -0.1054487176338306 0 -0.219466459981951 -0.080597713922299044 0 -0.2106413293711514 -0.094705578328690171 0 -0.219466459981951 -0.080597713922299044 0 -0.20001297399456761 -0.087309202430876184 0 -0.2106413293711514 -0.094705578328690171 0 -0.219466459981951 -0.080597713922299044 0 -0.21015063017812621 -0.081933615449051103 0 -0.20001297399456761 -0.087309202430876184 0 -0.219466459981951 -0.080597713922299044 0 -0.20001297399456761 -0.087309202430876184 0 -0.21015063017812621 -0.081933615449051103 0 -0.19822162542740429 -0.078405798232365154 0 -0.20593114137055321 -0.075875053820403604 0 -0.21015063017812621 -0.081933615449051103 0 -0.19822162542740429 -0.078405798232365154 0 -0.219466459981951 -0.080597713922299044 0 -0.21230431790148771 -0.072960996247709173 0 -0.21015063017812621 -0.081933615449051103 0 -0.20001297399456761 -0.087309202430876184 0 -0.19019026076574619 -0.082884732024829155 0 -0.18694464933172791 -0.091737907726984008 0 -0.20001297399456761 -0.087309202430876184 0 -0.18694464933172791 -0.091737907726984008 0 -0.19704054589104189 -0.093128066359282002 0 -0.20001297399456761 -0.087309202430876184 0 -0.18694464933172791 -0.091737907726984008 0 -0.19019026076574619 -0.082884732024829155 0 -0.19822162542740429 -0.078405798232365154 0 -0.18604180711411461 -0.074803806814000035 0 -0.20001297399456761 -0.087309202430876184 0 -0.19822162542740429 -0.078405798232365154 0 -0.21015063017812621 -0.081933615449051103 0 -0.20001297399456761 -0.087309202430876184 0 -0.19822162542740429 -0.078405798232365154 0 -0.20001297399456761 -0.087309202430876184 0 -0.19019026076574619 -0.082884732024829155 0 -0.19822162542740429 -0.078405798232365154 0 -0.19822162542740429 -0.078405798232365154 0 -0.19531929774876561 -0.06398057864466794 0 -0.19822162542740429 -0.078405798232365154 0 -0.18604180711411461 -0.074803806814000035 0 -0.19822162542740429 -0.078405798232365154 0 -0.19531929774876561 -0.06398057864466794 0 -0.18604180711411461 -0.074803806814000035 0 -0.19531929774876561 -0.06398057864466794 0 -0.18604180711411461 -0.074803806814000035 0 -0.19531929774876561 -0.06398057864466794 0 -0.18604180711411461 -0.074803806814000035 0 -0.18175812615302989 -0.061744037766579309 0 -0.20703635818780039 -0.067916653574146529 0 -0.19822162542740429 -0.078405798232365154 0 -0.19531929774876561 -0.06398057864466794 0 -0.2193728570606174 -0.13029972134536211 0 -0.21941965852127859 -0.1054487176338306 0 -0.2124445541369375 -0.1162098186328928 0 -0.2073194759790469 -0.123624156224627 0 -0.2124445541369375 -0.1162098186328928 0 -0.2036662249868072 -0.1054666793277516 0 -0.2073194759790469 -0.123624156224627 0 -0.2036662249868072 -0.1054666793277516 0 -0.19906859708084379 -0.1179183199723787 0 -0.2073194759790469 -0.123624156224627 0 -0.2036662249868072 -0.1054666793277516 0 -0.2193728570606174 -0.13029972134536211 0 -0.2073194759790469 -0.123624156224627 0 -0.2124445541369375 -0.1162098186328928 0 -0.21941965852127859 -0.1054487176338306 0 -0.2124445541369375 -0.1162098186328928 0 -0.2036662249868072 -0.1054666793277516 0 -0.20001297399456761 -0.087309202430876184 0 -0.2106413293711514 -0.094705578328690171 0 -0.2036662249868072 -0.1054666793277516 0 -0.21941965852127859 -0.1054487176338306 0 -0.2106413293711514 -0.094705578328690171 0 -0.2036662249868072 -0.1054666793277516 0 -0.19704054589104189 -0.093128066359282002 0 -0.19034853271266319 -0.099322354793733747 0 -0.1891092252296962 -0.1181836861629101 0 -0.19704054589104189 -0.093128066359282002 0 -0.20001297399456761 -0.087309202430876184 0 -0.2036662249868072 -0.1054666793277516 0 -0.19034853271266319 -0.099322354793733747 0 -0.1891092252296962 -0.1181836861629101 0 -0.18678242963247221 -0.1050984686775344 0 -0.19704054589104189 -0.093128066359282002 0 -0.2036662249868072 -0.1054666793277516 0 -0.1891092252296962 -0.1181836861629101 0 -0.19704054589104189 -0.093128066359282002 0 -0.1891092252296962 -0.1181836861629101 0 -0.20001297399456761 -0.087309202430876184 0 -0.2036662249868072 -0.1054666793277516 0 -0.19704054589104189 -0.093128066359282002 0 -0.19034853271266319 -0.099322354793733747 0 -0.18694464933172791 -0.091737907726984008 0 -0.2036662249868072 -0.1054666793277516 0 -0.19906859708084379 -0.1179183199723787 0 -0.1891092252296962 -0.1181836861629101 0 -0.19896203111506211 -0.12544230810181481 0 -0.19906859708084379 -0.1179183199723787 0 -0.1891092252296962 -0.1181836861629101 0 -0.19896203111506211 -0.12544230810181481 0 -0.2073194759790469 -0.123624156224627 0 -0.19906859708084379 -0.1179183199723787 0 -0.17758741999090469 -0.12636481691046819 0 -0.1891092252296962 -0.1181836861629101 0 -0.18174268401966781 -0.1173963489237012 0 -0.1891092252296962 -0.1181836861629101 0 -0.18394370556032341 -0.1122176834050589 0 -0.18678242963247221 -0.1050984686775344 0 -0.18174268401966781 -0.1173963489237012 0 -0.18394370556032341 -0.1122176834050589 0 -0.17814048335945731 -0.10819222985609001 0 -0.1891092252296962 -0.1181836861629101 0 -0.18174268401966781 -0.1173963489237012 0 -0.18394370556032341 -0.1122176834050589 0 -0.18174268401966781 -0.1173963489237012 0 -0.17004005543064349 -0.1195068263352617 0 -0.1683912039084573 -0.110101777229917 0 -0.18174268401966781 -0.1173963489237012 0 -0.1683912039084573 -0.110101777229917 0 -0.17814048335945731 -0.10819222985609001 0 -0.18174268401966781 -0.1173963489237012 0 -0.1683912039084573 -0.110101777229917 0 -0.17758741999090469 -0.12636481691046819 0 -0.18174268401966781 -0.1173963489237012 0 -0.17004005543064349 -0.1195068263352617 0 -0.17758741999090469 -0.12636481691046819 0 -0.1605364156086368 -0.12564467274939439 0 -0.17004005543064349 -0.1195068263352617 0 -0.17004005543064349 -0.1195068263352617 0 -0.1683912039084573 -0.110101777229917 0 -0.15927714607678431 -0.11409989365555991 0 -0.1683912039084573 -0.110101777229917 0 -0.15927714607678431 -0.11409989365555991 0 -0.15655609878595131 -0.1055230310917691 0 -0.1605364156086368 -0.12564467274939439 0 -0.17004005543064349 -0.1195068263352617 0 -0.15927714607678431 -0.11409989365555991 0 -0.1710049263156472 -0.097317032327249392 0 -0.15897877255712289 -0.08978836155733963 0 -0.15503653103277329 -0.10281304935166539 0 -0.1710049263156472 -0.097317032327249392 0 -0.15503653103277329 -0.10281304935166539 0 -0.1683912039084573 -0.110101777229917 0 -0.1710049263156472 -0.097317032327249392 0 -0.15503653103277329 -0.10281304935166539 0 -0.1683912039084573 -0.110101777229917 0 -0.15503653103277329 -0.10281304935166539 0 -0.1683912039084573 -0.110101777229917 0 -0.15655609878595131 -0.1055230310917691 0 -0.15503653103277329 -0.10281304935166539 0 -0.1710049263156472 -0.097317032327249392 0 -0.18694464933172791 -0.091737907726984008 0 -0.1710049263156472 -0.097317032327249392 0 -0.18113408780716991 -0.10011136765785229 0 -0.18694464933172791 -0.091737907726984008 0 -0.1683912039084573 -0.110101777229917 0 -0.1710049263156472 -0.097317032327249392 0 -0.17814048335945731 -0.10819222985609001 0 -0.1710049263156472 -0.097317032327249392 0 -0.17814048335945731 -0.10819222985609001 0 -0.18113408780716991 -0.10011136765785229 0 -0.17814048335945731 -0.10819222985609001 0 -0.18678242963247221 -0.1050984686775344 0 -0.18113408780716991 -0.10011136765785229 0 -0.18394370556032341 -0.1122176834050589 0 -0.17814048335945731 -0.10819222985609001 0 -0.18678242963247221 -0.1050984686775344 0 -0.19034853271266319 -0.099322354793733747 0 -0.18678242963247221 -0.1050984686775344 0 -0.18113408780716991 -0.10011136765785229 0 -0.19034853271266319 -0.099322354793733747 0 -0.18113408780716991 -0.10011136765785229 0 -0.18694464933172791 -0.091737907726984008 0 -0.1710049263156472 -0.097317032327249392 0 -0.18694464933172791 -0.091737907726984008 0 -0.17751988637713459 -0.090861924259316385 0 -0.18694464933172791 -0.091737907726984008 0 -0.17973024796091649 -0.082166944919920493 0 -0.17751988637713459 -0.090861924259316385 0 -0.18694464933172791 -0.091737907726984008 0 -0.17973024796091649 -0.082166944919920493 0 -0.19019026076574619 -0.082884732024829155 0 -0.17973024796091649 -0.082166944919920493 0 -0.18604180711411461 -0.074803806814000035 0 -0.19019026076574619 -0.082884732024829155 0 -0.18694464933172791 -0.091737907726984008 0 -0.17973024796091649 -0.082166944919920493 0 -0.17973024796091649 -0.082166944919920493 0 -0.18604180711411461 -0.074803806814000035 0 -0.17973024796091649 -0.082166944919920493 0 -0.17059286655332639 -0.092826720040058375 0 -0.17973024796091649 -0.082166944919920493 0 -0.17751988637713459 -0.090861924259316385 0 -0.17059286655332639 -0.092826720040058375 0 -0.17973024796091649 -0.082166944919920493 0 -0.17059286655332639 -0.092826720040058375 0 -0.1704868432299185 -0.085820040001608269 0 -0.1710049263156472 -0.097317032327249392 0 -0.17751988637713459 -0.090861924259316385 0 -0.17059286655332639 -0.092826720040058375 0 -0.17973024796091649 -0.082166944919920493 0 -0.1707773213378376 -0.070289573074412998 0 -0.18604180711411461 -0.074803806814000035 0 -0.1707773213378376 -0.070289573074412998 0 -0.17973024796091649 -0.082166944919920493 0 -0.18604180711411461 -0.074803806814000035 0 -0.1707773213378376 -0.070289573074412998 0 -0.18604180711411461 -0.074803806814000035 0 -0.1707773213378376 -0.070289573074412998 0 -0.18175812615302989 -0.061744037766579309 0 -0.17973024796091649 -0.082166944919920493 0 -0.157094485469366 -0.066243087641755516 0 -0.17973024796091649 -0.082166944919920493 0 -0.157094485469366 -0.066243087641755516 0 -0.16420712160908099 -0.079926996223906921 0 -0.17973024796091649 -0.082166944919920493 0 -0.1707773213378376 -0.070289573074412998 0 -0.157094485469366 -0.066243087641755516 0 -0.157094485469366 -0.066243087641755516 0 -0.16420712160908099 -0.079926996223906921 0 -0.15355709710764129 -0.076667761974943557 0 -0.1707773213378376 -0.070289573074412998 0 -0.157094485469366 -0.066243087641755516 0 -0.1710049263156472 -0.097317032327249392 0 -0.17059286655332639 -0.092826720040058375 0 -0.15897877255712289 -0.08978836155733963 0 -0.16585014186452851 -0.087124900139313372 0 -0.17059286655332639 -0.092826720040058375 0 -0.15897877255712289 -0.08978836155733963 0 -0.16585014186452851 -0.087124900139313372 0 -0.17059286655332639 -0.092826720040058375 0 -0.1704868432299185 -0.085820040001608269 0 -0.17973024796091649 -0.082166944919920493 0 -0.1704868432299185 -0.085820040001608269 0 -0.16420712160908099 -0.079926996223906921 0 -0.16585014186452851 -0.087124900139313372 0 -0.1704868432299185 -0.085820040001608269 0 -0.16420712160908099 -0.079926996223906921 0 -0.16420712160908099 -0.079926996223906921 0 -0.15897877255712289 -0.08978836155733963 0 -0.15355709710764129 -0.076667761974943557 0 -0.16585014186452851 -0.087124900139313372 0 -0.16420712160908099 -0.079926996223906921 0 -0.15897877255712289 -0.08978836155733963 0 -0.15897877255712289 -0.08978836155733963 0 -0.14410489240900731 -0.083465316235587186 0 -0.15503653103277329 -0.10281304935166539 0 -0.14410489240900731 -0.083465316235587186 0 -0.13080009097338779 -0.089563899326495514 0 -0.15503653103277329 -0.10281304935166539 0 -0.14410489240900731 -0.083465316235587186 0 -0.15503653103277329 -0.10281304935166539 0 -0.15897877255712289 -0.08978836155733963 0 -0.14410489240900731 -0.083465316235587186 0 -0.15355709710764129 -0.076667761974943557 0 -0.157094485469366 -0.066243087641755516 0 -0.14441943906399771 -0.070528531009087903 0 -0.13663368073488749 -0.060192123565714337 0 -0.157094485469366 -0.066243087641755516 0 -0.13663368073488749 -0.060192123565714337 0 -0.157094485469366 -0.066243087641755516 0 -0.15355709710764129 -0.076667761974943557 0 -0.14441943906399771 -0.070528531009087903 0 -0.14410489240900731 -0.083465316235587186 0 -0.15355709710764129 -0.076667761974943557 0 -0.14441943906399771 -0.070528531009087903 0 -0.14410489240900731 -0.083465316235587186 0 -0.13318096705280191 -0.064113229110634232 0 -0.14410489240900731 -0.083465316235587186 0 -0.13318096705280191 -0.064113229110634232 0 -0.13257916458860711 -0.077980895546068379 0 -0.14410489240900731 -0.083465316235587186 0 -0.14441943906399771 -0.070528531009087903 0 -0.13318096705280191 -0.064113229110634232 0 -0.14441943906399771 -0.070528531009087903 0 -0.13318096705280191 -0.064113229110634232 0 -0.13663368073488749 -0.060192123565714337 0 -0.1222307079192313 -0.074781137511556628 0 -0.13318096705280191 -0.064113229110634232 0 -0.13257916458860711 -0.077980895546068379 0 -0.14410489240900731 -0.083465316235587186 0 -0.13257916458860711 -0.077980895546068379 0 -0.13080009097338779 -0.089563899326495514 0 -0.1222307079192313 -0.074781137511556628 0 -0.13257916458860711 -0.077980895546068379 0 -0.13080009097338779 -0.089563899326495514 0 -0.1222385501864571 -0.092999891337642415 0 -0.13663089172074491 -0.1079595170816139 0 -0.1315439020844999 -0.1109311583936801 0 -0.1222385501864571 -0.092999891337642415 0 -0.1398949266489293 -0.10805003953224961 0 -0.13663089172074491 -0.1079595170816139 0 -0.1222385501864571 -0.092999891337642415 0 -0.1398949266489293 -0.10805003953224961 0 -0.1222385501864571 -0.092999891337642415 0 -0.13080009097338779 -0.089563899326495514 0 -0.1398949266489293 -0.10805003953224961 0 -0.1398949266489293 -0.10805003953224961 0 -0.13663089172074491 -0.1079595170816139 0 -0.13428043681782389 -0.10998704886863769 0 -0.1398949266489293 -0.10805003953224961 0 -0.13428043681782389 -0.10998704886863769 0 -0.13663089172074491 -0.1079595170816139 0 -0.13428043681782389 -0.10998704886863769 0 -0.14731668391529981 -0.1262651993438676 0 -0.1315439020844999 -0.1109311583936801 0 -0.12879004509182629 -0.1288610985368486 0 -0.14731668391529981 -0.1262651993438676 0 -0.1315439020844999 -0.1109311583936801 0 -0.14731668391529981 -0.1262651993438676 0 -0.1315439020844999 -0.1109311583936801 0 -0.13428043681782389 -0.10998704886863769 0 -0.14731668391529981 -0.1262651993438676 0 -0.1398949266489293 -0.10805003953224961 0 -0.13428043681782389 -0.10998704886863769 0 -0.13663089172074491 -0.1079595170816139 0 -0.1315439020844999 -0.1109311583936801 0 -0.13428043681782389 -0.10998704886863769 0 -0.1315439020844999 -0.1109311583936801 0 -0.13428043681782389 -0.10998704886863769 0 -0.1605364156086368 -0.12564467274939439 0 -0.1398949266489293 -0.10805003953224961 0 -0.14731668391529981 -0.1262651993438676 0 -0.1605364156086368 -0.12564467274939439 0 -0.1398949266489293 -0.10805003953224961 0 -0.1605364156086368 -0.12564467274939439 0 -0.15927714607678431 -0.11409989365555991 0 -0.1398949266489293 -0.10805003953224961 0 -0.15655609878595131 -0.1055230310917691 0 -0.1398949266489293 -0.10805003953224961 0 -0.15503653103277329 -0.10281304935166539 0 -0.13080009097338779 -0.089563899326495514 0 -0.15503653103277329 -0.10281304935166539 0 -0.15927714607678431 -0.11409989365555991 0 -0.15655609878595131 -0.1055230310917691 0 -0.1398949266489293 -0.10805003953224961 0 -0.13080009097338779 -0.089563899326495514 0 -0.1398949266489293 -0.10805003953224961 0 -0.15503653103277329 -0.10281304935166539 0 -0.15655609878595131 -0.1055230310917691 0 -0.15503653103277329 -0.10281304935166539 0 -0.1398949266489293 -0.10805003953224961 0 -0.15503653103277329 -0.10281304935166539 0 -0.150146566308931 -0.01463319014175617 0 -0.13717365847095109 -0.025709379798598529 0 -0.15858390804027001 -0.029732730958185408 0 -0.150146566308931 -0.01463319014175617 0 -0.13579330620671051 -0.013839908642826819 0 -0.13717365847095109 -0.025709379798598529 0 -0.150146566308931 -0.01463319014175617 0 -0.1417879398993824 -0.0024116532707104642 0 -0.1580998636435412 -0.00051526238868952366 0 -0.150146566308931 -0.01463319014175617 0 -0.1417879398993824 -0.0024116532707104642 0 -0.13579330620671051 -0.013839908642826819 0 -0.1222818076516056 -0.01652843354261738 0 -0.13057995099799841 -0.0048476183902445612 0 -0.12230137410214451 0.005776940634701893 0 -0.1417879398993824 -0.0024116532707104642 0 -0.13057995099799841 -0.0048476183902445612 0 -0.13171544283719769 0.0035556788566010271 0 -0.1417879398993824 -0.0024116532707104642 0 -0.13579330620671051 -0.013839908642826819 0 -0.13057995099799841 -0.0048476183902445612 0 -0.1222818076516056 -0.01652843354261738 0 -0.13579330620671051 -0.013839908642826819 0 -0.13057995099799841 -0.0048476183902445612 0 -0.1222622412010676 -0.038833807719936657 0 -0.1222818076516056 -0.01652843354261738 0 -0.13717365847095109 -0.025709379798598529 0 -0.1222818076516056 -0.01652843354261738 0 -0.13579330620671051 -0.013839908642826819 0 -0.13717365847095109 -0.025709379798598529 0 -0.12225704169659669 -0.044761141985681221 0 -0.1222622412010676 -0.038833807719936657 0 -0.13967836333521741 -0.052538447680845278 0 -0.1222622412010676 -0.038833807719936657 0 -0.1382724382279078 -0.041270277908971247 0 -0.13967836333521741 -0.052538447680845278 0 -0.1222622412010676 -0.038833807719936657 0 -0.13967836333521741 -0.052538447680845278 0 -0.1222622412010676 -0.038833807719936657 0 -0.13717365847095109 -0.025709379798598529 0 -0.1382724382279078 -0.041270277908971247 0 -0.12225704169659669 -0.044761141985681221 0 -0.13318096705280191 -0.064113229110634232 0 -0.13663368073488749 -0.060192123565714337 0 -0.1222307079192313 -0.074781137511556628 0 -0.12225704169659669 -0.044761141985681221 0 -0.13318096705280191 -0.064113229110634232 0 -0.12225704169659669 -0.044761141985681221 0 -0.13318096705280191 -0.064113229110634232 0 -0.12225704169659669 -0.044761141985681221 0 -0.13967836333521741 -0.052538447680845278 0 -0.13663368073488749 -0.060192123565714337 0 -0.157094485469366 -0.066243087641755516 0 -0.13967836333521741 -0.052538447680845278 0 -0.157094485469366 -0.066243087641755516 0 -0.13967836333521741 -0.052538447680845278 0 -0.13663368073488749 -0.060192123565714337 0 -0.1382724382279078 -0.041270277908971247 0 -0.13967836333521741 -0.052538447680845278 0 -0.15397548990439411 -0.047999476436505858 0 -0.157094485469366 -0.066243087641755516 0 -0.13967836333521741 -0.052538447680845278 0 -0.15397548990439411 -0.047999476436505858 0 -0.13717365847095109 -0.025709379798598529 0 -0.15397548990439411 -0.047999476436505858 0 -0.13717365847095109 -0.025709379798598529 0 -0.1382724382279078 -0.041270277908971247 0 -0.15397548990439411 -0.047999476436505858 0 -0.13717365847095109 -0.025709379798598529 0 -0.15397548990439411 -0.047999476436505858 0 -0.15858390804027001 -0.029732730958185408 0 -0.15397548990439411 -0.047999476436505858 0 -0.16512783762139729 -0.040682368648885567 0 -0.15858390804027001 -0.029732730958185408 0 -0.16512783762139729 -0.040682368648885567 0 -0.17465676104586411 -0.034083106032057768 0 -0.15858390804027001 -0.029732730958185408 0 -0.16512783762139729 -0.040682368648885567 0 -0.17329519149506101 -0.050914161168793243 0 -0.17465676104586411 -0.034083106032057768 0 -0.15397548990439411 -0.047999476436505858 0 -0.16512783762139729 -0.040682368648885567 0 -0.17329519149506101 -0.050914161168793243 0 -0.1707773213378376 -0.070289573074412998 0 -0.157094485469366 -0.066243087641755516 0 -0.15397548990439411 -0.047999476436505858 0 -0.1707773213378376 -0.070289573074412998 0 -0.15397548990439411 -0.047999476436505858 0 -0.17329519149506101 -0.050914161168793243 0 -0.1707773213378376 -0.070289573074412998 0 -0.15397548990439411 -0.047999476436505858 0 -0.1707773213378376 -0.070289573074412998 0 -0.17329519149506101 -0.050914161168793243 0 -0.18175812615302989 -0.061744037766579309 0 -0.17329519149506101 -0.050914161168793243 0 -0.18175812615302989 -0.061744037766579309 0 -0.19104906848818509 -0.042756581358943897 0 -0.17329519149506101 -0.050914161168793243 0 -0.17465676104586411 -0.034083106032057768 0 -0.19104906848818509 -0.042756581358943897 0 -0.17465676104586411 -0.034083106032057768 0 -0.19045854640482801 -0.024141867085881581 0 -0.19104906848818509 -0.042756581358943897 0 -0.17465676104586411 -0.034083106032057768 0 -0.16978514731467079 -0.01500886771008049 0 -0.19045854640482801 -0.024141867085881581 0 -0.150146566308931 -0.01463319014175617 0 -0.15858390804027001 -0.029732730958185408 0 -0.16978514731467079 -0.01500886771008049 0 -0.17465676104586411 -0.034083106032057768 0 -0.15858390804027001 -0.029732730958185408 0 -0.16978514731467079 -0.01500886771008049 0 -0.150146566308931 -0.01463319014175617 0 -0.1580998636435412 -0.00051526238868952366 0 -0.16978514731467079 -0.01500886771008049 0 -0.1580998636435412 -0.00051526238868952366 0 -0.16978514731467079 -0.01500886771008049 0 -0.1742163982088388 0.005876272703105305 0 -0.16978514731467079 -0.01500886771008049 0 -0.1903218184318938 -0.0043180036185569521 0 -0.1742163982088388 0.005876272703105305 0 -0.16978514731467079 -0.01500886771008049 0 -0.1903218184318938 -0.0043180036185569521 0 -0.19045854640482801 -0.024141867085881581 0 -0.1903218184318938 -0.0043180036185569521 0 -0.20799333159954361 -0.012974407094154089 0 -0.2065817610270263 0.0075071539919539312 0 -0.1903218184318938 -0.0043180036185569521 0 -0.19045854640482801 -0.024141867085881581 0 -0.20799333159954361 -0.012974407094154089 0 -0.19045854640482801 -0.024141867085881581 0 -0.20524088588121531 -0.025493315274396099 0 -0.20799333159954361 -0.012974407094154089 0 -0.19045854640482801 -0.024141867085881581 0 -0.20524088588121531 -0.025493315274396099 0 -0.20074373184189689 -0.034657900414828822 0 -0.20524088588121531 -0.025493315274396099 0 -0.21477365871842621 -0.022853204377910299 0 -0.20799333159954361 -0.012974407094154089 0 -0.20524088588121531 -0.025493315274396099 0 -0.20074373184189689 -0.034657900414828822 0 -0.21223516084138169 -0.032839197399205683 0 -0.20524088588121531 -0.025493315274396099 0 -0.21477365871842621 -0.022853204377910299 0 -0.21223516084138169 -0.032839197399205683 0 -0.2183060116030229 -0.027864600346087461 0 -0.21477365871842621 -0.022853204377910299 0 -0.21223516084138169 -0.032839197399205683 0 -0.2183060116030229 -0.027864600346087461 0 -0.21477365871842621 -0.022853204377910299 0 -0.22250628008059831 -0.020286330260794731 0 -0.21477365871842621 -0.022853204377910299 0 -0.20799333159954361 -0.012974407094154089 0 -0.22250628008059831 -0.020286330260794731 0 -0.20799333159954361 -0.012974407094154089 0 -0.2283891854478462 -0.00083030875624854825 0 -0.2065817610270263 0.0075071539919539312 0 -0.19531929774876561 -0.06398057864466794 0 -0.19104906848818509 -0.042756581358943897 0 -0.19531929774876561 -0.06398057864466794 0 -0.19104906848818509 -0.042756581358943897 0 -0.20743514548041819 -0.049846090168352702 0 -0.19531929774876561 -0.06398057864466794 0 -0.18175812615302989 -0.061744037766579309 0 -0.19104906848818509 -0.042756581358943897 0 -0.19531929774876561 -0.06398057864466794 0 -0.20743514548041819 -0.049846090168352702 0 -0.19104906848818509 -0.042756581358943897 0 -0.20074373184189689 -0.034657900414828822 0 -0.20743514548041819 -0.049846090168352702 0 -0.19045854640482801 -0.024141867085881581 0 -0.19104906848818509 -0.042756581358943897 0 -0.20074373184189689 -0.034657900414828822 0 -0.21223516084138169 -0.032839197399205683 0 -0.20743514548041819 -0.049846090168352702 0 -0.21955099321207219 -0.035711601692038457 0 -0.20074373184189689 -0.034657900414828822 0 -0.21223516084138169 -0.032839197399205683 0 -0.20743514548041819 -0.049846090168352702 0 -0.21223516084138169 -0.032839197399205683 0 -0.21955099321207219 -0.035711601692038457 0 -0.2195544664647551 -0.033867346959879759 0 -0.2183060116030229 -0.027864600346087461 0 -0.21223516084138169 -0.032839197399205683 0 -0.2195544664647551 -0.033867346959879759 0 -0.20743514548041819 -0.049846090168352702 0 -0.21955099321207219 -0.035711601692038457 0 -0.20703635818780039 -0.067916653574146529 0 -0.20743514548041819 -0.049846090168352702 0 -0.2195087265970064 -0.058154657807168768 0 -0.20703635818780039 -0.067916653574146529 0 -0.19531929774876561 -0.06398057864466794 0 -0.20743514548041819 -0.049846090168352702 0 -0.20743514548041819 -0.049846090168352702 0 -0.2195087265970064 -0.058154657807168768 0 -0.21955099321207219 -0.035711601692038457 0 -0.2195087265970064 -0.058154657807168768 0 -0.21955099321207219 -0.035711601692038457 0 -0.2314521629461696 -0.065657782584325627 0 -0.2195087265970064 -0.058154657807168768 0 -0.24088506747332439 -0.05241736200223588 0 -0.2195087265970064 -0.058154657807168768 0 -0.2317387195725806 -0.042122487208389993 0 -0.24088506747332439 -0.05241736200223588 0 -0.2195087265970064 -0.058154657807168768 0 -0.2317387195725806 -0.042122487208389993 0 -0.21955099321207219 -0.035711601692038457 0 -0.21955099321207219 -0.035711601692038457 0 -0.2284466039329292 -0.03391114326377407 0 -0.22353976714801291 -0.03105825175888504 0 -0.21955099321207219 -0.035711601692038457 0 -0.22353976714801291 -0.03105825175888504 0 -0.21955099321207219 -0.035711601692038457 0 -0.2195544664647551 -0.033867346959879759 0 -0.22353976714801291 -0.03105825175888504 0 -0.21955099321207219 -0.035711601692038457 0 -0.2195544664647551 -0.033867346959879759 0 -0.2317387195725806 -0.042122487208389993 0 -0.21955099321207219 -0.035711601692038457 0 -0.2284466039329292 -0.03391114326377407 0 -0.2317387195725806 -0.042122487208389993 0 -0.2284466039329292 -0.03391114326377407 0 -0.23463712646058529 -0.02662383537924223 0 -0.24088506747332439 -0.05241736200223588 0 -0.23463712646058529 -0.02662383537924223 0 -0.25053438419098922 -0.032592907037583607 0 -0.2317387195725806 -0.042122487208389993 0 -0.24088506747332439 -0.05241736200223588 0 -0.23463712646058529 -0.02662383537924223 0 -0.24088506747332439 -0.05241736200223588 0 -0.23463712646058529 -0.02662383537924223 0 -0.2283891854478462 -0.00083030875624854825 0 -0.23463712646058529 -0.02662383537924223 0 -0.20799333159954361 -0.012974407094154089 0 -0.2283891854478462 -0.00083030875624854825 0 -0.22250628008059831 -0.020286330260794731 0 -0.2283891854478462 -0.00083030875624854825 0 -0.22250628008059831 -0.020286330260794731 0 -0.23463712646058529 -0.02662383537924223 0 -0.2183060116030229 -0.027864600346087461 0 -0.22250628008059831 -0.020286330260794731 0 -0.22353976714801291 -0.03105825175888504 0 -0.2183060116030229 -0.027864600346087461 0 -0.2195544664647551 -0.033867346959879759 0 -0.22353976714801291 -0.03105825175888504 0 -0.2284466039329292 -0.03391114326377407 0 -0.22353976714801291 -0.03105825175888504 0 -0.23463712646058529 -0.02662383537924223 0 -0.22250628008059831 -0.020286330260794731 0 -0.22353976714801291 -0.03105825175888504 0 -0.23463712646058529 -0.02662383537924223 0 -0.23463712646058529 -0.02662383537924223 0 -0.2444135164723889 -0.017108753361121921 0 -0.25053438419098922 -0.032592907037583607 0 -0.2283891854478462 -0.00083030875624854825 0 -0.23463712646058529 -0.02662383537924223 0 -0.2444135164723889 -0.017108753361121921 0 -0.2283891854478462 -0.00083030875624854825 0 -0.2444135164723889 -0.017108753361121921 0 -0.25294301608417369 -0.0039445141545991248 0 -0.2444135164723889 -0.017108753361121921 0 -0.25294301608417369 -0.0039445141545991248 0 -0.25556387017835008 -0.0215522014779361 0 -0.25294301608417369 -0.0039445141545991248 0 -0.26709842519908089 -0.015879807058837361 0 -0.26975968607386608 -0.0010611073363657091 0 -0.25294301608417369 -0.0039445141545991248 0 -0.25556387017835008 -0.0215522014779361 0 -0.26709842519908089 -0.015879807058837361 0 -0.25556387017835008 -0.0215522014779361 0 -0.26450677058002459 -0.031228257576255251 0 -0.25053438419098922 -0.032592907037583607 0 -0.2444135164723889 -0.017108753361121921 0 -0.25556387017835008 -0.0215522014779361 0 -0.25053438419098922 -0.032592907037583607 0 -0.25556387017835008 -0.0215522014779361 0 -0.26709842519908089 -0.015879807058837361 0 -0.26450677058002459 -0.031228257576255251 0 -0.26709842519908089 -0.015879807058837361 0 -0.27800107742729319 -0.029013144100644709 0 -0.28086524160987369 -0.013080150358719801 0 -0.26709842519908089 -0.015879807058837361 0 -0.27800107742729319 -0.029013144100644709 0 -0.26450677058002459 -0.031228257576255251 0 -0.26975968607386608 -0.0010611073363657091 0 -0.28086524160987369 -0.013080150358719801 0 -0.28565501754425748 0.00075764068133065364 0 -0.26709842519908089 -0.015879807058837361 0 -0.26975968607386608 -0.0010611073363657091 0 -0.28086524160987369 -0.013080150358719801 0 -0.28086524160987369 -0.013080150358719801 0 -0.2932066769529495 -0.010310245823273971 0 -0.28565501754425748 0.00075764068133065364 0 -0.2932066769529495 -0.010310245823273971 0 -0.29894757355793061 -0.001573101011422945 0 -0.28565501754425748 0.00075764068133065364 0 -0.28086524160987369 -0.013080150358719801 0 -0.2932066769529495 -0.010310245823273971 0 -0.29240451422828739 -0.02511491997627021 0 -0.27800107742729319 -0.029013144100644709 0 -0.28086524160987369 -0.013080150358719801 0 -0.29240451422828739 -0.02511491997627021 0 -0.29240451422828739 -0.02511491997627021 0 -0.30784633662403732 -0.017971367766303838 0 -0.30453774582718679 -0.035807996539439689 0 -0.2932066769529495 -0.010310245823273971 0 -0.29240451422828739 -0.02511491997627021 0 -0.30784633662403732 -0.017971367766303838 0 -0.30784633662403732 -0.017971367766303838 0 -0.30453774582718679 -0.035807996539439689 0 -0.32241313075875022 -0.038804154197983061 0 -0.30784633662403732 -0.017971367766303838 0 -0.29894757355793061 -0.001573101011422945 0 -0.31578487755172879 -3.0707489715793568e-05 0 -0.2932066769529495 -0.010310245823273971 0 -0.30784633662403732 -0.017971367766303838 0 -0.29894757355793061 -0.001573101011422945 0 -0.31020245829148901 -0.054033178468709628 0 -0.28997000692838459 -0.044506615269239283 0 -0.29402121354199551 -0.066976639135790647 0 -0.31020245829148901 -0.054033178468709628 0 -0.30453774582718679 -0.035807996539439689 0 -0.28997000692838459 -0.044506615269239283 0 -0.31020245829148901 -0.054033178468709628 0 -0.30453774582718679 -0.035807996539439689 0 -0.32241313075875022 -0.038804154197983061 0 -0.29240451422828739 -0.02511491997627021 0 -0.30453774582718679 -0.035807996539439689 0 -0.28997000692838459 -0.044506615269239283 0 -0.27800107742729319 -0.029013144100644709 0 -0.29240451422828739 -0.02511491997627021 0 -0.28997000692838459 -0.044506615269239283 0 -0.28997000692838459 -0.044506615269239283 0 -0.2758211088637777 -0.05757702391884878 0 -0.29402121354199551 -0.066976639135790647 0 -0.2758211088637777 -0.05757702391884878 0 -0.26085418697442497 -0.044868114156020093 0 -0.26094928471016832 -0.064704978678002095 0 -0.28997000692838459 -0.044506615269239283 0 -0.2758211088637777 -0.05757702391884878 0 -0.27498867951000988 -0.043463371626509623 0 -0.2758211088637777 -0.05757702391884878 0 -0.27498867951000988 -0.043463371626509623 0 -0.26085418697442497 -0.044868114156020093 0 -0.27800107742729319 -0.029013144100644709 0 -0.28997000692838459 -0.044506615269239283 0 -0.27498867951000988 -0.043463371626509623 0 -0.27498867951000988 -0.043463371626509623 0 -0.26450677058002459 -0.031228257576255251 0 -0.26085418697442497 -0.044868114156020093 0 -0.27800107742729319 -0.029013144100644709 0 -0.27498867951000988 -0.043463371626509623 0 -0.26450677058002459 -0.031228257576255251 0 -0.24088506747332439 -0.05241736200223588 0 -0.26085418697442497 -0.044868114156020093 0 -0.25053438419098922 -0.032592907037583607 0 -0.26450677058002459 -0.031228257576255251 0 -0.26085418697442497 -0.044868114156020093 0 -0.25053438419098922 -0.032592907037583607 0 -0.24088506747332439 -0.05241736200223588 0 -0.26085418697442497 -0.044868114156020093 0 -0.26094928471016832 -0.064704978678002095 0 -0.24594839773239541 -0.07146139660559539 0 -0.26094928471016832 -0.064704978678002095 0 -0.26348594503571199 -0.085652770273188794 0 -0.2455046225588319 -0.096889137395424055 0 -0.2411483338968804 -0.085826038383949046 0 -0.26348594503571199 -0.085652770273188794 0 -0.24594839773239541 -0.07146139660559539 0 -0.2411483338968804 -0.085826038383949046 0 -0.26348594503571199 -0.085652770273188794 0 -0.26348594503571199 -0.085652770273188794 0 -0.2769830479571922 -0.072517968042611111 0 -0.29063768763430747 -0.087678428207225184 0 -0.26348594503571199 -0.085652770273188794 0 -0.2756893673430984 -0.1050968139953574 0 -0.29063768763430747 -0.087678428207225184 0 -0.26094928471016832 -0.064704978678002095 0 -0.26348594503571199 -0.085652770273188794 0 -0.2769830479571922 -0.072517968042611111 0 -0.2758211088637777 -0.05757702391884878 0 -0.26094928471016832 -0.064704978678002095 0 -0.2769830479571922 -0.072517968042611111 0 -0.24775543351801971 -0.1271716734067021 0 -0.24759479375837559 -0.1099976290622537 0 -0.25997126181767122 -0.1179506336850483 0 -0.24759479375837559 -0.1099976290622537 0 -0.25997126181767122 -0.1179506336850483 0 -0.25844919810273781 -0.10311739688225451 0 -0.2455046225588319 -0.096889137395424055 0 -0.26348594503571199 -0.085652770273188794 0 -0.25844919810273781 -0.10311739688225451 0 -0.25997126181767122 -0.1179506336850483 0 -0.25844919810273781 -0.10311739688225451 0 -0.2756893673430984 -0.1050968139953574 0 -0.24759479375837559 -0.1099976290622537 0 -0.2455046225588319 -0.096889137395424055 0 -0.25844919810273781 -0.10311739688225451 0 -0.26348594503571199 -0.085652770273188794 0 -0.25844919810273781 -0.10311739688225451 0 -0.2756893673430984 -0.1050968139953574 0 -0.2756893673430984 -0.1050968139953574 0 -0.27516037260215959 -0.1246673486124177 0 -0.28847343715195911 -0.1168083887091575 0 -0.25997126181767122 -0.1179506336850483 0 -0.2756893673430984 -0.1050968139953574 0 -0.27516037260215959 -0.1246673486124177 0 -0.28847343715195911 -0.1168083887091575 0 -0.29956631024764602 -0.1160436251361753 0 -0.29846054156329782 -0.12498438054728141 0 -0.28847343715195911 -0.1168083887091575 0 -0.2901960747537391 -0.13158394518144639 0 -0.29846054156329782 -0.12498438054728141 0 -0.27516037260215959 -0.1246673486124177 0 -0.28847343715195911 -0.1168083887091575 0 -0.2901960747537391 -0.13158394518144639 0 -0.28847343715195911 -0.1168083887091575 0 -0.29505339207610459 -0.1046965473566355 0 -0.29956631024764602 -0.1160436251361753 0 -0.2756893673430984 -0.1050968139953574 0 -0.28847343715195911 -0.1168083887091575 0 -0.29505339207610459 -0.1046965473566355 0 -0.2756893673430984 -0.1050968139953574 0 -0.29505339207610459 -0.1046965473566355 0 -0.29063768763430747 -0.087678428207225184 0 -0.29505339207610459 -0.1046965473566355 0 -0.30926394015894249 -0.095690325261894763 0 -0.29063768763430747 -0.087678428207225184 0 -0.29505339207610459 -0.1046965473566355 0 -0.30926394015894249 -0.095690325261894763 0 -0.31016695341828571 -0.1114294224556882 0 -0.29505339207610459 -0.1046965473566355 0 -0.29956631024764602 -0.1160436251361753 0 -0.31016695341828571 -0.1114294224556882 0 -0.29956631024764602 -0.1160436251361753 0 -0.31016695341828571 -0.1114294224556882 0 -0.30862236230357498 -0.1209628988775245 0 -0.31016695341828571 -0.1114294224556882 0 -0.30862236230357498 -0.1209628988775245 0 -0.31710048425917031 -0.126298065131179 0 -0.29956631024764602 -0.1160436251361753 0 -0.30862236230357498 -0.1209628988775245 0 -0.29846054156329782 -0.12498438054728141 0 -0.2758211088637777 -0.05757702391884878 0 -0.2769830479571922 -0.072517968042611111 0 -0.29402121354199551 -0.066976639135790647 0 -0.2769830479571922 -0.072517968042611111 0 -0.29402121354199551 -0.066976639135790647 0 -0.29063768763430747 -0.087678428207225184 0 -0.30926394015894249 -0.095690325261894763 0 -0.29063768763430747 -0.087678428207225184 0 -0.3174163941317894 -0.080062171322015555 0 -0.29402121354199551 -0.066976639135790647 0 -0.29063768763430747 -0.087678428207225184 0 -0.3174163941317894 -0.080062171322015555 0 -0.31020245829148901 -0.054033178468709628 0 -0.29402121354199551 -0.066976639135790647 0 -0.3174163941317894 -0.080062171322015555 0 -0.3174163941317894 -0.080062171322015555 0 -0.35030576049447049 -0.086498895986488744 0 -0.33386575729324219 -0.062144076011303277 0 -0.3174163941317894 -0.080062171322015555 0 -0.3337031223768202 -0.1063984805588338 0 -0.35030576049447049 -0.086498895986488744 0 -0.31020245829148901 -0.054033178468709628 0 -0.3174163941317894 -0.080062171322015555 0 -0.33386575729324219 -0.062144076011303277 0 -0.31016695341828571 -0.1114294224556882 0 -0.3337031223768202 -0.1063984805588338 0 -0.31710048425917031 -0.126298065131179 0 -0.33819446743494991 -0.1120603547285661 0 -0.31710048425917031 -0.126298065131179 0 -0.3337031223768202 -0.1063984805588338 0 -0.31710048425917031 -0.126298065131179 0 -0.30862236230357498 -0.1209628988775245 0 -0.3118810350172514 -0.12608075247487399 0 -0.31710048425917031 -0.126298065131179 0 -0.30926394015894249 -0.095690325261894763 0 -0.3174163941317894 -0.080062171322015555 0 -0.3337031223768202 -0.1063984805588338 0 -0.30926394015894249 -0.095690325261894763 0 -0.31016695341828571 -0.1114294224556882 0 -0.3337031223768202 -0.1063984805588338 0 -0.3337031223768202 -0.1063984805588338 0 -0.33819446743494991 -0.1120603547285661 0 -0.35928845061072939 -0.097822644325952918 0 -0.3337031223768202 -0.1063984805588338 0 -0.35030576049447049 -0.086498895986488744 0 -0.33819446743494991 -0.1120603547285661 0 -0.31710048425917031 -0.126298065131179 0 -0.33804942460485149 -0.1315489235143712 0 -0.3337031223768202 -0.1063984805588338 0 -0.33819446743494991 -0.1120603547285661 0 -0.31710048425917031 -0.126298065131179 0 -0.33819446743494991 -0.1120603547285661 0 -0.35728152016488751 -0.11936818394085601 0 -0.33804942460485149 -0.1315489235143712 0 -0.33819446743494991 -0.1120603547285661 0 -0.35728152016488751 -0.11936818394085601 0 -0.35928845061072939 -0.097822644325952918 0 -0.3337031223768202 -0.1063984805588338 0 -0.35928845061072939 -0.097822644325952918 0 -0.35030576049447049 -0.086498895986488744 0 -0.33819446743494991 -0.1120603547285661 0 -0.35928845061072939 -0.097822644325952918 0 -0.35928845061072939 -0.097822644325952918 0 -0.38038243378650871 -0.083584933923339655 0 -0.37574871647438768 -0.1064477865639807 0 -0.35728152016488751 -0.11936818394085601 0 -0.35928845061072939 -0.097822644325952918 0 -0.37574871647438768 -0.1064477865639807 0 -0.35728152016488751 -0.11936818394085601 0 -0.37810123853258432 -0.1264373505029267 0 -0.37574871647438768 -0.1064477865639807 0 -0.35030576049447049 -0.086498895986488744 0 -0.36690839861212349 -0.066599311414145962 0 -0.33386575729324219 -0.062144076011303277 0 -0.35030576049447049 -0.086498895986488744 0 -0.36690839861212349 -0.066599311414145962 0 -0.35928845061072939 -0.097822644325952918 0 -0.35030576049447049 -0.086498895986488744 0 -0.36496878166379038 -0.083816436160157631 0 -0.35928845061072939 -0.097822644325952918 0 -0.38038243378650871 -0.083584933923339655 0 -0.35030576049447049 -0.086498895986488744 0 -0.36496878166379038 -0.083816436160157631 0 -0.36690839861212349 -0.066599311414145962 0 -0.35928845061072939 -0.097822644325952918 0 -0.36496878166379038 -0.083816436160157631 0 -0.38038243378650871 -0.083584933923339655 0 -0.36496878166379038 -0.083816436160157631 0 -0.36690839861212349 -0.066599311414145962 0 -0.38038243378650871 -0.083584933923339655 0 -0.36690839861212349 -0.066599311414145962 0 -0.38038243378650871 -0.083584933923339655 0 -0.36690839861212349 -0.066599311414145962 0 -0.36732833405143278 -0.041590332287543039 0 -0.38355635549062778 -0.046645408696212858 0 -0.36690839861212349 -0.066599311414145962 0 -0.34831162837622348 -0.043155872605429163 0 -0.33386575729324219 -0.062144076011303277 0 -0.36690839861212349 -0.066599311414145962 0 -0.34831162837622348 -0.043155872605429163 0 -0.36732833405143278 -0.041590332287543039 0 -0.36690839861212349 -0.066599311414145962 0 -0.34831162837622348 -0.043155872605429163 0 -0.34831162837622348 -0.043155872605429163 0 -0.36732833405143278 -0.041590332287543039 0 -0.3647860826179421 -0.027192411999172241 0 -0.36732833405143278 -0.041590332287543039 0 -0.3647860826179421 -0.027192411999172241 0 -0.38088305588328158 -0.030505297579722469 0 -0.3647860826179421 -0.027192411999172241 0 -0.37322146010430751 -0.009920012430019198 0 -0.35184504088748048 -0.01649066545306176 0 -0.3647860826179421 -0.027192411999172241 0 -0.37322146010430751 -0.009920012430019198 0 -0.38088305588328158 -0.030505297579722469 0 -0.37322146010430751 -0.009920012430019198 0 -0.3559442881963949 -0.001519714188895674 0 -0.35184504088748048 -0.01649066545306176 0 -0.37322146010430751 -0.009920012430019198 0 -0.3559442881963949 -0.001519714188895674 0 -0.36555986432533338 0.01066527271968408 0 -0.3559442881963949 -0.001519714188895674 0 -0.35184504088748048 -0.01649066545306176 0 -0.34208765981969702 0.0001074283150369192 0 -0.34831162837622348 -0.043155872605429163 0 -0.3647860826179421 -0.027192411999172241 0 -0.35184504088748048 -0.01649066545306176 0 -0.34831162837622348 -0.043155872605429163 0 -0.35184504088748048 -0.01649066545306176 0 -0.32971485814032292 -0.019712433796712791 0 -0.32971485814032292 -0.019712433796712791 0 -0.34208765981969702 0.0001074283150369192 0 -0.32900894828360561 0.002271869797603329 0 -0.35184504088748048 -0.01649066545306176 0 -0.32971485814032292 -0.019712433796712791 0 -0.34208765981969702 0.0001074283150369192 0 -0.32971485814032292 -0.019712433796712791 0 -0.31578487755172879 -3.0707489715793568e-05 0 -0.32900894828360561 0.002271869797603329 0 -0.30784633662403732 -0.017971367766303838 0 -0.32971485814032292 -0.019712433796712791 0 -0.31578487755172879 -3.0707489715793568e-05 0 -0.30784633662403732 -0.017971367766303838 0 -0.32971485814032292 -0.019712433796712791 0 -0.32241313075875022 -0.038804154197983061 0 -0.31020245829148901 -0.054033178468709628 0 -0.32241313075875022 -0.038804154197983061 0 -0.33386575729324219 -0.062144076011303277 0 -0.34831162837622348 -0.043155872605429163 0 -0.32241313075875022 -0.038804154197983061 0 -0.33386575729324219 -0.062144076011303277 0 -0.34831162837622348 -0.043155872605429163 0 -0.32971485814032292 -0.019712433796712791 0 -0.32241313075875022 -0.038804154197983061 0 -0.34831162837622348 -0.043155872605429163 0 -0.32971485814032292 -0.019712433796712791 0 -0.30375654040825978 -0.22504304432309619 0 -0.29399753445413962 -0.23940581853785151 0 -0.31755530080346489 -0.2411523452232473 0 -0.31481767172726638 -0.25715273008896899 0 -0.29399753445413962 -0.23940581853785151 0 -0.31755530080346489 -0.2411523452232473 0 -0.31481767172726638 -0.25715273008896899 0 -0.29399753445413962 -0.23940581853785151 0 -0.30375654040825978 -0.22504304432309619 0 -0.29399753445413962 -0.23940581853785151 0 -0.27317739718101108 -0.22165890698673599 0 -0.30375654040825978 -0.22504304432309619 0 -0.27317739718101108 -0.22165890698673599 0 -0.29709585628141161 -0.20951253565122219 0 -0.29399753445413962 -0.23940581853785151 0 -0.27317739718101108 -0.22165890698673599 0 -0.2874746069821778 -0.25760648139448361 0 -0.29399753445413962 -0.23940581853785151 0 -0.27165696455741878 -0.24100303800880821 0 -0.26013154223708912 -0.25806023269999628 0 -0.2491753081327886 -0.2397790543766643 0 -0.24161585012034709 -0.24970102092900151 0 -0.26013154223708912 -0.25806023269999628 0 -0.2491753081327886 -0.2397790543766643 0 -0.27165696455741878 -0.24100303800880821 0 -0.2491753081327886 -0.2397790543766643 0 -0.27165696455741878 -0.24100303800880821 0 -0.25510422983317899 -0.2217755657247148 0 -0.27165696455741878 -0.24100303800880821 0 -0.25510422983317899 -0.2217755657247148 0 -0.27317739718101108 -0.22165890698673599 0 -0.29399753445413962 -0.23940581853785151 0 -0.27165696455741878 -0.24100303800880821 0 -0.27317739718101108 -0.22165890698673599 0 -0.27317739718101108 -0.22165890698673599 0 -0.27167590334347153 -0.20011472335855579 0 -0.28643929069074042 -0.19977921255459011 0 -0.27317739718101108 -0.22165890698673599 0 -0.2523500992859587 -0.20392039605963819 0 -0.27167590334347153 -0.20011472335855579 0 -0.25510422983317899 -0.2217755657247148 0 -0.27317739718101108 -0.22165890698673599 0 -0.2523500992859587 -0.20392039605963819 0 -0.27317739718101108 -0.22165890698673599 0 -0.2523500992859587 -0.20392039605963819 0 -0.2523500992859587 -0.20392039605963819 0 -0.26853259112704048 -0.18451055461837421 0 -0.25052020042525619 -0.1801716134451801 0 -0.2523500992859587 -0.20392039605963819 0 -0.26853259112704048 -0.18451055461837421 0 -0.2523500992859587 -0.20392039605963819 0 -0.27167590334347153 -0.20011472335855579 0 -0.26853259112704048 -0.18451055461837421 0 -0.2523500992859587 -0.20392039605963819 0 -0.27167590334347153 -0.20011472335855579 0 -0.27167590334347153 -0.20011472335855579 0 -0.28379975951225861 -0.18524982686135111 0 -0.26853259112704048 -0.18451055461837421 0 -0.27167590334347153 -0.20011472335855579 0 -0.28643929069074042 -0.19977921255459011 0 -0.28379975951225861 -0.18524982686135111 0 -0.28643929069074042 -0.19977921255459011 0 -0.3031011152338024 -0.18994588573586479 0 -0.28379975951225861 -0.18524982686135111 0 -0.28643929069074042 -0.19977921255459011 0 -0.29709585628141161 -0.20951253565122219 0 -0.3031011152338024 -0.18994588573586479 0 -0.27317739718101108 -0.22165890698673599 0 -0.28643929069074042 -0.19977921255459011 0 -0.29709585628141161 -0.20951253565122219 0 -0.30375654040825978 -0.22504304432309619 0 -0.29709585628141161 -0.20951253565122219 0 -0.31632092681655899 -0.21084964003105949 0 -0.29709585628141161 -0.20951253565122219 0 -0.3031011152338024 -0.18994588573586479 0 -0.31632092681655899 -0.21084964003105949 0 -0.3031011152338024 -0.18994588573586479 0 -0.30737512926734001 -0.17054670777174499 0 -0.32625159108667717 -0.1763601917287381 0 -0.3031011152338024 -0.18994588573586479 0 -0.30737512926734001 -0.17054670777174499 0 -0.28379975951225861 -0.18524982686135111 0 -0.30737512926734001 -0.17054670777174499 0 -0.28472188883775029 -0.16510639145597569 0 -0.30091118654846022 -0.14570222829357721 0 -0.30737512926734001 -0.17054670777174499 0 -0.28379975951225861 -0.18524982686135111 0 -0.30737512926734001 -0.17054670777174499 0 -0.28472188883775029 -0.16510639145597569 0 -0.28379975951225861 -0.18524982686135111 0 -0.28472188883775029 -0.16510639145597569 0 -0.28379975951225861 -0.18524982686135111 0 -0.26853259112704048 -0.18451055461837421 0 -0.28472188883775029 -0.16510639145597569 0 -0.26853259112704048 -0.18451055461837421 0 -0.26853259112704048 -0.18451055461837421 0 -0.25052020042525619 -0.1801716134451801 0 -0.26050211234611509 -0.1599877012659767 0 -0.28472188883775029 -0.16510639145597569 0 -0.26050211234611509 -0.1599877012659767 0 -0.27805004164836661 -0.1439117280939255 0 -0.28472188883775029 -0.16510639145597569 0 -0.26853259112704048 -0.18451055461837421 0 -0.26050211234611509 -0.1599877012659767 0 -0.26050211234611509 -0.1599877012659767 0 -0.27805004164836661 -0.1439117280939255 0 -0.26104500023444499 -0.13636738322149269 0 -0.24483077947433771 -0.14451521426488609 0 -0.26050211234611509 -0.1599877012659767 0 -0.26104500023444499 -0.13636738322149269 0 -0.25997126181767122 -0.1179506336850483 0 -0.27516037260215959 -0.1246673486124177 0 -0.26104500023444499 -0.13636738322149269 0 -0.24483077947433771 -0.14451521426488609 0 -0.24775543351801971 -0.1271716734067021 0 -0.26104500023444499 -0.13636738322149269 0 -0.24775543351801971 -0.1271716734067021 0 -0.25997126181767122 -0.1179506336850483 0 -0.26104500023444499 -0.13636738322149269 0 -0.27516037260215959 -0.1246673486124177 0 -0.27805004164836661 -0.1439117280939255 0 -0.2901960747537391 -0.13158394518144639 0 -0.27516037260215959 -0.1246673486124177 0 -0.27805004164836661 -0.1439117280939255 0 -0.26104500023444499 -0.13636738322149269 0 -0.27805004164836661 -0.1439117280939255 0 -0.2901960747537391 -0.13158394518144639 0 -0.30091118654846022 -0.14570222829357721 0 -0.2901960747537391 -0.13158394518144639 0 -0.29846054156329782 -0.12498438054728141 0 -0.29899326088491412 -0.1329710256029551 0 -0.2901960747537391 -0.13158394518144639 0 -0.30091118654846022 -0.14570222829357721 0 -0.29899326088491412 -0.1329710256029551 0 -0.28472188883775029 -0.16510639145597569 0 -0.27805004164836661 -0.1439117280939255 0 -0.30091118654846022 -0.14570222829357721 0 -0.28472188883775029 -0.16510639145597569 0 -0.30091118654846022 -0.14570222829357721 0 -0.30091118654846022 -0.14570222829357721 0 -0.30640524067415931 -0.12961354838951519 0 -0.29899326088491412 -0.1329710256029551 0 -0.30091118654846022 -0.14570222829357721 0 -0.31710048425917031 -0.126298065131179 0 -0.31539605283210131 -0.12744849750127751 0 -0.30091118654846022 -0.14570222829357721 0 -0.31710048425917031 -0.126298065131179 0 -0.30091118654846022 -0.14570222829357721 0 -0.30640524067415931 -0.12961354838951519 0 -0.31539605283210131 -0.12744849750127751 0 -0.30862236230357498 -0.1209628988775245 0 -0.30640524067415931 -0.12961354838951519 0 -0.3118810350172514 -0.12608075247487399 0 -0.30640524067415931 -0.12961354838951519 0 -0.3118810350172514 -0.12608075247487399 0 -0.31539605283210131 -0.12744849750127751 0 -0.30640524067415931 -0.12961354838951519 0 -0.29846054156329782 -0.12498438054728141 0 -0.29899326088491412 -0.1329710256029551 0 -0.30862236230357498 -0.1209628988775245 0 -0.30640524067415931 -0.12961354838951519 0 -0.29846054156329782 -0.12498438054728141 0 -0.3118810350172514 -0.12608075247487399 0 -0.31710048425917031 -0.126298065131179 0 -0.31539605283210131 -0.12744849750127751 0 -0.31710048425917031 -0.126298065131179 0 -0.31539605283210131 -0.12744849750127751 0 -0.30091118654846022 -0.14570222829357721 0 -0.31710048425917031 -0.126298065131179 0 -0.33095049902242152 -0.15584358868213891 0 -0.33095049902242152 -0.15584358868213891 0 -0.35452586877750292 -0.14114046959253279 0 -0.33095049902242152 -0.15584358868213891 0 -0.33804942460485149 -0.1315489235143712 0 -0.35452586877750292 -0.14114046959253279 0 -0.31710048425917031 -0.126298065131179 0 -0.33095049902242152 -0.15584358868213891 0 -0.33804942460485149 -0.1315489235143712 0 -0.35728152016488751 -0.11936818394085601 0 -0.33804942460485149 -0.1315489235143712 0 -0.35452586877750292 -0.14114046959253279 0 -0.35452586877750292 -0.14114046959253279 0 -0.39040333905385127 -0.14861960319602369 0 -0.37810123853258432 -0.1264373505029267 0 -0.35452586877750292 -0.14114046959253279 0 -0.3700359517356952 -0.163273024819273 0 -0.39040333905385127 -0.14861960319602369 0 -0.35728152016488751 -0.11936818394085601 0 -0.35452586877750292 -0.14114046959253279 0 -0.37810123853258432 -0.1264373505029267 0 -0.35452586877750292 -0.14114046959253279 0 -0.37810123853258432 -0.1264373505029267 0 -0.35452586877750292 -0.14114046959253279 0 -0.3700359517356952 -0.163273024819273 0 -0.34828347588349312 -0.17473784151388691 0 -0.33095049902242152 -0.15584358868213891 0 -0.35452586877750292 -0.14114046959253279 0 -0.34828347588349312 -0.17473784151388691 0 -0.3700359517356952 -0.163273024819273 0 -0.34828347588349312 -0.17473784151388691 0 -0.37450924335813951 -0.18796194730481389 0 -0.34828347588349312 -0.17473784151388691 0 -0.34970297520000138 -0.19642272006836201 0 -0.37450924335813951 -0.18796194730481389 0 -0.34828347588349312 -0.17473784151388691 0 -0.32625159108667717 -0.1763601917287381 0 -0.32911545295369687 -0.196348772336424 0 -0.33095049902242152 -0.15584358868213891 0 -0.34828347588349312 -0.17473784151388691 0 -0.32625159108667717 -0.1763601917287381 0 -0.30737512926734001 -0.17054670777174499 0 -0.33095049902242152 -0.15584358868213891 0 -0.30737512926734001 -0.17054670777174499 0 -0.30091118654846022 -0.14570222829357721 0 -0.33095049902242152 -0.15584358868213891 0 -0.30737512926734001 -0.17054670777174499 0 -0.33095049902242152 -0.15584358868213891 0 -0.32625159108667717 -0.1763601917287381 0 -0.3031011152338024 -0.18994588573586479 0 -0.32625159108667717 -0.1763601917287381 0 -0.32911545295369687 -0.196348772336424 0 -0.3031011152338024 -0.18994588573586479 0 -0.31632092681655899 -0.21084964003105949 0 -0.32911545295369687 -0.196348772336424 0 -0.31632092681655899 -0.21084964003105949 0 -0.33843324084568582 -0.2166658782943349 0 -0.32439222691297331 -0.22767901950846109 0 -0.31632092681655899 -0.21084964003105949 0 -0.33843324084568582 -0.2166658782943349 0 -0.32911545295369687 -0.196348772336424 0 -0.33843324084568582 -0.2166658782943349 0 -0.32911545295369687 -0.196348772336424 0 -0.34970297520000138 -0.19642272006836201 0 -0.34828347588349312 -0.17473784151388691 0 -0.32911545295369687 -0.196348772336424 0 -0.34970297520000138 -0.19642272006836201 0 -0.37450924335813951 -0.18796194730481389 0 -0.36296258518930502 -0.21069290181590791 0 -0.38354238997364359 -0.20964665252440831 0 -0.34970297520000138 -0.19642272006836201 0 -0.37450924335813951 -0.18796194730481389 0 -0.36296258518930502 -0.21069290181590791 0 -0.37450924335813951 -0.18796194730481389 0 -0.36296258518930502 -0.21069290181590791 0 -0.36296258518930502 -0.21069290181590791 0 -0.37397612566866367 -0.22440379452134371 0 -0.38354238997364359 -0.20964665252440831 0 -0.33843324084568582 -0.2166658782943349 0 -0.34970297520000138 -0.19642272006836201 0 -0.36296258518930502 -0.21069290181590791 0 -0.33843324084568582 -0.2166658782943349 0 -0.36296258518930502 -0.21069290181590791 0 -0.35141592702047048 -0.23342385632700191 0 -0.36296258518930502 -0.21069290181590791 0 -0.35141592702047048 -0.23342385632700191 0 -0.35141592702047048 -0.23342385632700191 0 -0.37397612566866367 -0.22440379452134371 0 -0.37827340729086167 -0.24145724060505219 0 -0.36296258518930502 -0.21069290181590791 0 -0.35141592702047048 -0.23342385632700191 0 -0.37397612566866367 -0.22440379452134371 0 -0.35634132469611141 -0.25144731204415671 0 -0.35141592702047048 -0.23342385632700191 0 -0.37827340729086167 -0.24145724060505219 0 -0.33986926885163599 -0.25615481083809588 0 -0.35141592702047048 -0.23342385632700191 0 -0.33986926885163599 -0.25615481083809588 0 -0.35634132469611141 -0.25144731204415671 0 -0.35141592702047048 -0.23342385632700191 0 -0.33986926885163599 -0.25615481083809588 0 -0.35141592702047048 -0.23342385632700191 0 -0.33446970901363371 -0.24086095368531801 0 -0.33843324084568582 -0.2166658782943349 0 -0.35141592702047048 -0.23342385632700191 0 -0.33446970901363371 -0.24086095368531801 0 -0.33843324084568582 -0.2166658782943349 0 -0.33446970901363371 -0.24086095368531801 0 -0.32439222691297331 -0.22767901950846109 0 -0.30375654040825978 -0.22504304432309619 0 -0.32439222691297331 -0.22767901950846109 0 -0.31755530080346489 -0.2411523452232473 0 -0.30375654040825978 -0.22504304432309619 0 -0.31632092681655899 -0.21084964003105949 0 -0.32439222691297331 -0.22767901950846109 0 -0.33446970901363371 -0.24086095368531801 0 -0.32439222691297331 -0.22767901950846109 0 -0.31755530080346489 -0.2411523452232473 0 -0.33186699404099201 -0.25686980085883232 0 -0.33446970901363371 -0.24086095368531801 0 -0.31755530080346489 -0.2411523452232473 0 -0.42384622579845083 -0.25312276154348362 0 -0.43007916991708373 -0.23668069015395191 0 -0.41175618553993398 -0.2379445807027365 0 -0.42384622579845083 -0.25312276154348362 0 -0.43007916991708373 -0.23668069015395191 0 -0.44120351272546382 -0.24949574112818459 0 -0.43007916991708373 -0.23668069015395191 0 -0.43544374372047762 -0.2231576225735514 0 -0.44594477844023872 -0.23367256589839541 0 -0.43544374372047762 -0.2231576225735514 0 -0.42228057327793761 -0.2226908690773603 0 -0.42953570939086289 -0.2108746037629661 0 -0.43007916991708373 -0.23668069015395191 0 -0.43544374372047762 -0.2231576225735514 0 -0.42228057327793761 -0.2226908690773603 0 -0.43007916991708373 -0.23668069015395191 0 -0.42228057327793761 -0.2226908690773603 0 -0.41175618553993398 -0.2379445807027365 0 -0.42228057327793761 -0.2226908690773603 0 -0.41175618553993398 -0.2379445807027365 0 -0.40913596396441071 -0.21371937697019139 0 -0.41175618553993398 -0.2379445807027365 0 -0.39578023564404619 -0.2469971000569984 0 -0.39358586571975029 -0.22785907218831331 0 -0.40942013230211499 -0.2644654256874252 0 -0.41175618553993398 -0.2379445807027365 0 -0.39578023564404619 -0.2469971000569984 0 -0.39578023564404619 -0.2469971000569984 0 -0.37827340729086167 -0.24145724060505219 0 -0.39358586571975029 -0.22785907218831331 0 -0.37397612566866367 -0.22440379452134371 0 -0.37827340729086167 -0.24145724060505219 0 -0.39358586571975029 -0.22785907218831331 0 -0.37397612566866367 -0.22440379452134371 0 -0.39358586571975029 -0.22785907218831331 0 -0.38354238997364359 -0.20964665252440831 0 -0.41175618553993398 -0.2379445807027365 0 -0.39358586571975029 -0.22785907218831331 0 -0.40913596396441071 -0.21371937697019139 0 -0.39358586571975029 -0.22785907218831331 0 -0.38354238997364359 -0.20964665252440831 0 -0.40913596396441071 -0.21371937697019139 0 -0.38354238997364359 -0.20964665252440831 0 -0.39983250722061231 -0.19762206070397759 0 -0.40913596396441071 -0.21371937697019139 0 -0.37450924335813951 -0.18796194730481389 0 -0.38354238997364359 -0.20964665252440831 0 -0.39983250722061231 -0.19762206070397759 0 -0.37450924335813951 -0.18796194730481389 0 -0.39983250722061231 -0.19762206070397759 0 -0.3972823685587783 -0.17751663140089241 0 -0.39983250722061231 -0.19762206070397759 0 -0.41237516402203012 -0.1890364630841154 0 -0.3972823685587783 -0.17751663140089241 0 -0.39983250722061231 -0.19762206070397759 0 -0.41237516402203012 -0.1890364630841154 0 -0.41727356118121778 -0.20248679784651391 0 -0.41237516402203012 -0.1890364630841154 0 -0.41727356118121778 -0.20248679784651391 0 -0.42678981672513328 -0.19739598964343191 0 -0.39983250722061231 -0.19762206070397759 0 -0.41727356118121778 -0.20248679784651391 0 -0.40913596396441071 -0.21371937697019139 0 -0.42228057327793761 -0.2226908690773603 0 -0.40913596396441071 -0.21371937697019139 0 -0.41955749999056458 -0.21209811064452011 0 -0.41727356118121778 -0.20248679784651391 0 -0.40913596396441071 -0.21371937697019139 0 -0.41955749999056458 -0.21209811064452011 0 -0.41727356118121778 -0.20248679784651391 0 -0.41955749999056458 -0.21209811064452011 0 -0.42953570939086289 -0.2108746037629661 0 -0.41727356118121778 -0.20248679784651391 0 -0.42953570939086289 -0.2108746037629661 0 -0.42678981672513328 -0.19739598964343191 0 -0.42228057327793761 -0.2226908690773603 0 -0.41955749999056458 -0.21209811064452011 0 -0.42953570939086289 -0.2108746037629661 0 -0.43544374372047762 -0.2231576225735514 0 -0.42953570939086289 -0.2108746037629661 0 -0.44025467855012501 -0.21296269638496229 0 -0.42953570939086289 -0.2108746037629661 0 -0.4363676620756215 -0.20768997005573339 0 -0.44025467855012501 -0.21296269638496229 0 -0.42953570939086289 -0.2108746037629661 0 -0.4363676620756215 -0.20768997005573339 0 -0.43531487581492417 -0.2008085785909621 0 -0.42953570939086289 -0.2108746037629661 0 -0.43531487581492417 -0.2008085785909621 0 -0.42678981672513328 -0.19739598964343191 0 -0.43531487581492417 -0.2008085785909621 0 -0.43648387014665202 -0.1923470772561037 0 -0.42678981672513328 -0.19739598964343191 0 -0.43648387014665202 -0.1923470772561037 0 -0.42665007260720128 -0.18657818709063681 0 -0.43420377346572081 -0.18487431312750399 0 -0.43648387014665202 -0.1923470772561037 0 -0.42678981672513328 -0.19739598964343191 0 -0.42665007260720128 -0.18657818709063681 0 -0.41237516402203012 -0.1890364630841154 0 -0.42678981672513328 -0.19739598964343191 0 -0.42665007260720128 -0.18657818709063681 0 -0.42884932546563309 -0.1810467838099511 0 -0.435648902331635 -0.1749012259534912 0 -0.41947106385242172 -0.17650218499515899 0 -0.42665007260720128 -0.18657818709063681 0 -0.42884932546563309 -0.1810467838099511 0 -0.41947106385242172 -0.17650218499515899 0 -0.42884932546563309 -0.1810467838099511 0 -0.43420377346572081 -0.18487431312750399 0 -0.435648902331635 -0.1749012259534912 0 -0.42665007260720128 -0.18657818709063681 0 -0.42884932546563309 -0.1810467838099511 0 -0.43420377346572081 -0.18487431312750399 0 -0.43201929526090982 -0.16536011238675519 0 -0.41273786549552022 -0.16242602661126421 0 -0.43004205477244628 -0.14618678742155519 0 -0.435648902331635 -0.1749012259534912 0 -0.41273786549552022 -0.16242602661126421 0 -0.41947106385242172 -0.17650218499515899 0 -0.435648902331635 -0.1749012259534912 0 -0.41273786549552022 -0.16242602661126421 0 -0.43201929526090982 -0.16536011238675519 0 -0.43148455225592242 -0.1480052269170497 0 -0.44659526176775882 -0.1670540719209605 0 -0.435648902331635 -0.1749012259534912 0 -0.43201929526090982 -0.16536011238675519 0 -0.41273786549552022 -0.16242602661126421 0 -0.41237516402203012 -0.1890364630841154 0 -0.41947106385242172 -0.17650218499515899 0 -0.3972823685587783 -0.17751663140089241 0 -0.41273786549552022 -0.16242602661126421 0 -0.41947106385242172 -0.17650218499515899 0 -0.3972823685587783 -0.17751663140089241 0 -0.41237516402203012 -0.1890364630841154 0 -0.42665007260720128 -0.18657818709063681 0 -0.41947106385242172 -0.17650218499515899 0 -0.3700359517356952 -0.163273024819273 0 -0.37450924335813951 -0.18796194730481389 0 -0.3972823685587783 -0.17751663140089241 0 -0.3700359517356952 -0.163273024819273 0 -0.3972823685587783 -0.17751663140089241 0 -0.39040333905385127 -0.14861960319602369 0 -0.41273786549552022 -0.16242602661126421 0 -0.3972823685587783 -0.17751663140089241 0 -0.39040333905385127 -0.14861960319602369 0 -0.41273786549552022 -0.16242602661126421 0 -0.39040333905385127 -0.14861960319602369 0 -0.41273786549552022 -0.16242602661126421 0 -0.39040333905385127 -0.14861960319602369 0 -0.40882589539458808 -0.14378599276260781 0 -0.39040333905385127 -0.14861960319602369 0 -0.39635954035601118 -0.1306571174719994 0 -0.40882589539458808 -0.14378599276260781 0 -0.39040333905385127 -0.14861960319602369 0 -0.37810123853258432 -0.1264373505029267 0 -0.39635954035601118 -0.1306571174719994 0 -0.39635954035601118 -0.1306571174719994 0 -0.41348884777713413 -0.12531950292214969 0 -0.40882589539458808 -0.14378599276260781 0 -0.41348884777713413 -0.12531950292214969 0 -0.40882589539458808 -0.14378599276260781 0 -0.43004205477244628 -0.14618678742155519 0 -0.41348884777713413 -0.12531950292214969 0 -0.43004205477244628 -0.14618678742155519 0 -0.41273786549552022 -0.16242602661126421 0 -0.40882589539458808 -0.14378599276260781 0 -0.43004205477244628 -0.14618678742155519 0 -0.43201929526090982 -0.16536011238675519 0 -0.43004205477244628 -0.14618678742155519 0 -0.43148455225592242 -0.1480052269170497 0 -0.43004205477244628 -0.14618678742155519 0 -0.43148455225592242 -0.1480052269170497 0 -0.4435014208214485 -0.12817502981887899 0 -0.43004205477244628 -0.14618678742155519 0 -0.43148455225592242 -0.1480052269170497 0 -0.43148455225592242 -0.1480052269170497 0 -0.4435014208214485 -0.12817502981887899 0 -0.41348884777713413 -0.12531950292214969 0 -0.43004205477244628 -0.14618678742155519 0 -0.4435014208214485 -0.12817502981887899 0 -0.43148455225592242 -0.1480052269170497 0 -0.4435014208214485 -0.12817502981887899 0 -0.44964578862570509 -0.1454798364646574 0 -0.4435014208214485 -0.12817502981887899 0 -0.44964578862570509 -0.1454798364646574 0 -0.46242203688343492 -0.1318537955888088 0 -0.43148455225592242 -0.1480052269170497 0 -0.44964578862570509 -0.1454798364646574 0 -0.44659526176775882 -0.1670540719209605 0 -0.44964578862570509 -0.1454798364646574 0 -0.46439684117850222 -0.1542925929585795 0 -0.46242203688343492 -0.1318537955888088 0 -0.44964578862570509 -0.1454798364646574 0 -0.46439684117850222 -0.1542925929585795 0 -0.44659526176775882 -0.1670540719209605 0 -0.46242203688343492 -0.1318537955888088 0 -0.482198420589251 -0.14153111399620599 0 -0.4793703739069069 -0.1132209035643055 0 -0.49999999999999978 -0.12876963503383251 0 -0.482198420589251 -0.14153111399620599 0 -0.49999999999999978 -0.12876963503383251 0 -0.482198420589251 -0.14153111399620599 0 -0.4793703739069069 -0.1132209035643055 0 -0.49999999999999978 -0.12876963503383251 0 -0.5 -0.15517149896411361 0 -0.482198420589251 -0.14153111399620599 0 -0.5 -0.15517149896411361 0 -0.482198420589251 -0.14153111399620599 0 -0.48191950094013009 -0.16603066094811411 0 -0.46439684117850222 -0.1542925929585795 0 -0.46242203688343492 -0.1318537955888088 0 -0.482198420589251 -0.14153111399620599 0 -0.46439684117850222 -0.1542925929585795 0 -0.482198420589251 -0.14153111399620599 0 -0.46439684117850222 -0.1542925929585795 0 -0.482198420589251 -0.14153111399620599 0 -0.48191950094013009 -0.16603066094811411 0 -0.46439684117850222 -0.1542925929585795 0 -0.48191950094013009 -0.16603066094811411 0 -0.46303778429000808 -0.17119364564406431 0 -0.5 -0.15517149896411361 0 -0.48191950094013009 -0.16603066094811411 0 -0.5 -0.18157336289439491 0 -0.48191950094013009 -0.16603066094811411 0 -0.5 -0.18157336289439491 0 -0.48206891065805019 -0.18712102656810509 0 -0.48191950094013009 -0.16603066094811411 0 -0.48206891065805019 -0.18712102656810509 0 -0.46303778429000808 -0.17119364564406431 0 -0.48206891065805019 -0.18712102656810509 0 -0.46303778429000808 -0.17119364564406431 0 -0.46332728947106 -0.18814678117274561 0 -0.46303778429000808 -0.17119364564406431 0 -0.44659526176775882 -0.1670540719209605 0 -0.46332728947106 -0.18814678117274561 0 -0.44659526176775882 -0.1670540719209605 0 -0.46332728947106 -0.18814678117274561 0 -0.44659526176775882 -0.1670540719209605 0 -0.45089662586623491 -0.1808690562753342 0 -0.46332728947106 -0.18814678117274561 0 -0.45089662586623491 -0.1808690562753342 0 -0.45740691837885761 -0.19003887344174511 0 -0.46332728947106 -0.18814678117274561 0 -0.46439684117850222 -0.1542925929585795 0 -0.46303778429000808 -0.17119364564406431 0 -0.44659526176775882 -0.1670540719209605 0 -0.46439684117850222 -0.1542925929585795 0 -0.44659526176775882 -0.1670540719209605 0 -0.43148455225592242 -0.1480052269170497 0 -0.44659526176775882 -0.1670540719209605 0 -0.435648902331635 -0.1749012259534912 0 -0.43201929526090982 -0.16536011238675519 0 -0.44659526176775882 -0.1670540719209605 0 -0.435648902331635 -0.1749012259534912 0 -0.44659526176775882 -0.1670540719209605 0 -0.44113148203880143 -0.17871560676620929 0 -0.45740691837885761 -0.19003887344174511 0 -0.44113148203880143 -0.17871560676620929 0 -0.44306527079351532 -0.1879507037697912 0 -0.45740691837885761 -0.19003887344174511 0 -0.435648902331635 -0.1749012259534912 0 -0.44659526176775882 -0.1670540719209605 0 -0.43872590057453881 -0.1761536127844622 0 -0.44113148203880143 -0.17871560676620929 0 -0.45089662586623491 -0.1808690562753342 0 -0.45740691837885761 -0.19003887344174511 0 -0.44659526176775882 -0.1670540719209605 0 -0.44113148203880143 -0.17871560676620929 0 -0.43872590057453881 -0.1761536127844622 0 -0.435648902331635 -0.1749012259534912 0 -0.44113148203880143 -0.17871560676620929 0 -0.43872590057453881 -0.1761536127844622 0 -0.435648902331635 -0.1749012259534912 0 -0.44113148203880143 -0.17871560676620929 0 -0.435648902331635 -0.1749012259534912 0 -0.44113148203880143 -0.17871560676620929 0 -0.44306527079351532 -0.1879507037697912 0 -0.43420377346572081 -0.18487431312750399 0 -0.435648902331635 -0.1749012259534912 0 -0.44306527079351532 -0.1879507037697912 0 -0.44659526176775882 -0.1670540719209605 0 -0.44113148203880143 -0.17871560676620929 0 -0.45089662586623491 -0.1808690562753342 0 -0.44885510812259499 -0.20057444147468051 0 -0.4486928484759824 -0.1935222895041418 0 -0.44261966642901718 -0.19713527684398621 0 -0.44885510812259499 -0.20057444147468051 0 -0.4486928484759824 -0.1935222895041418 0 -0.45569897043246238 -0.1978276389814386 0 -0.4486928484759824 -0.1935222895041418 0 -0.44306527079351532 -0.1879507037697912 0 -0.45740691837885761 -0.19003887344174511 0 -0.43648387014665202 -0.1923470772561037 0 -0.43420377346572081 -0.18487431312750399 0 -0.44306527079351532 -0.1879507037697912 0 -0.4486928484759824 -0.1935222895041418 0 -0.44352606512457698 -0.19269431287626859 0 -0.44261966642901718 -0.19713527684398621 0 -0.4486928484759824 -0.1935222895041418 0 -0.44352606512457698 -0.19269431287626859 0 -0.44306527079351532 -0.1879507037697912 0 -0.43648387014665202 -0.1923470772561037 0 -0.44352606512457698 -0.19269431287626859 0 -0.44306527079351532 -0.1879507037697912 0 -0.43648387014665202 -0.1923470772561037 0 -0.44352606512457698 -0.19269431287626859 0 -0.44261966642901718 -0.19713527684398621 0 -0.43531487581492417 -0.2008085785909621 0 -0.43648387014665202 -0.1923470772561037 0 -0.44261966642901718 -0.19713527684398621 0 -0.44885510812259499 -0.20057444147468051 0 -0.44261966642901718 -0.19713527684398621 0 -0.44207060449648239 -0.2045475801115868 0 -0.43531487581492417 -0.2008085785909621 0 -0.44261966642901718 -0.19713527684398621 0 -0.44207060449648239 -0.2045475801115868 0 -0.44207060449648239 -0.2045475801115868 0 -0.44025467855012501 -0.21296269638496229 0 -0.44803496314752361 -0.20907582363182869 0 -0.4363676620756215 -0.20768997005573339 0 -0.43531487581492417 -0.2008085785909621 0 -0.44207060449648239 -0.2045475801115868 0 -0.4363676620756215 -0.20768997005573339 0 -0.44207060449648239 -0.2045475801115868 0 -0.44025467855012501 -0.21296269638496229 0 -0.44025467855012501 -0.21296269638496229 0 -0.44803496314752361 -0.20907582363182869 0 -0.44728780893060288 -0.21924753700627 0 -0.43544374372047762 -0.2231576225735514 0 -0.44025467855012501 -0.21296269638496229 0 -0.44728780893060288 -0.21924753700627 0 -0.44803496314752361 -0.20907582363182869 0 -0.45484268946348722 -0.21282254198996589 0 -0.44728780893060288 -0.21924753700627 0 -0.44885510812259499 -0.20057444147468051 0 -0.44207060449648239 -0.2045475801115868 0 -0.44803496314752361 -0.20907582363182869 0 -0.44803496314752361 -0.20907582363182869 0 -0.45527906583882322 -0.20500344595060599 0 -0.45484268946348722 -0.21282254198996589 0 -0.44885510812259499 -0.20057444147468051 0 -0.44803496314752361 -0.20907582363182869 0 -0.45527906583882322 -0.20500344595060599 0 -0.45527906583882322 -0.20500344595060599 0 -0.45484268946348722 -0.21282254198996589 0 -0.46359017524727753 -0.2105835288955745 0 -0.45527906583882322 -0.20500344595060599 0 -0.4628423053573647 -0.2031877152222416 0 -0.46359017524727753 -0.2105835288955745 0 -0.45484268946348722 -0.21282254198996589 0 -0.46222393979242088 -0.21771795956331699 0 -0.46359017524727753 -0.2105835288955745 0 -0.45484268946348722 -0.21282254198996589 0 -0.46222393979242088 -0.21771795956331699 0 -0.45822932742267791 -0.22475527787154889 0 -0.46222393979242088 -0.21771795956331699 0 -0.4682468254470466 -0.21663181484562721 0 -0.46359017524727753 -0.2105835288955745 0 -0.45527906583882322 -0.20500344595060599 0 -0.4628423053573647 -0.2031877152222416 0 -0.45569897043246238 -0.1978276389814386 0 -0.4628423053573647 -0.2031877152222416 0 -0.46386696016282131 -0.19768809984854019 0 -0.45569897043246238 -0.1978276389814386 0 -0.44885510812259499 -0.20057444147468051 0 -0.45527906583882322 -0.20500344595060599 0 -0.45569897043246238 -0.1978276389814386 0 -0.4486928484759824 -0.1935222895041418 0 -0.45569897043246238 -0.1978276389814386 0 -0.45740691837885761 -0.19003887344174511 0 -0.46386696016282131 -0.19768809984854019 0 -0.45569897043246238 -0.1978276389814386 0 -0.45740691837885761 -0.19003887344174511 0 -0.46386696016282131 -0.19768809984854019 0 -0.45740691837885761 -0.19003887344174511 0 -0.46332728947106 -0.18814678117274561 0 -0.48206891065805019 -0.18712102656810509 0 -0.46332728947106 -0.18814678117274561 0 -0.48173486354933848 -0.20588772445970921 0 -0.46386696016282131 -0.19768809984854019 0 -0.46332728947106 -0.18814678117274561 0 -0.48005931717436051 -0.20923949042453119 0 -0.46332728947106 -0.18814678117274561 0 -0.48005931717436051 -0.20923949042453119 0 -0.46332728947106 -0.18814678117274561 0 -0.48173486354933848 -0.20588772445970921 0 -0.48005931717436051 -0.20923949042453119 0 -0.5 -0.18157336289439491 0 -0.48206891065805019 -0.18712102656810509 0 -0.49049429695268848 -0.1983586141899919 0 -0.48206891065805019 -0.18712102656810509 0 -0.49049429695268848 -0.1983586141899919 0 -0.48173486354933848 -0.20588772445970921 0 -0.5 -0.18157336289439491 0 -0.49049429695268848 -0.1983586141899919 0 -0.5 -0.20797522682467601 0 -0.5 -0.20797522682467601 0 -0.48866771055605368 -0.20923573020307429 0 -0.49002965858718017 -0.22180829058974391 0 -0.49049429695268848 -0.1983586141899919 0 -0.5 -0.20797522682467601 0 -0.48866771055605368 -0.20923573020307429 0 -0.49049429695268848 -0.1983586141899919 0 -0.48866771055605368 -0.20923573020307429 0 -0.48173486354933848 -0.20588772445970921 0 -0.48866771055605368 -0.20923573020307429 0 -0.48005931717436051 -0.20923949042453119 0 -0.49002965858718017 -0.22180829058974391 0 -0.48005931717436051 -0.20923949042453119 0 -0.49002965858718017 -0.22180829058974391 0 -0.4628423053573647 -0.2031877152222416 0 -0.46359017524727753 -0.2105835288955745 0 -0.48005931717436051 -0.20923949042453119 0 -0.4682468254470466 -0.21663181484562721 0 -0.46359017524727753 -0.2105835288955745 0 -0.48005931717436051 -0.20923949042453119 0 -0.4628423053573647 -0.2031877152222416 0 -0.46386696016282131 -0.19768809984854019 0 -0.48005931717436051 -0.20923949042453119 0 -0.48866771055605368 -0.20923573020307429 0 -0.48173486354933848 -0.20588772445970921 0 -0.48005931717436051 -0.20923949042453119 0 -0.48173486354933848 -0.20588772445970921 0 -0.48005931717436051 -0.20923949042453119 0 -0.48005931717436051 -0.20923949042453119 0 -0.46942269216716243 -0.23051701410999309 0 -0.4824166374833645 -0.23044904517566631 0 -0.48005931717436051 -0.20923949042453119 0 -0.46942269216716243 -0.23051701410999309 0 -0.4682468254470466 -0.21663181484562721 0 -0.48005931717436051 -0.20923949042453119 0 -0.46942269216716243 -0.23051701410999309 0 -0.48005931717436051 -0.20923949042453119 0 -0.4824166374833645 -0.23044904517566631 0 -0.49002965858718017 -0.22180829058974391 0 -0.46942269216716243 -0.23051701410999309 0 -0.4824166374833645 -0.23044904517566631 0 -0.47165946515002383 -0.23937771820523421 0 -0.5 -0.20797522682467601 0 -0.49002965858718017 -0.22180829058974391 0 -0.49999999999999928 -0.23437709075495711 0 -0.4824166374833645 -0.23044904517566631 0 -0.49002965858718017 -0.22180829058974391 0 -0.49999999999999928 -0.23437709075495711 0 -0.49002965858718017 -0.22180829058974391 0 -0.49999999999999928 -0.23437709075495711 0 -0.5 -0.25513944678205691 0 -0.49999999999999928 -0.23437709075495711 0 -0.48710415002468499 -0.24282043388613209 0 -0.4824166374833645 -0.23044904517566631 0 -0.49999999999999928 -0.23437709075495711 0 -0.48710415002468499 -0.24282043388613209 0 -0.48582973257501127 -0.25763976050719561 0 -0.48710415002468499 -0.24282043388613209 0 -0.47165946515002383 -0.23937771820523421 0 -0.48582973257501127 -0.25763976050719561 0 -0.47165946515002383 -0.23937771820523421 0 -0.4824166374833645 -0.23044904517566631 0 -0.48710415002468499 -0.24282043388613209 0 -0.47165946515002383 -0.23937771820523421 0 -0.45878606715996467 -0.2517945377954553 0 -0.46942269216716243 -0.23051701410999309 0 -0.45878606715996467 -0.2517945377954553 0 -0.46942269216716243 -0.23051701410999309 0 -0.45678474151259468 -0.23686636396180821 0 -0.45878606715996467 -0.2517945377954553 0 -0.47129466414523008 -0.25628396392672281 0 -0.47165946515002383 -0.23937771820523421 0 -0.45878606715996467 -0.2517945377954553 0 -0.46942269216716243 -0.23051701410999309 0 -0.47165946515002383 -0.23937771820523421 0 -0.45878606715996467 -0.2517945377954553 0 -0.45678474151259468 -0.23686636396180821 0 -0.45067977495956552 -0.2429573021959609 0 -0.46942269216716243 -0.23051701410999309 0 -0.45678474151259468 -0.23686636396180821 0 -0.45822932742267791 -0.22475527787154889 0 -0.4682468254470466 -0.21663181484562721 0 -0.46942269216716243 -0.23051701410999309 0 -0.4645306962073269 -0.22240551659762151 0 -0.46942269216716243 -0.23051701410999309 0 -0.4645306962073269 -0.22240551659762151 0 -0.45822932742267791 -0.22475527787154889 0 -0.46222393979242088 -0.21771795956331699 0 -0.4682468254470466 -0.21663181484562721 0 -0.4645306962073269 -0.22240551659762151 0 -0.46222393979242088 -0.21771795956331699 0 -0.4645306962073269 -0.22240551659762151 0 -0.45822932742267791 -0.22475527787154889 0 -0.45484268946348722 -0.21282254198996589 0 -0.45822932742267791 -0.22475527787154889 0 -0.44728780893060288 -0.21924753700627 0 -0.45678474151259468 -0.23686636396180821 0 -0.45822932742267791 -0.22475527787154889 0 -0.44594477844023872 -0.23367256589839541 0 -0.45822932742267791 -0.22475527787154889 0 -0.44594477844023872 -0.23367256589839541 0 -0.44728780893060288 -0.21924753700627 0 -0.43544374372047762 -0.2231576225735514 0 -0.44594477844023872 -0.23367256589839541 0 -0.44728780893060288 -0.21924753700627 0 -0.44594477844023872 -0.23367256589839541 0 -0.44120351272546382 -0.24949574112818459 0 -0.45067977495956552 -0.2429573021959609 0 -0.45878606715996467 -0.2517945377954553 0 -0.44120351272546382 -0.24949574112818459 0 -0.45067977495956552 -0.2429573021959609 0 -0.43007916991708373 -0.23668069015395191 0 -0.44594477844023872 -0.23367256589839541 0 -0.44120351272546382 -0.24949574112818459 0 -0.45678474151259468 -0.23686636396180821 0 -0.44594477844023872 -0.23367256589839541 0 -0.45067977495956552 -0.2429573021959609 0 -0.41982603186032769 -0.041351790585594801 0 -0.42824646001798622 -0.031588011635109631 0 -0.4114170080334788 -0.029182758675268029 0 -0.41982603186032769 -0.041351790585594801 0 -0.41103867726705512 -0.049095153126786473 0 -0.4211721013311443 -0.04870132874176205 0 -0.41982603186032769 -0.041351790585594801 0 -0.40992587594653002 -0.039414443421656793 0 -0.4114170080334788 -0.029182758675268029 0 -0.40992587594653002 -0.039414443421656793 0 -0.41103867726705512 -0.049095153126786473 0 -0.40286066975777918 -0.044713846865909679 0 -0.41982603186032769 -0.041351790585594801 0 -0.40992587594653002 -0.039414443421656793 0 -0.41103867726705512 -0.049095153126786473 0 -0.41103867726705512 -0.049095153126786473 0 -0.40749591597405599 -0.058186316513680447 0 -0.40217581306740791 -0.052946484160691358 0 -0.41103867726705512 -0.049095153126786473 0 -0.40749591597405599 -0.058186316513680447 0 -0.41755903181997872 -0.058492013722158051 0 -0.41103867726705512 -0.049095153126786473 0 -0.41755903181997872 -0.058492013722158051 0 -0.4211721013311443 -0.04870132874176205 0 -0.4241400494470578 -0.059794157457278417 0 -0.43626466437721578 -0.045866357532508881 0 -0.4494266996313746 -0.048470645002750549 0 -0.41755903181997872 -0.058492013722158051 0 -0.43626466437721578 -0.045866357532508881 0 -0.41755903181997872 -0.058492013722158051 0 -0.4211721013311443 -0.04870132874176205 0 -0.43626466437721578 -0.045866357532508881 0 -0.41755903181997872 -0.058492013722158051 0 -0.4241400494470578 -0.059794157457278417 0 -0.43626466437721578 -0.045866357532508881 0 -0.4241400494470578 -0.059794157457278417 0 -0.4494266996313746 -0.048470645002750549 0 -0.43626466437721578 -0.045866357532508881 0 -0.42824646001798622 -0.031588011635109631 0 -0.44098049637264669 -0.029255226736234839 0 -0.41982603186032769 -0.041351790585594801 0 -0.43626466437721578 -0.045866357532508881 0 -0.42824646001798622 -0.031588011635109631 0 -0.41982603186032769 -0.041351790585594801 0 -0.4211721013311443 -0.04870132874176205 0 -0.43626466437721578 -0.045866357532508881 0 -0.42824646001798622 -0.031588011635109631 0 -0.43483771469630822 -0.019509695900568891 0 -0.44098049637264669 -0.029255226736234839 0 -0.42824646001798622 -0.031588011635109631 0 -0.43483771469630822 -0.019509695900568891 0 -0.41948014579717052 -0.01513729606902754 0 -0.43483771469630822 -0.019509695900568891 0 -0.43359431412202848 -0.0047248887772982414 0 -0.41948014579717052 -0.01513729606902754 0 -0.41948014579717052 -0.01513729606902754 0 -0.39698843612805151 -0.015654496233042992 0 -0.41158373617842509 0.003795160584341678 0 -0.43359431412202848 -0.0047248887772982414 0 -0.41948014579717052 -0.01513729606902754 0 -0.41158373617842509 0.003795160584341678 0 -0.41948014579717052 -0.01513729606902754 0 -0.4114170080334788 -0.029182758675268029 0 -0.39698843612805151 -0.015654496233042992 0 -0.42824646001798622 -0.031588011635109631 0 -0.41948014579717052 -0.01513729606902754 0 -0.4114170080334788 -0.029182758675268029 0 -0.39698843612805151 -0.015654496233042992 0 -0.38088305588328158 -0.030505297579722469 0 -0.39693161415794498 -0.037081845462787019 0 -0.4114170080334788 -0.029182758675268029 0 -0.39698843612805151 -0.015654496233042992 0 -0.39693161415794498 -0.037081845462787019 0 -0.39698843612805151 -0.015654496233042992 0 -0.41158373617842509 0.003795160584341678 0 -0.38558511302035892 0.007592159259512639 0 -0.37322146010430751 -0.009920012430019198 0 -0.39698843612805151 -0.015654496233042992 0 -0.38558511302035892 0.007592159259512639 0 -0.37322146010430751 -0.009920012430019198 0 -0.38088305588328158 -0.030505297579722469 0 -0.37322146010430751 -0.009920012430019198 0 -0.39698843612805151 -0.015654496233042992 0 -0.38088305588328158 -0.030505297579722469 0 -0.36732833405143278 -0.041590332287543039 0 -0.38088305588328158 -0.030505297579722469 0 -0.38355635549062778 -0.046645408696212858 0 -0.38088305588328158 -0.030505297579722469 0 -0.38355635549062778 -0.046645408696212858 0 -0.39693161415794498 -0.037081845462787019 0 -0.38355635549062778 -0.046645408696212858 0 -0.39693161415794498 -0.037081845462787019 0 -0.39524227212225999 -0.050350417793372397 0 -0.39693161415794498 -0.037081845462787019 0 -0.40286066975777918 -0.044713846865909679 0 -0.39524227212225999 -0.050350417793372397 0 -0.40992587594653002 -0.039414443421656793 0 -0.39693161415794498 -0.037081845462787019 0 -0.40286066975777918 -0.044713846865909679 0 -0.40992587594653002 -0.039414443421656793 0 -0.4114170080334788 -0.029182758675268029 0 -0.39693161415794498 -0.037081845462787019 0 -0.40749591597405599 -0.058186316513680447 0 -0.40217581306740791 -0.052946484160691358 0 -0.39802626290959348 -0.06037724341915876 0 -0.41103867726705512 -0.049095153126786473 0 -0.40286066975777918 -0.044713846865909679 0 -0.40217581306740791 -0.052946484160691358 0 -0.40286066975777918 -0.044713846865909679 0 -0.40217581306740791 -0.052946484160691358 0 -0.39524227212225999 -0.050350417793372397 0 -0.40217581306740791 -0.052946484160691358 0 -0.39524227212225999 -0.050350417793372397 0 -0.39802626290959348 -0.06037724341915876 0 -0.39802626290959348 -0.06037724341915876 0 -0.38790291735020638 -0.060337678155474722 0 -0.39362545439054908 -0.065823339534366407 0 -0.39524227212225999 -0.050350417793372397 0 -0.39802626290959348 -0.06037724341915876 0 -0.38790291735020638 -0.060337678155474722 0 -0.36690839861212349 -0.066599311414145962 0 -0.38355635549062778 -0.046645408696212858 0 -0.36690839861212349 -0.066599311414145962 0 -0.38355635549062778 -0.046645408696212858 0 -0.38790291735020638 -0.060337678155474722 0 -0.38355635549062778 -0.046645408696212858 0 -0.39524227212225999 -0.050350417793372397 0 -0.38790291735020638 -0.060337678155474722 0 -0.36690839861212349 -0.066599311414145962 0 -0.38790291735020638 -0.060337678155474722 0 -0.38262678477322548 -0.071470915606962893 0 -0.36690839861212349 -0.066599311414145962 0 -0.38262678477322548 -0.071470915606962893 0 -0.38038243378650871 -0.083584933923339655 0 -0.38038243378650871 -0.083584933923339655 0 -0.39885339926274122 -0.071117669911806819 0 -0.38790291735020638 -0.060337678155474722 0 -0.38262678477322548 -0.071470915606962893 0 -0.39362545439054908 -0.065823339534366407 0 -0.38262678477322548 -0.071470915606962893 0 -0.39362545439054908 -0.065823339534366407 0 -0.39486326534506477 -0.07290447562876376 0 -0.38262678477322548 -0.071470915606962893 0 -0.38038243378650871 -0.083584933923339655 0 -0.39486326534506477 -0.07290447562876376 0 -0.38038243378650871 -0.083584933923339655 0 -0.39885339926274122 -0.071117669911806819 0 -0.40800366861937842 -0.088366530129077317 0 -0.38038243378650871 -0.083584933923339655 0 -0.39693564078182209 -0.1044522184227442 0 -0.40800366861937842 -0.088366530129077317 0 -0.38038243378650871 -0.083584933923339655 0 -0.39885339926274122 -0.071117669911806819 0 -0.39486326534506477 -0.07290447562876376 0 -0.40749591597405599 -0.058186316513680447 0 -0.39802626290959348 -0.06037724341915876 0 -0.39885339926274122 -0.071117669911806819 0 -0.39885339926274122 -0.071117669911806819 0 -0.39362545439054908 -0.065823339534366407 0 -0.39486326534506477 -0.07290447562876376 0 -0.39802626290959348 -0.06037724341915876 0 -0.39885339926274122 -0.071117669911806819 0 -0.39362545439054908 -0.065823339534366407 0 -0.39885339926274122 -0.071117669911806819 0 -0.39486326534506477 -0.07290447562876376 0 -0.37810123853258432 -0.1264373505029267 0 -0.39635954035601118 -0.1306571174719994 0 -0.39693564078182209 -0.1044522184227442 0 -0.37810123853258432 -0.1264373505029267 0 -0.37574871647438768 -0.1064477865639807 0 -0.39693564078182209 -0.1044522184227442 0 -0.38038243378650871 -0.083584933923339655 0 -0.37574871647438768 -0.1064477865639807 0 -0.39693564078182209 -0.1044522184227442 0 -0.38038243378650871 -0.083584933923339655 0 -0.39693564078182209 -0.1044522184227442 0 -0.39635954035601118 -0.1306571174719994 0 -0.41348884777713413 -0.12531950292214969 0 -0.39693564078182209 -0.1044522184227442 0 -0.41348884777713413 -0.12531950292214969 0 -0.39693564078182209 -0.1044522184227442 0 -0.41348884777713413 -0.12531950292214969 0 -0.41665763315233151 -0.1033128207543017 0 -0.43534271940115521 -0.1096288148458827 0 -0.41348884777713413 -0.12531950292214969 0 -0.39693564078182209 -0.1044522184227442 0 -0.41665763315233151 -0.1033128207543017 0 -0.39693564078182209 -0.1044522184227442 0 -0.41665763315233151 -0.1033128207543017 0 -0.40800366861937842 -0.088366530129077317 0 -0.43534271940115521 -0.1096288148458827 0 -0.42951728918216758 -0.088797037451654806 0 -0.44617756571568429 -0.09332954600943752 0 -0.41665763315233151 -0.1033128207543017 0 -0.43534271940115521 -0.1096288148458827 0 -0.42951728918216758 -0.088797037451654806 0 -0.41348884777713413 -0.12531950292214969 0 -0.4435014208214485 -0.12817502981887899 0 -0.43534271940115521 -0.1096288148458827 0 -0.4241400494470578 -0.059794157457278417 0 -0.39885339926274122 -0.071117669911806819 0 -0.41755903181997872 -0.058492013722158051 0 -0.4241400494470578 -0.059794157457278417 0 -0.39885339926274122 -0.071117669911806819 0 -0.40749591597405599 -0.058186316513680447 0 -0.41755903181997872 -0.058492013722158051 0 -0.39885339926274122 -0.071117669911806819 0 -0.41755903181997872 -0.058492013722158051 0 -0.39885339926274122 -0.071117669911806819 0 -0.4241400494470578 -0.059794157457278417 0 -0.39885339926274122 -0.071117669911806819 0 -0.40800366861937842 -0.088366530129077317 0 -0.4241400494470578 -0.059794157457278417 0 -0.40800366861937842 -0.088366530129077317 0 -0.42951728918216758 -0.088797037451654806 0 -0.41665763315233151 -0.1033128207543017 0 -0.40800366861937842 -0.088366530129077317 0 -0.42951728918216758 -0.088797037451654806 0 -0.4241400494470578 -0.059794157457278417 0 -0.42951728918216758 -0.088797037451654806 0 -0.44579549115736022 -0.074178752445502677 0 -0.42951728918216758 -0.088797037451654806 0 -0.44579549115736022 -0.074178752445502677 0 -0.44617756571568429 -0.09332954600943752 0 -0.44579549115736022 -0.074178752445502677 0 -0.44617756571568429 -0.09332954600943752 0 -0.46733733153614232 -0.088671563641572165 0 -0.44579549115736022 -0.074178752445502677 0 -0.46733733153614232 -0.088671563641572165 0 -0.46122050576440599 -0.063246995274818293 0 -0.4435014208214485 -0.12817502981887899 0 -0.43534271940115521 -0.1096288148458827 0 -0.45541937617879541 -0.1084232967302256 0 -0.4435014208214485 -0.12817502981887899 0 -0.45541937617879541 -0.1084232967302256 0 -0.43534271940115521 -0.1096288148458827 0 -0.44617756571568429 -0.09332954600943752 0 -0.45541937617879541 -0.1084232967302256 0 -0.46733733153614232 -0.088671563641572165 0 -0.45541937617879541 -0.1084232967302256 0 -0.46733733153614232 -0.088671563641572165 0 -0.45541937617879541 -0.1084232967302256 0 -0.4793703739069069 -0.1132209035643055 0 -0.44617756571568429 -0.09332954600943752 0 -0.46733733153614232 -0.088671563641572165 0 -0.45541937617879541 -0.1084232967302256 0 -0.4435014208214485 -0.12817502981887899 0 -0.46242203688343492 -0.1318537955888088 0 -0.45541937617879541 -0.1084232967302256 0 -0.46242203688343492 -0.1318537955888088 0 -0.45541937617879541 -0.1084232967302256 0 -0.4793703739069069 -0.1132209035643055 0 -0.46733733153614232 -0.088671563641572165 0 -0.4793703739069069 -0.1132209035643055 0 -0.48616940930436309 -0.090164879431279862 0 -0.4793703739069069 -0.1132209035643055 0 -0.5 -0.1030331312987974 0 -0.48616940930436309 -0.090164879431279862 0 -0.49999999999999978 -0.12876963503383251 0 -0.4793703739069069 -0.1132209035643055 0 -0.5 -0.1030331312987974 0 -0.46733733153614232 -0.088671563641572165 0 -0.46122050576440599 -0.063246995274818293 0 -0.47925528689348917 -0.068919830552918754 0 -0.46733733153614232 -0.088671563641572165 0 -0.47925528689348917 -0.068919830552918754 0 -0.48616940930436309 -0.090164879431279862 0 -0.46733733153614232 -0.088671563641572165 0 -0.47925528689348917 -0.068919830552918754 0 -0.5 -0.1030331312987974 0 -0.48616940930436309 -0.090164879431279862 0 -0.5 -0.077296627563762321 0 -0.47925528689348917 -0.068919830552918754 0 -0.48616940930436309 -0.090164879431279862 0 -0.5 -0.077296627563762321 0 -0.47925528689348917 -0.068919830552918754 0 -0.5 -0.077296627563762321 0 -0.5 -0.051560123828727322 0 -0.47925528689348917 -0.068919830552918754 0 -0.5 -0.051560123828727322 0 -0.47471334981569141 -0.037147132548222668 0 -0.46122050576440599 -0.063246995274818293 0 -0.47925528689348917 -0.068919830552918754 0 -0.47471334981569141 -0.037147132548222668 0 -0.5 -0.051560123828727322 0 -0.47471334981569141 -0.037147132548222668 0 -0.50000000000000699 -0.025823620093692209 0 -0.47471334981569141 -0.037147132548222668 0 -0.50000000000000699 -0.025823620093692209 0 -0.46122050576440599 -0.063246995274818293 0 -0.47471334981569141 -0.037147132548222668 0 -0.4494266996313746 -0.048470645002750549 0 -0.47471334981569141 -0.037147132548222668 0 -0.45497029693445301 -0.033240701342859703 0 -0.4494266996313746 -0.048470645002750549 0 -0.47471334981569141 -0.037147132548222668 0 -0.45497029693445301 -0.033240701342859703 0 -0.46672357170917039 -0.02568358515772478 0 -0.47471334981569141 -0.037147132548222668 0 -0.4494266996313746 -0.048470645002750549 0 -0.43626466437721578 -0.045866357532508881 0 -0.45497029693445301 -0.033240701342859703 0 -0.44098049637264669 -0.029255226736234839 0 -0.43626466437721578 -0.045866357532508881 0 -0.45497029693445301 -0.033240701342859703 0 -0.43626466437721578 -0.045866357532508881 0 -0.45497029693445301 -0.033240701342859703 0 -0.4494266996313746 -0.048470645002750549 0 -0.4241400494470578 -0.059794157457278417 0 -0.44579549115736022 -0.074178752445502677 0 -0.4494266996313746 -0.048470645002750549 0 -0.44579549115736022 -0.074178752445502677 0 -0.46122050576440599 -0.063246995274818293 0 -0.4494266996313746 -0.048470645002750549 0 -0.43359431412202848 -0.0047248887772982414 0 -0.45058334583727072 -0.016071367270127111 0 -0.45127668143210109 0.0047351184600944712 0 -0.43483771469630822 -0.019509695900568891 0 -0.43359431412202848 -0.0047248887772982414 0 -0.45058334583727072 -0.016071367270127111 0 -0.45497029693445301 -0.033240701342859703 0 -0.45058334583727072 -0.016071367270127111 0 -0.44098049637264669 -0.029255226736234839 0 -0.43483771469630822 -0.019509695900568891 0 -0.45058334583727072 -0.016071367270127111 0 -0.44098049637264669 -0.029255226736234839 0 -0.45058334583727072 -0.016071367270127111 0 -0.46672357170917039 -0.02568358515772478 0 -0.46943577155126159 -0.01197616216935104 0 -0.45497029693445301 -0.033240701342859703 0 -0.45058334583727072 -0.016071367270127111 0 -0.46672357170917039 -0.02568358515772478 0 -0.46943577155126159 -0.01197616216935104 0 -0.47264501662920161 0.0052526366035078554 0 -0.45127668143210109 0.0047351184600944712 0 -0.45058334583727072 -0.016071367270127111 0 -0.46943577155126159 -0.01197616216935104 0 -0.45127668143210109 0.0047351184600944712 0 -0.46943577155126159 -0.01197616216935104 0 -0.48446997670682812 -0.0061537424245135192 0 -0.47264501662920161 0.0052526366035078554 0 -0.46943577155126159 -0.01197616216935104 0 -0.48321061143407379 -0.022226760045810281 0 -0.48446997670682812 -0.0061537424245135192 0 -0.46672357170917039 -0.02568358515772478 0 -0.46943577155126159 -0.01197616216935104 0 -0.48321061143407379 -0.022226760045810281 0 -0.47471334981569141 -0.037147132548222668 0 -0.46672357170917039 -0.02568358515772478 0 -0.48321061143407379 -0.022226760045810281 0 -0.47471334981569141 -0.037147132548222668 0 -0.48321061143407379 -0.022226760045810281 0 -0.50000000000000699 -0.025823620093692209 0 -0.48321061143407379 -0.022226760045810281 0 -0.50000000000000699 -0.025823620093692209 0 -0.48446997670682812 -0.0061537424245135192 0 -0.50000000000000699 -0.025823620093692209 0 -0.48446997670682812 -0.0061537424245135192 0 -0.5 -0.001420190075267058 0 -0.48446997670682812 -0.0061537424245135192 0 -0.5 -0.001420190075267058 0 -0.48603676586554712 0.01728252844834658 0 -0.5 -0.001420190075267058 0 -0.48603676586554712 0.01728252844834658 0 -0.5 0.022983239943158099 0 -0.48603676586554712 0.01728252844834658 0 -0.49061726058320532 0.035997183112282789 0 -0.47766077106497268 0.038080238812736568 0 -0.48603676586554712 0.01728252844834658 0 -0.5 0.022983239943158099 0 -0.49061726058320532 0.035997183112282789 0 -0.48603676586554712 0.01728252844834658 0 -0.47766077106497268 0.038080238812736568 0 -0.46547604122791092 0.021970644666210268 0 -0.48603676586554712 0.01728252844834658 0 -0.47766077106497268 0.038080238812736568 0 -0.48603676586554712 0.01728252844834658 0 -0.47264501662920161 0.0052526366035078554 0 -0.46547604122791092 0.021970644666210268 0 -0.48446997670682812 -0.0061537424245135192 0 -0.48603676586554712 0.01728252844834658 0 -0.47264501662920161 0.0052526366035078554 0 -0.48667316827898888 0.055877694715413803 0 -0.5 0.047386669961583187 0 -0.50000000000000022 0.071790099980008279 0 -0.5 0.022983239943158099 0 -0.5 0.047386669961583187 0 -0.49061726058320532 0.035997183112282789 0 -0.48667316827898888 0.055877694715413803 0 -0.5 0.047386669961583187 0 -0.49061726058320532 0.035997183112282789 0 -0.48667316827898888 0.055877694715413803 0 -0.49061726058320532 0.035997183112282789 0 -0.47766077106497268 0.038080238812736568 0 -0.47766077106497268 0.038080238812736568 0 -0.4692847762643983 0.058877949177126583 0 -0.45943195328958791 0.042824344678921211 0 -0.47766077106497268 0.038080238812736568 0 -0.4692847762643983 0.058877949177126583 0 -0.48667316827898888 0.055877694715413803 0 -0.47766077106497268 0.038080238812736568 0 -0.4692847762643983 0.058877949177126583 0 -0.4692847762643983 0.058877949177126583 0 -0.45943195328958791 0.042824344678921211 0 -0.45396385612101731 0.064793171239253891 0 -0.47766077106497268 0.038080238812736568 0 -0.45943195328958791 0.042824344678921211 0 -0.46547604122791092 0.021970644666210268 0 -0.44059915847900649 0.042474805581955238 0 -0.44637614199242381 0.02574438652847847 0 -0.42748567645643498 0.029481074993860691 0 -0.45943195328958791 0.042824344678921211 0 -0.44059915847900649 0.042474805581955238 0 -0.44637614199242381 0.02574438652847847 0 -0.44059915847900649 0.042474805581955238 0 -0.43757489470521838 0.063733742244186625 0 -0.44059915847900649 0.042474805581955238 0 -0.43757489470521838 0.063733742244186625 0 -0.45396385612101731 0.064793171239253891 0 -0.45943195328958791 0.042824344678921211 0 -0.44059915847900649 0.042474805581955238 0 -0.45396385612101731 0.064793171239253891 0 -0.47264501662920161 0.0052526366035078554 0 -0.46547604122791092 0.021970644666210268 0 -0.45127668143210109 0.0047351184600944712 0 -0.46547604122791092 0.021970644666210268 0 -0.44637614199242381 0.02574438652847847 0 -0.45127668143210109 0.0047351184600944712 0 -0.45943195328958791 0.042824344678921211 0 -0.46547604122791092 0.021970644666210268 0 -0.44637614199242381 0.02574438652847847 0 -0.43359431412202848 -0.0047248887772982414 0 -0.45127668143210109 0.0047351184600944712 0 -0.43208160157314851 0.013262244916204251 0 -0.44637614199242381 0.02574438652847847 0 -0.45127668143210109 0.0047351184600944712 0 -0.43208160157314851 0.013262244916204251 0 -0.43359431412202848 -0.0047248887772982414 0 -0.43208160157314851 0.013262244916204251 0 -0.41158373617842509 0.003795160584341678 0 -0.43208160157314851 0.013262244916204251 0 -0.41158373617842509 0.003795160584341678 0 -0.41759928446622918 0.021219211611049182 0 -0.41158373617842509 0.003795160584341678 0 -0.40152280974166549 0.026975979410321541 0 -0.41759928446622918 0.021219211611049182 0 -0.41341685888511848 0.032863512276893062 0 -0.40152280974166549 0.026975979410321541 0 -0.41158373617842509 0.003795160584341678 0 -0.41759928446622918 0.021219211611049182 0 -0.40152280974166549 0.026975979410321541 0 -0.41759928446622918 0.021219211611049182 0 -0.42748567645643498 0.029481074993860691 0 -0.41341685888511848 0.032863512276893062 0 -0.43208160157314851 0.013262244916204251 0 -0.41759928446622918 0.021219211611049182 0 -0.42748567645643498 0.029481074993860691 0 -0.44637614199242381 0.02574438652847847 0 -0.43208160157314851 0.013262244916204251 0 -0.42748567645643498 0.029481074993860691 0 -0.44059915847900649 0.042474805581955238 0 -0.42748567645643498 0.029481074993860691 0 -0.41870738563548759 0.044928078775063968 0 -0.42778426525523849 0.05423145534815578 0 -0.41763144457076168 0.062113498638019363 0 -0.43757489470521838 0.063733742244186625 0 -0.44059915847900649 0.042474805581955238 0 -0.42778426525523849 0.05423145534815578 0 -0.43757489470521838 0.063733742244186625 0 -0.44059915847900649 0.042474805581955238 0 -0.42778426525523849 0.05423145534815578 0 -0.41870738563548759 0.044928078775063968 0 -0.41763144457076168 0.062113498638019363 0 -0.40637643344211949 0.053937535995634292 0 -0.40182136627138759 0.067248806375652503 0 -0.41763144457076168 0.062113498638019363 0 -0.40637643344211949 0.053937535995634292 0 -0.41870738563548759 0.044928078775063968 0 -0.42778426525523849 0.05423145534815578 0 -0.41763144457076168 0.062113498638019363 0 -0.41870738563548759 0.044928078775063968 0 -0.40637643344211949 0.053937535995634292 0 -0.41870738563548759 0.044928078775063968 0 -0.40595658235367271 0.042125360725861843 0 -0.42748567645643498 0.029481074993860691 0 -0.41870738563548759 0.044928078775063968 0 -0.41341685888511848 0.032863512276893062 0 -0.41870738563548759 0.044928078775063968 0 -0.41341685888511848 0.032863512276893062 0 -0.40595658235367271 0.042125360725861843 0 -0.41341685888511848 0.032863512276893062 0 -0.40595658235367271 0.042125360725861843 0 -0.40152280974166549 0.026975979410321541 0 -0.39146188330490589 0.050156798236301411 0 -0.40152280974166549 0.026975979410321541 0 -0.39702310336501212 0.033884880482846449 0 -0.39146188330490589 0.050156798236301411 0 -0.40152280974166549 0.026975979410321541 0 -0.39702310336501212 0.033884880482846449 0 -0.39146188330490589 0.050156798236301411 0 -0.38682053906316571 0.039484253223454911 0 -0.40595658235367271 0.042125360725861843 0 -0.39146188330490589 0.050156798236301411 0 -0.40152280974166549 0.026975979410321541 0 -0.40637643344211949 0.053937535995634292 0 -0.39146188330490589 0.050156798236301411 0 -0.40182136627138759 0.067248806375652503 0 -0.40637643344211949 0.053937535995634292 0 -0.40595658235367271 0.042125360725861843 0 -0.39146188330490589 0.050156798236301411 0 -0.39146188330490589 0.050156798236301411 0 -0.38682053906316571 0.039484253223454911 0 -0.37475093605070231 0.053040140082338247 0 -0.39146188330490589 0.050156798236301411 0 -0.38140095686814618 0.073337617062281299 0 -0.37475093605070231 0.053040140082338247 0 -0.39146188330490589 0.050156798236301411 0 -0.38140095686814618 0.073337617062281299 0 -0.39702310336501212 0.033884880482846449 0 -0.37746068595568572 0.032567719176116713 0 -0.38682053906316571 0.039484253223454911 0 -0.38682053906316571 0.039484253223454911 0 -0.3687082821177089 0.041043857721407069 0 -0.37475093605070231 0.053040140082338247 0 -0.39702310336501212 0.033884880482846449 0 -0.37746068595568572 0.032567719176116713 0 -0.37746068595568572 0.032567719176116713 0 -0.38682053906316571 0.039484253223454911 0 -0.3687082821177089 0.041043857721407069 0 -0.38787557695504971 0.023357423112964511 0 -0.38558511302035892 0.007592159259512639 0 -0.37163219754586208 0.022212934043181191 0 -0.39702310336501212 0.033884880482846449 0 -0.37746068595568572 0.032567719176116713 0 -0.38787557695504971 0.023357423112964511 0 -0.37746068595568572 0.032567719176116713 0 -0.38787557695504971 0.023357423112964511 0 -0.37163219754586208 0.022212934043181191 0 -0.38787557695504971 0.023357423112964511 0 -0.38558511302035892 0.007592159259512639 0 -0.3966418089738748 0.01543018059178509 0 -0.41158373617842509 0.003795160584341678 0 -0.3966418089738748 0.01543018059178509 0 -0.40152280974166549 0.026975979410321541 0 -0.41158373617842509 0.003795160584341678 0 -0.38558511302035892 0.007592159259512639 0 -0.3966418089738748 0.01543018059178509 0 -0.39702310336501212 0.033884880482846449 0 -0.38787557695504971 0.023357423112964511 0 -0.40152280974166549 0.026975979410321541 0 -0.38787557695504971 0.023357423112964511 0 -0.3966418089738748 0.01543018059178509 0 -0.40152280974166549 0.026975979410321541 0 -0.39670300615565263 0.1085512196911283 0 -0.40537451462173629 0.102096349382183 0 -0.40944338098068961 0.090952187880882482 0 -0.39670300615565263 0.1085512196911283 0 -0.40944338098068961 0.090952187880882482 0 -0.39670300615565263 0.1085512196911283 0 -0.39866416441594571 0.094870801799185916 0 -0.40944338098068961 0.090952187880882482 0 -0.39670300615565263 0.1085512196911283 0 -0.3942331547117236 0.1009477857615135 0 -0.39866416441594571 0.094870801799185916 0 -0.3942331547117236 0.1009477857615135 0 -0.39099486812697282 0.09499059168572889 0 -0.39866416441594571 0.094870801799185916 0 -0.39670300615565263 0.1085512196911283 0 -0.40537451462173629 0.102096349382183 0 -0.40358418254407219 0.1090801538770458 0 -0.39670300615565263 0.1085512196911283 0 -0.3942331547117236 0.1009477857615135 0 -0.38396263133061481 0.12615025150137349 0 -0.39670300615565263 0.1085512196911283 0 -0.39393679645327601 0.1216321213944848 0 -0.38396263133061481 0.12615025150137349 0 -0.40358418254407219 0.1090801538770458 0 -0.40571677842808718 0.115342687502625 0 -0.39948945600114982 0.1159601526191799 0 -0.39670300615565263 0.1085512196911283 0 -0.40358418254407219 0.1090801538770458 0 -0.39948945600114982 0.1159601526191799 0 -0.40571677842808718 0.115342687502625 0 -0.39948945600114982 0.1159601526191799 0 -0.40345246763661058 0.1256060420314796 0 -0.39948945600114982 0.1159601526191799 0 -0.39393679645327601 0.1216321213944848 0 -0.40345246763661058 0.1256060420314796 0 -0.39670300615565263 0.1085512196911283 0 -0.39948945600114982 0.1159601526191799 0 -0.39393679645327601 0.1216321213944848 0 -0.3942331547117236 0.1009477857615135 0 -0.38476242206136718 0.1117309897055886 0 -0.38396263133061481 0.12615025150137349 0 -0.3942331547117236 0.1009477857615135 0 -0.38396263133061481 0.12615025150137349 0 -0.39670300615565263 0.1085512196911283 0 -0.38396263133061481 0.12615025150137349 0 -0.38476242206136718 0.1117309897055886 0 -0.37998738783254932 0.1177476083821013 0 -0.38396263133061481 0.12615025150137349 0 -0.37998738783254932 0.1177476083821013 0 -0.38396263133061481 0.12615025150137349 0 -0.37487170925437652 0.1216227857578778 0 -0.37998738783254932 0.1177476083821013 0 -0.37635278868383848 0.11148640656356509 0 -0.37487170925437652 0.1216227857578778 0 -0.38476242206136718 0.1117309897055886 0 -0.37998738783254932 0.1177476083821013 0 -0.37635278868383848 0.11148640656356509 0 -0.38476242206136718 0.1117309897055886 0 -0.37635278868383848 0.11148640656356509 0 -0.383923138840912 0.10052682670144179 0 -0.37635278868383848 0.11148640656356509 0 -0.383923138840912 0.10052682670144179 0 -0.37134003043138658 0.0965184358882612 0 -0.3942331547117236 0.1009477857615135 0 -0.38476242206136718 0.1117309897055886 0 -0.383923138840912 0.10052682670144179 0 -0.39099486812697282 0.09499059168572889 0 -0.383923138840912 0.10052682670144179 0 -0.38440682246452468 0.091807831022678588 0 -0.3942331547117236 0.1009477857615135 0 -0.39099486812697282 0.09499059168572889 0 -0.383923138840912 0.10052682670144179 0 -0.383923138840912 0.10052682670144179 0 -0.38440682246452468 0.091807831022678588 0 -0.37134003043138658 0.0965184358882612 0 -0.38440682246452468 0.091807831022678588 0 -0.38140095686814618 0.073337617062281299 0 -0.3937470602017577 0.086799713143824619 0 -0.38140095686814618 0.073337617062281299 0 -0.37134003043138658 0.0965184358882612 0 -0.38440682246452468 0.091807831022678588 0 -0.38140095686814618 0.073337617062281299 0 -0.37134003043138658 0.0965184358882612 0 -0.39099486812697282 0.09499059168572889 0 -0.38440682246452468 0.091807831022678588 0 -0.3937470602017577 0.086799713143824619 0 -0.38140095686814618 0.073337617062281299 0 -0.39788837806403909 0.077800651046488048 0 -0.40182136627138759 0.067248806375652503 0 -0.39146188330490589 0.050156798236301411 0 -0.38140095686814618 0.073337617062281299 0 -0.40182136627138759 0.067248806375652503 0 -0.39788837806403909 0.077800651046488048 0 -0.40182136627138759 0.067248806375652503 0 -0.40702084217485401 0.078749590381949605 0 -0.38140095686814618 0.073337617062281299 0 -0.39788837806403909 0.077800651046488048 0 -0.3937470602017577 0.086799713143824619 0 -0.39099486812697282 0.09499059168572889 0 -0.39866416441594571 0.094870801799185916 0 -0.3937470602017577 0.086799713143824619 0 -0.39788837806403909 0.077800651046488048 0 -0.3937470602017577 0.086799713143824619 0 -0.40288631842768929 0.086332693894648843 0 -0.39788837806403909 0.077800651046488048 0 -0.40288631842768929 0.086332693894648843 0 -0.40702084217485401 0.078749590381949605 0 -0.39866416441594571 0.094870801799185916 0 -0.40288631842768929 0.086332693894648843 0 -0.40944338098068961 0.090952187880882482 0 -0.39866416441594571 0.094870801799185916 0 -0.3937470602017577 0.086799713143824619 0 -0.40288631842768929 0.086332693894648843 0 -0.40944338098068961 0.090952187880882482 0 -0.4138366375953394 0.089171147481328025 0 -0.41518681622644249 0.093966172268832651 0 -0.40944338098068961 0.090952187880882482 0 -0.4138366375953394 0.089171147481328025 0 -0.40968238732892698 0.085232840876898322 0 -0.40288631842768929 0.086332693894648843 0 -0.40944338098068961 0.090952187880882482 0 -0.40968238732892698 0.085232840876898322 0 -0.40288631842768929 0.086332693894648843 0 -0.40968238732892698 0.085232840876898322 0 -0.40702084217485401 0.078749590381949605 0 -0.4138366375953394 0.089171147481328025 0 -0.40968238732892698 0.085232840876898322 0 -0.41312358368987517 0.080405477520586674 0 -0.40968238732892698 0.085232840876898322 0 -0.40702084217485401 0.078749590381949605 0 -0.41312358368987517 0.080405477520586674 0 -0.4138366375953394 0.089171147481328025 0 -0.41312358368987517 0.080405477520586674 0 -0.42211056831019023 0.076755494914180905 0 -0.4138366375953394 0.089171147481328025 0 -0.42439101959057762 0.093509658521667302 0 -0.41518681622644249 0.093966172268832651 0 -0.41763144457076168 0.062113498638019363 0 -0.40182136627138759 0.067248806375652503 0 -0.41296748304006581 0.072118313948576526 0 -0.40702084217485401 0.078749590381949605 0 -0.41312358368987517 0.080405477520586674 0 -0.41296748304006581 0.072118313948576526 0 -0.40182136627138759 0.067248806375652503 0 -0.40702084217485401 0.078749590381949605 0 -0.41296748304006581 0.072118313948576526 0 -0.41312358368987517 0.080405477520586674 0 -0.41296748304006581 0.072118313948576526 0 -0.42211056831019023 0.076755494914180905 0 -0.41763144457076168 0.062113498638019363 0 -0.41296748304006581 0.072118313948576526 0 -0.42211056831019023 0.076755494914180905 0 -0.41763144457076168 0.062113498638019363 0 -0.42211056831019023 0.076755494914180905 0 -0.43757489470521838 0.063733742244186625 0 -0.42211056831019023 0.076755494914180905 0 -0.43455063093142771 0.084992678906417596 0 -0.43757489470521838 0.063733742244186625 0 -0.43455063093142771 0.084992678906417596 0 -0.43757489470521838 0.063733742244186625 0 -0.4138366375953394 0.089171147481328025 0 -0.42211056831019023 0.076755494914180905 0 -0.43455063093142771 0.084992678906417596 0 -0.4138366375953394 0.089171147481328025 0 -0.43455063093142771 0.084992678906417596 0 -0.42439101959057762 0.093509658521667302 0 -0.4138366375953394 0.089171147481328025 0 -0.43455063093142771 0.084992678906417596 0 -0.43455063093142771 0.084992678906417596 0 -0.42439101959057762 0.093509658521667302 0 -0.43121566599803102 0.1084356764730928 0 -0.43455063093142771 0.084992678906417596 0 -0.43121566599803102 0.1084356764730928 0 -0.42439101959057762 0.093509658521667302 0 -0.43121566599803102 0.1084356764730928 0 -0.42148084984139061 0.1045475271434126 0 -0.42439101959057762 0.093509658521667302 0 -0.41630712062945402 0.098816070371266856 0 -0.42148084984139061 0.1045475271434126 0 -0.42439101959057762 0.093509658521667302 0 -0.41518681622644249 0.093966172268832651 0 -0.41630712062945402 0.098816070371266856 0 -0.41518681622644249 0.093966172268832651 0 -0.41630712062945402 0.098816070371266856 0 -0.41114837281467431 0.098488645432343147 0 -0.41630712062945402 0.098816070371266856 0 -0.42148084984139061 0.1045475271434126 0 -0.4114053574367858 0.1066406109095823 0 -0.40537451462173629 0.102096349382183 0 -0.4114053574367858 0.1066406109095823 0 -0.41114837281467431 0.098488645432343147 0 -0.40537451462173629 0.102096349382183 0 -0.40358418254407219 0.1090801538770458 0 -0.4114053574367858 0.1066406109095823 0 -0.41630712062945402 0.098816070371266856 0 -0.4114053574367858 0.1066406109095823 0 -0.41114837281467431 0.098488645432343147 0 -0.40537451462173629 0.102096349382183 0 -0.40944338098068961 0.090952187880882482 0 -0.41114837281467431 0.098488645432343147 0 -0.40944338098068961 0.090952187880882482 0 -0.41518681622644249 0.093966172268832651 0 -0.41114837281467431 0.098488645432343147 0 -0.40571677842808718 0.115342687502625 0 -0.41706127882332211 0.119242004643714 0 -0.40345246763661058 0.1256060420314796 0 -0.40358418254407219 0.1090801538770458 0 -0.40571677842808718 0.115342687502625 0 -0.4114053574367858 0.1066406109095823 0 -0.40571677842808718 0.115342687502625 0 -0.4114053574367858 0.1066406109095823 0 -0.41706127882332211 0.119242004643714 0 -0.42148084984139061 0.1045475271434126 0 -0.4114053574367858 0.1066406109095823 0 -0.41706127882332211 0.119242004643714 0 -0.43121566599803102 0.1084356764730928 0 -0.41706127882332211 0.119242004643714 0 -0.42788070106463161 0.13187867403976769 0 -0.43121566599803102 0.1084356764730928 0 -0.42788070106463161 0.13187867403976769 0 -0.43121566599803102 0.1084356764730928 0 -0.44439070286601329 0.1206902760298095 0 -0.42788070106463161 0.13187867403976769 0 -0.43121566599803102 0.1084356764730928 0 -0.42148084984139061 0.1045475271434126 0 -0.41706127882332211 0.119242004643714 0 -0.43121566599803102 0.1084356764730928 0 -0.44439070286601329 0.1206902760298095 0 -0.4526497421649186 0.100182967785663 0 -0.44439070286601329 0.1206902760298095 0 -0.4526497421649186 0.100182967785663 0 -0.46064629982732208 0.1242792810277306 0 -0.44439070286601329 0.1206902760298095 0 -0.4526497421649186 0.100182967785663 0 -0.43455063093142771 0.084992678906417596 0 -0.43121566599803102 0.1084356764730928 0 -0.4526497421649186 0.100182967785663 0 -0.4526497421649186 0.100182967785663 0 -0.47621020214230708 0.11436061409997431 0 -0.47408582675895378 0.09458016978152832 0 -0.4526497421649186 0.100182967785663 0 -0.46064629982732208 0.1242792810277306 0 -0.47621020214230708 0.11436061409997431 0 -0.43455063093142771 0.084992678906417596 0 -0.43757489470521838 0.063733742244186625 0 -0.45396385612101731 0.064793171239253891 0 -0.43455063093142771 0.084992678906417596 0 -0.46090878146382369 0.079675659541516536 0 -0.45396385612101731 0.064793171239253891 0 -0.43455063093142771 0.084992678906417596 0 -0.46090878146382369 0.079675659541516536 0 -0.43455063093142771 0.084992678906417596 0 -0.4526497421649186 0.100182967785663 0 -0.46090878146382369 0.079675659541516536 0 -0.4526497421649186 0.100182967785663 0 -0.46090878146382369 0.079675659541516536 0 -0.47408582675895378 0.09458016978152832 0 -0.4526497421649186 0.100182967785663 0 -0.46090878146382369 0.079675659541516536 0 -0.4692847762643983 0.058877949177126583 0 -0.46090878146382369 0.079675659541516536 0 -0.4692847762643983 0.058877949177126583 0 -0.46090878146382369 0.079675659541516536 0 -0.45396385612101731 0.064793171239253891 0 -0.48667316827898888 0.055877694715413803 0 -0.4692847762643983 0.058877949177126583 0 -0.48045439073191198 0.075732879760762317 0 -0.4692847762643983 0.058877949177126583 0 -0.46090878146382369 0.079675659541516536 0 -0.48045439073191198 0.075732879760762317 0 -0.46090878146382369 0.079675659541516536 0 -0.48045439073191198 0.075732879760762317 0 -0.46090878146382369 0.079675659541516536 0 -0.48045439073191198 0.075732879760762317 0 -0.47408582675895378 0.09458016978152832 0 -0.48045439073191198 0.075732879760762317 0 -0.47408582675895378 0.09458016978152832 0 -0.5 0.10057125417103149 0 -0.48045439073191198 0.075732879760762317 0 -0.50000000000000022 0.071790099980008279 0 -0.5 0.10057125417103149 0 -0.48667316827898888 0.055877694715413803 0 -0.48045439073191198 0.075732879760762317 0 -0.50000000000000022 0.071790099980008279 0 -0.48045439073191198 0.075732879760762317 0 -0.50000000000000022 0.071790099980008279 0 -0.47621020214230708 0.11436061409997431 0 -0.47408582675895378 0.09458016978152832 0 -0.5 0.10057125417103149 0 -0.47621020214230708 0.11436061409997431 0 -0.5 0.10057125417103149 0 -0.5 0.12935240836205469 0 -0.46064629982732208 0.1242792810277306 0 -0.47621020214230708 0.11436061409997431 0 -0.47268188339002598 0.1411661983510368 0 -0.47621020214230708 0.11436061409997431 0 -0.5 0.12935240836205469 0 -0.47268188339002598 0.1411661983510368 0 -0.47268188339002598 0.1411661983510368 0 -0.5 0.15813356255307801 0 -0.47578799720899678 0.16217844921841931 0 -0.5 0.12935240836205469 0 -0.47268188339002598 0.1411661983510368 0 -0.5 0.15813356255307801 0 -0.5 0.15813356255307801 0 -0.48006162140598518 0.18188288714121589 0 -0.47578799720899678 0.16217844921841931 0 -0.5 0.15813356255307801 0 -0.5 0.18691471674410151 0 -0.48006162140598518 0.18188288714121589 0 -0.48006162140598518 0.18188288714121589 0 -0.47578799720899678 0.16217844921841931 0 -0.45937135127142359 0.17833154602135021 0 -0.47578799720899678 0.16217844921841931 0 -0.45937135127142359 0.17833154602135021 0 -0.45310161663404702 0.1579985674316863 0 -0.45937135127142359 0.17833154602135021 0 -0.44021843221737861 0.18662038620244181 0 -0.43942084782469493 0.17099091577235689 0 -0.45937135127142359 0.17833154602135021 0 -0.45310161663404702 0.1579985674316863 0 -0.43942084782469493 0.17099091577235689 0 -0.45310161663404702 0.1579985674316863 0 -0.43942084782469493 0.17099091577235689 0 -0.42454573613123242 0.15532167160644261 0 -0.45310161663404702 0.1579985674316863 0 -0.44735910914907212 0.13876116453052931 0 -0.42454573613123242 0.15532167160644261 0 -0.44439070286601329 0.1206902760298095 0 -0.44735910914907212 0.13876116453052931 0 -0.42788070106463161 0.13187867403976769 0 -0.44439070286601329 0.1206902760298095 0 -0.46064629982732208 0.1242792810277306 0 -0.44735910914907212 0.13876116453052931 0 -0.46064629982732208 0.1242792810277306 0 -0.47268188339002598 0.1411661983510368 0 -0.44735910914907212 0.13876116453052931 0 -0.47268188339002598 0.1411661983510368 0 -0.45310161663404702 0.1579985674316863 0 -0.44735910914907212 0.13876116453052931 0 -0.47268188339002598 0.1411661983510368 0 -0.47578799720899678 0.16217844921841931 0 -0.45310161663404702 0.1579985674316863 0 -0.47745844258749942 0.22948794398783559 0 -0.46236704222430369 0.24629322892769701 0 -0.48361448096764009 0.25224698800352868 0 -0.5 0.24447702512614819 0 -0.47745844258749942 0.22948794398783559 0 -0.48361448096764009 0.25224698800352868 0 -0.5 0.24447702512614819 0 -0.47745844258749942 0.22948794398783559 0 -0.5 0.21569587093512491 0 -0.47745844258749942 0.22948794398783559 0 -0.5 0.21569587093512491 0 -0.47334585178733068 0.202674678021245 0 -0.5 0.18691471674410151 0 -0.48006162140598518 0.18188288714121589 0 -0.47334585178733068 0.202674678021245 0 -0.5 0.18691471674410151 0 -0.5 0.21569587093512491 0 -0.47334585178733068 0.202674678021245 0 -0.48006162140598518 0.18188288714121589 0 -0.45937135127142359 0.17833154602135021 0 -0.47334585178733068 0.202674678021245 0 -0.45937135127142359 0.17833154602135021 0 -0.47334585178733068 0.202674678021245 0 -0.45000601726369238 0.1991874133814297 0 -0.45937135127142359 0.17833154602135021 0 -0.44021843221737861 0.18662038620244181 0 -0.45000601726369238 0.1991874133814297 0 -0.44021843221737861 0.18662038620244181 0 -0.45000601726369238 0.1991874133814297 0 -0.43060728662011799 0.20344256146550849 0 -0.45000601726369238 0.1991874133814297 0 -0.44648716442221081 0.22486789519660269 0 -0.43060728662011799 0.20344256146550849 0 -0.44648716442221081 0.22486789519660269 0 -0.43060728662011799 0.20344256146550849 0 -0.47334585178733068 0.202674678021245 0 -0.45000601726369238 0.1991874133814297 0 -0.44648716442221081 0.22486789519660269 0 -0.47745844258749942 0.22948794398783559 0 -0.47334585178733068 0.202674678021245 0 -0.44648716442221081 0.22486789519660269 0 -0.47745844258749942 0.22948794398783559 0 -0.44648716442221081 0.22486789519660269 0 -0.46236704222430369 0.24629322892769701 0 -0.44648716442221081 0.22486789519660269 0 -0.42534421237107389 0.22359416701259269 0 -0.44114690098883352 0.25037321413784952 0 -0.44648716442221081 0.22486789519660269 0 -0.46236704222430369 0.24629322892769701 0 -0.44114690098883352 0.25037321413784952 0 -0.44648716442221081 0.22486789519660269 0 -0.46236704222430369 0.24629322892769701 0 -0.41955971700790851 0.2461141348322087 0 -0.40594796512834591 0.23272648290136491 0 -0.403575455919707 0.24714278461850969 0 -0.41955971700790851 0.2461141348322087 0 -0.42534421237107389 0.22359416701259269 0 -0.44114690098883352 0.25037321413784952 0 -0.41955971700790851 0.2461141348322087 0 -0.42534421237107389 0.22359416701259269 0 -0.40594796512834591 0.23272648290136491 0 -0.42534421237107389 0.22359416701259269 0 -0.40637342800016663 0.21499785983865069 0 -0.40594796512834591 0.23272648290136491 0 -0.42534421237107389 0.22359416701259269 0 -0.40637342800016663 0.21499785983865069 0 -0.41218293919281768 0.20522201003346099 0 -0.40637342800016663 0.21499785983865069 0 -0.41218293919281768 0.20522201003346099 0 -0.40086953194684671 0.20622600519692769 0 -0.44648716442221081 0.22486789519660269 0 -0.42534421237107389 0.22359416701259269 0 -0.43060728662011799 0.20344256146550849 0 -0.42534421237107389 0.22359416701259269 0 -0.41218293919281768 0.20522201003346099 0 -0.43060728662011799 0.20344256146550849 0 -0.43060728662011799 0.20344256146550849 0 -0.41472740881802522 0.1820172277344142 0 -0.42121077119783312 0.17876466917311731 0 -0.43060728662011799 0.20344256146550849 0 -0.41472740881802522 0.1820172277344142 0 -0.44021843221737861 0.18662038620244181 0 -0.43060728662011799 0.20344256146550849 0 -0.42121077119783312 0.17876466917311731 0 -0.41218293919281768 0.20522201003346099 0 -0.43060728662011799 0.20344256146550849 0 -0.4135102074587001 0.19357565706182719 0 -0.43060728662011799 0.20344256146550849 0 -0.4135102074587001 0.19357565706182719 0 -0.41472740881802522 0.1820172277344142 0 -0.41218293919281768 0.20522201003346099 0 -0.40606509092262472 0.19581017129471931 0 -0.40063998305212922 0.19997800463650531 0 -0.41218293919281768 0.20522201003346099 0 -0.4135102074587001 0.19357565706182719 0 -0.40606509092262472 0.19581017129471931 0 -0.40719838323491198 0.1912574213339831 0 -0.4135102074587001 0.19357565706182719 0 -0.40606509092262472 0.19581017129471931 0 -0.40719838323491198 0.1912574213339831 0 -0.4135102074587001 0.19357565706182719 0 -0.40958370093782398 0.18579753863921891 0 -0.40719838323491198 0.1912574213339831 0 -0.40958370093782398 0.18579753863921891 0 -0.40554216513417968 0.18695842419013281 0 -0.39889187427095041 0.19465094086292969 0 -0.40257160490750132 0.19074988267384971 0 -0.39724926560862661 0.1896453707328343 0 -0.40257160490750132 0.19074988267384971 0 -0.39724926560862661 0.1896453707328343 0 -0.40106475289379101 0.18506985117294611 0 -0.40257160490750132 0.19074988267384971 0 -0.40106475289379101 0.18506985117294611 0 -0.40554216513417968 0.18695842419013281 0 -0.40719838323491198 0.1912574213339831 0 -0.40257160490750132 0.19074988267384971 0 -0.40554216513417968 0.18695842419013281 0 -0.39889187427095041 0.19465094086292969 0 -0.40257160490750132 0.19074988267384971 0 -0.40606509092262472 0.19581017129471931 0 -0.40719838323491198 0.1912574213339831 0 -0.40257160490750132 0.19074988267384971 0 -0.40606509092262472 0.19581017129471931 0 -0.40063998305212922 0.19997800463650531 0 -0.39475076574013968 0.20227585002822279 0 -0.40086953194684671 0.20622600519692769 0 -0.39889187427095041 0.19465094086292969 0 -0.40606509092262472 0.19581017129471931 0 -0.40063998305212922 0.19997800463650531 0 -0.39889187427095041 0.19465094086292969 0 -0.40063998305212922 0.19997800463650531 0 -0.39518880143885138 0.1983494704444059 0 -0.39889187427095041 0.19465094086292969 0 -0.39518880143885138 0.1983494704444059 0 -0.39305313538259912 0.19420031805037929 0 -0.40063998305212922 0.19997800463650531 0 -0.39518880143885138 0.1983494704444059 0 -0.39475076574013968 0.20227585002822279 0 -0.39518880143885138 0.1983494704444059 0 -0.39475076574013968 0.20227585002822279 0 -0.38921943900154621 0.19941926306352031 0 -0.39475076574013968 0.20227585002822279 0 -0.38921943900154621 0.19941926306352031 0 -0.3909676635776736 0.20671199716260499 0 -0.39518880143885138 0.1983494704444059 0 -0.39305313538259912 0.19420031805037929 0 -0.38921943900154621 0.19941926306352031 0 -0.39889187427095041 0.19465094086292969 0 -0.39305313538259912 0.19420031805037929 0 -0.39724926560862661 0.1896453707328343 0 -0.39724926560862661 0.1896453707328343 0 -0.39086381345346982 0.18880325649708041 0 -0.39496282873560479 0.1844671500024454 0 -0.39305313538259912 0.19420031805037929 0 -0.39724926560862661 0.1896453707328343 0 -0.39086381345346982 0.18880325649708041 0 -0.39086381345346982 0.18880325649708041 0 -0.38296809930043701 0.18821274934775889 0 -0.38690561852215027 0.19433360670150521 0 -0.39305313538259912 0.19420031805037929 0 -0.39086381345346982 0.18880325649708041 0 -0.38690561852215027 0.19433360670150521 0 -0.38296809930043701 0.18821274934775889 0 -0.38690561852215027 0.19433360670150521 0 -0.37556189915518018 0.19842613448656021 0 -0.38296809930043701 0.18821274934775889 0 -0.37556189915518018 0.19842613448656021 0 -0.37562020421348169 0.18745809185035719 0 -0.38690561852215027 0.19433360670150521 0 -0.37556189915518018 0.19842613448656021 0 -0.37556189915518018 0.19842613448656021 0 -0.3909676635776736 0.20671199716260499 0 -0.38690561852215027 0.19433360670150521 0 -0.37556189915518018 0.19842613448656021 0 -0.38921943900154621 0.19941926306352031 0 -0.37556189915518018 0.19842613448656021 0 -0.38921943900154621 0.19941926306352031 0 -0.3909676635776736 0.20671199716260499 0 -0.39305313538259912 0.19420031805037929 0 -0.38690561852215027 0.19433360670150521 0 -0.38921943900154621 0.19941926306352031 0 -0.37556189915518018 0.19842613448656021 0 -0.38928262341833431 0.2094240996460289 0 -0.3909676635776736 0.20671199716260499 0 -0.38928262341833431 0.2094240996460289 0 -0.36720061525404191 0.20821269333610409 0 -0.38928262341833431 0.2094240996460289 0 -0.3815651177559074 0.21335800816892761 0 -0.36720061525404191 0.20821269333610409 0 -0.37556189915518018 0.19842613448656021 0 -0.38928262341833431 0.2094240996460289 0 -0.36720061525404191 0.20821269333610409 0 -0.37813419844382978 0.21606929172493031 0 -0.3815651177559074 0.21335800816892761 0 -0.36720061525404191 0.20821269333610409 0 -0.37813419844382978 0.21606929172493031 0 -0.3815651177559074 0.21335800816892761 0 -0.38561658545398092 0.21887790383388109 0 -0.3815651177559074 0.21335800816892761 0 -0.38759156620935042 0.21420605230369369 0 -0.38561658545398092 0.21887790383388109 0 -0.38928262341833431 0.2094240996460289 0 -0.3815651177559074 0.21335800816892761 0 -0.38759156620935042 0.21420605230369369 0 -0.38928262341833431 0.2094240996460289 0 -0.38759156620935042 0.21420605230369369 0 -0.39224295292458422 0.21488566814918311 0 -0.38759156620935042 0.21420605230369369 0 -0.39224295292458422 0.21488566814918311 0 -0.38561658545398092 0.21887790383388109 0 -0.40637342800016663 0.21499785983865069 0 -0.39224295292458422 0.21488566814918311 0 -0.3909676635776736 0.20671199716260499 0 -0.40637342800016663 0.21499785983865069 0 -0.39224295292458422 0.21488566814918311 0 -0.39362585088799967 0.2250960961102392 0 -0.38928262341833431 0.2094240996460289 0 -0.39224295292458422 0.21488566814918311 0 -0.3909676635776736 0.20671199716260499 0 -0.39475076574013968 0.20227585002822279 0 -0.3909676635776736 0.20671199716260499 0 -0.40086953194684671 0.20622600519692769 0 -0.40637342800016663 0.21499785983865069 0 -0.3909676635776736 0.20671199716260499 0 -0.40086953194684671 0.20622600519692769 0 -0.41218293919281768 0.20522201003346099 0 -0.40063998305212922 0.19997800463650531 0 -0.40086953194684671 0.20622600519692769 0 -0.40637342800016663 0.21499785983865069 0 -0.3909676635776736 0.20671199716260499 0 -0.40637342800016663 0.21499785983865069 0 -0.40594796512834591 0.23272648290136491 0 -0.39362585088799967 0.2250960961102392 0 -0.40594796512834591 0.23272648290136491 0 -0.39362585088799967 0.2250960961102392 0 -0.38729161739509882 0.23991890261061319 0 -0.39362585088799967 0.2250960961102392 0 -0.37685706022118359 0.2248143628812509 0 -0.38729161739509882 0.23991890261061319 0 -0.39362585088799967 0.2250960961102392 0 -0.38561658545398092 0.21887790383388109 0 -0.37685706022118359 0.2248143628812509 0 -0.39224295292458422 0.21488566814918311 0 -0.39362585088799967 0.2250960961102392 0 -0.38561658545398092 0.21887790383388109 0 -0.37813419844382978 0.21606929172493031 0 -0.38561658545398092 0.21887790383388109 0 -0.37685706022118359 0.2248143628812509 0 -0.37685706022118359 0.2248143628812509 0 -0.38729161739509882 0.23991890261061319 0 -0.37265948181783509 0.2356204614031053 0 -0.38729161739509882 0.23991890261061319 0 -0.37249016034505922 0.24685564468794211 0 -0.37265948181783509 0.2356204614031053 0 -0.38729161739509882 0.23991890261061319 0 -0.37249016034505922 0.24685564468794211 0 -0.38192518631757549 0.25213505943371428 0 -0.40594796512834591 0.23272648290136491 0 -0.38729161739509882 0.23991890261061319 0 -0.403575455919707 0.24714278461850969 0 -0.38729161739509882 0.23991890261061319 0 -0.403575455919707 0.24714278461850969 0 -0.39269791530013409 0.2580946065642819 0 -0.41226999866829422 0.13789486859537389 0 -0.42788070106463161 0.13187867403976769 0 -0.42454573613123242 0.15532167160644261 0 -0.40824524309596671 0.15308415474158221 0 -0.41226999866829422 0.13789486859537389 0 -0.42454573613123242 0.15532167160644261 0 -0.41706127882332211 0.119242004643714 0 -0.41226999866829422 0.13789486859537389 0 -0.42788070106463161 0.13187867403976769 0 -0.41706127882332211 0.119242004643714 0 -0.41226999866829422 0.13789486859537389 0 -0.40345246763661058 0.1256060420314796 0 -0.42788070106463161 0.13187867403976769 0 -0.42454573613123242 0.15532167160644261 0 -0.44735910914907212 0.13876116453052931 0 -0.42788070106463161 0.13187867403976769 0 -0.42454573613123242 0.15532167160644261 0 -0.43942084782469493 0.17099091577235689 0 -0.42454573613123242 0.15532167160644261 0 -0.42121077119783312 0.17876466917311731 0 -0.42454573613123242 0.15532167160644261 0 -0.42121077119783312 0.17876466917311731 0 -0.44021843221737861 0.18662038620244181 0 -0.43942084782469493 0.17099091577235689 0 -0.42121077119783312 0.17876466917311731 0 -0.41472740881802522 0.1820172277344142 0 -0.42121077119783312 0.17876466917311731 0 -0.41416544140824701 0.17210679510315019 0 -0.41472740881802522 0.1820172277344142 0 -0.41416544140824701 0.17210679510315019 0 -0.40668554659913819 0.17937358956006419 0 -0.41416544140824701 0.17210679510315019 0 -0.40789227871486339 0.17235585902308151 0 -0.40668554659913819 0.17937358956006419 0 -0.41472740881802522 0.1820172277344142 0 -0.40668554659913819 0.17937358956006419 0 -0.40958370093782398 0.18579753863921891 0 -0.4135102074587001 0.19357565706182719 0 -0.41472740881802522 0.1820172277344142 0 -0.40958370093782398 0.18579753863921891 0 -0.40668554659913819 0.17937358956006419 0 -0.40958370093782398 0.18579753863921891 0 -0.40554216513417968 0.18695842419013281 0 -0.42454573613123242 0.15532167160644261 0 -0.42121077119783312 0.17876466917311731 0 -0.41416544140824701 0.17210679510315019 0 -0.42454573613123242 0.15532167160644261 0 -0.41416544140824701 0.17210679510315019 0 -0.40998411851456201 0.16465788800748321 0 -0.40824524309596671 0.15308415474158221 0 -0.42454573613123242 0.15532167160644261 0 -0.40998411851456201 0.16465788800748321 0 -0.40789227871486339 0.17235585902308151 0 -0.40998411851456201 0.16465788800748321 0 -0.40133883182859198 0.17158173203990809 0 -0.41416544140824701 0.17210679510315019 0 -0.40789227871486339 0.17235585902308151 0 -0.40998411851456201 0.16465788800748321 0 -0.40824524309596671 0.15308415474158221 0 -0.40998411851456201 0.16465788800748321 0 -0.40191481769197729 0.16241585974038161 0 -0.40824524309596671 0.15308415474158221 0 -0.40191481769197729 0.16241585974038161 0 -0.39677479096625101 0.1561037133262477 0 -0.40998411851456201 0.16465788800748321 0 -0.40191481769197729 0.16241585974038161 0 -0.40133883182859198 0.17158173203990809 0 -0.40191481769197729 0.16241585974038161 0 -0.40133883182859198 0.17158173203990809 0 -0.39323110405451511 0.16665181058668699 0 -0.39323110405451511 0.16665181058668699 0 -0.39279747146650601 0.17524363605052021 0 -0.38940534726989029 0.1712536117389071 0 -0.40133883182859198 0.17158173203990809 0 -0.39323110405451511 0.16665181058668699 0 -0.39279747146650601 0.17524363605052021 0 -0.40191481769197729 0.16241585974038161 0 -0.39323110405451511 0.16665181058668699 0 -0.39677479096625101 0.1561037133262477 0 -0.39323110405451511 0.16665181058668699 0 -0.38703706001991439 0.15944424960784051 0 -0.39677479096625101 0.1561037133262477 0 -0.40668554659913819 0.17937358956006419 0 -0.40106475289379101 0.18506985117294611 0 -0.40554216513417968 0.18695842419013281 0 -0.40668554659913819 0.17937358956006419 0 -0.40106475289379101 0.18506985117294611 0 -0.39937710637769558 0.17922468987834991 0 -0.40106475289379101 0.18506985117294611 0 -0.39937710637769558 0.17922468987834991 0 -0.39496282873560479 0.1844671500024454 0 -0.40668554659913819 0.17937358956006419 0 -0.40133883182859198 0.17158173203990809 0 -0.39937710637769558 0.17922468987834991 0 -0.40789227871486339 0.17235585902308151 0 -0.40668554659913819 0.17937358956006419 0 -0.40133883182859198 0.17158173203990809 0 -0.39937710637769558 0.17922468987834991 0 -0.39279747146650601 0.17524363605052021 0 -0.39496282873560479 0.1844671500024454 0 -0.40133883182859198 0.17158173203990809 0 -0.39937710637769558 0.17922468987834991 0 -0.39279747146650601 0.17524363605052021 0 -0.39279747146650601 0.17524363605052021 0 -0.39496282873560479 0.1844671500024454 0 -0.3882499669151146 0.1817829423525576 0 -0.39086381345346982 0.18880325649708041 0 -0.39496282873560479 0.1844671500024454 0 -0.3882499669151146 0.1817829423525576 0 -0.39724926560862661 0.1896453707328343 0 -0.40106475289379101 0.18506985117294611 0 -0.39496282873560479 0.1844671500024454 0 -0.39086381345346982 0.18880325649708041 0 -0.38296809930043701 0.18821274934775889 0 -0.3882499669151146 0.1817829423525576 0 -0.38296809930043701 0.18821274934775889 0 -0.3882499669151146 0.1817829423525576 0 -0.38060709354322542 0.17847246419849261 0 -0.3867913996930914 0.1751951996167099 0 -0.38060709354322542 0.17847246419849261 0 -0.38455583451704423 0.16869225897837201 0 -0.3882499669151146 0.1817829423525576 0 -0.3867913996930914 0.1751951996167099 0 -0.38060709354322542 0.17847246419849261 0 -0.39279747146650601 0.17524363605052021 0 -0.3882499669151146 0.1817829423525576 0 -0.3867913996930914 0.1751951996167099 0 -0.39279747146650601 0.17524363605052021 0 -0.3867913996930914 0.1751951996167099 0 -0.38940534726989029 0.1712536117389071 0 -0.38060709354322542 0.17847246419849261 0 -0.3763768784692495 0.1709725768884684 0 -0.37149727459353182 0.17846864044279301 0 -0.38060709354322542 0.17847246419849261 0 -0.38455583451704423 0.16869225897837201 0 -0.3763768784692495 0.1709725768884684 0 -0.38060709354322542 0.17847246419849261 0 -0.37562020421348169 0.18745809185035719 0 -0.37149727459353182 0.17846864044279301 0 -0.38296809930043701 0.18821274934775889 0 -0.38060709354322542 0.17847246419849261 0 -0.37562020421348169 0.18745809185035719 0 -0.38703706001991439 0.15944424960784051 0 -0.38455583451704423 0.16869225897837201 0 -0.37837423792933722 0.16108708406320721 0 -0.39323110405451511 0.16665181058668699 0 -0.38940534726989029 0.1712536117389071 0 -0.38455583451704423 0.16869225897837201 0 -0.39323110405451511 0.16665181058668699 0 -0.38703706001991439 0.15944424960784051 0 -0.38455583451704423 0.16869225897837201 0 -0.3867913996930914 0.1751951996167099 0 -0.38940534726989029 0.1712536117389071 0 -0.38455583451704423 0.16869225897837201 0 -0.38455583451704423 0.16869225897837201 0 -0.3763768784692495 0.1709725768884684 0 -0.37837423792933722 0.16108708406320721 0 -0.38703706001991439 0.15944424960784051 0 -0.37837423792933722 0.16108708406320721 0 -0.38244012400452132 0.15307456923179921 0 -0.38244012400452132 0.15307456923179921 0 -0.37540629154686139 0.1471463441304251 0 -0.38352031542080478 0.14686139385644581 0 -0.37837423792933722 0.16108708406320721 0 -0.38244012400452132 0.15307456923179921 0 -0.37540629154686139 0.1471463441304251 0 -0.37540629154686139 0.1471463441304251 0 -0.38352031542080478 0.14686139385644581 0 -0.38483688053637882 0.13874801461971631 0 -0.38984189335567732 0.14286092008304729 0 -0.38352031542080478 0.14686139385644581 0 -0.38921180889701118 0.15076512683426771 0 -0.38984189335567732 0.14286092008304729 0 -0.38352031542080478 0.14686139385644581 0 -0.38483688053637882 0.13874801461971631 0 -0.38703706001991439 0.15944424960784051 0 -0.38244012400452132 0.15307456923179921 0 -0.38921180889701118 0.15076512683426771 0 -0.38244012400452132 0.15307456923179921 0 -0.38352031542080478 0.14686139385644581 0 -0.38921180889701118 0.15076512683426771 0 -0.38921180889701118 0.15076512683426771 0 -0.39677479096625101 0.1561037133262477 0 -0.39821519058226512 0.14419995124942131 0 -0.38703706001991439 0.15944424960784051 0 -0.38921180889701118 0.15076512683426771 0 -0.39677479096625101 0.1561037133262477 0 -0.38984189335567732 0.14286092008304729 0 -0.38921180889701118 0.15076512683426771 0 -0.39821519058226512 0.14419995124942131 0 -0.40824524309596671 0.15308415474158221 0 -0.41226999866829422 0.13789486859537389 0 -0.39821519058226512 0.14419995124942131 0 -0.40824524309596671 0.15308415474158221 0 -0.39677479096625101 0.1561037133262477 0 -0.39821519058226512 0.14419995124942131 0 -0.40345246763661058 0.1256060420314796 0 -0.40184073205727389 0.135357743932915 0 -0.39342527134192617 0.13373011385538541 0 -0.41226999866829422 0.13789486859537389 0 -0.40345246763661058 0.1256060420314796 0 -0.40184073205727389 0.135357743932915 0 -0.41226999866829422 0.13789486859537389 0 -0.39821519058226512 0.14419995124942131 0 -0.40184073205727389 0.135357743932915 0 -0.38984189335567732 0.14286092008304729 0 -0.39821519058226512 0.14419995124942131 0 -0.39342527134192617 0.13373011385538541 0 -0.39821519058226512 0.14419995124942131 0 -0.40184073205727389 0.135357743932915 0 -0.39342527134192617 0.13373011385538541 0 -0.39393679645327601 0.1216321213944848 0 -0.40345246763661058 0.1256060420314796 0 -0.39342527134192617 0.13373011385538541 0 -0.39393679645327601 0.1216321213944848 0 -0.39342527134192617 0.13373011385538541 0 -0.38396263133061481 0.12615025150137349 0 -0.38396263133061481 0.12615025150137349 0 -0.37095753791521913 0.1441149547268237 0 -0.37540629154686139 0.1471463441304251 0 -0.38396263133061481 0.12615025150137349 0 -0.37095753791521913 0.1441149547268237 0 -0.37540629154686139 0.1471463441304251 0 -0.38396263133061481 0.12615025150137349 0 -0.38483688053637882 0.13874801461971631 0 -0.38396263133061481 0.12615025150137349 0 -0.37478193946822591 0.13319382753402709 0 -0.37095753791521913 0.1441149547268237 0 -0.37540629154686139 0.1471463441304251 0 -0.38396263133061481 0.12615025150137349 0 -0.38984189335567732 0.14286092008304729 0 -0.39342527134192617 0.13373011385538541 0 -0.38483688053637882 0.13874801461971631 0 -0.39342527134192617 0.13373011385538541 0 -0.38396263133061481 0.12615025150137349 0 -0.38483688053637882 0.13874801461971631 0 -0.38396263133061481 0.12615025150137349 0 -0.37478193946822591 0.13319382753402709 0 -0.37487170925437652 0.1216227857578778 0 -0.36790133541439979 0.12735457771870609 0 -0.37478193946822591 0.13319382753402709 0 -0.36577804594954338 0.13548721506152639 0 -0.36790133541439979 0.12735457771870609 0 -0.37478193946822591 0.13319382753402709 0 -0.37487170925437652 0.1216227857578778 0 -0.37478193946822591 0.13319382753402709 0 -0.36941941969391529 0.13827085607226261 0 -0.36577804594954338 0.13548721506152639 0 -0.37478193946822591 0.13319382753402709 0 -0.36941941969391529 0.13827085607226261 0 -0.37095753791521913 0.1441149547268237 0 -0.36577804594954338 0.13548721506152639 0 -0.35531918038504529 0.13343118191585679 0 -0.36380625334770511 0.14078266572414491 0 -0.36941941969391529 0.13827085607226261 0 -0.36577804594954338 0.13548721506152639 0 -0.36380625334770511 0.14078266572414491 0 -0.36790133541439979 0.12735457771870609 0 -0.36577804594954338 0.13548721506152639 0 -0.35531918038504529 0.13343118191585679 0 -0.36790133541439979 0.12735457771870609 0 -0.35531918038504529 0.13343118191585679 0 -0.36127910399462632 0.1196992547142407 0 -0.35531918038504529 0.13343118191585679 0 -0.36127910399462632 0.1196992547142407 0 -0.35531918038504529 0.13343118191585679 0 -0.34659567981459338 0.14358244160099581 0 -0.33833642328016711 0.13358035584540839 0 -0.35531918038504529 0.13343118191585679 0 -0.35702634274071032 0.14771952380406239 0 -0.36380625334770511 0.14078266572414491 0 -0.34772649858666099 0.15371110331834431 0 -0.34659567981459338 0.14358244160099581 0 -0.35702634274071032 0.14771952380406239 0 -0.35531918038504529 0.13343118191585679 0 -0.34659567981459338 0.14358244160099581 0 -0.35702634274071032 0.14771952380406239 0 -0.34772649858666099 0.15371110331834431 0 -0.35702634274071032 0.14771952380406239 0 -0.35795244449982261 0.1620796579522733 0 -0.37540629154686139 0.1471463441304251 0 -0.37095753791521913 0.1441149547268237 0 -0.35795244449982261 0.1620796579522733 0 -0.35702634274071032 0.14771952380406239 0 -0.37095753791521913 0.1441149547268237 0 -0.35795244449982261 0.1620796579522733 0 -0.37095753791521913 0.1441149547268237 0 -0.35795244449982261 0.1620796579522733 0 -0.35702634274071032 0.14771952380406239 0 -0.36380625334770511 0.14078266572414491 0 -0.37095753791521913 0.1441149547268237 0 -0.36941941969391529 0.13827085607226261 0 -0.36380625334770511 0.14078266572414491 0 -0.37095753791521913 0.1441149547268237 0 -0.37540629154686139 0.1471463441304251 0 -0.36684995176310897 0.16814243675947699 0 -0.37540629154686139 0.1471463441304251 0 -0.36684995176310897 0.16814243675947699 0 -0.35795244449982261 0.1620796579522733 0 -0.37837423792933722 0.16108708406320721 0 -0.37540629154686139 0.1471463441304251 0 -0.36684995176310897 0.16814243675947699 0 -0.3763768784692495 0.1709725768884684 0 -0.37837423792933722 0.16108708406320721 0 -0.36684995176310897 0.16814243675947699 0 -0.36684995176310897 0.16814243675947699 0 -0.35608488432415442 0.17486171821590679 0 -0.35795244449982261 0.1620796579522733 0 -0.36684995176310897 0.16814243675947699 0 -0.35829361197935639 0.1891385293885289 0 -0.36684995176310897 0.16814243675947699 0 -0.37149727459353182 0.17846864044279301 0 -0.35829361197935639 0.1891385293885289 0 -0.37562020421348169 0.18745809185035719 0 -0.37149727459353182 0.17846864044279301 0 -0.35829361197935639 0.1891385293885289 0 -0.36684995176310897 0.16814243675947699 0 -0.35608488432415442 0.17486171821590679 0 -0.35829361197935639 0.1891385293885289 0 -0.3763768784692495 0.1709725768884684 0 -0.36684995176310897 0.16814243675947699 0 -0.37149727459353182 0.17846864044279301 0 -0.35608488432415442 0.17486171821590679 0 -0.34494735108442609 0.18004436117772299 0 -0.35795244449982261 0.1620796579522733 0 -0.34484760201687081 0.18190670440182241 0 -0.35829361197935639 0.1891385293885289 0 -0.35608488432415442 0.17486171821590679 0 -0.35104336235120193 0.1814878282959953 0 -0.35829361197935639 0.1891385293885289 0 -0.35608488432415442 0.17486171821590679 0 -0.35104336235120193 0.1814878282959953 0 -0.34494735108442609 0.18004436117772299 0 -0.35104336235120193 0.1814878282959953 0 -0.34484760201687081 0.18190670440182241 0 -0.35829361197935639 0.1891385293885289 0 -0.35104336235120193 0.1814878282959953 0 -0.34494735108442609 0.18004436117772299 0 -0.34484760201687081 0.18190670440182241 0 -0.34494735108442609 0.18004436117772299 0 -0.35795244449982261 0.1620796579522733 0 -0.34494735108442609 0.18004436117772299 0 -0.35795244449982261 0.1620796579522733 0 -0.34307428872642398 0.16499869880815951 0 -0.34772649858666099 0.15371110331834431 0 -0.35795244449982261 0.1620796579522733 0 -0.34307428872642398 0.16499869880815951 0 -0.34307428872642398 0.16499869880815951 0 -0.33042038686833292 0.16161254883119819 0 -0.3345699540803832 0.14947004312130729 0 -0.34494735108442609 0.18004436117772299 0 -0.33746090468339202 0.17033262205804911 0 -0.34307428872642398 0.16499869880815951 0 -0.33746090468339202 0.17033262205804911 0 -0.34307428872642398 0.16499869880815951 0 -0.33042038686833292 0.16161254883119819 0 -0.33746090468339202 0.17033262205804911 0 -0.33042038686833292 0.16161254883119819 0 -0.33140159205438507 0.17467487941511589 0 -0.34484760201687081 0.18190670440182241 0 -0.33862184645730348 0.18362645068112091 0 -0.33140159205438507 0.17467487941511589 0 -0.33862184645730348 0.18362645068112091 0 -0.34080823276363931 0.1887891427880258 0 -0.33547903534513718 0.18855798298382151 0 -0.34484760201687081 0.18190670440182241 0 -0.33862184645730348 0.18362645068112091 0 -0.34080823276363931 0.1887891427880258 0 -0.34484760201687081 0.18190670440182241 0 -0.33140159205438507 0.17467487941511589 0 -0.34494735108442609 0.18004436117772299 0 -0.34484760201687081 0.18190670440182241 0 -0.33140159205438507 0.17467487941511589 0 -0.34494735108442609 0.18004436117772299 0 -0.33746090468339202 0.17033262205804911 0 -0.33140159205438507 0.17467487941511589 0 -0.33862184645730348 0.18362645068112091 0 -0.33140159205438507 0.17467487941511589 0 -0.33547903534513718 0.18855798298382151 0 -0.33140159205438507 0.17467487941511589 0 -0.33547903534513718 0.18855798298382151 0 -0.30964637574789722 0.17510885327158171 0 -0.33547903534513718 0.18855798298382151 0 -0.30964637574789722 0.17510885327158171 0 -0.33547903534513718 0.18855798298382151 0 -0.31851935616465998 0.18959975471966509 0 -0.30964637574789722 0.17510885327158171 0 -0.33042038686833292 0.16161254883119819 0 -0.31452104631791822 0.15395454034213091 0 -0.30964637574789722 0.17510885327158171 0 -0.33042038686833292 0.16161254883119819 0 -0.33140159205438507 0.17467487941511589 0 -0.30964637574789722 0.17510885327158171 0 -0.31452104631791822 0.15395454034213091 0 -0.31712130156919871 0.1324021381254048 0 -0.3345699540803832 0.14947004312130729 0 -0.33042038686833292 0.16161254883119819 0 -0.31452104631791822 0.15395454034213091 0 -0.3345699540803832 0.14947004312130729 0 -0.31712130156919871 0.1324021381254048 0 -0.33833642328016711 0.13358035584540839 0 -0.3345699540803832 0.14947004312130729 0 -0.31712130156919871 0.1324021381254048 0 -0.33833642328016711 0.13358035584540839 0 -0.33684128132565272 0.11624098386442951 0 -0.35531918038504529 0.13343118191585679 0 -0.33833642328016711 0.13358035584540839 0 -0.33684128132565272 0.11624098386442951 0 -0.34659567981459338 0.14358244160099581 0 -0.33833642328016711 0.13358035584540839 0 -0.3345699540803832 0.14947004312130729 0 -0.34772649858666099 0.15371110331834431 0 -0.34307428872642398 0.16499869880815951 0 -0.3345699540803832 0.14947004312130729 0 -0.34772649858666099 0.15371110331834431 0 -0.34659567981459338 0.14358244160099581 0 -0.3345699540803832 0.14947004312130729 0 -0.35818728008433809 0.23327211926629829 0 -0.34917394491463227 0.25833154519649171 0 -0.35818728008433809 0.23327211926629829 0 -0.34917394491463227 0.25833154519649171 0 -0.36287669385776122 0.25566732175679951 0 -0.35818728008433809 0.23327211926629829 0 -0.34071167215752368 0.23228221540700569 0 -0.34917394491463227 0.25833154519649171 0 -0.37249016034505922 0.24685564468794211 0 -0.35818728008433809 0.23327211926629829 0 -0.36287669385776122 0.25566732175679951 0 -0.37249016034505922 0.24685564468794211 0 -0.37265948181783509 0.2356204614031053 0 -0.35818728008433809 0.23327211926629829 0 -0.37685706022118359 0.2248143628812509 0 -0.35818728008433809 0.23327211926629829 0 -0.36720061525404191 0.20821269333610409 0 -0.35818728008433809 0.23327211926629829 0 -0.36720061525404191 0.20821269333610409 0 -0.37685706022118359 0.2248143628812509 0 -0.37265948181783509 0.2356204614031053 0 -0.35818728008433809 0.23327211926629829 0 -0.35089245170815381 0.2073225136678879 0 -0.34071167215752368 0.23228221540700569 0 -0.35818728008433809 0.23327211926629829 0 -0.35089245170815381 0.2073225136678879 0 -0.34071167215752368 0.23228221540700569 0 -0.35089245170815381 0.2073225136678879 0 -0.36720061525404191 0.20821269333610409 0 -0.35818728008433809 0.23327211926629829 0 -0.35089245170815381 0.2073225136678879 0 -0.36720061525404191 0.20821269333610409 0 -0.35089245170815381 0.2073225136678879 0 -0.36955959957840639 0.20059070396504439 0 -0.37813419844382978 0.21606929172493031 0 -0.37685706022118359 0.2248143628812509 0 -0.36720061525404191 0.20821269333610409 0 -0.35089245170815381 0.2073225136678879 0 -0.36720061525404191 0.20821269333610409 0 -0.36955959957840639 0.20059070396504439 0 -0.36720061525404191 0.20821269333610409 0 -0.36955959957840639 0.20059070396504439 0 -0.37556189915518018 0.19842613448656021 0 -0.36955959957840639 0.20059070396504439 0 -0.35829361197935639 0.1891385293885289 0 -0.35089245170815381 0.2073225136678879 0 -0.36955959957840639 0.20059070396504439 0 -0.35829361197935639 0.1891385293885289 0 -0.37556189915518018 0.19842613448656021 0 -0.35829361197935639 0.1891385293885289 0 -0.37556189915518018 0.19842613448656021 0 -0.37562020421348169 0.18745809185035719 0 -0.35829361197935639 0.1891385293885289 0 -0.37556189915518018 0.19842613448656021 0 -0.36720061525404191 0.20821269333610409 0 -0.36955959957840639 0.20059070396504439 0 -0.37556189915518018 0.19842613448656021 0 -0.36955959957840639 0.20059070396504439 0 -0.35089245170815381 0.2073225136678879 0 -0.35829361197935639 0.1891385293885289 0 -0.35089245170815381 0.2073225136678879 0 -0.35829361197935639 0.1891385293885289 0 -0.34679050683205831 0.19315920727275601 0 -0.35089245170815381 0.2073225136678879 0 -0.34679050683205831 0.19315920727275601 0 -0.33779412013318538 0.19654508392985379 0 -0.34484760201687081 0.18190670440182241 0 -0.35829361197935639 0.1891385293885289 0 -0.34679050683205831 0.19315920727275601 0 -0.34484760201687081 0.18190670440182241 0 -0.34679050683205831 0.19315920727275601 0 -0.34080823276363931 0.1887891427880258 0 -0.34080823276363931 0.1887891427880258 0 -0.33779412013318538 0.19654508392985379 0 -0.33547903534513718 0.18855798298382151 0 -0.34679050683205831 0.19315920727275601 0 -0.34080823276363931 0.1887891427880258 0 -0.33779412013318538 0.19654508392985379 0 -0.33779412013318538 0.19654508392985379 0 -0.32740748933161079 0.195725745354766 0 -0.32358164205843643 0.20581978147007429 0 -0.33779412013318538 0.19654508392985379 0 -0.33547903534513718 0.18855798298382151 0 -0.32740748933161079 0.195725745354766 0 -0.31851935616465998 0.18959975471966509 0 -0.32740748933161079 0.195725745354766 0 -0.32358164205843643 0.20581978147007429 0 -0.33547903534513718 0.18855798298382151 0 -0.31851935616465998 0.18959975471966509 0 -0.32740748933161079 0.195725745354766 0 -0.31851935616465998 0.18959975471966509 0 -0.32358164205843643 0.20581978147007429 0 -0.30409797968201002 0.19059030241082761 0 -0.33035940543230602 0.2147340539202269 0 -0.30982516680871219 0.22214228920826781 0 -0.32358164205843643 0.20581978147007429 0 -0.33035940543230602 0.2147340539202269 0 -0.30982516680871219 0.22214228920826781 0 -0.35089245170815381 0.2073225136678879 0 -0.32358164205843643 0.20581978147007429 0 -0.33035940543230602 0.2147340539202269 0 -0.35089245170815381 0.2073225136678879 0 -0.33035940543230602 0.2147340539202269 0 -0.35089245170815381 0.2073225136678879 0 -0.33779412013318538 0.19654508392985379 0 -0.32358164205843643 0.20581978147007429 0 -0.35089245170815381 0.2073225136678879 0 -0.33035940543230602 0.2147340539202269 0 -0.34071167215752368 0.23228221540700569 0 -0.35089245170815381 0.2073225136678879 0 -0.32358164205843643 0.20581978147007429 0 -0.34071167215752368 0.23228221540700569 0 -0.32557615804903489 0.2270321444523879 0 -0.32140838779759778 0.2389700192740514 0 -0.33035940543230602 0.2147340539202269 0 -0.34071167215752368 0.23228221540700569 0 -0.32557615804903489 0.2270321444523879 0 -0.32557615804903489 0.2270321444523879 0 -0.32140838779759778 0.2389700192740514 0 -0.30982516680871219 0.22214228920826781 0 -0.33035940543230602 0.2147340539202269 0 -0.32557615804903489 0.2270321444523879 0 -0.30982516680871219 0.22214228920826781 0 -0.32140838779759778 0.2389700192740514 0 -0.30420358160902372 0.24056130396304659 0 -0.3162978919101942 0.25265907793147502 0 -0.32140838779759778 0.2389700192740514 0 -0.33053877161191642 0.25724512800279681 0 -0.3162978919101942 0.25265907793147502 0 -0.34071167215752368 0.23228221540700569 0 -0.33053877161191642 0.25724512800279681 0 -0.34071167215752368 0.23228221540700569 0 -0.34917394491463227 0.25833154519649171 0 -0.33053877161191642 0.25724512800279681 0 -0.34071167215752368 0.23228221540700569 0 -0.32140838779759778 0.2389700192740514 0 -0.33053877161191642 0.25724512800279681 0 -0.28527507819026071 0.24774049503743281 0 -0.30420358160902372 0.24056130396304659 0 -0.28929092818511831 0.22955052449630861 0 -0.28527507819026071 0.24774049503743281 0 -0.30420358160902372 0.24056130396304659 0 -0.30289204722703 0.25704918596640558 0 -0.32140838779759778 0.2389700192740514 0 -0.30420358160902372 0.24056130396304659 0 -0.30982516680871219 0.22214228920826781 0 -0.30982516680871219 0.22214228920826781 0 -0.28929092818511831 0.22955052449630861 0 -0.30420358160902372 0.24056130396304659 0 -0.30982516680871219 0.22214228920826781 0 -0.28929092818511831 0.22955052449630861 0 -0.28527507819026071 0.24774049503743281 0 -0.28929092818511831 0.22955052449630861 0 -0.27220951237753449 0.22144765883136661 0 -0.28929092818511831 0.22955052449630861 0 -0.2962705875489996 0.2043215126750676 0 -0.27220951237753449 0.22144765883136661 0 -0.2962705875489996 0.2043215126750676 0 -0.26895953303956271 0.2028232438800609 0 -0.30982516680871219 0.22214228920826781 0 -0.28929092818511831 0.22955052449630861 0 -0.2962705875489996 0.2043215126750676 0 -0.32358164205843643 0.20581978147007429 0 -0.2962705875489996 0.2043215126750676 0 -0.32358164205843643 0.20581978147007429 0 -0.30982516680871219 0.22214228920826781 0 -0.2962705875489996 0.2043215126750676 0 -0.32358164205843643 0.20581978147007429 0 -0.2962705875489996 0.2043215126750676 0 -0.30409797968201002 0.19059030241082761 0 -0.2962705875489996 0.2043215126750676 0 -0.26895953303956271 0.2028232438800609 0 -0.28896131873326708 0.18330621198739019 0 -0.2962705875489996 0.2043215126750676 0 -0.30409797968201002 0.19059030241082761 0 -0.28896131873326708 0.18330621198739019 0 -0.26895953303956271 0.2028232438800609 0 -0.28896131873326708 0.18330621198739019 0 -0.2654345765159446 0.1793111017148519 0 -0.26895953303956271 0.2028232438800609 0 -0.2654345765159446 0.1793111017148519 0 -0.24164847853012569 0.2013249750850542 0 -0.26895953303956271 0.2028232438800609 0 -0.24164847853012569 0.2013249750850542 0 -0.26895953303956271 0.2028232438800609 0 -0.27220951237753449 0.22144765883136661 0 -0.25059512117356458 0.21888907334571511 0 -0.26895953303956271 0.2028232438800609 0 -0.25059512117356458 0.21888907334571511 0 -0.24164847853012569 0.2013249750850542 0 -0.2962705875489996 0.2043215126750676 0 -0.26895953303956271 0.2028232438800609 0 -0.27220951237753449 0.22144765883136661 0 -0.27220951237753449 0.22144765883136661 0 -0.25059512117356458 0.21888907334571511 0 -0.25908863043855029 0.2411351193443326 0 -0.28527507819026071 0.24774049503743281 0 -0.27220951237753449 0.22144765883136661 0 -0.25908863043855029 0.2411351193443326 0 -0.2864667412505294 0.14061326368518601 0 -0.30036811349398301 0.14131395765911561 0 -0.28381371615065698 0.1616597235593418 0 -0.2864667412505294 0.14061326368518601 0 -0.28957673456791561 0.12570511468601231 0 -0.2729531223837699 0.13788738287257199 0 -0.2864667412505294 0.14061326368518601 0 -0.28957673456791561 0.12570511468601231 0 -0.30036811349398301 0.14131395765911561 0 -0.31712130156919871 0.1324021381254048 0 -0.28957673456791561 0.12570511468601231 0 -0.31712130156919871 0.1324021381254048 0 -0.28957673456791561 0.12570511468601231 0 -0.30036811349398301 0.14131395765911561 0 -0.31452104631791822 0.15395454034213091 0 -0.30036811349398301 0.14131395765911561 0 -0.28381371615065698 0.1616597235593418 0 -0.31452104631791822 0.15395454034213091 0 -0.31712130156919871 0.1324021381254048 0 -0.30036811349398301 0.14131395765911561 0 -0.31452104631791822 0.15395454034213091 0 -0.30964637574789722 0.17510885327158171 0 -0.28381371615065698 0.1616597235593418 0 -0.30409797968201002 0.19059030241082761 0 -0.30964637574789722 0.17510885327158171 0 -0.28896131873326708 0.18330621198739019 0 -0.31851935616465998 0.18959975471966509 0 -0.30409797968201002 0.19059030241082761 0 -0.30964637574789722 0.17510885327158171 0 -0.30964637574789722 0.17510885327158171 0 -0.28896131873326708 0.18330621198739019 0 -0.28381371615065698 0.1616597235593418 0 -0.30964637574789722 0.17510885327158171 0 -0.28381371615065698 0.1616597235593418 0 -0.28381371615065698 0.1616597235593418 0 -0.2654345765159446 0.1793111017148519 0 -0.2579810565534168 0.148210593847102 0 -0.28896131873326708 0.18330621198739019 0 -0.28381371615065698 0.1616597235593418 0 -0.2654345765159446 0.1793111017148519 0 -0.2654345765159446 0.1793111017148519 0 -0.2579810565534168 0.148210593847102 0 -0.24279777656943871 0.1717307895855901 0 -0.2864667412505294 0.14061326368518601 0 -0.28381371615065698 0.1616597235593418 0 -0.2729531223837699 0.13788738287257199 0 -0.28381371615065698 0.1616597235593418 0 -0.2579810565534168 0.148210593847102 0 -0.28381371615065698 0.1616597235593418 0 -0.2579810565534168 0.148210593847102 0 -0.2729531223837699 0.13788738287257199 0 -0.28957673456791561 0.12570511468601231 0 -0.2729531223837699 0.13788738287257199 0 -0.2620321675666325 0.11900809124661969 0 -0.25917972863780547 0.13487766365150339 0 -0.2620321675666325 0.11900809124661969 0 -0.24375256804740261 0.13440458663971991 0 -0.2729531223837699 0.13788738287257199 0 -0.25917972863780547 0.13487766365150339 0 -0.2620321675666325 0.11900809124661969 0 -0.2579810565534168 0.148210593847102 0 -0.2729531223837699 0.13788738287257199 0 -0.25917972863780547 0.13487766365150339 0 -0.2579810565534168 0.148210593847102 0 -0.25917972863780547 0.13487766365150339 0 -0.24375256804740261 0.13440458663971991 0 -0.2620321675666325 0.11900809124661969 0 -0.25072939394446242 0.10778156506337259 0 -0.26352781331873021 0.10586617131500491 0 -0.2525350539876744 0.099588398652101742 0 -0.26352781331873021 0.10586617131500491 0 -0.25959329218553562 0.09022657345205258 0 -0.2525350539876744 0.099588398652101742 0 -0.25072939394446242 0.10778156506337259 0 -0.26352781331873021 0.10586617131500491 0 -0.26352781331873021 0.10586617131500491 0 -0.27644236723143162 0.096887094966299533 0 -0.25959329218553562 0.09022657345205258 0 -0.26352781331873021 0.10586617131500491 0 -0.28796563598770442 0.1093244421648131 0 -0.26352781331873021 0.10586617131500491 0 -0.27644236723143162 0.096887094966299533 0 -0.28796563598770442 0.1093244421648131 0 -0.28957673456791561 0.12570511468601231 0 -0.2620321675666325 0.11900809124661969 0 -0.27486688136027732 0.1138127070833615 0 -0.26352781331873021 0.10586617131500491 0 -0.27486688136027732 0.1138127070833615 0 -0.28796563598770442 0.1093244421648131 0 -0.28957673456791561 0.12570511468601231 0 -0.2620321675666325 0.11900809124661969 0 -0.2620321675666325 0.11900809124661969 0 -0.26352781331873021 0.10586617131500491 0 -0.27486688136027732 0.1138127070833615 0 -0.28957673456791561 0.12570511468601231 0 -0.27486688136027732 0.1138127070833615 0 -0.28796563598770442 0.1093244421648131 0 -0.28957673456791561 0.12570511468601231 0 -0.28796563598770442 0.1093244421648131 0 -0.31240345865667862 0.1127827130146213 0 -0.28796563598770442 0.1093244421648131 0 -0.29350481855488852 0.094433899091840773 0 -0.30642450330190418 0.099839350753867545 0 -0.27644236723143162 0.096887094966299533 0 -0.28796563598770442 0.1093244421648131 0 -0.29350481855488852 0.094433899091840773 0 -0.29350481855488852 0.094433899091840773 0 -0.30642450330190418 0.099839350753867545 0 -0.31018337253505962 0.087183531902649103 0 -0.28796563598770442 0.1093244421648131 0 -0.30642450330190418 0.099839350753867545 0 -0.31240345865667862 0.1127827130146213 0 -0.28796563598770442 0.1093244421648131 0 -0.31240345865667862 0.1127827130146213 0 -0.31712130156919871 0.1324021381254048 0 -0.28957673456791561 0.12570511468601231 0 -0.31240345865667862 0.1127827130146213 0 -0.30956972964775958 0.069622425178785058 0 -0.29305600564492551 0.066817684187781404 0 -0.30224402276361778 0.05408634073182917 0 -0.30956972964775958 0.069622425178785058 0 -0.29474696877657458 0.080648030833350551 0 -0.29305600564492551 0.066817684187781404 0 -0.30956972964775958 0.069622425178785058 0 -0.31018337253505962 0.087183531902649103 0 -0.29474696877657458 0.080648030833350551 0 -0.29350481855488852 0.094433899091840773 0 -0.31018337253505962 0.087183531902649103 0 -0.29474696877657458 0.080648030833350551 0 -0.27644236723143162 0.096887094966299533 0 -0.29350481855488852 0.094433899091840773 0 -0.28259292858114732 0.08739050115550405 0 -0.29474696877657458 0.080648030833350551 0 -0.28259292858114732 0.08739050115550405 0 -0.27876055247601522 0.071831425512002028 0 -0.29350481855488852 0.094433899091840773 0 -0.29474696877657458 0.080648030833350551 0 -0.28259292858114732 0.08739050115550405 0 -0.29474696877657458 0.080648030833350551 0 -0.29305600564492551 0.066817684187781404 0 -0.27876055247601522 0.071831425512002028 0 -0.29305600564492551 0.066817684187781404 0 -0.27876055247601522 0.071831425512002028 0 -0.28450773717895123 0.060604819275267077 0 -0.27876055247601522 0.071831425512002028 0 -0.2686218769934966 0.060508405442379037 0 -0.28450773717895123 0.060604819275267077 0 -0.27876055247601522 0.071831425512002028 0 -0.27115162986189367 0.084759840788969726 0 -0.26340474540789599 0.07502629964806154 0 -0.27876055247601522 0.071831425512002028 0 -0.26340474540789599 0.07502629964806154 0 -0.2686218769934966 0.060508405442379037 0 -0.27644236723143162 0.096887094966299533 0 -0.27115162986189367 0.084759840788969726 0 -0.25959329218553562 0.09022657345205258 0 -0.27644236723143162 0.096887094966299533 0 -0.28259292858114732 0.08739050115550405 0 -0.27115162986189367 0.084759840788969726 0 -0.28259292858114732 0.08739050115550405 0 -0.27876055247601522 0.071831425512002028 0 -0.27115162986189367 0.084759840788969726 0 -0.2525350539876744 0.099588398652101742 0 -0.25959329218553562 0.09022657345205258 0 -0.24303933278011891 0.091192920881186912 0 -0.25959329218553562 0.09022657345205258 0 -0.24788998695731221 0.077642454016861165 0 -0.24303933278011891 0.091192920881186912 0 -0.27115162986189367 0.084759840788969726 0 -0.25959329218553562 0.09022657345205258 0 -0.26340474540789599 0.07502629964806154 0 -0.25959329218553562 0.09022657345205258 0 -0.26340474540789599 0.07502629964806154 0 -0.24788998695731221 0.077642454016861165 0 -0.26340474540789599 0.07502629964806154 0 -0.25434312613861959 0.066411686048620314 0 -0.2686218769934966 0.060508405442379037 0 -0.26340474540789599 0.07502629964806154 0 -0.25434312613861959 0.066411686048620314 0 -0.24788998695731221 0.077642454016861165 0 -0.25749231291970759 0.056531848829054293 0 -0.25799236876567688 0.045663256659938221 0 -0.23500643339697541 0.063066863111628069 0 -0.25434312613861959 0.066411686048620314 0 -0.25749231291970759 0.056531848829054293 0 -0.2686218769934966 0.060508405442379037 0 -0.25749231291970759 0.056531848829054293 0 -0.25799236876567688 0.045663256659938221 0 -0.27149775930376951 0.047009032882705852 0 -0.26953166992457761 0.026552584112169941 0 -0.24640506611100191 0.039844229913112879 0 -0.25799236876567688 0.045663256659938221 0 -0.26953166992457761 0.026552584112169941 0 -0.24640506611100191 0.039844229913112879 0 -0.27149775930376951 0.047009032882705852 0 -0.28097830413437852 0.028259650208248381 0 -0.28495333831668912 0.041424509085618448 0 -0.25799236876567688 0.045663256659938221 0 -0.26953166992457761 0.026552584112169941 0 -0.28097830413437852 0.028259650208248381 0 -0.25799236876567688 0.045663256659938221 0 -0.27149775930376951 0.047009032882705852 0 -0.28097830413437852 0.028259650208248381 0 -0.25799236876567688 0.045663256659938221 0 -0.28097830413437852 0.028259650208248381 0 -0.27964807967495819 0.050383967875879232 0 -0.27149775930376951 0.047009032882705852 0 -0.28495333831668912 0.041424509085618448 0 -0.27964807967495819 0.050383967875879232 0 -0.2686218769934966 0.060508405442379037 0 -0.28450773717895123 0.060604819275267077 0 -0.25749231291970759 0.056531848829054293 0 -0.2686218769934966 0.060508405442379037 0 -0.27149775930376951 0.047009032882705852 0 -0.27964807967495819 0.050383967875879232 0 -0.2686218769934966 0.060508405442379037 0 -0.27149775930376951 0.047009032882705852 0 -0.25294301608417369 -0.0039445141545991248 0 -0.26975968607386608 -0.0010611073363657091 0 -0.26113558194750608 0.01221361877806571 0 -0.25294301608417369 -0.0039445141545991248 0 -0.26113558194750608 0.01221361877806571 0 -0.24312134646853831 0.01450623166043024 0 -0.25249222007733008 0.024067731356460301 0 -0.26953166992457761 0.026552584112169941 0 -0.24640506611100191 0.039844229913112879 0 -0.26113558194750608 0.01221361877806571 0 -0.25249222007733008 0.024067731356460301 0 -0.26953166992457761 0.026552584112169941 0 -0.26113558194750608 0.01221361877806571 0 -0.25249222007733008 0.024067731356460301 0 -0.24312134646853831 0.01450623166043024 0 -0.26953166992457761 0.026552584112169941 0 -0.28097830413437852 0.028259650208248381 0 -0.29265827373815312 0.0132609383112271 0 -0.26113558194750608 0.01221361877806571 0 -0.26953166992457761 0.026552584112169941 0 -0.27592655851199782 0.01072279439332522 0 -0.26953166992457761 0.026552584112169941 0 -0.27592655851199782 0.01072279439332522 0 -0.29265827373815312 0.0132609383112271 0 -0.26953166992457761 0.026552584112169941 0 -0.29265827373815312 0.0132609383112271 0 -0.26975968607386608 -0.0010611073363657091 0 -0.27592655851199782 0.01072279439332522 0 -0.28565501754425748 0.00075764068133065364 0 -0.26975968607386608 -0.0010611073363657091 0 -0.26113558194750608 0.01221361877806571 0 -0.27592655851199782 0.01072279439332522 0 -0.27592655851199782 0.01072279439332522 0 -0.28565501754425748 0.00075764068133065364 0 -0.29265827373815312 0.0132609383112271 0 -0.29894757355793061 -0.001573101011422945 0 -0.28565501754425748 0.00075764068133065364 0 -0.29265827373815312 0.0132609383112271 0 -0.28097830413437852 0.028259650208248381 0 -0.29265827373815312 0.0132609383112271 0 -0.30396423950307999 0.01085604375655853 0 -0.28097830413437852 0.028259650208248381 0 -0.29419578756845349 0.02935049388544805 0 -0.30396423950307999 0.01085604375655853 0 -0.28097830413437852 0.028259650208248381 0 -0.30396423950307999 0.01085604375655853 0 -0.30726624954736032 0.027841442578998999 0 -0.30396423950307999 0.01085604375655853 0 -0.32071520508095203 0.0149775874889642 0 -0.29419578756845349 0.02935049388544805 0 -0.30726624954736032 0.027841442578998999 0 -0.30396423950307999 0.01085604375655853 0 -0.31578487755172879 -3.0707489715793568e-05 0 -0.29265827373815312 0.0132609383112271 0 -0.30396423950307999 0.01085604375655853 0 -0.29894757355793061 -0.001573101011422945 0 -0.31578487755172879 -3.0707489715793568e-05 0 -0.29265827373815312 0.0132609383112271 0 -0.31578487755172879 -3.0707489715793568e-05 0 -0.29265827373815312 0.0132609383112271 0 -0.290305408976746 0.051729064035953627 0 -0.29582590532878361 0.040315332131692909 0 -0.30224402276361778 0.05408634073182917 0 -0.29305600564492551 0.066817684187781404 0 -0.290305408976746 0.051729064035953627 0 -0.28450773717895123 0.060604819275267077 0 -0.29305600564492551 0.066817684187781404 0 -0.290305408976746 0.051729064035953627 0 -0.30224402276361778 0.05408634073182917 0 -0.27964807967495819 0.050383967875879232 0 -0.290305408976746 0.051729064035953627 0 -0.28495333831668912 0.041424509085618448 0 -0.27964807967495819 0.050383967875879232 0 -0.290305408976746 0.051729064035953627 0 -0.28450773717895123 0.060604819275267077 0 -0.28097830413437852 0.028259650208248381 0 -0.29419578756845349 0.02935049388544805 0 -0.28495333831668912 0.041424509085618448 0 -0.29419578756845349 0.02935049388544805 0 -0.28495333831668912 0.041424509085618448 0 -0.29582590532878361 0.040315332131692909 0 -0.290305408976746 0.051729064035953627 0 -0.28495333831668912 0.041424509085618448 0 -0.29582590532878361 0.040315332131692909 0 -0.29582590532878361 0.040315332131692909 0 -0.3098996162898584 0.043941539586590313 0 -0.30224402276361778 0.05408634073182917 0 -0.30726624954736032 0.027841442578998999 0 -0.29582590532878361 0.040315332131692909 0 -0.3098996162898584 0.043941539586590313 0 -0.29419578756845349 0.02935049388544805 0 -0.30726624954736032 0.027841442578998999 0 -0.29582590532878361 0.040315332131692909 0 -0.3098996162898584 0.043941539586590313 0 -0.30224402276361778 0.05408634073182917 0 -0.31648524419970547 0.053733285458399747 0 -0.30956972964775958 0.069622425178785058 0 -0.30224402276361778 0.05408634073182917 0 -0.31648524419970547 0.053733285458399747 0 -0.31648524419970547 0.053733285458399747 0 -0.32606337690303439 0.044550699856569252 0 -0.32683519908180791 0.063126457847625994 0 -0.30956972964775958 0.069622425178785058 0 -0.31648524419970547 0.053733285458399747 0 -0.32683519908180791 0.063126457847625994 0 -0.3098996162898584 0.043941539586590313 0 -0.31648524419970547 0.053733285458399747 0 -0.32606337690303439 0.044550699856569252 0 -0.30726624954736032 0.027841442578998999 0 -0.3098996162898584 0.043941539586590313 0 -0.32606337690303439 0.044550699856569252 0 -0.30726624954736032 0.027841442578998999 0 -0.32606337690303439 0.044550699856569252 0 -0.33258225904685979 0.029546000224192979 0 -0.34057403016800919 0.044507600444110403 0 -0.33258225904685979 0.029546000224192979 0 -0.35435657242444379 0.040766437679088427 0 -0.32606337690303439 0.044550699856569252 0 -0.34057403016800919 0.044507600444110403 0 -0.33258225904685979 0.029546000224192979 0 -0.34057403016800919 0.044507600444110403 0 -0.33795978019800599 0.054664959836965517 0 -0.3502948795609111 0.053829307448274348 0 -0.33795978019800599 0.054664959836965517 0 -0.32683519908180791 0.063126457847625994 0 -0.34355039396171821 0.066880821053126982 0 -0.32606337690303439 0.044550699856569252 0 -0.33795978019800599 0.054664959836965517 0 -0.32683519908180791 0.063126457847625994 0 -0.32606337690303439 0.044550699856569252 0 -0.34057403016800919 0.044507600444110403 0 -0.33795978019800599 0.054664959836965517 0 -0.31578487755172879 -3.0707489715793568e-05 0 -0.30396423950307999 0.01085604375655853 0 -0.32071520508095203 0.0149775874889642 0 -0.31578487755172879 -3.0707489715793568e-05 0 -0.32071520508095203 0.0149775874889642 0 -0.32900894828360561 0.002271869797603329 0 -0.30726624954736032 0.027841442578998999 0 -0.32071520508095203 0.0149775874889642 0 -0.33258225904685979 0.029546000224192979 0 -0.30726624954736032 0.027841442578998999 0 -0.33258225904685979 0.029546000224192979 0 -0.33258225904685979 0.029546000224192979 0 -0.33494444781768301 0.01272350465818773 0 -0.35032816685730062 0.016714637465141239 0 -0.32071520508095203 0.0149775874889642 0 -0.33258225904685979 0.029546000224192979 0 -0.33494444781768301 0.01272350465818773 0 -0.33494444781768301 0.01272350465818773 0 -0.34208765981969702 0.0001074283150369192 0 -0.35032816685730062 0.016714637465141239 0 -0.32071520508095203 0.0149775874889642 0 -0.33494444781768301 0.01272350465818773 0 -0.32900894828360561 0.002271869797603329 0 -0.33494444781768301 0.01272350465818773 0 -0.34208765981969702 0.0001074283150369192 0 -0.32900894828360561 0.002271869797603329 0 -0.3559442881963949 -0.001519714188895674 0 -0.35032816685730062 0.016714637465141239 0 -0.36555986432533338 0.01066527271968408 0 -0.3559442881963949 -0.001519714188895674 0 -0.34208765981969702 0.0001074283150369192 0 -0.35032816685730062 0.016714637465141239 0 -0.33258225904685979 0.029546000224192979 0 -0.35789826854635931 0.031250557869387352 0 -0.35032816685730062 0.016714637465141239 0 -0.35789826854635931 0.031250557869387352 0 -0.36555986432533338 0.01066527271968408 0 -0.33258225904685979 0.029546000224192979 0 -0.35032816685730062 0.016714637465141239 0 -0.35789826854635931 0.031250557869387352 0 -0.35789826854635931 0.031250557869387352 0 -0.37163219754586208 0.022212934043181191 0 -0.36555986432533338 0.01066527271968408 0 -0.37746068595568572 0.032567719176116713 0 -0.35789826854635931 0.031250557869387352 0 -0.37163219754586208 0.022212934043181191 0 -0.35789826854635931 0.031250557869387352 0 -0.36555986432533338 0.01066527271968408 0 -0.37322146010430751 -0.009920012430019198 0 -0.38558511302035892 0.007592159259512639 0 -0.36555986432533338 0.01066527271968408 0 -0.37322146010430751 -0.009920012430019198 0 -0.36555986432533338 0.01066527271968408 0 -0.38558511302035892 0.007592159259512639 0 -0.37163219754586208 0.022212934043181191 0 -0.36555986432533338 0.01066527271968408 0 -0.3502948795609111 0.053829307448274348 0 -0.36088622611351912 0.06606292231779122 0 -0.34355039396171821 0.066880821053126982 0 -0.3502948795609111 0.053829307448274348 0 -0.36156032537129712 0.050435820263573281 0 -0.36088622611351912 0.06606292231779122 0 -0.3502948795609111 0.053829307448274348 0 -0.35435657242444379 0.040766437679088427 0 -0.36156032537129712 0.050435820263573281 0 -0.33795978019800599 0.054664959836965517 0 -0.3502948795609111 0.053829307448274348 0 -0.34355039396171821 0.066880821053126982 0 -0.33258225904685979 0.029546000224192979 0 -0.35789826854635931 0.031250557869387352 0 -0.35435657242444379 0.040766437679088427 0 -0.34057403016800919 0.044507600444110403 0 -0.3502948795609111 0.053829307448274348 0 -0.35435657242444379 0.040766437679088427 0 -0.35789826854635931 0.031250557869387352 0 -0.35435657242444379 0.040766437679088427 0 -0.37746068595568572 0.032567719176116713 0 -0.35789826854635931 0.031250557869387352 0 -0.35435657242444379 0.040766437679088427 0 -0.3687082821177089 0.041043857721407069 0 -0.36156032537129712 0.050435820263573281 0 -0.37746068595568572 0.032567719176116713 0 -0.35789826854635931 0.031250557869387352 0 -0.3687082821177089 0.041043857721407069 0 -0.35789826854635931 0.031250557869387352 0 -0.35435657242444379 0.040766437679088427 0 -0.3687082821177089 0.041043857721407069 0 -0.3687082821177089 0.041043857721407069 0 -0.37475093605070231 0.053040140082338247 0 -0.36156032537129712 0.050435820263573281 0 -0.37475093605070231 0.053040140082338247 0 -0.36156032537129712 0.050435820263573281 0 -0.36088622611351912 0.06606292231779122 0 -0.36088622611351912 0.06606292231779122 0 -0.35107262011031282 0.085110575103732836 0 -0.36617495838084108 0.080257387593016635 0 -0.38140095686814618 0.073337617062281299 0 -0.36088622611351912 0.06606292231779122 0 -0.36617495838084108 0.080257387593016635 0 -0.38140095686814618 0.073337617062281299 0 -0.37475093605070231 0.053040140082338247 0 -0.36088622611351912 0.06606292231779122 0 -0.36088622611351912 0.06606292231779122 0 -0.35107262011031282 0.085110575103732836 0 -0.34355039396171821 0.066880821053126982 0 -0.38140095686814618 0.073337617062281299 0 -0.36617495838084108 0.080257387593016635 0 -0.37134003043138658 0.0965184358882612 0 -0.35107262011031282 0.085110575103732836 0 -0.36617495838084108 0.080257387593016635 0 -0.37134003043138658 0.0965184358882612 0 -0.37134003043138658 0.0965184358882612 0 -0.36127910399462632 0.1196992547142407 0 -0.35044936866905768 0.1042534658305838 0 -0.37134003043138658 0.0965184358882612 0 -0.36127910399462632 0.1196992547142407 0 -0.37635278868383848 0.11148640656356509 0 -0.37134003043138658 0.0965184358882612 0 -0.36127910399462632 0.1196992547142407 0 -0.37487170925437652 0.1216227857578778 0 -0.36127910399462632 0.1196992547142407 0 -0.37635278868383848 0.11148640656356509 0 -0.37487170925437652 0.1216227857578778 0 -0.36127910399462632 0.1196992547142407 0 -0.36790133541439979 0.12735457771870609 0 -0.37487170925437652 0.1216227857578778 0 -0.36127910399462632 0.1196992547142407 0 -0.35531918038504529 0.13343118191585679 0 -0.36127910399462632 0.1196992547142407 0 -0.33684128132565272 0.11624098386442951 0 -0.36127910399462632 0.1196992547142407 0 -0.35044936866905768 0.1042534658305838 0 -0.33684128132565272 0.11624098386442951 0 -0.36127910399462632 0.1196992547142407 0 -0.33684128132565272 0.11624098386442951 0 -0.35107262011031282 0.085110575103732836 0 -0.37134003043138658 0.0965184358882612 0 -0.35044936866905768 0.1042534658305838 0 -0.35107262011031282 0.085110575103732836 0 -0.35044936866905768 0.1042534658305838 0 -0.32806523077518962 0.095472167595413507 0 -0.35044936866905768 0.1042534658305838 0 -0.33684128132565272 0.11624098386442951 0 -0.32806523077518962 0.095472167595413507 0 -0.31240345865667862 0.1127827130146213 0 -0.33684128132565272 0.11624098386442951 0 -0.31712130156919871 0.1324021381254048 0 -0.31240345865667862 0.1127827130146213 0 -0.33684128132565272 0.11624098386442951 0 -0.30642450330190418 0.099839350753867545 0 -0.31018337253505962 0.087183531902649103 0 -0.32806523077518962 0.095472167595413507 0 -0.30642450330190418 0.099839350753867545 0 -0.31240345865667862 0.1127827130146213 0 -0.32806523077518962 0.095472167595413507 0 -0.31240345865667862 0.1127827130146213 0 -0.33684128132565272 0.11624098386442951 0 -0.32806523077518962 0.095472167595413507 0 -0.30956972964775958 0.069622425178785058 0 -0.31018337253505962 0.087183531902649103 0 -0.32101843370788569 0.078672701459340966 0 -0.32806523077518962 0.095472167595413507 0 -0.32101843370788569 0.078672701459340966 0 -0.33425365870575241 0.078490703764372005 0 -0.31018337253505962 0.087183531902649103 0 -0.32806523077518962 0.095472167595413507 0 -0.32101843370788569 0.078672701459340966 0 -0.30956972964775958 0.069622425178785058 0 -0.32101843370788569 0.078672701459340966 0 -0.32683519908180791 0.063126457847625994 0 -0.32101843370788569 0.078672701459340966 0 -0.32683519908180791 0.063126457847625994 0 -0.33425365870575241 0.078490703764372005 0 -0.35107262011031282 0.085110575103732836 0 -0.34355039396171821 0.066880821053126982 0 -0.33425365870575241 0.078490703764372005 0 -0.32683519908180791 0.063126457847625994 0 -0.34355039396171821 0.066880821053126982 0 -0.33425365870575241 0.078490703764372005 0 -0.35107262011031282 0.085110575103732836 0 -0.32806523077518962 0.095472167595413507 0 -0.33425365870575241 0.078490703764372005 0 -0.39132521821327032 0.48241230536184282 0 -0.39394645663426442 0.46885318612574428 0 -0.40358524383448702 0.47774285801689081 0 -0.39394645663426442 0.46885318612574428 0 -0.40358524383448702 0.47774285801689081 0 -0.40566374362586549 0.46368584245761491 0 -0.39132521821327032 0.48241230536184282 0 -0.38292299556036952 0.5 0 -0.4099313472970767 0.5 0 -0.39132521821327032 0.48241230536184282 0 -0.40358524383448702 0.47774285801689081 0 -0.4099313472970767 0.5 0 -0.39132521821327032 0.48241230536184282 0 -0.38292299556036952 0.5 0 -0.38125015990584238 0.48646872163610549 0 -0.38292299556036952 0.5 0 -0.38125015990584238 0.48646872163610549 0 -0.37088322944287161 0.48946577447984752 0 -0.39132521821327032 0.48241230536184282 0 -0.39394645663426442 0.46885318612574428 0 -0.37412600631961901 0.46790477164374572 0 -0.38125015990584238 0.48646872163610549 0 -0.37412600631961901 0.46790477164374572 0 -0.37088322944287161 0.48946577447984752 0 -0.39132521821327032 0.48241230536184282 0 -0.38125015990584238 0.48646872163610549 0 -0.37412600631961901 0.46790477164374572 0 -0.39426803384977321 0.45360872877597791 0 -0.37109872177548642 0.45231600042270997 0 -0.37412600631961901 0.46790477164374572 0 -0.39394645663426442 0.46885318612574428 0 -0.39426803384977321 0.45360872877597791 0 -0.37412600631961901 0.46790477164374572 0 -0.39426803384977321 0.45360872877597791 0 -0.37412600631961901 0.46790477164374572 0 -0.39426803384977321 0.45360872877597791 0 -0.37306907393781358 0.43486269775529879 0 -0.39426803384977321 0.45360872877597791 0 -0.39005877273172929 0.43589844223380908 0 -0.37306907393781358 0.43486269775529879 0 -0.39426803384977321 0.45360872877597791 0 -0.37306907393781358 0.43486269775529879 0 -0.37109872177548642 0.45231600042270997 0 -0.39426803384977321 0.45360872877597791 0 -0.40566374362586549 0.46368584245761491 0 -0.41637236682592071 0.43791991635044919 0 -0.39426803384977321 0.45360872877597791 0 -0.41309913679096061 0.43443886628545741 0 -0.39005877273172929 0.43589844223380908 0 -0.39426803384977321 0.45360872877597791 0 -0.41637236682592071 0.43791991635044919 0 -0.39394645663426442 0.46885318612574428 0 -0.39426803384977321 0.45360872877597791 0 -0.40566374362586549 0.46368584245761491 0 -0.39426803384977321 0.45360872877597791 0 -0.40566374362586549 0.46368584245761491 0 -0.40566374362586549 0.46368584245761491 0 -0.42162400779632991 0.45849513766489891 0 -0.41637236682592071 0.43791991635044919 0 -0.40566374362586549 0.46368584245761491 0 -0.42162400779632991 0.45849513766489891 0 -0.41705945340195788 0.47376295613925201 0 -0.40566374362586549 0.46368584245761491 0 -0.41705945340195788 0.47376295613925201 0 -0.39426803384977321 0.45360872877597791 0 -0.41637236682592071 0.43791991635044919 0 -0.41309913679096061 0.43443886628545741 0 -0.41637236682592071 0.43791991635044919 0 -0.43225419115985247 0.45052498853192929 0 -0.43743774482047498 0.43827132605551372 0 -0.42162400779632991 0.45849513766489891 0 -0.41637236682592071 0.43791991635044919 0 -0.43225419115985247 0.45052498853192929 0 -0.42162400779632991 0.45849513766489891 0 -0.43225419115985247 0.45052498853192929 0 -0.43854088631296673 0.46733167772739198 0 -0.42162400779632991 0.45849513766489891 0 -0.41705945340195788 0.47376295613925201 0 -0.43854088631296673 0.46733167772739198 0 -0.41705945340195788 0.47376295613925201 0 -0.42901220589253858 0.48535647500485002 0 -0.43854088631296673 0.46733167772739198 0 -0.40358524383448702 0.47774285801689081 0 -0.41705945340195788 0.47376295613925201 0 -0.4099313472970767 0.5 0 -0.40358524383448702 0.47774285801689081 0 -0.40566374362586549 0.46368584245761491 0 -0.41705945340195788 0.47376295613925201 0 -0.41705945340195788 0.47376295613925201 0 -0.4099313472970767 0.5 0 -0.42901220589253858 0.48535647500485002 0 -0.4099313472970767 0.5 0 -0.42901220589253858 0.48535647500485002 0 -0.43693969903378388 0.5 0 -0.42901220589253858 0.48535647500485002 0 -0.43693969903378388 0.5 0 -0.44568323212388239 0.48628468395513408 0 -0.43693969903378388 0.5 0 -0.44568323212388239 0.48628468395513408 0 -0.46394805077049128 0.49999999999999711 0 -0.42901220589253858 0.48535647500485002 0 -0.44568323212388239 0.48628468395513408 0 -0.43854088631296673 0.46733167772739198 0 -0.44568323212388239 0.48628468395513408 0 -0.45997531860963159 0.4787352670434285 0 -0.43854088631296673 0.46733167772739198 0 -0.45997531860963159 0.4787352670434285 0 -0.46394805077049128 0.49999999999999711 0 -0.47862925819217872 0.47894287878024422 0 -0.44568323212388239 0.48628468395513408 0 -0.45997531860963159 0.4787352670434285 0 -0.46394805077049128 0.49999999999999711 0 -0.45997531860963159 0.4787352670434285 0 -0.46394805077049128 0.49999999999999711 0 -0.46394805077049128 0.49999999999999711 0 -0.47862925819217872 0.47894287878024422 0 -0.5 0.5 0 -0.45997531860963159 0.4787352670434285 0 -0.47862925819217872 0.47894287878024422 0 -0.46847773409408627 0.4673146679773027 0 -0.47862925819217872 0.47894287878024422 0 -0.50000000000000155 0.47280776373675709 0 -0.47949223326735718 0.45594887713281201 0 -0.47862925819217872 0.47894287878024422 0 -0.50000000000000155 0.47280776373675709 0 -0.5 0.5 0 -0.5 0.44558695780609409 0 -0.47949223326735718 0.45594887713281201 0 -0.48323684512672588 0.43755883779404442 0 -0.50000000000000155 0.47280776373675709 0 -0.5 0.44558695780609409 0 -0.47949223326735718 0.45594887713281201 0 -0.50000000000000155 0.47280776373675709 0 -0.47949223326735718 0.45594887713281201 0 -0.47862925819217872 0.47894287878024422 0 -0.47949223326735718 0.45594887713281201 0 -0.46847773409408627 0.4673146679773027 0 -0.47949223326735718 0.45594887713281201 0 -0.45898446653471209 0.43908999052886771 0 -0.47949223326735718 0.45594887713281201 0 -0.48323684512672588 0.43755883779404442 0 -0.45898446653471209 0.43908999052886771 0 -0.4560025864487714 0.45747053408686011 0 -0.4520298542879112 0.43620580113029161 0 -0.47949223326735718 0.45594887713281201 0 -0.45898446653471209 0.43908999052886771 0 -0.4560025864487714 0.45747053408686011 0 -0.45898446653471209 0.43908999052886771 0 -0.4560025864487714 0.45747053408686011 0 -0.4520298542879112 0.43620580113029161 0 -0.45997531860963159 0.4787352670434285 0 -0.4560025864487714 0.45747053408686011 0 -0.45997531860963159 0.4787352670434285 0 -0.46847773409408627 0.4673146679773027 0 -0.4560025864487714 0.45747053408686011 0 -0.47949223326735718 0.45594887713281201 0 -0.46847773409408627 0.4673146679773027 0 -0.4560025864487714 0.45747053408686011 0 -0.45997531860963159 0.4787352670434285 0 -0.4560025864487714 0.45747053408686011 0 -0.43854088631296673 0.46733167772739198 0 -0.4560025864487714 0.45747053408686011 0 -0.43854088631296673 0.46733167772739198 0 -0.44443155227587439 0.44942301082531472 0 -0.43225419115985247 0.45052498853192929 0 -0.43854088631296673 0.46733167772739198 0 -0.44443155227587439 0.44942301082531472 0 -0.4560025864487714 0.45747053408686011 0 -0.44443155227587439 0.44942301082531472 0 -0.4520298542879112 0.43620580113029161 0 -0.43225419115985247 0.45052498853192929 0 -0.43743774482047498 0.43827132605551372 0 -0.44443155227587439 0.44942301082531472 0 -0.43743774482047498 0.43827132605551372 0 -0.44443155227587439 0.44942301082531472 0 -0.4520298542879112 0.43620580113029161 0 -0.43743774482047498 0.43827132605551372 0 -0.4384766998020686 0.42223110392492119 0 -0.4520298542879112 0.43620580113029161 0 -0.45898446653471209 0.43908999052886771 0 -0.4384766998020686 0.42223110392492119 0 -0.45898446653471209 0.43908999052886771 0 -0.4384766998020686 0.42223110392492119 0 -0.45535225321974437 0.41025347978975202 0 -0.45898446653471209 0.43908999052886771 0 -0.4384766998020686 0.42223110392492119 0 -0.4520298542879112 0.43620580113029161 0 -0.4384766998020686 0.42223110392492119 0 -0.45535225321974437 0.41025347978975202 0 -0.4384766998020686 0.42223110392492119 0 -0.43928928636592968 0.41313175731115709 0 -0.45535225321974437 0.41025347978975202 0 -0.45535225321974437 0.41025347978975202 0 -0.47546542861399688 0.42151968527282813 0 -0.47222780663742048 0.39827585565458329 0 -0.45898446653471209 0.43908999052886771 0 -0.45535225321974437 0.41025347978975202 0 -0.47546542861399688 0.42151968527282813 0 -0.48323684512672588 0.43755883779404442 0 -0.45898446653471209 0.43908999052886771 0 -0.47546542861399688 0.42151968527282813 0 -0.47546542861399688 0.42151968527282813 0 -0.5 0.41836615187543119 0 -0.47222780663742048 0.39827585565458329 0 -0.5 0.44558695780609409 0 -0.48323684512672588 0.43755883779404442 0 -0.5 0.41836615187543119 0 -0.48323684512672588 0.43755883779404442 0 -0.47546542861399688 0.42151968527282813 0 -0.5 0.41836615187543119 0 -0.5 0.39114534594476819 0 -0.47571192824793568 0.37278337428195718 0 -0.5 0.36392454001410518 0 -0.5 0.41836615187543119 0 -0.5 0.39114534594476819 0 -0.47222780663742048 0.39827585565458329 0 -0.5 0.39114534594476819 0 -0.47222780663742048 0.39827585565458329 0 -0.47571192824793568 0.37278337428195718 0 -0.45778280346124439 0.3859953108518131 0 -0.45078163012019162 0.36841963498796332 0 -0.47571192824793568 0.37278337428195718 0 -0.47222780663742048 0.39827585565458329 0 -0.45778280346124439 0.3859953108518131 0 -0.47571192824793568 0.37278337428195718 0 -0.45535225321974437 0.41025347978975202 0 -0.47222780663742048 0.39827585565458329 0 -0.45778280346124439 0.3859953108518131 0 -0.45535225321974437 0.41025347978975202 0 -0.47222780663742048 0.39827585565458329 0 -0.43928928636592968 0.41313175731115709 0 -0.45535225321974437 0.41025347978975202 0 -0.44243193328480029 0.39520819506423571 0 -0.45535225321974437 0.41025347978975202 0 -0.45778280346124439 0.3859953108518131 0 -0.44243193328480029 0.39520819506423571 0 -0.45778280346124439 0.3859953108518131 0 -0.43820865350129751 0.37919631168104839 0 -0.45078163012019162 0.36841963498796332 0 -0.45778280346124439 0.3859953108518131 0 -0.44243193328480029 0.39520819506423571 0 -0.43820865350129751 0.37919631168104839 0 -0.43820865350129751 0.37919631168104839 0 -0.4197089013621918 0.37515922369768412 0 -0.42052406560122901 0.39745447574547299 0 -0.44243193328480029 0.39520819506423571 0 -0.43820865350129751 0.37919631168104839 0 -0.42052406560122901 0.39745447574547299 0 -0.4197089013621918 0.37515922369768412 0 -0.42052406560122901 0.39745447574547299 0 -0.39997592454288089 0.38181970149501582 0 -0.42052406560122901 0.39745447574547299 0 -0.39997592454288089 0.38181970149501582 0 -0.39861619791765768 0.39970075642671032 0 -0.42052406560122901 0.39745447574547299 0 -0.41590506546396139 0.40789986142397888 0 -0.39861619791765768 0.39970075642671032 0 -0.42052406560122901 0.39745447574547299 0 -0.39861619791765768 0.39970075642671032 0 -0.42052406560122901 0.39745447574547299 0 -0.42675326624019388 0.41147166547226272 0 -0.41590506546396139 0.40789986142397888 0 -0.44243193328480029 0.39520819506423571 0 -0.42052406560122901 0.39745447574547299 0 -0.42675326624019388 0.41147166547226272 0 -0.44243193328480029 0.39520819506423571 0 -0.42052406560122901 0.39745447574547299 0 -0.43928928636592968 0.41313175731115709 0 -0.44243193328480029 0.39520819506423571 0 -0.42675326624019388 0.41147166547226272 0 -0.43468849794368242 0.41775969377398542 0 -0.42963632918478439 0.41935612806048012 0 -0.42675326624019388 0.41147166547226272 0 -0.43928928636592968 0.41313175731115709 0 -0.43468849794368242 0.41775969377398542 0 -0.42675326624019388 0.41147166547226272 0 -0.4384766998020686 0.42223110392492119 0 -0.43928928636592968 0.41313175731115709 0 -0.43468849794368242 0.41775969377398542 0 -0.4384766998020686 0.42223110392492119 0 -0.43468849794368242 0.41775969377398542 0 -0.43347700648950038 0.42216164181265148 0 -0.43468849794368242 0.41775969377398542 0 -0.42963632918478439 0.41935612806048012 0 -0.43347700648950038 0.42216164181265148 0 -0.42963632918478439 0.41935612806048012 0 -0.43347700648950038 0.42216164181265148 0 -0.42896248193782971 0.42356602333171101 0 -0.42963632918478439 0.41935612806048012 0 -0.42474756964680488 0.42139988350959678 0 -0.42675326624019388 0.41147166547226272 0 -0.42474756964680488 0.42139988350959678 0 -0.42675326624019388 0.41147166547226272 0 -0.41916186432993729 0.41824309186945757 0 -0.42963632918478439 0.41935612806048012 0 -0.42474756964680488 0.42139988350959678 0 -0.42896248193782971 0.42356602333171101 0 -0.41637236682592071 0.43791991635044919 0 -0.4384766998020686 0.42223110392492119 0 -0.42482828592072708 0.42668938538054457 0 -0.41637236682592071 0.43791991635044919 0 -0.4384766998020686 0.42223110392492119 0 -0.41637236682592071 0.43791991635044919 0 -0.43743774482047498 0.43827132605551372 0 -0.4384766998020686 0.42223110392492119 0 -0.4384766998020686 0.42223110392492119 0 -0.43347700648950038 0.42216164181265148 0 -0.42896248193782971 0.42356602333171101 0 -0.4384766998020686 0.42223110392492119 0 -0.42896248193782971 0.42356602333171101 0 -0.42482828592072708 0.42668938538054457 0 -0.42474756964680488 0.42139988350959678 0 -0.42896248193782971 0.42356602333171101 0 -0.42482828592072708 0.42668938538054457 0 -0.42474756964680488 0.42139988350959678 0 -0.42482828592072708 0.42668938538054457 0 -0.42114908784241067 0.42416211957812511 0 -0.41680477516442782 0.4249601337104677 0 -0.41309913679096061 0.43443886628545741 0 -0.41098739152060182 0.41849164691444929 0 -0.41309913679096061 0.43443886628545741 0 -0.41098739152060182 0.41849164691444929 0 -0.39490373351252328 0.41819295169670312 0 -0.41637236682592071 0.43791991635044919 0 -0.41845073050888931 0.42963408426100891 0 -0.41309913679096061 0.43443886628545741 0 -0.41637236682592071 0.43791991635044919 0 -0.42482828592072708 0.42668938538054457 0 -0.41845073050888931 0.42963408426100891 0 -0.41845073050888931 0.42963408426100891 0 -0.41680477516442782 0.4249601337104677 0 -0.41309913679096061 0.43443886628545741 0 -0.42482828592072708 0.42668938538054457 0 -0.41845073050888931 0.42963408426100891 0 -0.42114908784241067 0.42416211957812511 0 -0.41845073050888931 0.42963408426100891 0 -0.42114908784241067 0.42416211957812511 0 -0.41680477516442782 0.4249601337104677 0 -0.42114908784241067 0.42416211957812511 0 -0.41680477516442782 0.4249601337104677 0 -0.41916186432993729 0.41824309186945757 0 -0.41590506546396139 0.40789986142397888 0 -0.41098739152060182 0.41849164691444929 0 -0.39861619791765768 0.39970075642671032 0 -0.42675326624019388 0.41147166547226272 0 -0.41590506546396139 0.40789986142397888 0 -0.41916186432993729 0.41824309186945757 0 -0.41680477516442782 0.4249601337104677 0 -0.41916186432993729 0.41824309186945757 0 -0.41098739152060182 0.41849164691444929 0 -0.41590506546396139 0.40789986142397888 0 -0.41916186432993729 0.41824309186945757 0 -0.41098739152060182 0.41849164691444929 0 -0.42474756964680488 0.42139988350959678 0 -0.42114908784241067 0.42416211957812511 0 -0.41916186432993729 0.41824309186945757 0 -0.41098739152060182 0.41849164691444929 0 -0.39490373351252328 0.41819295169670312 0 -0.39861619791765768 0.39970075642671032 0 -0.41309913679096061 0.43443886628545741 0 -0.39490373351252328 0.41819295169670312 0 -0.39005877273172929 0.43589844223380908 0 -0.41309913679096061 0.43443886628545741 0 -0.39490373351252328 0.41819295169670312 0 -0.39005877273172929 0.43589844223380908 0 -0.37306907393781358 0.43486269775529879 0 -0.37096444337879192 0.4260075544842144 0 -0.39005877273172929 0.43589844223380908 0 -0.37096444337879192 0.4260075544842144 0 -0.39005877273172929 0.43589844223380908 0 -0.38363835473545282 0.42423633680664952 0 -0.37096444337879192 0.4260075544842144 0 -0.39490373351252328 0.41819295169670312 0 -0.39005877273172929 0.43589844223380908 0 -0.38363835473545282 0.42423633680664952 0 -0.38363835473545282 0.42423633680664952 0 -0.37862646931876681 0.41684639881187152 0 -0.37096444337879192 0.4260075544842144 0 -0.39490373351252328 0.41819295169670312 0 -0.37670833023408651 0.40194703710794821 0 -0.39861619791765768 0.39970075642671032 0 -0.39490373351252328 0.41819295169670312 0 -0.38363835473545282 0.42423633680664952 0 -0.37862646931876681 0.41684639881187152 0 -0.39490373351252328 0.41819295169670312 0 -0.37670833023408651 0.40194703710794821 0 -0.39490373351252328 0.41819295169670312 0 -0.37862646931876681 0.41684639881187152 0 -0.37670833023408651 0.40194703710794821 0 -0.37670833023408651 0.40194703710794821 0 -0.39861619791765768 0.39970075642671032 0 -0.37670833023408651 0.40194703710794821 0 -0.38924863082065908 0.39037553043236911 0 -0.39861619791765768 0.39970075642671032 0 -0.38924863082065908 0.39037553043236911 0 -0.38169407058801108 0.37803462669980209 0 -0.39997592454288089 0.38181970149501582 0 -0.38169407058801108 0.37803462669980209 0 -0.39997592454288089 0.38181970149501582 0 -0.38978642468697899 0.36693915410179589 0 -0.37670833023408651 0.40194703710794821 0 -0.38169407058801108 0.37803462669980209 0 -0.36721144717065091 0.37504838592267992 0 -0.37670833023408651 0.40194703710794821 0 -0.38924863082065908 0.39037553043236911 0 -0.38169407058801108 0.37803462669980209 0 -0.38924863082065908 0.39037553043236911 0 -0.39997592454288089 0.38181970149501582 0 -0.39861619791765768 0.39970075642671032 0 -0.40282638111380342 0.36425031723751361 0 -0.38919413603568842 0.35363804507097629 0 -0.41139480714444182 0.34821425910425252 0 -0.38919413603568842 0.35363804507097629 0 -0.39689551236532861 0.3357410106499879 0 -0.41139480714444182 0.34821425910425252 0 -0.40282638111380342 0.36425031723751361 0 -0.38919413603568842 0.35363804507097629 0 -0.39997592454288089 0.38181970149501582 0 -0.40282638111380342 0.36425031723751361 0 -0.38978642468697899 0.36693915410179589 0 -0.40282638111380342 0.36425031723751361 0 -0.38978642468697899 0.36693915410179589 0 -0.38919413603568842 0.35363804507097629 0 -0.38978642468697899 0.36693915410179589 0 -0.38919413603568842 0.35363804507097629 0 -0.37224444069547791 0.3613492294799045 0 -0.38169407058801108 0.37803462669980209 0 -0.38978642468697899 0.36693915410179589 0 -0.37224444069547791 0.3613492294799045 0 -0.38919413603568842 0.35363804507097629 0 -0.37556189095757331 0.34302577290443897 0 -0.39689551236532861 0.3357410106499879 0 -0.38919413603568842 0.35363804507097629 0 -0.37556189095757331 0.34302577290443897 0 -0.37224444069547791 0.3613492294799045 0 -0.38919413603568842 0.35363804507097629 0 -0.37556189095757331 0.34302577290443897 0 -0.37556189095757331 0.34302577290443897 0 -0.38545802488698239 0.32596065456051149 0 -0.36953023484099401 0.31988806179332202 0 -0.37556189095757331 0.34302577290443897 0 -0.38545802488698239 0.32596065456051149 0 -0.39689551236532861 0.3357410106499879 0 -0.37556189095757331 0.34302577290443897 0 -0.39689551236532861 0.3357410106499879 0 -0.38046509551059238 0.31557838714528208 0 -0.38545802488698239 0.32596065456051149 0 -0.36953023484099401 0.31988806179332202 0 -0.38046509551059238 0.31557838714528208 0 -0.38545802488698239 0.32596065456051149 0 -0.39231715041120568 0.31248675150674132 0 -0.38545802488698239 0.32596065456051149 0 -0.40216783358833852 0.32021966931448381 0 -0.39689551236532861 0.3357410106499879 0 -0.38545802488698239 0.32596065456051149 0 -0.40216783358833852 0.32021966931448381 0 -0.39231715041120568 0.31248675150674132 0 -0.40216783358833852 0.32021966931448381 0 -0.39689551236532861 0.3357410106499879 0 -0.41822913377308368 0.32845624839553661 0 -0.41822913377308368 0.32845624839553661 0 -0.42762577771199528 0.33896350073005782 0 -0.41139480714444182 0.34821425910425252 0 -0.39689551236532861 0.3357410106499879 0 -0.41822913377308368 0.32845624839553661 0 -0.39689551236532861 0.3357410106499879 0 -0.41822913377308368 0.32845624839553661 0 -0.41139480714444182 0.34821425910425252 0 -0.40216783358833852 0.32021966931448381 0 -0.41822913377308368 0.32845624839553661 0 -0.41650692779896181 0.31408659335487332 0 -0.41822913377308368 0.32845624839553661 0 -0.41650692779896181 0.31408659335487332 0 -0.43318836080053619 0.32024512132193589 0 -0.41822913377308368 0.32845624839553661 0 -0.43318836080053619 0.32024512132193589 0 -0.42762577771199528 0.33896350073005782 0 -0.43318836080053619 0.32024512132193589 0 -0.42762577771199528 0.33896350073005782 0 -0.44212371417888141 0.33986730524855763 0 -0.42762577771199528 0.33896350073005782 0 -0.42789162604977671 0.35382522948267042 0 -0.44212371417888141 0.33986730524855763 0 -0.42762577771199528 0.33896350073005782 0 -0.42789162604977671 0.35382522948267042 0 -0.41139480714444182 0.34821425910425252 0 -0.42789162604977671 0.35382522948267042 0 -0.43310365577692922 0.36555477994810492 0 -0.44339493531509822 0.35504915746239479 0 -0.42789162604977671 0.35382522948267042 0 -0.41139480714444182 0.34821425910425252 0 -0.41863618831301952 0.36167912237686889 0 -0.40282638111380342 0.36425031723751361 0 -0.41139480714444182 0.34821425910425252 0 -0.41863618831301952 0.36167912237686889 0 -0.4197089013621918 0.37515922369768412 0 -0.40282638111380342 0.36425031723751361 0 -0.41863618831301952 0.36167912237686889 0 -0.4197089013621918 0.37515922369768412 0 -0.39997592454288089 0.38181970149501582 0 -0.40282638111380342 0.36425031723751361 0 -0.4197089013621918 0.37515922369768412 0 -0.41863618831301952 0.36167912237686889 0 -0.43310365577692922 0.36555477994810492 0 -0.43820865350129751 0.37919631168104839 0 -0.4197089013621918 0.37515922369768412 0 -0.43310365577692922 0.36555477994810492 0 -0.42789162604977671 0.35382522948267042 0 -0.41863618831301952 0.36167912237686889 0 -0.43310365577692922 0.36555477994810492 0 -0.43310365577692922 0.36555477994810492 0 -0.45078163012019162 0.36841963498796332 0 -0.44339493531509822 0.35504915746239479 0 -0.43820865350129751 0.37919631168104839 0 -0.43310365577692922 0.36555477994810492 0 -0.45078163012019162 0.36841963498796332 0 -0.45078163012019162 0.36841963498796332 0 -0.44339493531509822 0.35504915746239479 0 -0.46037489459255032 0.34987149911808663 0 -0.44339493531509822 0.35504915746239479 0 -0.46037489459255032 0.34987149911808663 0 -0.44212371417888141 0.33986730524855763 0 -0.42789162604977671 0.35382522948267042 0 -0.44339493531509822 0.35504915746239479 0 -0.44212371417888141 0.33986730524855763 0 -0.45078163012019162 0.36841963498796332 0 -0.46037489459255032 0.34987149911808663 0 -0.45078163012019162 0.36841963498796332 0 -0.46037489459255032 0.34987149911808663 0 -0.47571192824793568 0.37278337428195718 0 -0.46037489459255032 0.34987149911808663 0 -0.47571192824793568 0.37278337428195718 0 -0.48208008330472268 0.34775110673299281 0 -0.48208008330472268 0.34775110673299281 0 -0.5 0.36392454001410518 0 -0.5 0.33670373408344229 0 -0.47571192824793568 0.37278337428195718 0 -0.48208008330472268 0.34775110673299281 0 -0.5 0.36392454001410518 0 -0.48607914402440938 0.32790118138796059 0 -0.47956142353726872 0.31277522737833358 0 -0.50000000000000144 0.30948292815277961 0 -0.48607914402440938 0.32790118138796059 0 -0.5 0.33670373408344229 0 -0.50000000000000144 0.30948292815277961 0 -0.48208008330472268 0.34775110673299281 0 -0.48607914402440938 0.32790118138796059 0 -0.5 0.33670373408344229 0 -0.46037489459255032 0.34987149911808663 0 -0.48208008330472268 0.34775110673299281 0 -0.46996815906490907 0.33132336324820982 0 -0.48208008330472268 0.34775110673299281 0 -0.48607914402440938 0.32790118138796059 0 -0.46996815906490907 0.33132336324820982 0 -0.48607914402440938 0.32790118138796059 0 -0.46996815906490907 0.33132336324820982 0 -0.47956142353726872 0.31277522737833358 0 -0.46996815906490907 0.33132336324820982 0 -0.47956142353726872 0.31277522737833358 0 -0.46996815906490907 0.33132336324820982 0 -0.47956142353726872 0.31277522737833358 0 -0.45637489216890259 0.31651017435013562 0 -0.47956142353726872 0.31277522737833358 0 -0.45637489216890259 0.31651017435013562 0 -0.46996815906490907 0.33132336324820982 0 -0.45637489216890259 0.31651017435013562 0 -0.45417329246891641 0.33136047359434939 0 -0.46037489459255032 0.34987149911808663 0 -0.46996815906490907 0.33132336324820982 0 -0.46037489459255032 0.34987149911808663 0 -0.46996815906490907 0.33132336324820982 0 -0.45417329246891641 0.33136047359434939 0 -0.43318836080053619 0.32024512132193589 0 -0.45417329246891641 0.33136047359434939 0 -0.44212371417888141 0.33986730524855763 0 -0.46037489459255032 0.34987149911808663 0 -0.45417329246891641 0.33136047359434939 0 -0.44212371417888141 0.33986730524855763 0 -0.43318836080053619 0.32024512132193589 0 -0.45637489216890259 0.31651017435013562 0 -0.44660917121933552 0.30286501766596707 0 -0.43318836080053619 0.32024512132193589 0 -0.45637489216890259 0.31651017435013562 0 -0.43318836080053619 0.32024512132193589 0 -0.45637489216890259 0.31651017435013562 0 -0.45417329246891641 0.33136047359434939 0 -0.44147631078376481 0.28530164713062739 0 -0.45694703923397939 0.29006073021375928 0 -0.45698523766606242 0.27018779930918813 0 -0.44660917121933552 0.30286501766596707 0 -0.44147631078376481 0.28530164713062739 0 -0.45694703923397939 0.29006073021375928 0 -0.44660917121933552 0.30286501766596707 0 -0.44147631078376481 0.28530164713062739 0 -0.42508446732489003 0.29902284378473359 0 -0.45694703923397939 0.29006073021375928 0 -0.46760658908894032 0.29977377341832651 0 -0.47636629660552232 0.28341478755401139 0 -0.44660917121933552 0.30286501766596707 0 -0.45694703923397939 0.29006073021375928 0 -0.46760658908894032 0.29977377341832651 0 -0.45637489216890259 0.31651017435013562 0 -0.44660917121933552 0.30286501766596707 0 -0.46760658908894032 0.29977377341832651 0 -0.47956142353726872 0.31277522737833358 0 -0.45637489216890259 0.31651017435013562 0 -0.46760658908894032 0.29977377341832651 0 -0.47956142353726872 0.31277522737833358 0 -0.46760658908894032 0.29977377341832651 0 -0.48978071176863408 0.29301670334775243 0 -0.46760658908894032 0.29977377341832651 0 -0.47636629660552232 0.28341478755401139 0 -0.48978071176863408 0.29301670334775243 0 -0.47636629660552232 0.28341478755401139 0 -0.48978071176863408 0.29301670334775243 0 -0.50000000000000022 0.27325817931717161 0 -0.48978071176863408 0.29301670334775243 0 -0.50000000000000022 0.27325817931717161 0 -0.48978071176863408 0.29301670334775243 0 -0.5 0.29137055373497561 0 -0.50000000000000022 0.27325817931717161 0 -0.47956142353726872 0.31277522737833358 0 -0.50000000000000144 0.30948292815277961 0 -0.47956142353726872 0.31277522737833358 0 -0.48978071176863408 0.29301670334775243 0 -0.48978071176863408 0.29301670334775243 0 -0.5 0.29137055373497561 0 -0.50000000000000144 0.30948292815277961 0 -0.47956142353726872 0.31277522737833358 0 -0.48978071176863408 0.29301670334775243 0 -0.50000000000000144 0.30948292815277961 0 -0.50000000000000022 0.27325817931717161 0 -0.47824692002639668 0.26771856265879129 0 -0.48361448096764009 0.25224698800352868 0 -0.5 0.24447702512614819 0 -0.50000000000000022 0.27325817931717161 0 -0.48361448096764009 0.25224698800352868 0 -0.47636629660552232 0.28341478755401139 0 -0.50000000000000022 0.27325817931717161 0 -0.47824692002639668 0.26771856265879129 0 -0.47636629660552232 0.28341478755401139 0 -0.47824692002639668 0.26771856265879129 0 -0.45698523766606242 0.27018779930918813 0 -0.46236704222430369 0.24629322892769701 0 -0.47824692002639668 0.26771856265879129 0 -0.46236704222430369 0.24629322892769701 0 -0.47824692002639668 0.26771856265879129 0 -0.48361448096764009 0.25224698800352868 0 -0.46236704222430369 0.24629322892769701 0 -0.45698523766606242 0.27018779930918813 0 -0.44114690098883352 0.25037321413784952 0 -0.46236704222430369 0.24629322892769701 0 -0.47824692002639668 0.26771856265879129 0 -0.45698523766606242 0.27018779930918813 0 -0.45694703923397939 0.29006073021375928 0 -0.47636629660552232 0.28341478755401139 0 -0.45698523766606242 0.27018779930918813 0 -0.44147631078376481 0.28530164713062739 0 -0.45698523766606242 0.27018779930918813 0 -0.43968785277145522 0.26918028996682708 0 -0.45698523766606242 0.27018779930918813 0 -0.43968785277145522 0.26918028996682708 0 -0.44114690098883352 0.25037321413784952 0 -0.41955971700790851 0.2461141348322087 0 -0.44114690098883352 0.25037321413784952 0 -0.42543038309998549 0.26486302862540417 0 -0.43968785277145522 0.26918028996682708 0 -0.44114690098883352 0.25037321413784952 0 -0.42543038309998549 0.26486302862540417 0 -0.41955971700790851 0.2461141348322087 0 -0.403575455919707 0.24714278461850969 0 -0.41158814355537671 0.25853778476284872 0 -0.42543038309998549 0.26486302862540417 0 -0.41158814355537671 0.25853778476284872 0 -0.40542562987373287 0.27189923090099472 0 -0.41955971700790851 0.2461141348322087 0 -0.42543038309998549 0.26486302862540417 0 -0.41158814355537671 0.25853778476284872 0 -0.42506898727056869 0.28019995562766009 0 -0.41072718421238458 0.2878767537263876 0 -0.40542562987373287 0.27189923090099472 0 -0.42543038309998549 0.26486302862540417 0 -0.42506898727056869 0.28019995562766009 0 -0.40542562987373287 0.27189923090099472 0 -0.44147631078376481 0.28530164713062739 0 -0.43968785277145522 0.26918028996682708 0 -0.42506898727056869 0.28019995562766009 0 -0.43968785277145522 0.26918028996682708 0 -0.42543038309998549 0.26486302862540417 0 -0.42506898727056869 0.28019995562766009 0 -0.44147631078376481 0.28530164713062739 0 -0.42506898727056869 0.28019995562766009 0 -0.42508446732489003 0.29902284378473359 0 -0.41650692779896181 0.31408659335487332 0 -0.43318836080053619 0.32024512132193589 0 -0.42508446732489003 0.29902284378473359 0 -0.43318836080053619 0.32024512132193589 0 -0.44660917121933552 0.30286501766596707 0 -0.42508446732489003 0.29902284378473359 0 -0.41650692779896181 0.31408659335487332 0 -0.42508446732489003 0.29902284378473359 0 -0.40386484350796059 0.30248908395767637 0 -0.40216783358833852 0.32021966931448381 0 -0.41650692779896181 0.31408659335487332 0 -0.40386484350796059 0.30248908395767637 0 -0.42508446732489003 0.29902284378473359 0 -0.41072718421238458 0.2878767537263876 0 -0.40386484350796059 0.30248908395767637 0 -0.42506898727056869 0.28019995562766009 0 -0.42508446732489003 0.29902284378473359 0 -0.41072718421238458 0.2878767537263876 0 -0.41072718421238458 0.2878767537263876 0 -0.39419199308477099 0.28577265436087318 0 -0.40386484350796059 0.30248908395767637 0 -0.41072718421238458 0.2878767537263876 0 -0.39419199308477099 0.28577265436087318 0 -0.40542562987373287 0.27189923090099472 0 -0.39419199308477099 0.28577265436087318 0 -0.40386484350796059 0.30248908395767637 0 -0.38667281824062089 0.3009346254844581 0 -0.40216783358833852 0.32021966931448381 0 -0.40386484350796059 0.30248908395767637 0 -0.39231715041120568 0.31248675150674132 0 -0.40386484350796059 0.30248908395767637 0 -0.39231715041120568 0.31248675150674132 0 -0.38667281824062089 0.3009346254844581 0 -0.38046509551059238 0.31557838714528208 0 -0.39231715041120568 0.31248675150674132 0 -0.38667281824062089 0.3009346254844581 0 -0.38667281824062089 0.3009346254844581 0 -0.37822914046991701 0.2901519340343014 0 -0.3741245007453573 0.30342412780799749 0 -0.38046509551059238 0.31557838714528208 0 -0.38667281824062089 0.3009346254844581 0 -0.3741245007453573 0.30342412780799749 0 -0.39419199308477099 0.28577265436087318 0 -0.38667281824062089 0.3009346254844581 0 -0.37822914046991701 0.2901519340343014 0 -0.39419199308477099 0.28577265436087318 0 -0.37822914046991701 0.2901519340343014 0 -0.38194809017242809 0.27799707443413318 0 -0.37822914046991701 0.2901519340343014 0 -0.38194809017242809 0.27799707443413318 0 -0.37136330223611302 0.28005802553534082 0 -0.38194809017242809 0.27799707443413318 0 -0.37522105223001012 0.26367108387202021 0 -0.37136330223611302 0.28005802553534082 0 -0.38194809017242809 0.27799707443413318 0 -0.37522105223001012 0.26367108387202021 0 -0.39133615472307598 0.27084122904229158 0 -0.39419199308477099 0.28577265436087318 0 -0.38194809017242809 0.27799707443413318 0 -0.39133615472307598 0.27084122904229158 0 -0.37522105223001012 0.26367108387202021 0 -0.39269791530013409 0.2580946065642819 0 -0.39133615472307598 0.27084122904229158 0 -0.38729161739509882 0.23991890261061319 0 -0.38192518631757549 0.25213505943371428 0 -0.39269791530013409 0.2580946065642819 0 -0.37522105223001012 0.26367108387202021 0 -0.38192518631757549 0.25213505943371428 0 -0.39269791530013409 0.2580946065642819 0 -0.37249016034505922 0.24685564468794211 0 -0.37522105223001012 0.26367108387202021 0 -0.38192518631757549 0.25213505943371428 0 -0.41158814355537671 0.25853778476284872 0 -0.39269791530013409 0.2580946065642819 0 -0.40542562987373287 0.27189923090099472 0 -0.403575455919707 0.24714278461850969 0 -0.41158814355537671 0.25853778476284872 0 -0.39269791530013409 0.2580946065642819 0 -0.39419199308477099 0.28577265436087318 0 -0.40542562987373287 0.27189923090099472 0 -0.39133615472307598 0.27084122904229158 0 -0.39269791530013409 0.2580946065642819 0 -0.40542562987373287 0.27189923090099472 0 -0.39133615472307598 0.27084122904229158 0 -0.34917394491463227 0.25833154519649171 0 -0.34016060974492651 0.28339097112668521 0 -0.35931103171476592 0.27620621576124532 0 -0.34917394491463227 0.25833154519649171 0 -0.34016060974492651 0.28339097112668521 0 -0.35931103171476592 0.27620621576124532 0 -0.34917394491463227 0.25833154519649171 0 -0.36287669385776122 0.25566732175679951 0 -0.37522105223001012 0.26367108387202021 0 -0.35931103171476592 0.27620621576124532 0 -0.36287669385776122 0.25566732175679951 0 -0.37249016034505922 0.24685564468794211 0 -0.37522105223001012 0.26367108387202021 0 -0.36287669385776122 0.25566732175679951 0 -0.37522105223001012 0.26367108387202021 0 -0.35931103171476592 0.27620621576124532 0 -0.37136330223611302 0.28005802553534082 0 -0.35931103171476592 0.27620621576124532 0 -0.37136330223611302 0.28005802553534082 0 -0.36432254389217139 0.2928284659558642 0 -0.37822914046991701 0.2901519340343014 0 -0.37136330223611302 0.28005802553534082 0 -0.36432254389217139 0.2928284659558642 0 -0.37822914046991701 0.2901519340343014 0 -0.36432254389217139 0.2928284659558642 0 -0.3741245007453573 0.30342412780799749 0 -0.3741245007453573 0.30342412780799749 0 -0.3629094867301233 0.30703577366995299 0 -0.36953023484099401 0.31988806179332202 0 -0.36432254389217139 0.2928284659558642 0 -0.3741245007453573 0.30342412780799749 0 -0.3629094867301233 0.30703577366995299 0 -0.36432254389217139 0.2928284659558642 0 -0.3629094867301233 0.30703577366995299 0 -0.35335907232797342 0.30198256865011602 0 -0.34426993061558342 0.30793698969342342 0 -0.3372276418075022 0.31318377087547827 0 -0.35366296934060881 0.31319646879228952 0 -0.3629094867301233 0.30703577366995299 0 -0.35335907232797342 0.30198256865011602 0 -0.35366296934060881 0.31319646879228952 0 -0.35335907232797342 0.30198256865011602 0 -0.34426993061558342 0.30793698969342342 0 -0.34316347732141927 0.29771974287930059 0 -0.35335907232797342 0.30198256865011602 0 -0.35206894667031369 0.29122293942252592 0 -0.34316347732141927 0.29771974287930059 0 -0.35335907232797342 0.30198256865011602 0 -0.34426993061558342 0.30793698969342342 0 -0.35366296934060881 0.31319646879228952 0 -0.35931103171476592 0.27620621576124532 0 -0.36432254389217139 0.2928284659558642 0 -0.35206894667031369 0.29122293942252592 0 -0.35931103171476592 0.27620621576124532 0 -0.35206894667031369 0.29122293942252592 0 -0.34016060974492651 0.28339097112668521 0 -0.36432254389217139 0.2928284659558642 0 -0.35335907232797342 0.30198256865011602 0 -0.35206894667031369 0.29122293942252592 0 -0.35206894667031369 0.29122293942252592 0 -0.34016060974492651 0.28339097112668521 0 -0.34316347732141927 0.29771974287930059 0 -0.34016060974492651 0.28339097112668521 0 -0.34316347732141927 0.29771974287930059 0 -0.33114727457522031 0.30845039705687871 0 -0.34016060974492651 0.28339097112668521 0 -0.33114727457522031 0.30845039705687871 0 -0.32806529436736898 0.29418587271254881 0 -0.34016060974492651 0.28339097112668521 0 -0.33114727457522031 0.30845039705687871 0 -0.34016060974492651 0.28339097112668521 0 -0.33086222870798748 0.2825710489855256 0 -0.32806529436736898 0.29418587271254881 0 -0.34426993061558342 0.30793698969342342 0 -0.3389520810799313 0.30682272512627012 0 -0.3372276418075022 0.31318377087547827 0 -0.34426993061558342 0.30793698969342342 0 -0.3372276418075022 0.31318377087547827 0 -0.34426993061558342 0.30793698969342342 0 -0.3389520810799313 0.30682272512627012 0 -0.34316347732141927 0.29771974287930059 0 -0.3389520810799313 0.30682272512627012 0 -0.34316347732141927 0.29771974287930059 0 -0.33114727457522031 0.30845039705687871 0 -0.32934139611800439 0.30704457772353749 0 -0.33114727457522031 0.30845039705687871 0 -0.32806529436736898 0.29418587271254881 0 -0.32934139611800439 0.30704457772353749 0 -0.33114727457522031 0.30845039705687871 0 -0.32934139611800439 0.30704457772353749 0 -0.33114727457522031 0.30845039705687871 0 -0.32566839901615208 0.31362561457538918 0 -0.3389520810799313 0.30682272512627012 0 -0.33114727457522031 0.30845039705687871 0 -0.3372276418075022 0.31318377087547827 0 -0.33114727457522031 0.30845039705687871 0 -0.3372276418075022 0.31318377087547827 0 -0.31691767915406188 0.30107683954644737 0 -0.32393049511757832 0.32309066633646821 0 -0.32462824065597351 0.30091723040276208 0 -0.31691767915406188 0.30107683954644737 0 -0.32566839901615208 0.31362561457538918 0 -0.32934139611800439 0.30704457772353749 0 -0.32462824065597351 0.30091723040276208 0 -0.32566839901615208 0.31362561457538918 0 -0.32934139611800439 0.30704457772353749 0 -0.32462824065597351 0.30091723040276208 0 -0.32806529436736898 0.29418587271254881 0 -0.32462824065597351 0.30091723040276208 0 -0.31691767915406188 0.30107683954644737 0 -0.31997638968685183 0.29149019920335462 0 -0.31691767915406188 0.30107683954644737 0 -0.3093146070939426 0.30841142580544539 0 -0.31246852289836058 0.31621287551874949 0 -0.31691767915406188 0.30107683954644737 0 -0.30990486319054589 0.27906301275642642 0 -0.31691767915406188 0.30107683954644737 0 -0.31997638968685183 0.29149019920335462 0 -0.30990486319054589 0.27906301275642642 0 -0.33086222870798748 0.2825710489855256 0 -0.32036587106630898 0.28220804059858812 0 -0.32806529436736898 0.29418587271254881 0 -0.32462824065597351 0.30091723040276208 0 -0.32806529436736898 0.29418587271254881 0 -0.31997638968685183 0.29149019920335462 0 -0.32036587106630898 0.28220804059858812 0 -0.32806529436736898 0.29418587271254881 0 -0.31997638968685183 0.29149019920335462 0 -0.32036587106630898 0.28220804059858812 0 -0.31997638968685183 0.29149019920335462 0 -0.30990486319054589 0.27906301275642642 0 -0.32036587106630898 0.28220804059858812 0 -0.33053877161191642 0.25724512800279681 0 -0.32036587106630898 0.28220804059858812 0 -0.31608937792824238 0.26569798265746741 0 -0.30990486319054589 0.27906301275642642 0 -0.32036587106630898 0.28220804059858812 0 -0.31608937792824238 0.26569798265746741 0 -0.33053877161191642 0.25724512800279681 0 -0.34917394491463227 0.25833154519649171 0 -0.34016060974492651 0.28339097112668521 0 -0.33485713965334563 0.27049931150428058 0 -0.34016060974492651 0.28339097112668521 0 -0.33086222870798748 0.2825710489855256 0 -0.33485713965334563 0.27049931150428058 0 -0.33086222870798748 0.2825710489855256 0 -0.32036587106630898 0.28220804059858812 0 -0.33485713965334563 0.27049931150428058 0 -0.32036587106630898 0.28220804059858812 0 -0.33485713965334563 0.27049931150428058 0 -0.33053877161191642 0.25724512800279681 0 -0.34917394491463227 0.25833154519649171 0 -0.33485713965334563 0.27049931150428058 0 -0.33053877161191642 0.25724512800279681 0 -0.31608937792824238 0.26569798265746741 0 -0.33053877161191642 0.25724512800279681 0 -0.3162978919101942 0.25265907793147502 0 -0.30420358160902372 0.24056130396304659 0 -0.3162978919101942 0.25265907793147502 0 -0.30289204722703 0.25704918596640558 0 -0.31608937792824238 0.26569798265746741 0 -0.3162978919101942 0.25265907793147502 0 -0.30289204722703 0.25704918596640558 0 -0.31608937792824238 0.26569798265746741 0 -0.30289204722703 0.25704918596640558 0 -0.30990486319054589 0.27906301275642642 0 -0.30990486319054589 0.27906301275642642 0 -0.29184925876122109 0.26849726434837629 0 -0.29630277268407262 0.28501745723127098 0 -0.30289204722703 0.25704918596640558 0 -0.30990486319054589 0.27906301275642642 0 -0.29184925876122109 0.26849726434837629 0 -0.30289204722703 0.25704918596640558 0 -0.30990486319054589 0.27906301275642642 0 -0.29184925876122109 0.26849726434837629 0 -0.28242075420156221 0.27727630704300421 0 -0.29630277268407262 0.28501745723127098 0 -0.29184925876122109 0.26849726434837629 0 -0.28242075420156221 0.27727630704300421 0 -0.27258668842128841 0.2623641357008244 0 -0.28527507819026071 0.24774049503743281 0 -0.29184925876122109 0.26849726434837629 0 -0.27258668842128841 0.2623641357008244 0 -0.28527507819026071 0.24774049503743281 0 -0.30289204722703 0.25704918596640558 0 -0.29184925876122109 0.26849726434837629 0 -0.28527507819026071 0.24774049503743281 0 -0.25908863043855029 0.2411351193443326 0 -0.27258668842128841 0.2623641357008244 0 -0.28242075420156221 0.27727630704300421 0 -0.27258668842128841 0.2623641357008244 0 -0.26794774288182738 0.27897089194094038 0 -0.26794774288182738 0.27897089194094038 0 -0.25407657243824489 0.28913264405190131 0 -0.24171017555263449 0.26216460468462471 0 -0.27258668842128841 0.2623641357008244 0 -0.26794774288182738 0.27897089194094038 0 -0.24171017555263449 0.26216460468462471 0 -0.25908863043855029 0.2411351193443326 0 -0.27258668842128841 0.2623641357008244 0 -0.24171017555263449 0.26216460468462471 0 -0.2501910059312894 0.30158446863025279 0 -0.25407657243824489 0.28913264405190131 0 -0.26644296932385381 0.31610068341917819 0 -0.25407657243824489 0.28913264405190131 0 -0.26974135141400329 0.29774102468086711 0 -0.26644296932385381 0.31610068341917819 0 -0.26644296932385381 0.31610068341917819 0 -0.24374167361893639 0.30872228056206852 0 -0.25407657243824489 0.28913264405190131 0 -0.26644296932385381 0.31610068341917819 0 -0.2501910059312894 0.30158446863025279 0 -0.26644296932385381 0.31610068341917819 0 -0.24374167361893639 0.30872228056206852 0 -0.26794774288182738 0.27897089194094038 0 -0.25407657243824489 0.28913264405190131 0 -0.26974135141400329 0.29774102468086711 0 -0.26794774288182738 0.27897089194094038 0 -0.26974135141400329 0.29774102468086711 0 -0.28263293704010939 0.29287320416780799 0 -0.28242075420156221 0.27727630704300421 0 -0.26794774288182738 0.27897089194094038 0 -0.28263293704010939 0.29287320416780799 0 -0.27506425128117412 0.30249980430554552 0 -0.28255934416273348 0.30374180135086132 0 -0.28263293704010939 0.29287320416780799 0 -0.26974135141400329 0.29774102468086711 0 -0.27149926429951898 0.30821033837402728 0 -0.26644296932385381 0.31610068341917819 0 -0.27506425128117412 0.30249980430554552 0 -0.26974135141400329 0.29774102468086711 0 -0.28263293704010939 0.29287320416780799 0 -0.27506425128117412 0.30249980430554552 0 -0.27749766631382139 0.30753386574468911 0 -0.28255934416273348 0.30374180135086132 0 -0.27506425128117412 0.30249980430554552 0 -0.26974135141400329 0.29774102468086711 0 -0.27149926429951898 0.30821033837402728 0 -0.27149926429951898 0.30821033837402728 0 -0.27729992968511641 0.31318832783720069 0 -0.27178517439621969 0.31384330185845588 0 -0.27149926429951898 0.30821033837402728 0 -0.27749766631382139 0.30753386574468911 0 -0.27729992968511641 0.31318832783720069 0 -0.27506425128117412 0.30249980430554552 0 -0.27149926429951898 0.30821033837402728 0 -0.27749766631382139 0.30753386574468911 0 -0.27749766631382139 0.30753386574468911 0 -0.28106554214056401 0.31002905685581061 0 -0.28255934416273348 0.30374180135086132 0 -0.28106554214056401 0.31002905685581061 0 -0.28489166648756598 0.31307833991018907 0 -0.27729992968511641 0.31318832783720069 0 -0.27749766631382139 0.30753386574468911 0 -0.28106554214056401 0.31002905685581061 0 -0.27729992968511641 0.31318832783720069 0 -0.28813811762948732 0.30919660287135958 0 -0.28255934416273348 0.30374180135086132 0 -0.29234417247951949 0.30329467369986318 0 -0.28106554214056401 0.31002905685581061 0 -0.28813811762948732 0.30919660287135958 0 -0.28489166648756598 0.31307833991018907 0 -0.28813811762948732 0.30919660287135958 0 -0.29108931947664451 0.31461832836489828 0 -0.28489166648756598 0.31307833991018907 0 -0.28106554214056401 0.31002905685581061 0 -0.28813811762948732 0.30919660287135958 0 -0.28255934416273348 0.30374180135086132 0 -0.28255934416273348 0.30374180135086132 0 -0.29234417247951949 0.30329467369986318 0 -0.28263293704010939 0.29287320416780799 0 -0.29234417247951949 0.30329467369986318 0 -0.28263293704010939 0.29287320416780799 0 -0.29596742772911222 0.29534127908490049 0 -0.28813811762948732 0.30919660287135958 0 -0.29234417247951949 0.30329467369986318 0 -0.29683229813779771 0.3098850039638511 0 -0.28813811762948732 0.30919660287135958 0 -0.29683229813779771 0.3098850039638511 0 -0.29108931947664451 0.31461832836489828 0 -0.28242075420156221 0.27727630704300421 0 -0.28263293704010939 0.29287320416780799 0 -0.29630277268407262 0.28501745723127098 0 -0.28263293704010939 0.29287320416780799 0 -0.29596742772911222 0.29534127908490049 0 -0.29630277268407262 0.28501745723127098 0 -0.31691767915406188 0.30107683954644737 0 -0.30990486319054589 0.27906301275642642 0 -0.30488815170623013 0.29273813446786429 0 -0.30990486319054589 0.27906301275642642 0 -0.29630277268407262 0.28501745723127098 0 -0.30488815170623013 0.29273813446786429 0 -0.29596742772911222 0.29534127908490049 0 -0.29630277268407262 0.28501745723127098 0 -0.30488815170623013 0.29273813446786429 0 -0.29234417247951949 0.30329467369986318 0 -0.29683229813779771 0.3098850039638511 0 -0.30366910473562908 0.30278292585769601 0 -0.29683229813779771 0.3098850039638511 0 -0.30366910473562908 0.30278292585769601 0 -0.30420312158771878 0.31357306229888893 0 -0.29234417247951949 0.30329467369986318 0 -0.29596742772911222 0.29534127908490049 0 -0.30366910473562908 0.30278292585769601 0 -0.29596742772911222 0.29534127908490049 0 -0.30488815170623013 0.29273813446786429 0 -0.30366910473562908 0.30278292585769601 0 -0.31691767915406188 0.30107683954644737 0 -0.30488815170623013 0.29273813446786429 0 -0.30366910473562908 0.30278292585769601 0 -0.31691767915406188 0.30107683954644737 0 -0.30366910473562908 0.30278292585769601 0 -0.3093146070939426 0.30841142580544539 0 -0.30366910473562908 0.30278292585769601 0 -0.3093146070939426 0.30841142580544539 0 -0.30420312158771878 0.31357306229888893 0 -0.31246852289836058 0.31621287551874949 0 -0.30297718910710458 0.32095406502657692 0 -0.30420312158771878 0.31357306229888893 0 -0.3093146070939426 0.30841142580544539 0 -0.31246852289836058 0.31621287551874949 0 -0.30420312158771878 0.31357306229888893 0 -0.31246852289836058 0.31621287551874949 0 -0.30896566856749652 0.32496931735872631 0 -0.30297718910710458 0.32095406502657692 0 -0.30896566856749652 0.32496931735872631 0 -0.298043916100725 0.32640911563673858 0 -0.30297718910710458 0.32095406502657692 0 -0.298043916100725 0.32640911563673858 0 -0.30297718910710458 0.32095406502657692 0 -0.2976587614018612 0.31777749220764911 0 -0.29683229813779771 0.3098850039638511 0 -0.2976587614018612 0.31777749220764911 0 -0.30420312158771878 0.31357306229888893 0 -0.30297718910710458 0.32095406502657692 0 -0.2976587614018612 0.31777749220764911 0 -0.30420312158771878 0.31357306229888893 0 -0.30896566856749652 0.32496931735872631 0 -0.3031992411067731 0.33853626312874258 0 -0.32393049511757832 0.32309066633646821 0 -0.30896566856749652 0.32496931735872631 0 -0.298043916100725 0.32640911563673858 0 -0.3031992411067731 0.33853626312874258 0 -0.28812930733910719 0.33481398023699832 0 -0.27667558618532351 0.33841547865847937 0 -0.28246798709596688 0.3539818599210155 0 -0.3031992411067731 0.33853626312874258 0 -0.28812930733910719 0.33481398023699832 0 -0.28246798709596688 0.3539818599210155 0 -0.298043916100725 0.32640911563673858 0 -0.28812930733910719 0.33481398023699832 0 -0.28902167925511207 0.32343924329841078 0 -0.298043916100725 0.32640911563673858 0 -0.3031992411067731 0.33853626312874258 0 -0.28812930733910719 0.33481398023699832 0 -0.28812930733910719 0.33481398023699832 0 -0.28902167925511207 0.32343924329841078 0 -0.2783158900639679 0.32632648705793338 0 -0.28902167925511207 0.32343924329841078 0 -0.28686542350601768 0.31835938362167598 0 -0.27189853427639038 0.31787385780341598 0 -0.29683229813779771 0.3098850039638511 0 -0.2976587614018612 0.31777749220764911 0 -0.29108931947664451 0.31461832836489828 0 -0.2925358199480721 0.3201207126258746 0 -0.29108931947664451 0.31461832836489828 0 -0.28686542350601768 0.31835938362167598 0 -0.2976587614018612 0.31777749220764911 0 -0.2925358199480721 0.3201207126258746 0 -0.29108931947664451 0.31461832836489828 0 -0.298043916100725 0.32640911563673858 0 -0.2925358199480721 0.3201207126258746 0 -0.28902167925511207 0.32343924329841078 0 -0.298043916100725 0.32640911563673858 0 -0.2976587614018612 0.31777749220764911 0 -0.2925358199480721 0.3201207126258746 0 -0.2925358199480721 0.3201207126258746 0 -0.28902167925511207 0.32343924329841078 0 -0.28686542350601768 0.31835938362167598 0 -0.28686542350601768 0.31835938362167598 0 -0.28489166648756598 0.31307833991018907 0 -0.27729992968511641 0.31318832783720069 0 -0.29108931947664451 0.31461832836489828 0 -0.28686542350601768 0.31835938362167598 0 -0.28489166648756598 0.31307833991018907 0 -0.28902167925511207 0.32343924329841078 0 -0.27189853427639038 0.31787385780341598 0 -0.2671859695033279 0.31772098222369732 0 -0.27667558618532351 0.33841547865847937 0 -0.28686542350601768 0.31835938362167598 0 -0.27729992968511641 0.31318832783720069 0 -0.27189853427639038 0.31787385780341598 0 -0.28902167925511207 0.32343924329841078 0 -0.27189853427639038 0.31787385780341598 0 -0.2783158900639679 0.32632648705793338 0 -0.28686542350601768 0.31835938362167598 0 -0.27189853427639038 0.31787385780341598 0 -0.2671859695033279 0.31772098222369732 0 -0.2783158900639679 0.32632648705793338 0 -0.27667558618532351 0.33841547865847937 0 -0.27729992968511641 0.31318832783720069 0 -0.27178517439621969 0.31384330185845588 0 -0.27189853427639038 0.31787385780341598 0 -0.27149926429951898 0.30821033837402728 0 -0.27178517439621969 0.31384330185845588 0 -0.26644296932385381 0.31610068341917819 0 -0.27178517439621969 0.31384330185845588 0 -0.27189853427639038 0.31787385780341598 0 -0.26644296932385381 0.31610068341917819 0 -0.27189853427639038 0.31787385780341598 0 -0.2671859695033279 0.31772098222369732 0 -0.27189853427639038 0.31787385780341598 0 -0.2671859695033279 0.31772098222369732 0 -0.26644296932385381 0.31610068341917819 0 -0.27189853427639038 0.31787385780341598 0 -0.26644296932385381 0.31610068341917819 0 -0.2671859695033279 0.31772098222369732 0 -0.26644296932385381 0.31610068341917819 0 -0.27189853427639038 0.31787385780341598 0 -0.2671859695033279 0.31772098222369732 0 -0.2783158900639679 0.32632648705793338 0 -0.2671859695033279 0.31772098222369732 0 -0.27667558618532351 0.33841547865847937 0 -0.26572659599229848 0.33223441076708821 0 -0.28812930733910719 0.33481398023699832 0 -0.2783158900639679 0.32632648705793338 0 -0.27667558618532351 0.33841547865847937 0 -0.27667558618532351 0.33841547865847937 0 -0.2671179356997726 0.34315186127638642 0 -0.26572659599229848 0.33223441076708821 0 -0.26572659599229848 0.33223441076708821 0 -0.25871872725414002 0.33575497922639991 0 -0.25875328997043279 0.32758056458418711 0 -0.2671179356997726 0.34315186127638642 0 -0.25871872725414002 0.33575497922639991 0 -0.25606074373167348 0.34657133784255628 0 -0.2671179356997726 0.34315186127638642 0 -0.26572659599229848 0.33223441076708821 0 -0.25871872725414002 0.33575497922639991 0 -0.25871872725414002 0.33575497922639991 0 -0.25066386580893701 0.33955699069212092 0 -0.25606074373167348 0.34657133784255628 0 -0.25871872725414002 0.33575497922639991 0 -0.25119272323960101 0.33192293364793313 0 -0.25875328997043279 0.32758056458418711 0 -0.25871872725414002 0.33575497922639991 0 -0.25066386580893701 0.33955699069212092 0 -0.25119272323960101 0.33192293364793313 0 -0.2671859695033279 0.31772098222369732 0 -0.25152306786361323 0.32429228130405668 0 -0.24465914262733671 0.31699021206271322 0 -0.25119272323960101 0.33192293364793313 0 -0.25152306786361323 0.32429228130405668 0 -0.25875328997043279 0.32758056458418711 0 -0.2671859695033279 0.31772098222369732 0 -0.24465914262733671 0.31699021206271322 0 -0.2671859695033279 0.31772098222369732 0 -0.25152306786361323 0.32429228130405668 0 -0.25875328997043279 0.32758056458418711 0 -0.2671859695033279 0.31772098222369732 0 -0.26644296932385381 0.31610068341917819 0 -0.24465914262733671 0.31699021206271322 0 -0.26644296932385381 0.31610068341917819 0 -0.24465914262733671 0.31699021206271322 0 -0.24374167361893639 0.30872228056206852 0 -0.2671859695033279 0.31772098222369732 0 -0.26572659599229848 0.33223441076708821 0 -0.25875328997043279 0.32758056458418711 0 -0.26173673308515971 0.36942745671328731 0 -0.25472687202638422 0.35620286706018311 0 -0.26369554624142832 0.35383142209108043 0 -0.26173673308515971 0.36942745671328731 0 -0.25990299504945219 0.37079366342260889 0 -0.26173673308515971 0.36942745671328731 0 -0.25990299504945219 0.37079366342260889 0 -0.2490443168908972 0.36285276841037728 0 -0.26173673308515971 0.36942745671328731 0 -0.25472687202638422 0.35620286706018311 0 -0.2490443168908972 0.36285276841037728 0 -0.26173673308515971 0.36942745671328731 0 -0.2490443168908972 0.36285276841037728 0 -0.25990299504945219 0.37079366342260889 0 -0.2490443168908972 0.36285276841037728 0 -0.25472687202638422 0.35620286706018311 0 -0.2470327113808182 0.34946706963379659 0 -0.2490443168908972 0.36285276841037728 0 -0.25472687202638422 0.35620286706018311 0 -0.25606074373167348 0.34657133784255628 0 -0.2470327113808182 0.34946706963379659 0 -0.25066386580893701 0.33955699069212092 0 -0.25606074373167348 0.34657133784255628 0 -0.2470327113808182 0.34946706963379659 0 -0.2671179356997726 0.34315186127638642 0 -0.25606074373167348 0.34657133784255628 0 -0.26369554624142832 0.35383142209108043 0 -0.25472687202638422 0.35620286706018311 0 -0.25606074373167348 0.34657133784255628 0 -0.26369554624142832 0.35383142209108043 0 -0.26173673308515971 0.36942745671328731 0 -0.26369554624142832 0.35383142209108043 0 -0.28246798709596688 0.3539818599210155 0 -0.2671179356997726 0.34315186127638642 0 -0.26369554624142832 0.35383142209108043 0 -0.28246798709596688 0.3539818599210155 0 -0.27667558618532351 0.33841547865847937 0 -0.2671179356997726 0.34315186127638642 0 -0.28246798709596688 0.3539818599210155 0 -0.26173673308515971 0.36942745671328731 0 -0.25990299504945219 0.37079366342260889 0 -0.27599842367794331 0.38256416688991951 0 -0.26173673308515971 0.36942745671328731 0 -0.28246798709596688 0.3539818599210155 0 -0.26173673308515971 0.36942745671328731 0 -0.28246798709596688 0.3539818599210155 0 -0.2806854862786613 0.37924293582058533 0 -0.26173673308515971 0.36942745671328731 0 -0.2806854862786613 0.37924293582058533 0 -0.28246798709596688 0.3539818599210155 0 -0.29789244150092858 0.36580365239704699 0 -0.2806854862786613 0.37924293582058533 0 -0.29789244150092858 0.36580365239704699 0 -0.2806854862786613 0.37924293582058533 0 -0.29747482593575919 0.36731639274142891 0 -0.2806854862786613 0.37924293582058533 0 -0.29789244150092858 0.36580365239704699 0 -0.29747482593575919 0.36731639274142891 0 -0.2806854862786613 0.37924293582058533 0 -0.28246798709596688 0.3539818599210155 0 -0.29971807649297888 0.35269915069636493 0 -0.29789244150092858 0.36580365239704699 0 -0.3031992411067731 0.33853626312874258 0 -0.28246798709596688 0.3539818599210155 0 -0.29971807649297888 0.35269915069636493 0 -0.3031992411067731 0.33853626312874258 0 -0.28246798709596688 0.3539818599210155 0 -0.29971807649297888 0.35269915069636493 0 -0.29789244150092858 0.36580365239704699 0 -0.31531263626824729 0.35247482733865482 0 -0.29789244150092858 0.36580365239704699 0 -0.31531263626824729 0.35247482733865482 0 -0.31426416559285691 0.35538984966227238 0 -0.29789244150092858 0.36580365239704699 0 -0.31531263626824729 0.35247482733865482 0 -0.3031992411067731 0.33853626312874258 0 -0.29971807649297888 0.35269915069636493 0 -0.31531263626824729 0.35247482733865482 0 -0.29747482593575919 0.36731639274142891 0 -0.31075129080866631 0.36515655907660738 0 -0.31426416559285691 0.35538984966227238 0 -0.29747482593575919 0.36731639274142891 0 -0.31426416559285691 0.35538984966227238 0 -0.29789244150092858 0.36580365239704699 0 -0.29747482593575919 0.36731639274142891 0 -0.31426416559285691 0.35538984966227238 0 -0.30065529961220822 0.36860402325456337 0 -0.31075129080866631 0.36515655907660738 0 -0.30175852475197518 0.39015879750024862 0 -0.29747482593575919 0.36731639274142891 0 -0.30065529961220822 0.36860402325456337 0 -0.31075129080866631 0.36515655907660738 0 -0.30065529961220822 0.36860402325456337 0 -0.31075129080866631 0.36515655907660738 0 -0.31075129080866631 0.36515655907660738 0 -0.33235482419163609 0.35777963035255361 0 -0.31426416559285691 0.35538984966227238 0 -0.31075129080866631 0.36515655907660738 0 -0.33235482419163609 0.35777963035255361 0 -0.31075129080866631 0.36515655907660738 0 -0.33235482419163609 0.35777963035255361 0 -0.33603965911838191 0.37797031833495748 0 -0.31075129080866631 0.36515655907660738 0 -0.31426416559285691 0.35538984966227238 0 -0.33235482419163609 0.35777963035255361 0 -0.35269971324262872 0.36742829967305562 0 -0.33603965911838191 0.37797031833495748 0 -0.33235482419163609 0.35777963035255361 0 -0.35395835757460481 0.3504027016284964 0 -0.33235482419163609 0.35777963035255361 0 -0.34117411668152919 0.34327237637530372 0 -0.35395835757460481 0.3504027016284964 0 -0.33235482419163609 0.35777963035255361 0 -0.33139371611504642 0.34651835290184507 0 -0.34117411668152919 0.34327237637530372 0 -0.33235482419163609 0.35777963035255361 0 -0.33139371611504642 0.34651835290184507 0 -0.32481377845340698 0.34789578409331612 0 -0.33139371611504642 0.34651835290184507 0 -0.32481377845340698 0.34789578409331612 0 -0.32976784911410628 0.34141461786466459 0 -0.33139371611504642 0.34651835290184507 0 -0.32976784911410628 0.34141461786466459 0 -0.33235482419163609 0.35777963035255361 0 -0.32481377845340698 0.34789578409331612 0 -0.31426416559285691 0.35538984966227238 0 -0.32481377845340698 0.34789578409331612 0 -0.31531263626824729 0.35247482733865482 0 -0.32976784911410628 0.34141461786466459 0 -0.31531263626824729 0.35247482733865482 0 -0.32976784911410628 0.34141461786466459 0 -0.32481377845340698 0.34789578409331612 0 -0.31531263626824729 0.35247482733865482 0 -0.31426416559285691 0.35538984966227238 0 -0.32481377845340698 0.34789578409331612 0 -0.31426416559285691 0.35538984966227238 0 -0.31531263626824729 0.35247482733865482 0 -0.31426416559285691 0.35538984966227238 0 -0.3031992411067731 0.33853626312874258 0 -0.32393049511757832 0.32309066633646821 0 -0.31531263626824729 0.35247482733865482 0 -0.32484685685470249 0.32596720390183431 0 -0.31531263626824729 0.35247482733865482 0 -0.32484685685470249 0.32596720390183431 0 -0.32976784911410628 0.34141461786466459 0 -0.3031992411067731 0.33853626312874258 0 -0.31531263626824729 0.35247482733865482 0 -0.32484685685470249 0.32596720390183431 0 -0.3031992411067731 0.33853626312874258 0 -0.32484685685470249 0.32596720390183431 0 -0.32393049511757832 0.32309066633646821 0 -0.32484685685470249 0.32596720390183431 0 -0.32976784911410628 0.34141461786466459 0 -0.31691767915406188 0.30107683954644737 0 -0.32393049511757832 0.32309066633646821 0 -0.32566839901615208 0.31362561457538918 0 -0.31691767915406188 0.30107683954644737 0 -0.31246852289836058 0.31621287551874949 0 -0.32393049511757832 0.32309066633646821 0 -0.31246852289836058 0.31621287551874949 0 -0.30896566856749652 0.32496931735872631 0 -0.32393049511757832 0.32309066633646821 0 -0.32484685685470249 0.32596720390183431 0 -0.32393049511757832 0.32309066633646821 0 -0.32484685685470249 0.32596720390183431 0 -0.32659568965566749 0.32110499194422942 0 -0.32393049511757832 0.32309066633646821 0 -0.32484685685470249 0.32596720390183431 0 -0.32659568965566749 0.32110499194422942 0 -0.33093427208102322 0.32546749126244651 0 -0.32484685685470249 0.32596720390183431 0 -0.32659568965566749 0.32110499194422942 0 -0.32659568965566749 0.32110499194422942 0 -0.32393049511757832 0.32309066633646821 0 -0.33114727457522031 0.30845039705687871 0 -0.32659568965566749 0.32110499194422942 0 -0.32566839901615208 0.31362561457538918 0 -0.32659568965566749 0.32110499194422942 0 -0.32393049511757832 0.32309066633646821 0 -0.32566839901615208 0.31362561457538918 0 -0.32659568965566749 0.32110499194422942 0 -0.3358012305946948 0.32088070523820272 0 -0.3372276418075022 0.31318377087547827 0 -0.32659568965566749 0.32110499194422942 0 -0.3372276418075022 0.31318377087547827 0 -0.33114727457522031 0.30845039705687871 0 -0.32659568965566749 0.32110499194422942 0 -0.33114727457522031 0.30845039705687871 0 -0.32659568965566749 0.32110499194422942 0 -0.3372276418075022 0.31318377087547827 0 -0.32659568965566749 0.32110499194422942 0 -0.3358012305946948 0.32088070523820272 0 -0.33093427208102322 0.32546749126244651 0 -0.32484685685470249 0.32596720390183431 0 -0.33093427208102322 0.32546749126244651 0 -0.33180588989912629 0.33237877272729432 0 -0.3358012305946948 0.32088070523820272 0 -0.33093427208102322 0.32546749126244651 0 -0.33640196906822228 0.3266158917610244 0 -0.33093427208102322 0.32546749126244651 0 -0.33640196906822228 0.3266158917610244 0 -0.33180588989912629 0.33237877272729432 0 -0.3358012305946948 0.32088070523820272 0 -0.3372276418075022 0.31318377087547827 0 -0.34800561970979588 0.32746023578271871 0 -0.3358012305946948 0.32088070523820272 0 -0.33640196906822228 0.3266158917610244 0 -0.34800561970979588 0.32746023578271871 0 -0.32976784911410628 0.34141461786466459 0 -0.34800561970979588 0.32746023578271871 0 -0.33640196906822228 0.3266158917610244 0 -0.33180588989912629 0.33237877272729432 0 -0.34800561970979588 0.32746023578271871 0 -0.32976784911410628 0.34141461786466459 0 -0.33180588989912629 0.33237877272729432 0 -0.34800561970979588 0.32746023578271871 0 -0.32976784911410628 0.34141461786466459 0 -0.34117411668152919 0.34327237637530372 0 -0.34800561970979588 0.32746023578271871 0 -0.33139371611504642 0.34651835290184507 0 -0.32976784911410628 0.34141461786466459 0 -0.34117411668152919 0.34327237637530372 0 -0.32484685685470249 0.32596720390183431 0 -0.32976784911410628 0.34141461786466459 0 -0.33180588989912629 0.33237877272729432 0 -0.34117411668152919 0.34327237637530372 0 -0.35501895026120822 0.33845317171618322 0 -0.34800561970979588 0.32746023578271871 0 -0.35501895026120822 0.33845317171618322 0 -0.34800561970979588 0.32746023578271871 0 -0.35639476638253798 0.32810477188995851 0 -0.3372276418075022 0.31318377087547827 0 -0.35639476638253798 0.32810477188995851 0 -0.3372276418075022 0.31318377087547827 0 -0.34800561970979588 0.32746023578271871 0 -0.35639476638253798 0.32810477188995851 0 -0.3372276418075022 0.31318377087547827 0 -0.35639476638253798 0.32810477188995851 0 -0.35366296934060881 0.31319646879228952 0 -0.35639476638253798 0.32810477188995851 0 -0.35366296934060881 0.31319646879228952 0 -0.36953023484099401 0.31988806179332202 0 -0.3629094867301233 0.30703577366995299 0 -0.35366296934060881 0.31319646879228952 0 -0.36953023484099401 0.31988806179332202 0 -0.38046509551059238 0.31557838714528208 0 -0.3741245007453573 0.30342412780799749 0 -0.36953023484099401 0.31988806179332202 0 -0.37556189095757331 0.34302577290443897 0 -0.35501895026120822 0.33845317171618322 0 -0.35639476638253798 0.32810477188995851 0 -0.37556189095757331 0.34302577290443897 0 -0.35639476638253798 0.32810477188995851 0 -0.37556189095757331 0.34302577290443897 0 -0.35639476638253798 0.32810477188995851 0 -0.36953023484099401 0.31988806179332202 0 -0.37556189095757331 0.34302577290443897 0 -0.35501895026120822 0.33845317171618322 0 -0.35395835757460481 0.3504027016284964 0 -0.37556189095757331 0.34302577290443897 0 -0.35395835757460481 0.3504027016284964 0 -0.37556189095757331 0.34302577290443897 0 -0.37224444069547791 0.3613492294799045 0 -0.35395835757460481 0.3504027016284964 0 -0.37224444069547791 0.3613492294799045 0 -0.36721144717065091 0.37504838592267992 0 -0.35269971324262872 0.36742829967305562 0 -0.38169407058801108 0.37803462669980209 0 -0.37224444069547791 0.3613492294799045 0 -0.36721144717065091 0.37504838592267992 0 -0.37224444069547791 0.3613492294799045 0 -0.35269971324262872 0.36742829967305562 0 -0.35395835757460481 0.3504027016284964 0 -0.36721144717065091 0.37504838592267992 0 -0.35269971324262872 0.36742829967305562 0 -0.35438955070502132 0.3820195323197414 0 -0.33235482419163609 0.35777963035255361 0 -0.35269971324262872 0.36742829967305562 0 -0.35395835757460481 0.3504027016284964 0 -0.34117411668152919 0.34327237637530372 0 -0.35501895026120822 0.33845317171618322 0 -0.35395835757460481 0.3504027016284964 0 -0.34980451027385601 0.39453184010875031 0 -0.35946064422080942 0.40371549510884769 0 -0.34221295820753239 0.40548395310974777 0 -0.34980451027385601 0.39453184010875031 0 -0.35438955070502132 0.3820195323197414 0 -0.35946064422080942 0.40371549510884769 0 -0.35946064422080942 0.40371549510884769 0 -0.34221295820753239 0.40548395310974777 0 -0.34980451027385601 0.39453184010875031 0 -0.34218667721969381 0.40007296341776127 0 -0.34221295820753239 0.40548395310974777 0 -0.34980451027385601 0.39453184010875031 0 -0.35438955070502132 0.3820195323197414 0 -0.33603965911838191 0.37797031833495748 0 -0.35269971324262872 0.36742829967305562 0 -0.35438955070502132 0.3820195323197414 0 -0.33603965911838191 0.37797031833495748 0 -0.37670833023408651 0.40194703710794821 0 -0.36721144717065091 0.37504838592267992 0 -0.35438955070502132 0.3820195323197414 0 -0.37670833023408651 0.40194703710794821 0 -0.35438955070502132 0.3820195323197414 0 -0.35946064422080942 0.40371549510884769 0 -0.37670833023408651 0.40194703710794821 0 -0.35946064422080942 0.40371549510884769 0 -0.36725464798836183 0.4125167349077849 0 -0.37670833023408651 0.40194703710794821 0 -0.35946064422080942 0.40371549510884769 0 -0.37670833023408651 0.40194703710794821 0 -0.35438955070502132 0.3820195323197414 0 -0.37862646931876681 0.41684639881187152 0 -0.37670833023408651 0.40194703710794821 0 -0.36725464798836183 0.4125167349077849 0 -0.37096444337879192 0.4260075544842144 0 -0.35187011402585427 0.41611666673461978 0 -0.36725464798836183 0.4125167349077849 0 -0.37096444337879192 0.4260075544842144 0 -0.35187011402585427 0.41611666673461978 0 -0.37862646931876681 0.41684639881187152 0 -0.36725464798836183 0.4125167349077849 0 -0.37096444337879192 0.4260075544842144 0 -0.35946064422080942 0.40371549510884769 0 -0.36725464798836183 0.4125167349077849 0 -0.35187011402585427 0.41611666673461978 0 -0.37306907393781358 0.43486269775529879 0 -0.35649368984798963 0.43127473602603439 0 -0.35187011402585427 0.41611666673461978 0 -0.37306907393781358 0.43486269775529879 0 -0.35649368984798963 0.43127473602603439 0 -0.36091001486128282 0.44465957307680992 0 -0.37306907393781358 0.43486269775529879 0 -0.35187011402585427 0.41611666673461978 0 -0.37306907393781358 0.43486269775529879 0 -0.37096444337879192 0.4260075544842144 0 -0.35187011402585427 0.41611666673461978 0 -0.34012555656700788 0.42946000653740918 0 -0.36091001486128282 0.44465957307680992 0 -0.35649368984798963 0.43127473602603439 0 -0.34012555656700788 0.42946000653740918 0 -0.36091001486128282 0.44465957307680992 0 -0.35649368984798963 0.43127473602603439 0 -0.35187011402585427 0.41611666673461978 0 -0.34012555656700788 0.42946000653740918 0 -0.35946064422080942 0.40371549510884769 0 -0.35187011402585427 0.41611666673461978 0 -0.34221295820753239 0.40548395310974777 0 -0.35187011402585427 0.41611666673461978 0 -0.34071869791719889 0.40625557953196811 0 -0.34221295820753239 0.40548395310974777 0 -0.35187011402585427 0.41611666673461978 0 -0.34071869791719889 0.40625557953196811 0 -0.33399419682464337 0.41603375037380907 0 -0.34012555656700788 0.42946000653740918 0 -0.31934109827273299 0.41426043999800871 0 -0.35187011402585427 0.41611666673461978 0 -0.32681431938891642 0.40313773211743081 0 -0.35187011402585427 0.41611666673461978 0 -0.33399419682464337 0.41603375037380907 0 -0.34012555656700788 0.42946000653740918 0 -0.35187011402585427 0.41611666673461978 0 -0.32681431938891642 0.40313773211743081 0 -0.34071869791719889 0.40625557953196811 0 -0.35187011402585427 0.41611666673461978 0 -0.33399419682464337 0.41603375037380907 0 -0.32681431938891642 0.40313773211743081 0 -0.34012555656700788 0.42946000653740918 0 -0.31934109827273299 0.41426043999800871 0 -0.34012555656700788 0.42946000653740918 0 -0.32399375596159569 0.42970872890056971 0 -0.33218893251887632 0.43796905309795098 0 -0.34012555656700788 0.42946000653740918 0 -0.32399375596159569 0.42970872890056971 0 -0.31934109827273299 0.41426043999800871 0 -0.32399375596159569 0.42970872890056971 0 -0.3171120647646648 0.43669937066032222 0 -0.33218893251887632 0.43796905309795098 0 -0.32399375596159569 0.42970872890056971 0 -0.3148054240050116 0.42457383911825403 0 -0.31934109827273299 0.41426043999800871 0 -0.32399375596159569 0.42970872890056971 0 -0.3148054240050116 0.42457383911825403 0 -0.3171120647646648 0.43669937066032222 0 -0.3148054240050116 0.42457383911825403 0 -0.3171120647646648 0.43669937066032222 0 -0.30793045060445989 0.43265595911695109 0 -0.33399419682464337 0.41603375037380907 0 -0.31934109827273299 0.41426043999800871 0 -0.32681431938891642 0.40313773211743081 0 -0.3148054240050116 0.42457383911825403 0 -0.31934109827273299 0.41426043999800871 0 -0.30485698520244731 0.41943070984702291 0 -0.32681431938891642 0.40313773211743081 0 -0.30175852475197518 0.39015879750024862 0 -0.32681431938891642 0.40313773211743081 0 -0.33601054248018808 0.39402048092057901 0 -0.31979975853657761 0.38600478517555009 0 -0.31934109827273299 0.41426043999800871 0 -0.32681431938891642 0.40313773211743081 0 -0.2985566399784606 0.39906087345860491 0 -0.32681431938891642 0.40313773211743081 0 -0.31979975853657761 0.38600478517555009 0 -0.30175852475197518 0.39015879750024862 0 -0.32681431938891642 0.40313773211743081 0 -0.33601054248018808 0.39402048092057901 0 -0.34071869791719889 0.40625557953196811 0 -0.34980451027385601 0.39453184010875031 0 -0.33601054248018808 0.39402048092057901 0 -0.34218667721969381 0.40007296341776127 0 -0.33601054248018808 0.39402048092057901 0 -0.34218667721969381 0.40007296341776127 0 -0.34071869791719889 0.40625557953196811 0 -0.34218667721969381 0.40007296341776127 0 -0.34071869791719889 0.40625557953196811 0 -0.34221295820753239 0.40548395310974777 0 -0.33601054248018808 0.39402048092057901 0 -0.33603965911838191 0.37797031833495748 0 -0.31979975853657761 0.38600478517555009 0 -0.34980451027385601 0.39453184010875031 0 -0.33601054248018808 0.39402048092057901 0 -0.33603965911838191 0.37797031833495748 0 -0.31075129080866631 0.36515655907660738 0 -0.33603965911838191 0.37797031833495748 0 -0.31979975853657761 0.38600478517555009 0 -0.29747482593575919 0.36731639274142891 0 -0.30065529961220822 0.36860402325456337 0 -0.30175852475197518 0.39015879750024862 0 -0.31075129080866631 0.36515655907660738 0 -0.31979975853657761 0.38600478517555009 0 -0.30175852475197518 0.39015879750024862 0 -0.31075129080866631 0.36515655907660738 0 -0.30175852475197518 0.39015879750024862 0 -0.32681431938891642 0.40313773211743081 0 -0.30175852475197518 0.39015879750024862 0 -0.2985566399784606 0.39906087345860491 0 -0.30175852475197518 0.39015879750024862 0 -0.2985566399784606 0.39906087345860491 0 -0.2985566399784606 0.39906087345860491 0 -0.27599842367794331 0.38256416688991951 0 -0.27765534831647759 0.39934232801028441 0 -0.2985566399784606 0.39906087345860491 0 -0.27765534831647759 0.39934232801028441 0 -0.29199763500654891 0.41729662040185178 0 -0.2985566399784606 0.39906087345860491 0 -0.27599842367794331 0.38256416688991951 0 -0.30175852475197518 0.39015879750024862 0 -0.2806854862786613 0.37924293582058533 0 -0.2985566399784606 0.39906087345860491 0 -0.2806854862786613 0.37924293582058533 0 -0.27599842367794331 0.38256416688991951 0 -0.30175852475197518 0.39015879750024862 0 -0.2985566399784606 0.39906087345860491 0 -0.2806854862786613 0.37924293582058533 0 -0.29747482593575919 0.36731639274142891 0 -0.30175852475197518 0.39015879750024862 0 -0.2806854862786613 0.37924293582058533 0 -0.26173673308515971 0.36942745671328731 0 -0.2806854862786613 0.37924293582058533 0 -0.27599842367794331 0.38256416688991951 0 -0.25990299504945219 0.37079366342260889 0 -0.27599842367794331 0.38256416688991951 0 -0.2806854862786613 0.37924293582058533 0 -0.27599842367794331 0.38256416688991951 0 -0.27765534831647759 0.39934232801028441 0 -0.25423002637629721 0.39803594308880452 0 -0.26901780336469511 0.41545875420420481 0 -0.27599842367794331 0.38256416688991951 0 -0.27765534831647759 0.39934232801028441 0 -0.25423002637629721 0.39803594308880452 0 -0.25990299504945219 0.37079366342260889 0 -0.25793729071746702 0.38505990715513849 0 -0.23649923515691371 0.38823038184470521 0 -0.27599842367794331 0.38256416688991951 0 -0.25423002637629721 0.39803594308880452 0 -0.25793729071746702 0.38505990715513849 0 -0.27599842367794331 0.38256416688991951 0 -0.25423002637629721 0.39803594308880452 0 -0.25990299504945219 0.37079366342260889 0 -0.27599842367794331 0.38256416688991951 0 -0.25793729071746702 0.38505990715513849 0 -0.26134031193066792 0.42892604948927432 0 -0.25425103563380558 0.4393257868306647 0 -0.2418724413698328 0.43010905782055631 0 -0.26134031193066792 0.42892604948927432 0 -0.27159275262594529 0.43674045899497788 0 -0.25425103563380558 0.4393257868306647 0 -0.26134031193066792 0.42892604948927432 0 -0.25222476713975228 0.41786780965906489 0 -0.2418724413698328 0.43010905782055631 0 -0.26134031193066792 0.42892604948927432 0 -0.25222476713975228 0.41786780965906489 0 -0.26901780336469511 0.41545875420420481 0 -0.25423002637629721 0.39803594308880452 0 -0.25222476713975228 0.41786780965906489 0 -0.26901780336469511 0.41545875420420481 0 -0.27765534831647759 0.39934232801028441 0 -0.26901780336469511 0.41545875420420481 0 -0.29199763500654891 0.41729662040185178 0 -0.26901780336469511 0.41545875420420481 0 -0.27579088745773228 0.42771970709560819 0 -0.29199763500654891 0.41729662040185178 0 -0.26134031193066792 0.42892604948927432 0 -0.26901780336469511 0.41545875420420481 0 -0.27579088745773228 0.42771970709560819 0 -0.26134031193066792 0.42892604948927432 0 -0.27579088745773228 0.42771970709560819 0 -0.27159275262594529 0.43674045899497788 0 -0.27579088745773228 0.42771970709560819 0 -0.27159275262594529 0.43674045899497788 0 -0.28543863003463599 0.43553236734509843 0 -0.27579088745773228 0.42771970709560819 0 -0.28543863003463599 0.43553236734509843 0 -0.29199763500654891 0.41729662040185178 0 -0.28543863003463599 0.43553236734509843 0 -0.29199763500654891 0.41729662040185178 0 -0.29753305781987638 0.42918579113627209 0 -0.28543863003463599 0.43553236734509843 0 -0.29199763500654891 0.41729662040185178 0 -0.28543863003463599 0.43553236734509843 0 -0.29753305781987638 0.42918579113627209 0 -0.29744158825129008 0.44101329897043579 0 -0.2985566399784606 0.39906087345860491 0 -0.29199763500654891 0.41729662040185178 0 -0.31934109827273299 0.41426043999800871 0 -0.2985566399784606 0.39906087345860491 0 -0.30485698520244731 0.41943070984702291 0 -0.31934109827273299 0.41426043999800871 0 -0.2985566399784606 0.39906087345860491 0 -0.2985566399784606 0.39906087345860491 0 -0.29199763500654891 0.41729662040185178 0 -0.30485698520244731 0.41943070984702291 0 -0.29753305781987638 0.42918579113627209 0 -0.30793045060445989 0.43265595911695109 0 -0.29744158825129008 0.44101329897043579 0 -0.29199763500654891 0.41729662040185178 0 -0.30485698520244731 0.41943070984702291 0 -0.29753305781987638 0.42918579113627209 0 -0.30485698520244731 0.41943070984702291 0 -0.29753305781987638 0.42918579113627209 0 -0.30793045060445989 0.43265595911695109 0 -0.3148054240050116 0.42457383911825403 0 -0.30485698520244731 0.41943070984702291 0 -0.30793045060445989 0.43265595911695109 0 -0.30793045060445989 0.43265595911695109 0 -0.31186494496616912 0.4449875839637642 0 -0.29744158825129008 0.44101329897043579 0 -0.3171120647646648 0.43669937066032222 0 -0.30793045060445989 0.43265595911695109 0 -0.31186494496616912 0.4449875839637642 0 -0.31186494496616912 0.4449875839637642 0 -0.30229249590745572 0.45350888633474612 0 -0.31841810366762618 0.45624987791758009 0 -0.31186494496616912 0.4449875839637642 0 -0.29744158825129008 0.44101329897043579 0 -0.30229249590745572 0.45350888633474612 0 -0.30697365366129692 0.46199115331651203 0 -0.30229249590745572 0.45350888633474612 0 -0.31841810366762618 0.45624987791758009 0 -0.30697365366129692 0.46199115331651203 0 -0.30229249590745572 0.45350888633474612 0 -0.30697365366129692 0.46199115331651203 0 -0.30229249590745572 0.45350888633474612 0 -0.28061234464755103 0.45065847007358878 0 -0.30697365366129692 0.46199115331651203 0 -0.28061234464755103 0.45065847007358878 0 -0.28884348699293272 0.46769499632216249 0 -0.28061234464755103 0.45065847007358878 0 -0.27597607615144959 0.46498731977594138 0 -0.30697365366129692 0.46199115331651203 0 -0.28884348699293272 0.46769499632216249 0 -0.28061234464755103 0.45065847007358878 0 -0.28543863003463599 0.43553236734509843 0 -0.29744158825129008 0.44101329897043579 0 -0.28061234464755103 0.45065847007358878 0 -0.29744158825129008 0.44101329897043579 0 -0.30229249590745572 0.45350888633474612 0 -0.28061234464755103 0.45065847007358878 0 -0.27159275262594529 0.43674045899497788 0 -0.28543863003463599 0.43553236734509843 0 -0.28061234464755103 0.45065847007358878 0 -0.28061234464755103 0.45065847007358878 0 -0.25425103563380558 0.4393257868306647 0 -0.27159275262594529 0.43674045899497788 0 -0.28061234464755103 0.45065847007358878 0 -0.25425103563380558 0.4393257868306647 0 -0.28061234464755103 0.45065847007358878 0 -0.2703745056732258 0.45425093349411111 0 -0.25425103563380558 0.4393257868306647 0 -0.27597607615144959 0.46498731977594138 0 -0.2703745056732258 0.45425093349411111 0 -0.25924707933124302 0.46822146599323039 0 -0.28061234464755103 0.45065847007358878 0 -0.27597607615144959 0.46498731977594138 0 -0.2703745056732258 0.45425093349411111 0 -0.2703745056732258 0.45425093349411111 0 -0.25924707933124302 0.46822146599323039 0 -0.25993130128029229 0.45130837979036859 0 -0.25924707933124302 0.46822146599323039 0 -0.25993130128029229 0.45130837979036859 0 -0.2487680002373111 0.46224619127778022 0 -0.25993130128029229 0.45130837979036859 0 -0.25425103563380558 0.4393257868306647 0 -0.23775818716763289 0.45039904722108448 0 -0.2703745056732258 0.45425093349411111 0 -0.25993130128029229 0.45130837979036859 0 -0.25425103563380558 0.4393257868306647 0 -0.26277394014067801 0.48542339591929939 0 -0.27236698176117802 0.5 0 -0.24237511462900829 0.5 0 -0.26277394014067801 0.48542339591929939 0 -0.2494398866577334 0.47962244823412647 0 -0.24237511462900829 0.5 0 -0.25924707933124302 0.46822146599323039 0 -0.26277394014067801 0.48542339591929939 0 -0.2494398866577334 0.47962244823412647 0 -0.25924707933124302 0.46822146599323039 0 -0.2494398866577334 0.47962244823412647 0 -0.2487680002373111 0.46224619127778022 0 -0.25924707933124302 0.46822146599323039 0 -0.28080296411229561 0.48411073299661428 0 -0.27597607615144959 0.46498731977594138 0 -0.25924707933124302 0.46822146599323039 0 -0.28080296411229561 0.48411073299661428 0 -0.25924707933124302 0.46822146599323039 0 -0.26277394014067801 0.48542339591929939 0 -0.28080296411229561 0.48411073299661428 0 -0.26277394014067801 0.48542339591929939 0 -0.28080296411229561 0.48411073299661428 0 -0.27236698176117802 0.5 0 -0.28080296411229561 0.48411073299661428 0 -0.29928813767638007 0.47895849185870892 0 -0.30235884889334769 0.49999999999999889 0 -0.28080296411229561 0.48411073299661428 0 -0.27236698176117802 0.5 0 -0.30235884889334769 0.49999999999999889 0 -0.28080296411229561 0.48411073299661428 0 -0.30235884889334769 0.49999999999999889 0 -0.28884348699293272 0.46769499632216249 0 -0.28080296411229561 0.48411073299661428 0 -0.29928813767638007 0.47895849185870892 0 -0.28884348699293272 0.46769499632216249 0 -0.27597607615144959 0.46498731977594138 0 -0.28080296411229561 0.48411073299661428 0 -0.30697365366129692 0.46199115331651203 0 -0.31746173472202688 0.48099557665825621 0 -0.30697365366129692 0.46199115331651203 0 -0.28884348699293272 0.46769499632216249 0 -0.29928813767638007 0.47895849185870892 0 -0.30697365366129692 0.46199115331651203 0 -0.29928813767638007 0.47895849185870892 0 -0.31746173472202688 0.48099557665825621 0 -0.29928813767638007 0.47895849185870892 0 -0.30235884889334769 0.49999999999999889 0 -0.31746173472202688 0.48099557665825621 0 -0.30235884889334769 0.49999999999999889 0 -0.32794981578275639 0.50000000000000067 0 -0.31746173472202688 0.48099557665825621 0 -0.32794981578275639 0.50000000000000067 0 -0.32924835885106601 0.48883839356560638 0 -0.31746173472202688 0.48099557665825621 0 -0.32794981578275639 0.50000000000000067 0 -0.31746173472202688 0.48099557665825621 0 -0.32794981578275639 0.50000000000000067 0 -0.34144513543821048 0.49110040725575932 0 -0.35591464382366222 0.5 0 -0.32794981578275639 0.50000000000000067 0 -0.32924835885106601 0.48883839356560638 0 -0.34144513543821048 0.49110040725575932 0 -0.32794981578275639 0.50000000000000067 0 -0.34144513543821048 0.49110040725575932 0 -0.33047881622538 0.4720959839140112 0 -0.35398397878946269 0.48220081451151092 0 -0.32924835885106601 0.48883839356560638 0 -0.34144513543821048 0.49110040725575932 0 -0.33047881622538 0.4720959839140112 0 -0.34144513543821048 0.49110040725575932 0 -0.33047881622538 0.4720959839140112 0 -0.35398397878946269 0.48220081451151092 0 -0.32924835885106601 0.48883839356560638 0 -0.33047881622538 0.4720959839140112 0 -0.31746173472202688 0.48099557665825621 0 -0.30697365366129692 0.46199115331651203 0 -0.33047881622538 0.4720959839140112 0 -0.31746173472202688 0.48099557665825621 0 -0.33047881622538 0.4720959839140112 0 -0.31841810366762618 0.45624987791758009 0 -0.33410764118209701 0.45665401289541679 0 -0.30697365366129692 0.46199115331651203 0 -0.33047881622538 0.4720959839140112 0 -0.30697365366129692 0.46199115331651203 0 -0.33047881622538 0.4720959839140112 0 -0.31841810366762618 0.45624987791758009 0 -0.31841810366762618 0.45624987791758009 0 -0.32567994594189281 0.44682246558082528 0 -0.33410764118209701 0.45665401289541679 0 -0.3171120647646648 0.43669937066032222 0 -0.31186494496616912 0.4449875839637642 0 -0.32567994594189281 0.44682246558082528 0 -0.31186494496616912 0.4449875839637642 0 -0.31841810366762618 0.45624987791758009 0 -0.32567994594189281 0.44682246558082528 0 -0.3171120647646648 0.43669937066032222 0 -0.32567994594189281 0.44682246558082528 0 -0.33218893251887632 0.43796905309795098 0 -0.34012555656700788 0.42946000653740918 0 -0.34284086016664239 0.44755750620294971 0 -0.33218893251887632 0.43796905309795098 0 -0.32567994594189281 0.44682246558082528 0 -0.34284086016664239 0.44755750620294971 0 -0.33410764118209701 0.45665401289541679 0 -0.32567994594189281 0.44682246558082528 0 -0.34284086016664239 0.44755750620294971 0 -0.33218893251887632 0.43796905309795098 0 -0.34284086016664239 0.44755750620294971 0 -0.33410764118209701 0.45665401289541679 0 -0.3531204799089433 0.46054423086171797 0 -0.33047881622538 0.4720959839140112 0 -0.33410764118209701 0.45665401289541679 0 -0.3531204799089433 0.46054423086171797 0 -0.34284086016664239 0.44755750620294971 0 -0.3531204799089433 0.46054423086171797 0 -0.36091001486128282 0.44465957307680992 0 -0.34012555656700788 0.42946000653740918 0 -0.34284086016664239 0.44755750620294971 0 -0.36091001486128282 0.44465957307680992 0 -0.3531204799089433 0.46054423086171797 0 -0.36091001486128282 0.44465957307680992 0 -0.37109872177548642 0.45231600042270997 0 -0.37306907393781358 0.43486269775529879 0 -0.36091001486128282 0.44465957307680992 0 -0.37109872177548642 0.45231600042270997 0 -0.3531204799089433 0.46054423086171797 0 -0.37109872177548642 0.45231600042270997 0 -0.37412600631961901 0.46790477164374572 0 -0.37412600631961901 0.46790477164374572 0 -0.37088322944287161 0.48946577447984752 0 -0.35398397878946269 0.48220081451151092 0 -0.37412600631961901 0.46790477164374572 0 -0.35398397878946269 0.48220081451151092 0 -0.3531204799089433 0.46054423086171797 0 -0.37412600631961901 0.46790477164374572 0 -0.35398397878946269 0.48220081451151092 0 -0.37088322944287161 0.48946577447984752 0 -0.35591464382366222 0.5 0 -0.35398397878946269 0.48220081451151092 0 -0.37088322944287161 0.48946577447984752 0 -0.35398397878946269 0.48220081451151092 0 -0.38292299556036952 0.5 0 -0.37088322944287161 0.48946577447984752 0 -0.35591464382366222 0.5 0 -0.34144513543821048 0.49110040725575932 0 -0.35591464382366222 0.5 0 -0.35398397878946269 0.48220081451151092 0 -0.34144513543821048 0.49110040725575932 0 -0.35398397878946269 0.48220081451151092 0 -0.33047881622538 0.4720959839140112 0 -0.3531204799089433 0.46054423086171797 0 -0.35398397878946269 0.48220081451151092 0 -0.14262114113809729 0.47598549208547553 0 -0.16772382222306631 0.46397823812821382 0 -0.14262114113809729 0.47598549208547553 0 -0.15239951323249901 0.5 0 -0.17020063434796581 0.48136014517174591 0 -0.14262114113809729 0.47598549208547553 0 -0.1175184600531282 0.48799274604273718 0 -0.1224076461003292 0.5 0 -0.14262114113809729 0.47598549208547553 0 -0.15239951323249901 0.5 0 -0.1224076461003292 0.5 0 -0.14262114113809729 0.47598549208547553 0 -0.1184225529282712 0.46972963768613368 0 -0.1175184600531282 0.48799274604273718 0 -0.14262114113809729 0.47598549208547553 0 -0.1175184600531282 0.48799274604273718 0 -0.14262114113809729 0.47598549208547553 0 -0.13105555655845111 0.45839257278334378 0 -0.1184225529282712 0.46972963768613368 0 -0.13105555655845111 0.45839257278334378 0 -0.14095482231776041 0.44642908377675122 0 -0.11768309088928031 0.4438926823123247 0 -0.14095482231776041 0.44642908377675122 0 -0.12580894219327121 0.42921658845908361 0 -0.11768309088928031 0.4438926823123247 0 -0.14095482231776041 0.44642908377675122 0 -0.1511211084157516 0.45804310660941872 0 -0.16542508244130241 0.4474326236672751 0 -0.14095482231776041 0.44642908377675122 0 -0.16542508244130241 0.4474326236672751 0 -0.14095482231776041 0.44642908377675122 0 -0.16542508244130241 0.4474326236672751 0 -0.1543249030461562 0.4369081031674964 0 -0.13105555655845111 0.45839257278334378 0 -0.14095482231776041 0.44642908377675122 0 -0.1511211084157516 0.45804310660941872 0 -0.14262114113809729 0.47598549208547553 0 -0.13105555655845111 0.45839257278334378 0 -0.1511211084157516 0.45804310660941872 0 -0.14262114113809729 0.47598549208547553 0 -0.1511211084157516 0.45804310660941872 0 -0.16772382222306631 0.46397823812821382 0 -0.1511211084157516 0.45804310660941872 0 -0.16772382222306631 0.46397823812821382 0 -0.16542508244130241 0.4474326236672751 0 -0.16772382222306631 0.46397823812821382 0 -0.16542508244130241 0.4474326236672751 0 -0.18060587247135429 0.45554387523468792 0 -0.16542508244130241 0.4474326236672751 0 -0.1780855795178885 0.43756226830014378 0 -0.1543249030461562 0.4369081031674964 0 -0.16542508244130241 0.4474326236672751 0 -0.1780855795178885 0.43756226830014378 0 -0.18989534256484439 0.44843616355780008 0 -0.16542508244130241 0.4474326236672751 0 -0.18060587247135429 0.45554387523468792 0 -0.18989534256484439 0.44843616355780008 0 -0.16542508244130241 0.4474326236672751 0 -0.18989534256484439 0.44843616355780008 0 -0.18060587247135429 0.45554387523468792 0 -0.18786125083322749 0.45540201668919972 0 -0.18989534256484439 0.44843616355780008 0 -0.18060587247135429 0.45554387523468792 0 -0.18989534256484439 0.44843616355780008 0 -0.1780855795178885 0.43756226830014378 0 -0.1927286986023066 0.44626825972802991 0 -0.18989534256484439 0.44843616355780008 0 -0.16772382222306631 0.46397823812821382 0 -0.18060587247135429 0.45554387523468792 0 -0.18001114349864381 0.46854388338983338 0 -0.18060587247135429 0.45554387523468792 0 -0.18786125083322749 0.45540201668919972 0 -0.1889772134288156 0.46408532596982421 0 -0.18060587247135429 0.45554387523468792 0 -0.18001114349864381 0.46854388338983338 0 -0.1889772134288156 0.46408532596982421 0 -0.18001114349864381 0.46854388338983338 0 -0.17020063434796581 0.48136014517174591 0 -0.19254817502201679 0.47775183244469521 0 -0.16772382222306631 0.46397823812821382 0 -0.18001114349864381 0.46854388338983338 0 -0.17020063434796581 0.48136014517174591 0 -0.18001114349864381 0.46854388338983338 0 -0.19254817502201679 0.47775183244469521 0 -0.1889772134288156 0.46408532596982421 0 -0.14262114113809729 0.47598549208547553 0 -0.16772382222306631 0.46397823812821382 0 -0.17020063434796581 0.48136014517174591 0 -0.15239951323249901 0.5 0 -0.17020063434796581 0.48136014517174591 0 -0.1823913803646687 0.5 0 -0.17020063434796581 0.48136014517174591 0 -0.1823913803646687 0.5 0 -0.19254817502201679 0.47775183244469521 0 -0.1823913803646687 0.5 0 -0.19254817502201679 0.47775183244469521 0 -0.21238324749683851 0.5 0 -0.19254817502201679 0.47775183244469521 0 -0.2083482636200289 0.46822916485377758 0 -0.19858000111134319 0.46230925503142362 0 -0.21851889135310371 0.48235265936385502 0 -0.22437049277382479 0.46278544222366691 0 -0.2083482636200289 0.46822916485377758 0 -0.19254817502201679 0.47775183244469521 0 -0.21851889135310371 0.48235265936385502 0 -0.2083482636200289 0.46822916485377758 0 -0.19254817502201679 0.47775183244469521 0 -0.21851889135310371 0.48235265936385502 0 -0.21238324749683851 0.5 0 -0.21851889135310371 0.48235265936385502 0 -0.2348379322366346 0.47646228362599119 0 -0.24237511462900829 0.5 0 -0.21851889135310371 0.48235265936385502 0 -0.21238324749683851 0.5 0 -0.24237511462900829 0.5 0 -0.21851889135310371 0.48235265936385502 0 -0.2348379322366346 0.47646228362599119 0 -0.22437049277382479 0.46278544222366691 0 -0.2494398866577334 0.47962244823412647 0 -0.2487680002373111 0.46224619127778022 0 -0.23903489981462731 0.46630308251652991 0 -0.2348379322366346 0.47646228362599119 0 -0.2494398866577334 0.47962244823412647 0 -0.23903489981462731 0.46630308251652991 0 -0.2348379322366346 0.47646228362599119 0 -0.2494398866577334 0.47962244823412647 0 -0.24237511462900829 0.5 0 -0.25993130128029229 0.45130837979036859 0 -0.23775818716763289 0.45039904722108448 0 -0.25425103563380558 0.4393257868306647 0 -0.23775818716763289 0.45039904722108448 0 -0.24074362306716671 0.44038094971462122 0 -0.23775818716763289 0.45039904722108448 0 -0.24074362306716671 0.44038094971462122 0 -0.2306437746395377 0.44307690351580792 0 -0.24074362306716671 0.44038094971462122 0 -0.2306437746395377 0.44307690351580792 0 -0.2418724413698328 0.43010905782055631 0 -0.25993130128029229 0.45130837979036859 0 -0.23775818716763289 0.45039904722108448 0 -0.2487680002373111 0.46224619127778022 0 -0.23775818716763289 0.45039904722108448 0 -0.2487680002373111 0.46224619127778022 0 -0.23903489981462731 0.46630308251652991 0 -0.23775818716763289 0.45039904722108448 0 -0.23903489981462731 0.46630308251652991 0 -0.22437049277382479 0.46278544222366691 0 -0.23775818716763289 0.45039904722108448 0 -0.22437049277382479 0.46278544222366691 0 -0.21558507305497329 0.44948971465180032 0 -0.2348379322366346 0.47646228362599119 0 -0.23903489981462731 0.46630308251652991 0 -0.22437049277382479 0.46278544222366691 0 -0.23775818716763289 0.45039904722108448 0 -0.21558507305497329 0.44948971465180032 0 -0.23775818716763289 0.45039904722108448 0 -0.2306437746395377 0.44307690351580792 0 -0.21558507305497329 0.44948971465180032 0 -0.2306437746395377 0.44307690351580792 0 -0.22014910664476089 0.43932008719733301 0 -0.21558507305497329 0.44948971465180032 0 -0.22014910664476089 0.43932008719733301 0 -0.20470558203804859 0.44398596173409532 0 -0.21318705423731721 0.43061482720998251 0 -0.22014910664476089 0.43932008719733301 0 -0.21558507305497329 0.44948971465180032 0 -0.20470558203804859 0.44398596173409532 0 -0.21558507305497329 0.44948971465180032 0 -0.20613289343294869 0.45631017213112152 0 -0.19341195894231381 0.44858038208251649 0 -0.21558507305497329 0.44948971465180032 0 -0.20470558203804859 0.44398596173409532 0 -0.19341195894231381 0.44858038208251649 0 -0.20470558203804859 0.44398596173409532 0 -0.1927286986023066 0.44626825972802991 0 -0.21318705423731721 0.43061482720998251 0 -0.21558507305497329 0.44948971465180032 0 -0.19341195894231381 0.44858038208251649 0 -0.22437049277382479 0.46278544222366691 0 -0.21558507305497329 0.44948971465180032 0 -0.20613289343294869 0.45631017213112152 0 -0.22437049277382479 0.46278544222366691 0 -0.20613289343294869 0.45631017213112152 0 -0.2083482636200289 0.46822916485377758 0 -0.20613289343294869 0.45631017213112152 0 -0.2083482636200289 0.46822916485377758 0 -0.19858000111134319 0.46230925503142362 0 -0.20613289343294869 0.45631017213112152 0 -0.19858000111134319 0.46230925503142362 0 -0.19484146563193599 0.45341776862387212 0 -0.19858000111134319 0.46230925503142362 0 -0.19484146563193599 0.45341776862387212 0 -0.19267687510506501 0.45913628029619608 0 -0.18786125083322749 0.45540201668919972 0 -0.19267687510506501 0.45913628029619608 0 -0.1889772134288156 0.46408532596982421 0 -0.19484146563193599 0.45341776862387212 0 -0.18786125083322749 0.45540201668919972 0 -0.19267687510506501 0.45913628029619608 0 -0.19484146563193599 0.45341776862387212 0 -0.18786125083322749 0.45540201668919972 0 -0.19151990927813439 0.45176941741869409 0 -0.19858000111134319 0.46230925503142362 0 -0.19267687510506501 0.45913628029619608 0 -0.1889772134288156 0.46408532596982421 0 -0.19254817502201679 0.47775183244469521 0 -0.19858000111134319 0.46230925503142362 0 -0.1889772134288156 0.46408532596982421 0 -0.1927286986023066 0.44626825972802991 0 -0.21318705423731721 0.43061482720998251 0 -0.20470558203804859 0.44398596173409532 0 -0.19341195894231381 0.44858038208251649 0 -0.1927286986023066 0.44626825972802991 0 -0.20613289343294869 0.45631017213112152 0 -0.19484146563193599 0.45341776862387212 0 -0.19341195894231381 0.44858038208251649 0 -0.19341195894231381 0.44858038208251649 0 -0.1927286986023066 0.44626825972802991 0 -0.18989534256484439 0.44843616355780008 0 -0.19341195894231381 0.44858038208251649 0 -0.18989534256484439 0.44843616355780008 0 -0.19341195894231381 0.44858038208251649 0 -0.1927286986023066 0.44626825972802991 0 -0.19484146563193599 0.45341776862387212 0 -0.19341195894231381 0.44858038208251649 0 -0.19151990927813439 0.45176941741869409 0 -0.19484146563193599 0.45341776862387212 0 -0.19341195894231381 0.44858038208251649 0 -0.19341195894231381 0.44858038208251649 0 -0.19151990927813439 0.45176941741869409 0 -0.18989534256484439 0.44843616355780008 0 -0.18786125083322749 0.45540201668919972 0 -0.19151990927813439 0.45176941741869409 0 -0.18989534256484439 0.44843616355780008 0 -0.1927286986023066 0.44626825972802991 0 -0.18989534256484439 0.44843616355780008 0 -0.1927286986023066 0.44626825972802991 0 -0.19861301385370381 0.42885402643194209 0 -0.18603435475902999 0.42361490032387272 0 -0.1927286986023066 0.44626825972802991 0 -0.19861301385370381 0.42885402643194209 0 -0.21318705423731721 0.43061482720998251 0 -0.1927286986023066 0.44626825972802991 0 -0.18603435475902999 0.42361490032387272 0 -0.19861301385370381 0.42885402643194209 0 -0.2025019478161624 0.41491811846588472 0 -0.18603435475902999 0.42361490032387272 0 -0.2025019478161624 0.41491811846588472 0 -0.19282976104704649 0.40332041628484228 0 -0.18603435475902999 0.42361490032387272 0 -0.2025019478161624 0.41491811846588472 0 -0.21318705423731721 0.43061482720998251 0 -0.218686279825863 0.40303055603440668 0 -0.19861301385370381 0.42885402643194209 0 -0.2025019478161624 0.41491811846588472 0 -0.21318705423731721 0.43061482720998251 0 -0.21318705423731721 0.43061482720998251 0 -0.2336454098723296 0.41496139469193788 0 -0.22014910664476089 0.43932008719733301 0 -0.21318705423731721 0.43061482720998251 0 -0.2336454098723296 0.41496139469193788 0 -0.2306437746395377 0.44307690351580792 0 -0.22014910664476089 0.43932008719733301 0 -0.2336454098723296 0.41496139469193788 0 -0.2306437746395377 0.44307690351580792 0 -0.2336454098723296 0.41496139469193788 0 -0.21318705423731721 0.43061482720998251 0 -0.2336454098723296 0.41496139469193788 0 -0.218686279825863 0.40303055603440668 0 -0.25423002637629721 0.39803594308880452 0 -0.2336454098723296 0.41496139469193788 0 -0.25423002637629721 0.39803594308880452 0 -0.25222476713975228 0.41786780965906489 0 -0.2336454098723296 0.41496139469193788 0 -0.25222476713975228 0.41786780965906489 0 -0.2336454098723296 0.41496139469193788 0 -0.2418724413698328 0.43010905782055631 0 -0.2306437746395377 0.44307690351580792 0 -0.2336454098723296 0.41496139469193788 0 -0.2418724413698328 0.43010905782055631 0 -0.25425103563380558 0.4393257868306647 0 -0.24074362306716671 0.44038094971462122 0 -0.2418724413698328 0.43010905782055631 0 -0.25990299504945219 0.37079366342260889 0 -0.23649923515691371 0.38823038184470521 0 -0.23649923515691371 0.38823038184470521 0 -0.23892577207309579 0.36550166406681622 0 -0.25423002637629721 0.39803594308880452 0 -0.25793729071746702 0.38505990715513849 0 -0.23649923515691371 0.38823038184470521 0 -0.23649923515691371 0.38823038184470521 0 -0.23184905500024541 0.3714823796135826 0 -0.23892577207309579 0.36550166406681622 0 -0.25423002637629721 0.39803594308880452 0 -0.2336454098723296 0.41496139469193788 0 -0.23649923515691371 0.38823038184470521 0 -0.2336454098723296 0.41496139469193788 0 -0.23649923515691371 0.38823038184470521 0 -0.2336454098723296 0.41496139469193788 0 -0.23649923515691371 0.38823038184470521 0 -0.23024868185702441 0.39288728904136239 0 -0.2336454098723296 0.41496139469193788 0 -0.23024868185702441 0.39288728904136239 0 -0.218686279825863 0.40303055603440668 0 -0.23024868185702441 0.39288728904136239 0 -0.22215560746446991 0.39364248984529121 0 -0.218686279825863 0.40303055603440668 0 -0.22215560746446991 0.39364248984529121 0 -0.2164637117542012 0.39010063433764242 0 -0.218686279825863 0.40303055603440668 0 -0.23024868185702441 0.39288728904136239 0 -0.22215560746446991 0.39364248984529121 0 -0.22503616247182789 0.3870568850112055 0 -0.22503616247182789 0.3870568850112055 0 -0.2183151608047513 0.38145323653638608 0 -0.2164637117542012 0.39010063433764242 0 -0.22215560746446991 0.39364248984529121 0 -0.22503616247182789 0.3870568850112055 0 -0.2164637117542012 0.39010063433764242 0 -0.23649923515691371 0.38823038184470521 0 -0.22551173521412601 0.37719461720837449 0 -0.23184905500024541 0.3714823796135826 0 -0.23649923515691371 0.38823038184470521 0 -0.22503616247182789 0.3870568850112055 0 -0.22551173521412601 0.37719461720837449 0 -0.23649923515691371 0.38823038184470521 0 -0.23024868185702441 0.39288728904136239 0 -0.22503616247182789 0.3870568850112055 0 -0.23649923515691371 0.38823038184470521 0 -0.23024868185702441 0.39288728904136239 0 -0.22503616247182789 0.3870568850112055 0 -0.22551173521412601 0.37719461720837449 0 -0.2183151608047513 0.38145323653638608 0 -0.22551173521412601 0.37719461720837449 0 -0.2183151608047513 0.38145323653638608 0 -0.21497334145799321 0.37303930739668839 0 -0.2183151608047513 0.38145323653638608 0 -0.2075451679666481 0.38220941622107751 0 -0.21497334145799321 0.37303930739668839 0 -0.2183151608047513 0.38145323653638608 0 -0.2164637117542012 0.39010063433764242 0 -0.2075451679666481 0.38220941622107751 0 -0.2075451679666481 0.38220941622107751 0 -0.2060040903927163 0.39661312646303398 0 -0.19753114676941741 0.38957032741724951 0 -0.2164637117542012 0.39010063433764242 0 -0.2075451679666481 0.38220941622107751 0 -0.2060040903927163 0.39661312646303398 0 -0.2075451679666481 0.38220941622107751 0 -0.20392822220867929 0.37459831651283237 0 -0.21497334145799321 0.37303930739668839 0 -0.2025019478161624 0.41491811846588472 0 -0.218686279825863 0.40303055603440668 0 -0.2060040903927163 0.39661312646303398 0 -0.2164637117542012 0.39010063433764242 0 -0.218686279825863 0.40303055603440668 0 -0.2060040903927163 0.39661312646303398 0 -0.19282976104704649 0.40332041628484228 0 -0.19753114676941741 0.38957032741724951 0 -0.18456658648578819 0.38708998539974188 0 -0.2025019478161624 0.41491811846588472 0 -0.2060040903927163 0.39661312646303398 0 -0.19282976104704649 0.40332041628484228 0 -0.2060040903927163 0.39661312646303398 0 -0.19282976104704649 0.40332041628484228 0 -0.19753114676941741 0.38957032741724951 0 -0.2075451679666481 0.38220941622107751 0 -0.1967101279548879 0.37861869271755128 0 -0.20392822220867929 0.37459831651283237 0 -0.2075451679666481 0.38220941622107751 0 -0.1967101279548879 0.37861869271755128 0 -0.19753114676941741 0.38957032741724951 0 -0.1967101279548879 0.37861869271755128 0 -0.19753114676941741 0.38957032741724951 0 -0.18456658648578819 0.38708998539974188 0 -0.1967101279548879 0.37861869271755128 0 -0.18792107702857769 0.37627131316999668 0 -0.18456658648578819 0.38708998539974188 0 -0.1967101279548879 0.37861869271755128 0 -0.18792107702857769 0.37627131316999668 0 -0.19762373801409999 0.37068302711254503 0 -0.17264566707246951 0.37830818151556023 0 -0.17934001091574969 0.40096154091971642 0 -0.18792107702857769 0.37627131316999668 0 -0.1806850813095619 0.37892267644127109 0 -0.1776069946514123 0.37402122567978568 0 -0.18456658648578819 0.38708998539974188 0 -0.17264566707246951 0.37830818151556023 0 -0.17934001091574969 0.40096154091971642 0 -0.17264566707246951 0.37830818151556023 0 -0.16639641234230149 0.39232703337795238 0 -0.17934001091574969 0.40096154091971642 0 -0.18792107702857769 0.37627131316999668 0 -0.1806850813095619 0.37892267644127109 0 -0.18456658648578819 0.38708998539974188 0 -0.1806850813095619 0.37892267644127109 0 -0.18456658648578819 0.38708998539974188 0 -0.17264566707246951 0.37830818151556023 0 -0.1806850813095619 0.37892267644127109 0 -0.17264566707246951 0.37830818151556023 0 -0.1776069946514123 0.37402122567978568 0 -0.1621766714739746 0.38338314794179179 0 -0.15356758020700009 0.37575395794857208 0 -0.15448584707391419 0.39221828967308148 0 -0.17264566707246951 0.37830818151556023 0 -0.1621766714739746 0.38338314794179179 0 -0.16358531049565839 0.37327502737933199 0 -0.17264566707246951 0.37830818151556023 0 -0.1621766714739746 0.38338314794179179 0 -0.16639641234230149 0.39232703337795238 0 -0.1621766714739746 0.38338314794179179 0 -0.16639641234230149 0.39232703337795238 0 -0.15448584707391419 0.39221828967308148 0 -0.1621766714739746 0.38338314794179179 0 -0.15356758020700009 0.37575395794857208 0 -0.16358531049565839 0.37327502737933199 0 -0.16639641234230149 0.39232703337795238 0 -0.17934001091574969 0.40096154091971642 0 -0.1633338651753993 0.40676400683961189 0 -0.16639641234230149 0.39232703337795238 0 -0.1633338651753993 0.40676400683961189 0 -0.15448584707391419 0.39221828967308148 0 -0.19282976104704649 0.40332041628484228 0 -0.18456658648578819 0.38708998539974188 0 -0.17934001091574969 0.40096154091971642 0 -0.17934001091574969 0.40096154091971642 0 -0.18603435475902999 0.42361490032387272 0 -0.1633338651753993 0.40676400683961189 0 -0.17934001091574969 0.40096154091971642 0 -0.18603435475902999 0.42361490032387272 0 -0.19282976104704649 0.40332041628484228 0 -0.17934001091574969 0.40096154091971642 0 -0.18603435475902999 0.42361490032387272 0 -0.1780855795178885 0.43756226830014378 0 -0.18603435475902999 0.42361490032387272 0 -0.16211838942544909 0.42374599526600598 0 -0.1780855795178885 0.43756226830014378 0 -0.1927286986023066 0.44626825972802991 0 -0.18603435475902999 0.42361490032387272 0 -0.1780855795178885 0.43756226830014378 0 -0.16211838942544909 0.42374599526600598 0 -0.1543249030461562 0.4369081031674964 0 -0.18603435475902999 0.42361490032387272 0 -0.16211838942544909 0.42374599526600598 0 -0.1633338651753993 0.40676400683961189 0 -0.16211838942544909 0.42374599526600598 0 -0.1633338651753993 0.40676400683961189 0 -0.1460089764186433 0.40721521661625038 0 -0.16211838942544909 0.42374599526600598 0 -0.1460089764186433 0.40721521661625038 0 -0.14301241816587021 0.42649713866656658 0 -0.16211838942544909 0.42374599526600598 0 -0.14301241816587021 0.42649713866656658 0 -0.1543249030461562 0.4369081031674964 0 -0.14095482231776041 0.44642908377675122 0 -0.14301241816587021 0.42649713866656658 0 -0.1543249030461562 0.4369081031674964 0 -0.14095482231776041 0.44642908377675122 0 -0.14301241816587021 0.42649713866656658 0 -0.12580894219327121 0.42921658845908361 0 -0.14301241816587021 0.42649713866656658 0 -0.12580894219327121 0.42921658845908361 0 -0.13203034976227551 0.41418496649498537 0 -0.1460089764186433 0.40721521661625038 0 -0.14301241816587021 0.42649713866656658 0 -0.13203034976227551 0.41418496649498537 0 -0.13203034976227551 0.41418496649498537 0 -0.1297261769494055 0.39539930848717619 0 -0.11559523508418749 0.41259658024585039 0 -0.1460089764186433 0.40721521661625038 0 -0.13203034976227551 0.41418496649498537 0 -0.1297261769494055 0.39539930848717619 0 -0.1460089764186433 0.40721521661625038 0 -0.1297261769494055 0.39539930848717619 0 -0.1427576486805279 0.38899226324791841 0 -0.13817657368162051 0.37617840897685112 0 -0.1274304421373009 0.36664331726016181 0 -0.1209297984260152 0.38294729372090669 0 -0.1297261769494055 0.39539930848717619 0 -0.13817657368162051 0.37617840897685112 0 -0.1209297984260152 0.38294729372090669 0 -0.1297261769494055 0.39539930848717619 0 -0.13817657368162051 0.37617840897685112 0 -0.1427576486805279 0.38899226324791841 0 -0.1427576486805279 0.38899226324791841 0 -0.15356758020700009 0.37575395794857208 0 -0.15448584707391419 0.39221828967308148 0 -0.13817657368162051 0.37617840897685112 0 -0.1427576486805279 0.38899226324791841 0 -0.15356758020700009 0.37575395794857208 0 -0.1460089764186433 0.40721521661625038 0 -0.1427576486805279 0.38899226324791841 0 -0.15448584707391419 0.39221828967308148 0 -0.1633338651753993 0.40676400683961189 0 -0.1460089764186433 0.40721521661625038 0 -0.15448584707391419 0.39221828967308148 0 -0.14492552716032681 0.35745092923304889 0 -0.14155031870366239 0.33619902497562848 0 -0.15982543320276421 0.34034739036381312 0 -0.13817657368162051 0.37617840897685112 0 -0.15356758020700009 0.37575395794857208 0 -0.14492552716032681 0.35745092923304889 0 -0.15356758020700009 0.37575395794857208 0 -0.14492552716032681 0.35745092923304889 0 -0.16595132322918929 0.35565482211140392 0 -0.13817657368162051 0.37617840897685112 0 -0.14492552716032681 0.35745092923304889 0 -0.1274304421373009 0.36664331726016181 0 -0.14492552716032681 0.35745092923304889 0 -0.12847734196858479 0.35004455283357983 0 -0.14155031870366239 0.33619902497562848 0 -0.14492552716032681 0.35745092923304889 0 -0.1274304421373009 0.36664331726016181 0 -0.12847734196858479 0.35004455283357983 0 -0.12847734196858479 0.35004455283357983 0 -0.14155031870366239 0.33619902497562848 0 -0.11726210176907741 0.33427041112304612 0 -0.13549747948882859 0.31921600665449329 0 -0.14155031870366239 0.33619902497562848 0 -0.11726210176907741 0.33427041112304612 0 -0.13549747948882859 0.31921600665449329 0 -0.14155031870366239 0.33619902497562848 0 -0.15748172559043741 0.31991098456407679 0 -0.14155031870366239 0.33619902497562848 0 -0.15982543320276421 0.34034739036381312 0 -0.15748172559043741 0.31991098456407679 0 -0.15982543320276421 0.34034739036381312 0 -0.17361652850005091 0.33078700794229893 0 -0.1810147764156361 0.34373262975199381 0 -0.15982543320276421 0.34034739036381312 0 -0.15748172559043741 0.31991098456407679 0 -0.17361652850005091 0.33078700794229893 0 -0.15748172559043741 0.31991098456407679 0 -0.17789671518501579 0.31692241985685821 0 -0.1693884757469595 0.3061099555481796 0 -0.15748172559043741 0.31991098456407679 0 -0.17789671518501579 0.31692241985685821 0 -0.17361652850005091 0.33078700794229893 0 -0.17789671518501579 0.31692241985685821 0 -0.1858264755204479 0.32624848488333941 0 -0.17361652850005091 0.33078700794229893 0 -0.17789671518501579 0.31692241985685821 0 -0.1858264755204479 0.32624848488333941 0 -0.19335869417877399 0.31532602574931329 0 -0.1858264755204479 0.32624848488333941 0 -0.17361652850005091 0.33078700794229893 0 -0.1810147764156361 0.34373262975199381 0 -0.1858264755204479 0.32624848488333941 0 -0.1810147764156361 0.34373262975199381 0 -0.19356715217302639 0.33657027942844042 0 -0.1810147764156361 0.34373262975199381 0 -0.17965038308202619 0.35686410242600841 0 -0.19323624762807101 0.35374571707594782 0 -0.1810147764156361 0.34373262975199381 0 -0.17965038308202619 0.35686410242600841 0 -0.16595132322918929 0.35565482211140392 0 -0.15982543320276421 0.34034739036381312 0 -0.1810147764156361 0.34373262975199381 0 -0.16595132322918929 0.35565482211140392 0 -0.14492552716032681 0.35745092923304889 0 -0.15982543320276421 0.34034739036381312 0 -0.16595132322918929 0.35565482211140392 0 -0.15356758020700009 0.37575395794857208 0 -0.16595132322918929 0.35565482211140392 0 -0.16358531049565839 0.37327502737933199 0 -0.17264566707246951 0.37830818151556023 0 -0.16595132322918929 0.35565482211140392 0 -0.17264566707246951 0.37830818151556023 0 -0.16595132322918929 0.35565482211140392 0 -0.16358531049565839 0.37327502737933199 0 -0.17965038308202619 0.35686410242600841 0 -0.16595132322918929 0.35565482211140392 0 -0.1776069946514123 0.37402122567978568 0 -0.1776069946514123 0.37402122567978568 0 -0.19124553496305549 0.36660004267577179 0 -0.19323624762807101 0.35374571707594782 0 -0.1776069946514123 0.37402122567978568 0 -0.19323624762807101 0.35374571707594782 0 -0.17264566707246951 0.37830818151556023 0 -0.16595132322918929 0.35565482211140392 0 -0.1776069946514123 0.37402122567978568 0 -0.17965038308202619 0.35686410242600841 0 -0.1776069946514123 0.37402122567978568 0 -0.19323624762807101 0.35374571707594782 0 -0.18792107702857769 0.37627131316999668 0 -0.1776069946514123 0.37402122567978568 0 -0.19124553496305549 0.36660004267577179 0 -0.18792107702857769 0.37627131316999668 0 -0.19124553496305549 0.36660004267577179 0 -0.19762373801409999 0.37068302711254503 0 -0.19124553496305549 0.36660004267577179 0 -0.20051969880333731 0.3608865273775253 0 -0.19323624762807101 0.35374571707594782 0 -0.20051969880333731 0.3608865273775253 0 -0.19762373801409999 0.37068302711254503 0 -0.20610961751456119 0.36677646261772268 0 -0.19124553496305549 0.36660004267577179 0 -0.20051969880333731 0.3608865273775253 0 -0.19762373801409999 0.37068302711254503 0 -0.1967101279548879 0.37861869271755128 0 -0.19762373801409999 0.37068302711254503 0 -0.20392822220867929 0.37459831651283237 0 -0.19762373801409999 0.37068302711254503 0 -0.20392822220867929 0.37459831651283237 0 -0.20610961751456119 0.36677646261772268 0 -0.1810147764156361 0.34373262975199381 0 -0.19323624762807101 0.35374571707594782 0 -0.19356715217302639 0.33657027942844042 0 -0.20051969880333731 0.3608865273775253 0 -0.19323624762807101 0.35374571707594782 0 -0.20536332290745971 0.3525681752987635 0 -0.19323624762807101 0.35374571707594782 0 -0.20536332290745971 0.3525681752987635 0 -0.2060905969523916 0.34060268491771373 0 -0.22756745692164429 0.35172772666404561 0 -0.2060905969523916 0.34060268491771373 0 -0.21559655833290761 0.35177402231085431 0 -0.22756745692164429 0.35172772666404561 0 -0.2060905969523916 0.34060268491771373 0 -0.20536332290745971 0.3525681752987635 0 -0.21559655833290761 0.35177402231085431 0 -0.2060905969523916 0.34060268491771373 0 -0.20051969880333731 0.3608865273775253 0 -0.20536332290745971 0.3525681752987635 0 -0.21055019094647531 0.35781469609046679 0 -0.20536332290745971 0.3525681752987635 0 -0.21055019094647531 0.35781469609046679 0 -0.21559655833290761 0.35177402231085431 0 -0.21055019094647531 0.35781469609046679 0 -0.21559655833290761 0.35177402231085431 0 -0.21965606901084769 0.35821990911262258 0 -0.20392822220867929 0.37459831651283237 0 -0.20610961751456119 0.36677646261772268 0 -0.21497334145799321 0.37303930739668839 0 -0.21055019094647531 0.35781469609046679 0 -0.20610961751456119 0.36677646261772268 0 -0.21530414371517659 0.36419734563870448 0 -0.20051969880333731 0.3608865273775253 0 -0.21055019094647531 0.35781469609046679 0 -0.20610961751456119 0.36677646261772268 0 -0.21055019094647531 0.35781469609046679 0 -0.21530414371517659 0.36419734563870448 0 -0.21965606901084769 0.35821990911262258 0 -0.20610961751456119 0.36677646261772268 0 -0.21530414371517659 0.36419734563870448 0 -0.21497334145799321 0.37303930739668839 0 -0.21530414371517659 0.36419734563870448 0 -0.21497334145799321 0.37303930739668839 0 -0.22523149964600589 0.36513635297602209 0 -0.22551173521412601 0.37719461720837449 0 -0.21497334145799321 0.37303930739668839 0 -0.22523149964600589 0.36513635297602209 0 -0.22551173521412601 0.37719461720837449 0 -0.23184905500024541 0.3714823796135826 0 -0.22523149964600589 0.36513635297602209 0 -0.23184905500024541 0.3714823796135826 0 -0.23307703291108431 0.36134888197199511 0 -0.22523149964600589 0.36513635297602209 0 -0.23307703291108431 0.36134888197199511 0 -0.22523149964600589 0.36513635297602209 0 -0.225859556903482 0.35813948459264833 0 -0.21530414371517659 0.36419734563870448 0 -0.22523149964600589 0.36513635297602209 0 -0.21965606901084769 0.35821990911262258 0 -0.22523149964600589 0.36513635297602209 0 -0.21965606901084769 0.35821990911262258 0 -0.225859556903482 0.35813948459264833 0 -0.22895490874781371 0.34816148844124328 0 -0.22756745692164429 0.35172772666404561 0 -0.2060905969523916 0.34060268491771373 0 -0.21965606901084769 0.35821990911262258 0 -0.22237574076074931 0.35446959285037022 0 -0.225859556903482 0.35813948459264833 0 -0.21559655833290761 0.35177402231085431 0 -0.22237574076074931 0.35446959285037022 0 -0.22756745692164429 0.35172772666404561 0 -0.21559655833290761 0.35177402231085431 0 -0.21965606901084769 0.35821990911262258 0 -0.22237574076074931 0.35446959285037022 0 -0.22237574076074931 0.35446959285037022 0 -0.225859556903482 0.35813948459264833 0 -0.22756745692164429 0.35172772666404561 0 -0.22895490874781371 0.34816148844124328 0 -0.23995558606585499 0.34870921343961547 0 -0.23352934899135261 0.34289662922847441 0 -0.22895490874781371 0.34816148844124328 0 -0.23352934899135261 0.34289662922847441 0 -0.2294321259938582 0.34279626481050712 0 -0.23307703291108431 0.36134888197199511 0 -0.225859556903482 0.35813948459264833 0 -0.22756745692164429 0.35172772666404561 0 -0.22895490874781371 0.34816148844124328 0 -0.22756745692164429 0.35172772666404561 0 -0.2490443168908972 0.36285276841037728 0 -0.23307703291108431 0.36134888197199511 0 -0.22756745692164429 0.35172772666404561 0 -0.2490443168908972 0.36285276841037728 0 -0.22895490874781371 0.34816148844124328 0 -0.23995558606585499 0.34870921343961547 0 -0.2490443168908972 0.36285276841037728 0 -0.22895490874781371 0.34816148844124328 0 -0.2490443168908972 0.36285276841037728 0 -0.22756745692164429 0.35172772666404561 0 -0.2490443168908972 0.36285276841037728 0 -0.23995558606585499 0.34870921343961547 0 -0.23871228963680841 0.34137963821426159 0 -0.23352934899135261 0.34289662922847441 0 -0.23995558606585499 0.34870921343961547 0 -0.24254503740626021 0.34531523173865158 0 -0.23871228963680841 0.34137963821426159 0 -0.24254503740626021 0.34531523173865158 0 -0.2470327113808182 0.34946706963379659 0 -0.24471754760956649 0.34046900366522043 0 -0.23995558606585499 0.34870921343961547 0 -0.24254503740626021 0.34531523173865158 0 -0.2470327113808182 0.34946706963379659 0 -0.23995558606585499 0.34870921343961547 0 -0.2470327113808182 0.34946706963379659 0 -0.2490443168908972 0.36285276841037728 0 -0.25990299504945219 0.37079366342260889 0 -0.2490443168908972 0.36285276841037728 0 -0.23892577207309579 0.36550166406681622 0 -0.25990299504945219 0.37079366342260889 0 -0.23649923515691371 0.38823038184470521 0 -0.23892577207309579 0.36550166406681622 0 -0.23307703291108431 0.36134888197199511 0 -0.2490443168908972 0.36285276841037728 0 -0.23892577207309579 0.36550166406681622 0 -0.23184905500024541 0.3714823796135826 0 -0.23307703291108431 0.36134888197199511 0 -0.23892577207309579 0.36550166406681622 0 -0.23772765194929049 0.32463446974835219 0 -0.24465914262733671 0.31699021206271322 0 -0.23181681357634859 0.32118438158450352 0 -0.23772765194929049 0.32463446974835219 0 -0.24418205740756599 0.32340149563594139 0 -0.24432152654123129 0.32855304012627767 0 -0.25152306786361323 0.32429228130405668 0 -0.24465914262733671 0.31699021206271322 0 -0.24418205740756599 0.32340149563594139 0 -0.23772765194929049 0.32463446974835219 0 -0.24465914262733671 0.31699021206271322 0 -0.24418205740756599 0.32340149563594139 0 -0.25152306786361323 0.32429228130405668 0 -0.24418205740756599 0.32340149563594139 0 -0.24432152654123129 0.32855304012627767 0 -0.25119272323960101 0.33192293364793313 0 -0.25152306786361323 0.32429228130405668 0 -0.24432152654123129 0.32855304012627767 0 -0.25119272323960101 0.33192293364793313 0 -0.24544474509854561 0.33449726592790441 0 -0.24432152654123129 0.32855304012627767 0 -0.25066386580893701 0.33955699069212092 0 -0.25119272323960101 0.33192293364793313 0 -0.24544474509854561 0.33449726592790441 0 -0.24544474509854561 0.33449726592790441 0 -0.24432152654123129 0.32855304012627767 0 -0.23951271931128321 0.33387808873519759 0 -0.25066386580893701 0.33955699069212092 0 -0.2470327113808182 0.34946706963379659 0 -0.24471754760956649 0.34046900366522043 0 -0.25066386580893701 0.33955699069212092 0 -0.24544474509854561 0.33449726592790441 0 -0.24471754760956649 0.34046900366522043 0 -0.24544474509854561 0.33449726592790441 0 -0.24471754760956649 0.34046900366522043 0 -0.23951271931128321 0.33387808873519759 0 -0.24254503740626021 0.34531523173865158 0 -0.24471754760956649 0.34046900366522043 0 -0.23871228963680841 0.34137963821426159 0 -0.24471754760956649 0.34046900366522043 0 -0.23871228963680841 0.34137963821426159 0 -0.23951271931128321 0.33387808873519759 0 -0.23871228963680841 0.34137963821426159 0 -0.23951271931128321 0.33387808873519759 0 -0.23432361253732739 0.33592858788272772 0 -0.23871228963680841 0.34137963821426159 0 -0.23432361253732739 0.33592858788272772 0 -0.23352934899135261 0.34289662922847441 0 -0.23772765194929049 0.32463446974835219 0 -0.24432152654123129 0.32855304012627767 0 -0.23951271931128321 0.33387808873519759 0 -0.23772765194929049 0.32463446974835219 0 -0.23951271931128321 0.33387808873519759 0 -0.23314079541859239 0.33071237225835243 0 -0.23951271931128321 0.33387808873519759 0 -0.23314079541859239 0.33071237225835243 0 -0.23432361253732739 0.33592858788272772 0 -0.22895490874781371 0.34816148844124328 0 -0.2215174287681361 0.33725063228681312 0 -0.20886550060472969 0.33347020847210979 0 -0.22895490874781371 0.34816148844124328 0 -0.20886550060472969 0.33347020847210979 0 -0.23314079541859239 0.33071237225835243 0 -0.23432361253732739 0.33592858788272772 0 -0.22721237179309009 0.33360626116075681 0 -0.23314079541859239 0.33071237225835243 0 -0.22721237179309009 0.33360626116075681 0 -0.22926722639507541 0.32632982247663539 0 -0.22721237179309009 0.33360626116075681 0 -0.2232411984837378 0.32680072063311849 0 -0.22926722639507541 0.32632982247663539 0 -0.23352934899135261 0.34289662922847441 0 -0.23002922981342491 0.33946155307106329 0 -0.2294321259938582 0.34279626481050712 0 -0.23432361253732739 0.33592858788272772 0 -0.22721237179309009 0.33360626116075681 0 -0.23002922981342491 0.33946155307106329 0 -0.23432361253732739 0.33592858788272772 0 -0.23352934899135261 0.34289662922847441 0 -0.23002922981342491 0.33946155307106329 0 -0.22721237179309009 0.33360626116075681 0 -0.23002922981342491 0.33946155307106329 0 -0.22679658542314371 0.34037242525326827 0 -0.22895490874781371 0.34816148844124328 0 -0.22679658542314371 0.34037242525326827 0 -0.2294321259938582 0.34279626481050712 0 -0.23002922981342491 0.33946155307106329 0 -0.22679658542314371 0.34037242525326827 0 -0.2294321259938582 0.34279626481050712 0 -0.22895490874781371 0.34816148844124328 0 -0.22679658542314371 0.34037242525326827 0 -0.2215174287681361 0.33725063228681312 0 -0.22721237179309009 0.33360626116075681 0 -0.22679658542314371 0.34037242525326827 0 -0.2215174287681361 0.33725063228681312 0 -0.22721237179309009 0.33360626116075681 0 -0.22249948328287231 0.33194599246062678 0 -0.2232411984837378 0.32680072063311849 0 -0.22721237179309009 0.33360626116075681 0 -0.2215174287681361 0.33725063228681312 0 -0.22249948328287231 0.33194599246062678 0 -0.2215174287681361 0.33725063228681312 0 -0.22249948328287231 0.33194599246062678 0 -0.21802693408652521 0.33012635576181931 0 -0.22249948328287231 0.33194599246062678 0 -0.2232411984837378 0.32680072063311849 0 -0.21802693408652521 0.33012635576181931 0 -0.24465914262733671 0.31699021206271322 0 -0.22213231575134551 0.31625944190172761 0 -0.22750070860931099 0.30929513620247068 0 -0.24465914262733671 0.31699021206271322 0 -0.23181681357634859 0.32118438158450352 0 -0.22213231575134551 0.31625944190172761 0 -0.2263237339942846 0.32239641228461419 0 -0.2232411984837378 0.32680072063311849 0 -0.22213231575134551 0.31625944190172761 0 -0.24465914262733671 0.31699021206271322 0 -0.22213231575134551 0.31625944190172761 0 -0.2232411984837378 0.32680072063311849 0 -0.22213231575134551 0.31625944190172761 0 -0.21802693408652521 0.33012635576181931 0 -0.2263237339942846 0.32239641228461419 0 -0.2232411984837378 0.32680072063311849 0 -0.22926722639507541 0.32632982247663539 0 -0.23772765194929049 0.32463446974835219 0 -0.23314079541859239 0.33071237225835243 0 -0.22926722639507541 0.32632982247663539 0 -0.23772765194929049 0.32463446974835219 0 -0.22926722639507541 0.32632982247663539 0 -0.23181681357634859 0.32118438158450352 0 -0.2263237339942846 0.32239641228461419 0 -0.22926722639507541 0.32632982247663539 0 -0.23181681357634859 0.32118438158450352 0 -0.2263237339942846 0.32239641228461419 0 -0.23181681357634859 0.32118438158450352 0 -0.22213231575134551 0.31625944190172761 0 -0.22213231575134551 0.31625944190172761 0 -0.22750070860931099 0.30929513620247068 0 -0.22213231575134551 0.31625944190172761 0 -0.19335869417877399 0.31532602574931329 0 -0.20802039096873051 0.30903489786767951 0 -0.22213231575134551 0.31625944190172761 0 -0.2057132715870591 0.3227357859200175 0 -0.19335869417877399 0.31532602574931329 0 -0.22213231575134551 0.31625944190172761 0 -0.20886550060472969 0.33347020847210979 0 -0.22213231575134551 0.31625944190172761 0 -0.21802693408652521 0.33012635576181931 0 -0.20886550060472969 0.33347020847210979 0 -0.22213231575134551 0.31625944190172761 0 -0.19335869417877399 0.31532602574931329 0 -0.22213231575134551 0.31625944190172761 0 -0.2057132715870591 0.3227357859200175 0 -0.20886550060472969 0.33347020847210979 0 -0.2057132715870591 0.3227357859200175 0 -0.20886550060472969 0.33347020847210979 0 -0.19849657581338709 0.3258874675569195 0 -0.22895490874781371 0.34816148844124328 0 -0.20886550060472969 0.33347020847210979 0 -0.2060905969523916 0.34060268491771373 0 -0.2215174287681361 0.33725063228681312 0 -0.21802693408652521 0.33012635576181931 0 -0.20886550060472969 0.33347020847210979 0 -0.20886550060472969 0.33347020847210979 0 -0.19849657581338709 0.3258874675569195 0 -0.19323624762807101 0.35374571707594782 0 -0.20886550060472969 0.33347020847210979 0 -0.19323624762807101 0.35374571707594782 0 -0.20886550060472969 0.33347020847210979 0 -0.2060905969523916 0.34060268491771373 0 -0.19323624762807101 0.35374571707594782 0 -0.20886550060472969 0.33347020847210979 0 -0.19356715217302639 0.33657027942844042 0 -0.20886550060472969 0.33347020847210979 0 -0.19356715217302639 0.33657027942844042 0 -0.19849657581338709 0.3258874675569195 0 -0.1858264755204479 0.32624848488333941 0 -0.19356715217302639 0.33657027942844042 0 -0.19849657581338709 0.3258874675569195 0 -0.2057132715870591 0.3227357859200175 0 -0.19849657581338709 0.3258874675569195 0 -0.19335869417877399 0.31532602574931329 0 -0.1858264755204479 0.32624848488333941 0 -0.19849657581338709 0.3258874675569195 0 -0.19335869417877399 0.31532602574931329 0 -0.19335869417877399 0.31532602574931329 0 -0.19633137056187569 0.30514849596893012 0 -0.18560731489089591 0.30226758541088078 0 -0.19633137056187569 0.30514849596893012 0 -0.19833908220910229 0.29396547484784691 0 -0.18560731489089591 0.30226758541088078 0 -0.19633137056187569 0.30514849596893012 0 -0.19833908220910229 0.29396547484784691 0 -0.20802039096873051 0.30903489786767951 0 -0.19335869417877399 0.31532602574931329 0 -0.19633137056187569 0.30514849596893012 0 -0.20802039096873051 0.30903489786767951 0 -0.19833908220910229 0.29396547484784691 0 -0.1946710217981561 0.2791568333632316 0 -0.18503893409647981 0.28713495750431739 0 -0.19833908220910229 0.29396547484784691 0 -0.18503893409647981 0.28713495750431739 0 -0.18560731489089591 0.30226758541088078 0 -0.19833908220910229 0.29396547484784691 0 -0.20581255411954419 0.2845752464425676 0 -0.1946710217981561 0.2791568333632316 0 -0.19833908220910229 0.29396547484784691 0 -0.21171951300332881 0.29131081601362657 0 -0.2210403779140194 0.30134387770495757 0 -0.21171951300332881 0.29131081601362657 0 -0.2210403779140194 0.30134387770495757 0 -0.22168603777064949 0.28535866505913432 0 -0.20581255411954419 0.2845752464425676 0 -0.21171951300332881 0.29131081601362657 0 -0.22168603777064949 0.28535866505913432 0 -0.19833908220910229 0.29396547484784691 0 -0.20581255411954419 0.2845752464425676 0 -0.21171951300332881 0.29131081601362657 0 -0.19833908220910229 0.29396547484784691 0 -0.2210403779140194 0.30134387770495757 0 -0.19833908220910229 0.29396547484784691 0 -0.20802039096873051 0.30903489786767951 0 -0.2210403779140194 0.30134387770495757 0 -0.22213231575134551 0.31625944190172761 0 -0.20802039096873051 0.30903489786767951 0 -0.21967344831085159 0.30898333841920878 0 -0.20802039096873051 0.30903489786767951 0 -0.21967344831085159 0.30898333841920878 0 -0.2210403779140194 0.30134387770495757 0 -0.2210403779140194 0.30134387770495757 0 -0.24374167361893639 0.30872228056206852 0 -0.22213231575134551 0.31625944190172761 0 -0.21967344831085159 0.30898333841920878 0 -0.22750070860931099 0.30929513620247068 0 -0.21967344831085159 0.30898333841920878 0 -0.22750070860931099 0.30929513620247068 0 -0.2210403779140194 0.30134387770495757 0 -0.2210403779140194 0.30134387770495757 0 -0.23650280834412299 0.29238226648786231 0 -0.24374167361893639 0.30872228056206852 0 -0.22750070860931099 0.30929513620247068 0 -0.2210403779140194 0.30134387770495757 0 -0.24374167361893639 0.30872228056206852 0 -0.2210403779140194 0.30134387770495757 0 -0.22168603777064949 0.28535866505913432 0 -0.23650280834412299 0.29238226648786231 0 -0.22168603777064949 0.28535866505913432 0 -0.23650280834412299 0.29238226648786231 0 -0.2347484234482031 0.27880087634500689 0 -0.25407657243824489 0.28913264405190131 0 -0.23650280834412299 0.29238226648786231 0 -0.2347484234482031 0.27880087634500689 0 -0.2501910059312894 0.30158446863025279 0 -0.25407657243824489 0.28913264405190131 0 -0.23650280834412299 0.29238226648786231 0 -0.24465914262733671 0.31699021206271322 0 -0.22750070860931099 0.30929513620247068 0 -0.24374167361893639 0.30872228056206852 0 -0.2501910059312894 0.30158446863025279 0 -0.23650280834412299 0.29238226648786231 0 -0.24374167361893639 0.30872228056206852 0 -0.25407657243824489 0.28913264405190131 0 -0.24171017555263449 0.26216460468462471 0 -0.2347484234482031 0.27880087634500689 0 -0.25407657243824489 0.28913264405190131 0 -0.24171017555263449 0.26216460468462471 0 -0.22168603777064949 0.28535866505913432 0 -0.2347484234482031 0.27880087634500689 0 -0.21867692701501659 0.26933535403505787 0 -0.24171017555263449 0.26216460468462471 0 -0.2347484234482031 0.27880087634500689 0 -0.21867692701501659 0.26933535403505787 0 -0.24171017555263449 0.26216460468462471 0 -0.21867692701501659 0.26933535403505787 0 -0.21365426342473709 0.2496874146368894 0 -0.21867692701501659 0.26933535403505787 0 -0.19626025269296349 0.25781805234130623 0 -0.21365426342473709 0.2496874146368894 0 -0.20581255411954419 0.2845752464425676 0 -0.22168603777064949 0.28535866505913432 0 -0.21867692701501659 0.26933535403505787 0 -0.20581255411954419 0.2845752464425676 0 -0.21867692701501659 0.26933535403505787 0 -0.19626025269296349 0.25781805234130623 0 -0.20581255411954419 0.2845752464425676 0 -0.1946710217981561 0.2791568333632316 0 -0.19626025269296349 0.25781805234130623 0 -0.18790428587269081 0.27229043568012001 0 -0.1946710217981561 0.2791568333632316 0 -0.19626025269296349 0.25781805234130623 0 -0.20581255411954419 0.2845752464425676 0 -0.19626025269296349 0.25781805234130623 0 -0.18790428587269081 0.27229043568012001 0 -0.1946710217981561 0.2791568333632316 0 -0.18503893409647981 0.28713495750431739 0 -0.18790428587269081 0.27229043568012001 0 -0.19626025269296349 0.25781805234130623 0 -0.18101791975181741 0.24719309672024251 0 -0.18790428587269081 0.27229043568012001 0 -0.16921014172269569 0.2632011156635764 0 -0.18101791975181741 0.24719309672024251 0 -0.18790428587269081 0.27229043568012001 0 -0.18101791975181741 0.24719309672024251 0 -0.16921014172269569 0.2632011156635764 0 -0.16577386047382259 0.24751986018205691 0 -0.18101791975181741 0.24719309672024251 0 -0.16921014172269569 0.2632011156635764 0 -0.15294642574990741 0.25604946101299991 0 -0.16577386047382259 0.24751986018205691 0 -0.16921014172269569 0.2632011156635764 0 -0.15294642574990741 0.25604946101299991 0 -0.1487922411418949 0.27498077624073741 0 -0.16921014172269569 0.2632011156635764 0 -0.16944113594868171 0.28042913491245453 0 -0.1487922411418949 0.27498077624073741 0 -0.18790428587269081 0.27229043568012001 0 -0.16921014172269569 0.2632011156635764 0 -0.16944113594868171 0.28042913491245453 0 -0.18790428587269081 0.27229043568012001 0 -0.16944113594868171 0.28042913491245453 0 -0.18503893409647981 0.28713495750431739 0 -0.18503893409647981 0.28713495750431739 0 -0.18560731489089591 0.30226758541088078 0 -0.17060413129191321 0.29426357650997781 0 -0.16944113594868171 0.28042913491245453 0 -0.18503893409647981 0.28713495750431739 0 -0.17060413129191321 0.29426357650997781 0 -0.17789671518501579 0.31692241985685821 0 -0.18560731489089591 0.30226758541088078 0 -0.1693884757469595 0.3061099555481796 0 -0.18560731489089591 0.30226758541088078 0 -0.1693884757469595 0.3061099555481796 0 -0.17060413129191321 0.29426357650997781 0 -0.17789671518501579 0.31692241985685821 0 -0.19335869417877399 0.31532602574931329 0 -0.18560731489089591 0.30226758541088078 0 -0.15748172559043741 0.31991098456407679 0 -0.1693884757469595 0.3061099555481796 0 -0.14354479577654911 0.29537624917405653 0 -0.1693884757469595 0.3061099555481796 0 -0.17060413129191321 0.29426357650997781 0 -0.14354479577654911 0.29537624917405653 0 -0.16944113594868171 0.28042913491245453 0 -0.14354479577654911 0.29537624917405653 0 -0.16944113594868171 0.28042913491245453 0 -0.17060413129191321 0.29426357650997781 0 -0.14354479577654911 0.29537624917405653 0 -0.16944113594868171 0.28042913491245453 0 -0.14354479577654911 0.29537624917405653 0 -0.1487922411418949 0.27498077624073741 0 -0.13549747948882859 0.31921600665449329 0 -0.15748172559043741 0.31991098456407679 0 -0.14354479577654911 0.29537624917405653 0 -0.13549747948882859 0.31921600665449329 0 -0.14354479577654911 0.29537624917405653 0 -0.1176484556044165 0.31032336343565847 0 -0.14354479577654911 0.29537624917405653 0 -0.1176484556044165 0.31032336343565847 0 -0.14354479577654911 0.29537624917405653 0 -0.1224871795409808 0.28554424327362887 0 -0.1176484556044165 0.31032336343565847 0 -0.14354479577654911 0.29537624917405653 0 -0.1487922411418949 0.27498077624073741 0 -0.1224871795409808 0.28554424327362887 0 -0.13017708575080941 0.26313238858902233 0 -0.1487922411418949 0.27498077624073741 0 -0.1224871795409808 0.28554424327362887 0 -0.13017708575080941 0.26313238858902233 0 -0.15294642574990741 0.25604946101299991 0 -0.1318290496093541 0.2355433548754689 0 -0.13017708575080941 0.26313238858902233 0 -0.15294642574990741 0.25604946101299991 0 -0.1487922411418949 0.27498077624073741 0 -0.1116749919752773 0.27150366227494088 0 -0.1038473842253598 0.28387377903879202 0 -0.091949052905699658 0.27264199756556767 0 -0.1118890512575265 0.25409267622051801 0 -0.1116749919752773 0.27150366227494088 0 -0.091949052905699658 0.27264199756556767 0 -0.1118890512575265 0.25409267622051801 0 -0.091949052905699658 0.27264199756556767 0 -0.091615337555515847 0.25249170529676312 0 -0.1118890512575265 0.25409267622051801 0 -0.091949052905699658 0.27264199756556767 0 -0.13017708575080941 0.26313238858902233 0 -0.1118890512575265 0.25409267622051801 0 -0.1116749919752773 0.27150366227494088 0 -0.13017708575080941 0.26313238858902233 0 -0.1118890512575265 0.25409267622051801 0 -0.1318290496093541 0.2355433548754689 0 -0.1116749919752773 0.27150366227494088 0 -0.1224871795409808 0.28554424327362887 0 -0.1038473842253598 0.28387377903879202 0 -0.13017708575080941 0.26313238858902233 0 -0.1116749919752773 0.27150366227494088 0 -0.1224871795409808 0.28554424327362887 0 -0.1224871795409808 0.28554424327362887 0 -0.10480736928898381 0.30131711192146821 0 -0.1038473842253598 0.28387377903879202 0 -0.1224871795409808 0.28554424327362887 0 -0.1176484556044165 0.31032336343565847 0 -0.10480736928898381 0.30131711192146821 0 -0.10480736928898381 0.30131711192146821 0 -0.092267915023837327 0.29189542678400271 0 -0.092586777141973609 0.31114885600243758 0 -0.1176484556044165 0.31032336343565847 0 -0.10480736928898381 0.30131711192146821 0 -0.093205358881208095 0.31553296539728459 0 -0.10480736928898381 0.30131711192146821 0 -0.092586777141973609 0.31114885600243758 0 -0.093205358881208095 0.31553296539728459 0 -0.1038473842253598 0.28387377903879202 0 -0.092267915023837327 0.29189542678400271 0 -0.091949052905699658 0.27264199756556767 0 -0.10480736928898381 0.30131711192146821 0 -0.1038473842253598 0.28387377903879202 0 -0.092267915023837327 0.29189542678400271 0 -0.092267915023837327 0.29189542678400271 0 -0.07671563351634017 0.28681299128639748 0 -0.091949052905699658 0.27264199756556767 0 -0.092267915023837327 0.29189542678400271 0 -0.091949052905699658 0.27264199756556767 0 -0.092267915023837327 0.29189542678400271 0 -0.082318547619875365 0.29819375987902202 0 -0.07671563351634017 0.28681299128639748 0 -0.092267915023837327 0.29189542678400271 0 -0.092586777141973609 0.31114885600243758 0 -0.084468978856364757 0.30640917949511598 0 -0.092267915023837327 0.29189542678400271 0 -0.092586777141973609 0.31114885600243758 0 -0.092586777141973609 0.31114885600243758 0 -0.084468978856364757 0.30640917949511598 0 -0.083993836579578651 0.31475386006514261 0 -0.092267915023837327 0.29189542678400271 0 -0.082318547619875365 0.29819375987902202 0 -0.084468978856364757 0.30640917949511598 0 -0.082318547619875365 0.29819375987902202 0 -0.084468978856364757 0.30640917949511598 0 -0.073566412930715017 0.30682457142832292 0 -0.084468978856364757 0.30640917949511598 0 -0.076667783476822585 0.31363971355837078 0 -0.083993836579578651 0.31475386006514261 0 -0.084468978856364757 0.30640917949511598 0 -0.073566412930715017 0.30682457142832292 0 -0.076667783476822585 0.31363971355837078 0 -0.082318547619875365 0.29819375987902202 0 -0.073566412930715017 0.30682457142832292 0 -0.07671563351634017 0.28681299128639748 0 -0.073566412930715017 0.30682457142832292 0 -0.07671563351634017 0.28681299128639748 0 -0.061482214126981329 0.30098398500722789 0 -0.073566412930715017 0.30682457142832292 0 -0.065976656285432034 0.31365274647757158 0 -0.076667783476822585 0.31363971355837078 0 -0.073566412930715017 0.30682457142832292 0 -0.061482214126981329 0.30098398500722789 0 -0.065976656285432034 0.31365274647757158 0 -0.07671563351634017 0.28681299128639748 0 -0.061498357452394348 0.28842469210724081 0 -0.061482214126981329 0.30098398500722789 0 -0.07671563351634017 0.28681299128639748 0 -0.061482214126981329 0.30098398500722789 0 -0.07671563351634017 0.28681299128639748 0 -0.068877819069734753 0.27918051062387378 0 -0.061498357452394348 0.28842469210724081 0 -0.068877819069734753 0.27918051062387378 0 -0.059485389045444099 0.2792821225253786 0 -0.061498357452394348 0.28842469210724081 0 -0.07671563351634017 0.28681299128639748 0 -0.068877819069734753 0.27918051062387378 0 -0.079433961374043224 0.26986643085370371 0 -0.068877819069734753 0.27918051062387378 0 -0.068744873895500991 0.2697642892447556 0 -0.059485389045444099 0.2792821225253786 0 -0.068744873895500991 0.2697642892447556 0 -0.059485389045444099 0.2792821225253786 0 -0.060045448091731971 0.26839569427472709 0 -0.068877819069734753 0.27918051062387378 0 -0.068744873895500991 0.2697642892447556 0 -0.079433961374043224 0.26986643085370371 0 -0.07671563351634017 0.28681299128639748 0 -0.079433961374043224 0.26986643085370371 0 -0.091949052905699658 0.27264199756556767 0 -0.07671563351634017 0.28681299128639748 0 -0.091949052905699658 0.27264199756556767 0 -0.091615337555515847 0.25249170529676312 0 -0.075451291250047903 0.25694362580790031 0 -0.080483036429240096 0.2440327700363463 0 -0.079433961374043224 0.26986643085370371 0 -0.091949052905699658 0.27264199756556767 0 -0.091615337555515847 0.25249170529676312 0 -0.091949052905699658 0.27264199756556767 0 -0.091615337555515847 0.25249170529676312 0 -0.079433961374043224 0.26986643085370371 0 -0.091615337555515847 0.25249170529676312 0 -0.075451291250047903 0.25694362580790031 0 -0.068744873895500991 0.2697642892447556 0 -0.079433961374043224 0.26986643085370371 0 -0.075451291250047903 0.25694362580790031 0 -0.068744873895500991 0.2697642892447556 0 -0.075451291250047903 0.25694362580790031 0 -0.063410086312612746 0.2579505632444451 0 -0.068744873895500991 0.2697642892447556 0 -0.063410086312612746 0.2579505632444451 0 -0.060045448091731971 0.26839569427472709 0 -0.075451291250047903 0.25694362580790031 0 -0.063410086312612746 0.2579505632444451 0 -0.067806062199156719 0.24530920727196051 0 -0.063410086312612746 0.2579505632444451 0 -0.057951522122664668 0.26196112708034808 0 -0.05221810329459884 0.25065852250401982 0 -0.063410086312612746 0.2579505632444451 0 -0.05221810329459884 0.25065852250401982 0 -0.067806062199156719 0.24530920727196051 0 -0.063410086312612746 0.2579505632444451 0 -0.057951522122664668 0.26196112708034808 0 -0.060045448091731971 0.26839569427472709 0 -0.057951522122664668 0.26196112708034808 0 -0.051528172691524279 0.26411080784341517 0 -0.055137060204455579 0.26753635706357581 0 -0.057951522122664668 0.26196112708034808 0 -0.051528172691524279 0.26411080784341517 0 -0.05221810329459884 0.25065852250401982 0 -0.059485389045444099 0.2792821225253786 0 -0.055647458665342861 0.27350101814455052 0 -0.060045448091731971 0.26839569427472709 0 -0.059485389045444099 0.2792821225253786 0 -0.055647458665342861 0.27350101814455052 0 -0.051827609308927047 0.27831614612532268 0 -0.055647458665342861 0.27350101814455052 0 -0.060045448091731971 0.26839569427472709 0 -0.055137060204455579 0.26753635706357581 0 -0.057951522122664668 0.26196112708034808 0 -0.060045448091731971 0.26839569427472709 0 -0.055137060204455579 0.26753635706357581 0 -0.051528172691524279 0.26411080784341517 0 -0.055137060204455579 0.26753635706357581 0 -0.050512699451014081 0.26971313797483759 0 -0.055647458665342861 0.27350101814455052 0 -0.055137060204455579 0.26753635706357581 0 -0.050512699451014081 0.26971313797483759 0 -0.055647458665342861 0.27350101814455052 0 -0.050512699451014081 0.26971313797483759 0 -0.051827609308927047 0.27831614612532268 0 -0.050512699451014081 0.26971313797483759 0 -0.051827609308927047 0.27831614612532268 0 -0.045242462154476137 0.28313712935367569 0 -0.050512699451014081 0.26971313797483759 0 -0.031511518880882099 0.2761620506419018 0 -0.031484038469915827 0.2893039632600059 0 -0.051528172691524279 0.26411080784341517 0 -0.031511518880882099 0.2761620506419018 0 -0.051528172691524279 0.26411080784341517 0 -0.050512699451014081 0.26971313797483759 0 -0.031511518880882099 0.2761620506419018 0 -0.050512699451014081 0.26971313797483759 0 -0.031484038469915827 0.2893039632600059 0 -0.045242462154476137 0.28313712935367569 0 -0.050512699451014081 0.26971313797483759 0 -0.031484038469915827 0.2893039632600059 0 -0.051528172691524279 0.26411080784341517 0 -0.05221810329459884 0.25065852250401982 0 -0.029371611893066269 0.25645655512449222 0 -0.051528172691524279 0.26411080784341517 0 -0.031511518880882099 0.2761620506419018 0 -0.029371611893066269 0.25645655512449222 0 -0.031511518880882099 0.2761620506419018 0 -0.029371611893066269 0.25645655512449222 0 -0.012889892288251759 0.27148536520287142 0 -0.031511518880882099 0.2761620506419018 0 -0.012889892288251759 0.27148536520287142 0 -0.01149486507023899 0.28821329344038682 0 -0.012889892288251759 0.27148536520287142 0 -0.01149486507023899 0.28821329344038682 0 0.01172972211772925 0.27888184410559058 0 -0.012889892288251759 0.27148536520287142 0 -0.003801187714800694 0.2577130827019859 0 0.01172972211772925 0.27888184410559058 0 -0.029371611893066269 0.25645655512449222 0 -0.012889892288251759 0.27148536520287142 0 -0.003801187714800694 0.2577130827019859 0 -0.029371611893066269 0.25645655512449222 0 -0.003801187714800694 0.2577130827019859 0 -0.0132036173542375 0.24142005493606999 0 -0.01245537748881761 0.30889478854517421 0 -0.01149486507023899 0.28821329344038682 0 0.0084044717118903628 0.30019390425371051 0 -0.01149486507023899 0.28821329344038682 0 0.0084044717118903628 0.30019390425371051 0 -0.031511518880882099 0.2761620506419018 0 -0.01149486507023899 0.28821329344038682 0 -0.031511518880882099 0.2761620506419018 0 -0.01149486507023899 0.28821329344038682 0 -0.025389542788268878 0.29379606139659159 0 -0.01149486507023899 0.28821329344038682 0 -0.025389542788268878 0.29379606139659159 0 -0.031511518880882099 0.2761620506419018 0 -0.025389542788268878 0.29379606139659159 0 -0.031484038469915827 0.2893039632600059 0 -0.01245537748881761 0.30889478854517421 0 -0.027180406147188439 0.30336632227798599 0 -0.031484038469915827 0.2893039632600059 0 -0.01245537748881761 0.30889478854517421 0 -0.027180406147188439 0.30336632227798599 0 -0.028146089578211572 0.31209049791861521 0 -0.01245537748881761 0.30889478854517421 0 -0.01149486507023899 0.28821329344038682 0 -0.025389542788268878 0.29379606139659159 0 -0.01245537748881761 0.30889478854517421 0 -0.025389542788268878 0.29379606139659159 0 -0.031484038469915827 0.2893039632600059 0 -0.01245537748881761 0.30889478854517421 0 -0.031484038469915827 0.2893039632600059 0 -0.027180406147188439 0.30336632227798599 0 -0.028146089578211572 0.31209049791861521 0 -0.035345284631628102 0.30579164782747981 0 -0.028146089578211572 0.31209049791861521 0 -0.035345284631628102 0.30579164782747981 0 -0.037324620277575472 0.31401367462477392 0 -0.027180406147188439 0.30336632227798599 0 -0.035491085899693332 0.29812462095166359 0 -0.031484038469915827 0.2893039632600059 0 -0.027180406147188439 0.30336632227798599 0 -0.035345284631628102 0.30579164782747981 0 -0.035491085899693332 0.29812462095166359 0 -0.035345284631628102 0.30579164782747981 0 -0.035491085899693332 0.29812462095166359 0 -0.041864679046348302 0.30030962105016989 0 -0.035345284631628102 0.30579164782747981 0 -0.041864679046348302 0.30030962105016989 0 -0.04834327611920964 0.30965261904793479 0 -0.035345284631628102 0.30579164782747981 0 -0.04834327611920964 0.30965261904793479 0 -0.037324620277575472 0.31401367462477392 0 -0.035491085899693332 0.29812462095166359 0 -0.031484038469915827 0.2893039632600059 0 -0.041581021203385998 0.29185155034267612 0 -0.041864679046348302 0.30030962105016989 0 -0.041581021203385998 0.29185155034267612 0 -0.050929415047909557 0.29628721943679759 0 -0.035491085899693332 0.29812462095166359 0 -0.041864679046348302 0.30030962105016989 0 -0.041581021203385998 0.29185155034267612 0 -0.041581021203385998 0.29185155034267612 0 -0.045242462154476137 0.28313712935367569 0 -0.050806942339137753 0.28650084906553591 0 -0.031484038469915827 0.2893039632600059 0 -0.041581021203385998 0.29185155034267612 0 -0.045242462154476137 0.28313712935367569 0 -0.059485389045444099 0.2792821225253786 0 -0.051827609308927047 0.27831614612532268 0 -0.050806942339137753 0.28650084906553591 0 -0.051827609308927047 0.27831614612532268 0 -0.045242462154476137 0.28313712935367569 0 -0.050806942339137753 0.28650084906553591 0 -0.041581021203385998 0.29185155034267612 0 -0.050806942339137753 0.28650084906553591 0 -0.050929415047909557 0.29628721943679759 0 -0.050806942339137753 0.28650084906553591 0 -0.050929415047909557 0.29628721943679759 0 -0.061498357452394348 0.28842469210724081 0 -0.050929415047909557 0.29628721943679759 0 -0.061498357452394348 0.28842469210724081 0 -0.061482214126981329 0.30098398500722789 0 -0.059485389045444099 0.2792821225253786 0 -0.050806942339137753 0.28650084906553591 0 -0.061498357452394348 0.28842469210724081 0 -0.04834327611920964 0.30965261904793479 0 -0.061482214126981329 0.30098398500722789 0 -0.065976656285432034 0.31365274647757158 0 -0.041864679046348302 0.30030962105016989 0 -0.050929415047909557 0.29628721943679759 0 -0.04834327611920964 0.30965261904793479 0 -0.050929415047909557 0.29628721943679759 0 -0.04834327611920964 0.30965261904793479 0 -0.061482214126981329 0.30098398500722789 0 -0.054109904014784181 0.32729101003901673 0 -0.054088593743022211 0.32001702485348732 0 -0.070785034389280049 0.32620571535025511 0 -0.04834327611920964 0.30965261904793479 0 -0.054088593743022211 0.32001702485348732 0 -0.065976656285432034 0.31365274647757158 0 -0.054088593743022211 0.32001702485348732 0 -0.045057008645110773 0.3174499378966712 0 -0.043201278029482523 0.32606283464909891 0 -0.054109904014784181 0.32729101003901673 0 -0.054088593743022211 0.32001702485348732 0 -0.043201278029482523 0.32606283464909891 0 -0.04834327611920964 0.30965261904793479 0 -0.054088593743022211 0.32001702485348732 0 -0.045057008645110773 0.3174499378966712 0 -0.054109904014784181 0.32729101003901673 0 -0.048364709897351962 0.33687846530322552 0 -0.070785034389280049 0.32620571535025511 0 -0.048364709897351962 0.33687846530322552 0 -0.066704770268196129 0.34054007639102429 0 -0.070785034389280049 0.32620571535025511 0 -0.048364709897351962 0.33687846530322552 0 -0.046324577836810203 0.34404564582361069 0 -0.066704770268196129 0.34054007639102429 0 -0.046324577836810203 0.34404564582361069 0 -0.066704770268196129 0.34054007639102429 0 -0.048364709897351962 0.33687846530322552 0 -0.070785034389280049 0.32620571535025511 0 -0.054109904014784181 0.32729101003901673 0 -0.048364709897351962 0.33687846530322552 0 -0.043201278029482523 0.32606283464909891 0 -0.048364709897351962 0.33687846530322552 0 -0.025944385405424149 0.34755121525619659 0 -0.048364709897351962 0.33687846530322552 0 -0.033302719945699777 0.33793867873308758 0 -0.025944385405424149 0.34755121525619659 0 -0.048364709897351962 0.33687846530322552 0 -0.025944385405424149 0.34755121525619659 0 -0.046324577836810203 0.34404564582361069 0 -0.048364709897351962 0.33687846530322552 0 -0.03879552863930729 0.33351315609756682 0 -0.033302719945699777 0.33793867873308758 0 -0.048364709897351962 0.33687846530322552 0 -0.03879552863930729 0.33351315609756682 0 -0.043201278029482523 0.32606283464909891 0 -0.032122382284222699 0.33101040069303078 0 -0.03879552863930729 0.33351315609756682 0 -0.043201278029482523 0.32606283464909891 0 -0.032122382284222699 0.33101040069303078 0 -0.03879552863930729 0.33351315609756682 0 -0.033302719945699777 0.33793867873308758 0 -0.04834327611920964 0.30965261904793479 0 -0.045057008645110773 0.3174499378966712 0 -0.037324620277575472 0.31401367462477392 0 -0.045057008645110773 0.3174499378966712 0 -0.043201278029482523 0.32606283464909891 0 -0.033970384469430487 0.32171660972681337 0 -0.032122382284222699 0.33101040069303078 0 -0.043201278029482523 0.32606283464909891 0 -0.033970384469430487 0.32171660972681337 0 -0.045057008645110773 0.3174499378966712 0 -0.033970384469430487 0.32171660972681337 0 -0.037324620277575472 0.31401367462477392 0 -0.028146089578211572 0.31209049791861521 0 -0.033970384469430487 0.32171660972681337 0 -0.037324620277575472 0.31401367462477392 0 -0.01245537748881761 0.30889478854517421 0 -0.028146089578211572 0.31209049791861521 0 -0.022600464454629359 0.31875994450946382 0 -0.028146089578211572 0.31209049791861521 0 -0.033970384469430487 0.32171660972681337 0 -0.022600464454629359 0.31875994450946382 0 -0.01245537748881761 0.30889478854517421 0 -0.022600464454629359 0.31875994450946382 0 -0.01272297988144333 0.32387862095277892 0 -0.022600464454629359 0.31875994450946382 0 -0.02318991814177028 0.3277222693993132 0 -0.01272297988144333 0.32387862095277892 0 -0.033970384469430487 0.32171660972681337 0 -0.022600464454629359 0.31875994450946382 0 -0.02318991814177028 0.3277222693993132 0 -0.032122382284222699 0.33101040069303078 0 -0.033970384469430487 0.32171660972681337 0 -0.02318991814177028 0.3277222693993132 0 -0.032122382284222699 0.33101040069303078 0 -0.02318991814177028 0.3277222693993132 0 -0.024904544701248321 0.3364156662917695 0 -0.032122382284222699 0.33101040069303078 0 -0.033302719945699777 0.33793867873308758 0 -0.024904544701248321 0.3364156662917695 0 -0.033302719945699777 0.33793867873308758 0 -0.024904544701248321 0.3364156662917695 0 -0.025944385405424149 0.34755121525619659 0 -0.024904544701248321 0.3364156662917695 0 -0.011942422814280009 0.33553048847960049 0 -0.025944385405424149 0.34755121525619659 0 -0.02318991814177028 0.3277222693993132 0 -0.024904544701248321 0.3364156662917695 0 -0.011942422814280009 0.33553048847960049 0 -0.02318991814177028 0.3277222693993132 0 -0.011942422814280009 0.33553048847960049 0 -0.01272297988144333 0.32387862095277892 0 -0.011942422814280009 0.33553048847960049 0 -0.00279457722738843 0.35153318256059729 0 0.0003971283265588885 0.34001882545974382 0 -0.011942422814280009 0.33553048847960049 0 0.006573283492280594 0.32848561383034253 0 0.0003971283265588885 0.34001882545974382 0 -0.011942422814280009 0.33553048847960049 0 -0.01272297988144333 0.32387862095277892 0 0.006573283492280594 0.32848561383034253 0 -0.01245537748881761 0.30889478854517421 0 0.006573283492280594 0.32848561383034253 0 -0.01245537748881761 0.30889478854517421 0 -0.01272297988144333 0.32387862095277892 0 0.006573283492280594 0.32848561383034253 0 -0.0082124048773147239 0.36074564153363242 0 -0.011238256012332481 0.36921786798185902 0 -0.019982209973851198 0.3630384699240487 0 -0.011238256012332481 0.36921786798185902 0 -0.0021732964277050241 0.36793156695004081 0 -0.0032523513916702961 0.37561980347304919 0 -0.0082124048773147239 0.36074564153363242 0 -0.0021732964277050241 0.36793156695004081 0 0.0040331888674294556 0.361000529748496 0 -0.0082124048773147239 0.36074564153363242 0 -0.011238256012332481 0.36921786798185902 0 -0.0021732964277050241 0.36793156695004081 0 -0.00279457722738843 0.35153318256059729 0 -0.017119278490040669 0.35175223203675271 0 -0.025944385405424149 0.34755121525619659 0 -0.0082124048773147239 0.36074564153363242 0 -0.00279457722738843 0.35153318256059729 0 0.0040331888674294556 0.361000529748496 0 -0.00279457722738843 0.35153318256059729 0 -0.025944385405424149 0.34755121525619659 0 -0.011942422814280009 0.33553048847960049 0 -0.00279457722738843 0.35153318256059729 0 -0.025944385405424149 0.34755121525619659 0 -0.0082124048773147239 0.36074564153363242 0 -0.00279457722738843 0.35153318256059729 0 -0.017119278490040669 0.35175223203675271 0 -0.0082124048773147239 0.36074564153363242 0 -0.017119278490040669 0.35175223203675271 0 -0.019982209973851198 0.3630384699240487 0 -0.017119278490040669 0.35175223203675271 0 -0.030779480818822109 0.35575016435046369 0 -0.019982209973851198 0.3630384699240487 0 -0.017119278490040669 0.35175223203675271 0 -0.025944385405424149 0.34755121525619659 0 -0.017119278490040669 0.35175223203675271 0 -0.025944385405424149 0.34755121525619659 0 -0.030779480818822109 0.35575016435046369 0 -0.030779480818822109 0.35575016435046369 0 -0.03084714750191191 0.36523673317488459 0 -0.019982209973851198 0.3630384699240487 0 -0.03084714750191191 0.36523673317488459 0 -0.019982209973851198 0.3630384699240487 0 -0.02213366766769638 0.38204947652497928 0 -0.011238256012332481 0.36921786798185902 0 -0.019982209973851198 0.3630384699240487 0 -0.02213366766769638 0.38204947652497928 0 -0.03084714750191191 0.36523673317488459 0 -0.045915776193041651 0.37010471017449598 0 -0.02213366766769638 0.38204947652497928 0 -0.03084714750191191 0.36523673317488459 0 -0.045915776193041651 0.37010471017449598 0 -0.040244663384366587 0.35675576512013829 0 -0.045915776193041651 0.37010471017449598 0 -0.040244663384366587 0.35675576512013829 0 -0.047087937550125247 0.35921335390229908 0 -0.025944385405424149 0.34755121525619659 0 -0.046324577836810203 0.34404564582361069 0 -0.025944385405424149 0.34755121525619659 0 -0.030779480818822109 0.35575016435046369 0 -0.046324577836810203 0.34404564582361069 0 -0.030779480818822109 0.35575016435046369 0 -0.03084714750191191 0.36523673317488459 0 -0.040244663384366587 0.35675576512013829 0 -0.030779480818822109 0.35575016435046369 0 -0.040244663384366587 0.35675576512013829 0 -0.046324577836810203 0.34404564582361069 0 -0.040244663384366587 0.35675576512013829 0 -0.048521656768459757 0.35319218833849292 0 -0.047087937550125247 0.35921335390229908 0 -0.040244663384366587 0.35675576512013829 0 -0.046324577836810203 0.34404564582361069 0 -0.048521656768459757 0.35319218833849292 0 -0.046324577836810203 0.34404564582361069 0 -0.055164892424397351 0.34882346775355361 0 -0.066704770268196129 0.34054007639102429 0 -0.046324577836810203 0.34404564582361069 0 -0.048521656768459757 0.35319218833849292 0 -0.055164892424397351 0.34882346775355361 0 -0.048521656768459757 0.35319218833849292 0 -0.053669653854632987 0.35680075197606942 0 -0.055164892424397351 0.34882346775355361 0 -0.048521656768459757 0.35319218833849292 0 -0.047087937550125247 0.35921335390229908 0 -0.053669653854632987 0.35680075197606942 0 -0.053669653854632987 0.35680075197606942 0 -0.055164892424397351 0.34882346775355361 0 -0.062382157395324919 0.3506756906349322 0 -0.053669653854632987 0.35680075197606942 0 -0.059515798945064313 0.35802801807286377 0 -0.062382157395324919 0.3506756906349322 0 -0.059515798945064313 0.35802801807286377 0 -0.062382157395324919 0.3506756906349322 0 -0.065015420442556163 0.35421949844578698 0 -0.055164892424397351 0.34882346775355361 0 -0.062382157395324919 0.3506756906349322 0 -0.066704770268196129 0.34054007639102429 0 -0.045915776193041651 0.37010471017449598 0 -0.059515798945064313 0.35802801807286377 0 -0.069697884718386921 0.35815994382401273 0 -0.045915776193041651 0.37010471017449598 0 -0.069697884718386921 0.35815994382401273 0 -0.057200385704486149 0.37844554081274367 0 -0.045915776193041651 0.37010471017449598 0 -0.069697884718386921 0.35815994382401273 0 -0.045915776193041651 0.37010471017449598 0 -0.047087937550125247 0.35921335390229908 0 -0.053669653854632987 0.35680075197606942 0 -0.045915776193041651 0.37010471017449598 0 -0.053669653854632987 0.35680075197606942 0 -0.059515798945064313 0.35802801807286377 0 -0.073397262707064814 0.35837623493261378 0 -0.057200385704486149 0.37844554081274367 0 -0.073397262707064814 0.35837623493261378 0 -0.069697884718386921 0.35815994382401273 0 -0.057200385704486149 0.37844554081274367 0 -0.072155233561553664 0.37153369486437771 0 -0.073397262707064814 0.35837623493261378 0 -0.057200385704486149 0.37844554081274367 0 -0.076448922688629739 0.36453117847721561 0 -0.072155233561553664 0.37153369486437771 0 -0.073397262707064814 0.35837623493261378 0 -0.076448922688629739 0.36453117847721561 0 -0.077561044579424462 0.36026341443596083 0 -0.073397262707064814 0.35837623493261378 0 -0.076448922688629739 0.36453117847721561 0 -0.072155233561553664 0.37153369486437771 0 -0.079278050003950523 0.36977787782765009 0 -0.072155233561553664 0.37153369486437771 0 -0.079278050003950523 0.36977787782765009 0 -0.077428933915894824 0.37701814065145711 0 -0.079278050003950523 0.36977787782765009 0 -0.086774337470216012 0.37384307470338102 0 -0.077428933915894824 0.37701814065145711 0 -0.079278050003950523 0.36977787782765009 0 -0.084974698033161294 0.36670690102038578 0 -0.086774337470216012 0.37384307470338102 0 -0.076448922688629739 0.36453117847721561 0 -0.079278050003950523 0.36977787782765009 0 -0.08075914750342654 0.36179652109102112 0 -0.079278050003950523 0.36977787782765009 0 -0.08075914750342654 0.36179652109102112 0 -0.084974698033161294 0.36670690102038578 0 -0.077561044579424462 0.36026341443596083 0 -0.08075914750342654 0.36179652109102112 0 -0.079638845418576784 0.35634972324299291 0 -0.076448922688629739 0.36453117847721561 0 -0.077561044579424462 0.36026341443596083 0 -0.08075914750342654 0.36179652109102112 0 -0.08075914750342654 0.36179652109102112 0 -0.087916503550541258 0.3614483371828166 0 -0.087118854339348628 0.3562336352729738 0 -0.08075914750342654 0.36179652109102112 0 -0.084974698033161294 0.36670690102038578 0 -0.087916503550541258 0.3614483371828166 0 -0.087916503550541258 0.3614483371828166 0 -0.091496713853138678 0.36554944279288459 0 -0.095233104023631138 0.35695518573681773 0 -0.084974698033161294 0.36670690102038578 0 -0.087916503550541258 0.3614483371828166 0 -0.091496713853138678 0.36554944279288459 0 -0.091496713853138678 0.36554944279288459 0 -0.086774337470216012 0.37384307470338102 0 -0.094553722296014817 0.37295836666289389 0 -0.084974698033161294 0.36670690102038578 0 -0.091496713853138678 0.36554944279288459 0 -0.086774337470216012 0.37384307470338102 0 -0.093479993243732198 0.34621517747352942 0 -0.069697884718386921 0.35815994382401273 0 -0.093479993243732198 0.34621517747352942 0 -0.077630868611399492 0.3462970016519194 0 -0.069697884718386921 0.35815994382401273 0 -0.093479993243732198 0.34621517747352942 0 -0.079638845418576784 0.35634972324299291 0 -0.069697884718386921 0.35815994382401273 0 -0.093479993243732198 0.34621517747352942 0 -0.087118854339348628 0.3562336352729738 0 -0.095233104023631138 0.35695518573681773 0 -0.093479993243732198 0.34621517747352942 0 -0.087118854339348628 0.3562336352729738 0 -0.079638845418576784 0.35634972324299291 0 -0.087916503550541258 0.3614483371828166 0 -0.087118854339348628 0.3562336352729738 0 -0.095233104023631138 0.35695518573681773 0 -0.08075914750342654 0.36179652109102112 0 -0.087118854339348628 0.3562336352729738 0 -0.079638845418576784 0.35634972324299291 0 -0.077630868611399492 0.3462970016519194 0 -0.069697884718386921 0.35815994382401273 0 -0.068465840711448511 0.35001434125133951 0 -0.077630868611399492 0.3462970016519194 0 -0.068465840711448511 0.35001434125133951 0 -0.066704770268196129 0.34054007639102429 0 -0.079638845418576784 0.35634972324299291 0 -0.073397262707064814 0.35837623493261378 0 -0.069697884718386921 0.35815994382401273 0 -0.077561044579424462 0.36026341443596083 0 -0.079638845418576784 0.35634972324299291 0 -0.073397262707064814 0.35837623493261378 0 -0.059515798945064313 0.35802801807286377 0 -0.069697884718386921 0.35815994382401273 0 -0.065015420442556163 0.35421949844578698 0 -0.069697884718386921 0.35815994382401273 0 -0.065015420442556163 0.35421949844578698 0 -0.068465840711448511 0.35001434125133951 0 -0.062382157395324919 0.3506756906349322 0 -0.065015420442556163 0.35421949844578698 0 -0.068465840711448511 0.35001434125133951 0 -0.062382157395324919 0.3506756906349322 0 -0.068465840711448511 0.35001434125133951 0 -0.066704770268196129 0.34054007639102429 0 -0.066704770268196129 0.34054007639102429 0 -0.087084962699582102 0.33703450695843801 0 -0.077630868611399492 0.3462970016519194 0 -0.066704770268196129 0.34054007639102429 0 -0.087084962699582102 0.33703450695843801 0 -0.066704770268196129 0.34054007639102429 0 -0.070785034389280049 0.32620571535025511 0 -0.081906448334110038 0.32891674835885248 0 -0.054088593743022211 0.32001702485348732 0 -0.065976656285432034 0.31365274647757158 0 -0.070785034389280049 0.32620571535025511 0 -0.065976656285432034 0.31365274647757158 0 -0.070785034389280049 0.32620571535025511 0 -0.076667783476822585 0.31363971355837078 0 -0.070785034389280049 0.32620571535025511 0 -0.076667783476822585 0.31363971355837078 0 -0.083993836579578651 0.31475386006514261 0 -0.070785034389280049 0.32620571535025511 0 -0.083993836579578651 0.31475386006514261 0 -0.093205358881208095 0.31553296539728459 0 -0.070785034389280049 0.32620571535025511 0 -0.093205358881208095 0.31553296539728459 0 -0.081906448334110038 0.32891674835885248 0 -0.070785034389280049 0.32620571535025511 0 -0.093205358881208095 0.31553296539728459 0 -0.091752115432283871 0.32527047769726047 0 -0.093205358881208095 0.31553296539728459 0 -0.081906448334110038 0.32891674835885248 0 -0.092586777141973609 0.31114885600243758 0 -0.083993836579578651 0.31475386006514261 0 -0.093205358881208095 0.31553296539728459 0 -0.066704770268196129 0.34054007639102429 0 -0.081906448334110038 0.32891674835885248 0 -0.087084962699582102 0.33703450695843801 0 -0.093479993243732198 0.34621517747352942 0 -0.077630868611399492 0.3462970016519194 0 -0.087084962699582102 0.33703450695843801 0 -0.091752115432283871 0.32527047769726047 0 -0.087084962699582102 0.33703450695843801 0 -0.099547583576425167 0.33517099625343949 0 -0.091752115432283871 0.32527047769726047 0 -0.081906448334110038 0.32891674835885248 0 -0.087084962699582102 0.33703450695843801 0 -0.093479993243732198 0.34621517747352942 0 -0.087084962699582102 0.33703450695843801 0 -0.099547583576425167 0.33517099625343949 0 -0.093479993243732198 0.34621517747352942 0 -0.11726210176907741 0.33427041112304612 0 -0.093479993243732198 0.34621517747352942 0 -0.099547583576425167 0.33517099625343949 0 -0.11726210176907741 0.33427041112304612 0 -0.093479993243732198 0.34621517747352942 0 -0.11726210176907741 0.33427041112304612 0 -0.1055065230367164 0.34863057010449922 0 -0.1176484556044165 0.31032336343565847 0 -0.091752115432283871 0.32527047769726047 0 -0.093205358881208095 0.31553296539728459 0 -0.1176484556044165 0.31032336343565847 0 -0.091752115432283871 0.32527047769726047 0 -0.099547583576425167 0.33517099625343949 0 -0.1176484556044165 0.31032336343565847 0 -0.091752115432283871 0.32527047769726047 0 -0.13549747948882859 0.31921600665449329 0 -0.1176484556044165 0.31032336343565847 0 -0.11726210176907741 0.33427041112304612 0 -0.1176484556044165 0.31032336343565847 0 -0.099547583576425167 0.33517099625343949 0 -0.11726210176907741 0.33427041112304612 0 -0.11726210176907741 0.33427041112304612 0 -0.11522169419694089 0.34836847450439767 0 -0.1055065230367164 0.34863057010449922 0 -0.12847734196858479 0.35004455283357983 0 -0.11726210176907741 0.33427041112304612 0 -0.11522169419694089 0.34836847450439767 0 -0.1274304421373009 0.36664331726016181 0 -0.12847734196858479 0.35004455283357983 0 -0.1170324683080204 0.36073758085818419 0 -0.11522169419694089 0.34836847450439767 0 -0.1170324683080204 0.36073758085818419 0 -0.1063357219502003 0.35734360168470491 0 -0.12847734196858479 0.35004455283357983 0 -0.11522169419694089 0.34836847450439767 0 -0.1170324683080204 0.36073758085818419 0 -0.1274304421373009 0.36664331726016181 0 -0.114347290272659 0.37234114678424529 0 -0.1170324683080204 0.36073758085818419 0 -0.1274304421373009 0.36664331726016181 0 -0.114347290272659 0.37234114678424529 0 -0.1209297984260152 0.38294729372090669 0 -0.114347290272659 0.37234114678424529 0 -0.1170324683080204 0.36073758085818419 0 -0.10272530968841891 0.36876207383857368 0 -0.1170324683080204 0.36073758085818419 0 -0.10272530968841891 0.36876207383857368 0 -0.1063357219502003 0.35734360168470491 0 -0.114347290272659 0.37234114678424529 0 -0.10272530968841891 0.36876207383857368 0 -0.1091423146819972 0.38357848564638208 0 -0.10272530968841891 0.36876207383857368 0 -0.094553722296014817 0.37295836666289389 0 -0.098494899434401179 0.38036578266682458 0 -0.091496713853138678 0.36554944279288459 0 -0.10272530968841891 0.36876207383857368 0 -0.094553722296014817 0.37295836666289389 0 -0.10272530968841891 0.36876207383857368 0 -0.095233104023631138 0.35695518573681773 0 -0.1063357219502003 0.35734360168470491 0 -0.091496713853138678 0.36554944279288459 0 -0.10272530968841891 0.36876207383857368 0 -0.095233104023631138 0.35695518573681773 0 -0.093479993243732198 0.34621517747352942 0 -0.095233104023631138 0.35695518573681773 0 -0.1055065230367164 0.34863057010449922 0 -0.11522169419694089 0.34836847450439767 0 -0.1055065230367164 0.34863057010449922 0 -0.1063357219502003 0.35734360168470491 0 -0.095233104023631138 0.35695518573681773 0 -0.1055065230367164 0.34863057010449922 0 -0.1063357219502003 0.35734360168470491 0 -0.1015756336664357 0.4051673100687625 0 -0.11070177291125489 0.39587987489905963 0 -0.11559523508418749 0.41259658024585039 0 -0.1015756336664357 0.4051673100687625 0 -0.10091442199830181 0.39098357802295841 0 -0.11070177291125489 0.39587987489905963 0 -0.1015756336664357 0.4051673100687625 0 -0.090622951938887558 0.41089784782809452 0 -0.09212937342075346 0.39719432647371361 0 -0.10091442199830181 0.39098357802295841 0 -0.09212937342075346 0.39719432647371361 0 -0.09130228348913956 0.38709397184908662 0 -0.1015756336664357 0.4051673100687625 0 -0.10091442199830181 0.39098357802295841 0 -0.09212937342075346 0.39719432647371361 0 -0.10091442199830181 0.39098357802295841 0 -0.098494899434401179 0.38036578266682458 0 -0.09130228348913956 0.38709397184908662 0 -0.094553722296014817 0.37295836666289389 0 -0.098494899434401179 0.38036578266682458 0 -0.090263678636573766 0.379767468335792 0 -0.10272530968841891 0.36876207383857368 0 -0.098494899434401179 0.38036578266682458 0 -0.1091423146819972 0.38357848564638208 0 -0.10091442199830181 0.39098357802295841 0 -0.098494899434401179 0.38036578266682458 0 -0.1091423146819972 0.38357848564638208 0 -0.10091442199830181 0.39098357802295841 0 -0.1091423146819972 0.38357848564638208 0 -0.11070177291125489 0.39587987489905963 0 -0.1091423146819972 0.38357848564638208 0 -0.1209297984260152 0.38294729372090669 0 -0.11070177291125489 0.39587987489905963 0 -0.114347290272659 0.37234114678424529 0 -0.1091423146819972 0.38357848564638208 0 -0.1209297984260152 0.38294729372090669 0 -0.1297261769494055 0.39539930848717619 0 -0.1209297984260152 0.38294729372090669 0 -0.11070177291125489 0.39587987489905963 0 -0.1297261769494055 0.39539930848717619 0 -0.11070177291125489 0.39587987489905963 0 -0.11559523508418749 0.41259658024585039 0 -0.12580894219327121 0.42921658845908361 0 -0.13203034976227551 0.41418496649498537 0 -0.11559523508418749 0.41259658024585039 0 -0.12580894219327121 0.42921658845908361 0 -0.11559523508418749 0.41259658024585039 0 -0.1104518488471626 0.42938403436391642 0 -0.12580894219327121 0.42921658845908361 0 -0.1104518488471626 0.42938403436391642 0 -0.11768309088928031 0.4438926823123247 0 -0.1104518488471626 0.42938403436391642 0 -0.102365778850666 0.4391822315065057 0 -0.11768309088928031 0.4438926823123247 0 -0.1104518488471626 0.42938403436391642 0 -0.098466180714343127 0.4306724097008523 0 -0.102365778850666 0.4391822315065057 0 -0.1104518488471626 0.42938403436391642 0 -0.098466180714343127 0.4306724097008523 0 -0.100191991712041 0.42082202441916872 0 -0.098466180714343127 0.4306724097008523 0 -0.100191991712041 0.42082202441916872 0 -0.08744243564496644 0.4274759418463544 0 -0.098466180714343127 0.4306724097008523 0 -0.091878848516879524 0.43649781636831653 0 -0.102365778850666 0.4391822315065057 0 -0.1015756336664357 0.4051673100687625 0 -0.11559523508418749 0.41259658024585039 0 -0.100191991712041 0.42082202441916872 0 -0.11559523508418749 0.41259658024585039 0 -0.1104518488471626 0.42938403436391642 0 -0.100191991712041 0.42082202441916872 0 -0.1015756336664357 0.4051673100687625 0 -0.100191991712041 0.42082202441916872 0 -0.090622951938887558 0.41089784782809452 0 -0.090622951938887558 0.41089784782809452 0 -0.090089925440891755 0.4191885325238297 0 -0.082412707673333419 0.41729595512880652 0 -0.100191991712041 0.42082202441916872 0 -0.090622951938887558 0.41089784782809452 0 -0.090089925440891755 0.4191885325238297 0 -0.090089925440891755 0.4191885325238297 0 -0.082412707673333419 0.41729595512880652 0 -0.08744243564496644 0.4274759418463544 0 -0.082412707673333419 0.41729595512880652 0 -0.077342265662440735 0.40719931092580502 0 -0.074922132778840259 0.4142785721974524 0 -0.090622951938887558 0.41089784782809452 0 -0.082412707673333419 0.41729595512880652 0 -0.077342265662440735 0.40719931092580502 0 -0.090622951938887558 0.41089784782809452 0 -0.077342265662440735 0.40719931092580502 0 -0.084336815514938004 0.40174924874597939 0 -0.091878848516879524 0.43649781636831653 0 -0.08744243564496644 0.4274759418463544 0 -0.080651820181622397 0.43285301970459961 0 -0.098466180714343127 0.4306724097008523 0 -0.091878848516879524 0.43649781636831653 0 -0.08744243564496644 0.4274759418463544 0 -0.100191991712041 0.42082202441916872 0 -0.090089925440891755 0.4191885325238297 0 -0.08744243564496644 0.4274759418463544 0 -0.082412707673333419 0.41729595512880652 0 -0.08744243564496644 0.4274759418463544 0 -0.074250525327512196 0.42457154990574392 0 -0.08744243564496644 0.4274759418463544 0 -0.080651820181622397 0.43285301970459961 0 -0.074250525327512196 0.42457154990574392 0 -0.080651820181622397 0.43285301970459961 0 -0.072829289225864 0.43657235218649099 0 -0.082518125034485051 0.44167333765349209 0 -0.091878848516879524 0.43649781636831653 0 -0.080651820181622397 0.43285301970459961 0 -0.082518125034485051 0.44167333765349209 0 -0.072829289225864 0.43657235218649099 0 -0.074250525327512196 0.42457154990574392 0 -0.063957416842675766 0.43114574284397378 0 -0.080651820181622397 0.43285301970459961 0 -0.072829289225864 0.43657235218649099 0 -0.074250525327512196 0.42457154990574392 0 -0.074250525327512196 0.42457154990574392 0 -0.065427469022776977 0.42253758268595182 0 -0.063957416842675766 0.43114574284397378 0 -0.072829289225864 0.43657235218649099 0 -0.063957416842675766 0.43114574284397378 0 -0.063306140560349194 0.442500334121881 0 -0.077342265662440735 0.40719931092580502 0 -0.074922132778840259 0.4142785721974524 0 -0.066183220770869314 0.40840693413697909 0 -0.074250525327512196 0.42457154990574392 0 -0.074922132778840259 0.4142785721974524 0 -0.0674075060567213 0.41507857617167992 0 -0.082412707673333419 0.41729595512880652 0 -0.074250525327512196 0.42457154990574392 0 -0.074922132778840259 0.4142785721974524 0 -0.065427469022776977 0.42253758268595182 0 -0.0674075060567213 0.41507857617167992 0 -0.059241182995612568 0.41543543759228402 0 -0.074250525327512196 0.42457154990574392 0 -0.065427469022776977 0.42253758268595182 0 -0.0674075060567213 0.41507857617167992 0 -0.074922132778840259 0.4142785721974524 0 -0.0674075060567213 0.41507857617167992 0 -0.066183220770869314 0.40840693413697909 0 -0.0674075060567213 0.41507857617167992 0 -0.066183220770869314 0.40840693413697909 0 -0.059241182995612568 0.41543543759228402 0 -0.066183220770869314 0.40840693413697909 0 -0.069244148941432243 0.40098884559957382 0 -0.062280926548281303 0.40284227779169268 0 -0.069244148941432243 0.40098884559957382 0 -0.063356527029419532 0.39608139415358251 0 -0.062280926548281303 0.40284227779169268 0 -0.063356527029419532 0.39608139415358251 0 -0.070771902938630921 0.39286299772997191 0 -0.065026038731020558 0.38769570135879378 0 -0.069244148941432243 0.40098884559957382 0 -0.063356527029419532 0.39608139415358251 0 -0.070771902938630921 0.39286299772997191 0 -0.070771902938630921 0.39286299772997191 0 -0.076699714071893729 0.39913200799351389 0 -0.081803437302026716 0.39285963696623938 0 -0.069244148941432243 0.40098884559957382 0 -0.070771902938630921 0.39286299772997191 0 -0.076699714071893729 0.39913200799351389 0 -0.077342265662440735 0.40719931092580502 0 -0.066183220770869314 0.40840693413697909 0 -0.069244148941432243 0.40098884559957382 0 -0.077342265662440735 0.40719931092580502 0 -0.069244148941432243 0.40098884559957382 0 -0.076699714071893729 0.39913200799351389 0 -0.077342265662440735 0.40719931092580502 0 -0.076699714071893729 0.39913200799351389 0 -0.084336815514938004 0.40174924874597939 0 -0.076699714071893729 0.39913200799351389 0 -0.084336815514938004 0.40174924874597939 0 -0.081803437302026716 0.39285963696623938 0 -0.081803437302026716 0.39285963696623938 0 -0.09212937342075346 0.39719432647371361 0 -0.09130228348913956 0.38709397184908662 0 -0.084336815514938004 0.40174924874597939 0 -0.081803437302026716 0.39285963696623938 0 -0.09212937342075346 0.39719432647371361 0 -0.090622951938887558 0.41089784782809452 0 -0.084336815514938004 0.40174924874597939 0 -0.09212937342075346 0.39719432647371361 0 -0.098494899434401179 0.38036578266682458 0 -0.090263678636573766 0.379767468335792 0 -0.09130228348913956 0.38709397184908662 0 -0.086774337470216012 0.37384307470338102 0 -0.090263678636573766 0.379767468335792 0 -0.082880434874088485 0.38248476341960341 0 -0.086774337470216012 0.37384307470338102 0 -0.094553722296014817 0.37295836666289389 0 -0.090263678636573766 0.379767468335792 0 -0.090263678636573766 0.379767468335792 0 -0.09130228348913956 0.38709397184908662 0 -0.082880434874088485 0.38248476341960341 0 -0.081803437302026716 0.39285963696623938 0 -0.082880434874088485 0.38248476341960341 0 -0.074782377101552736 0.38556474213370701 0 -0.081803437302026716 0.39285963696623938 0 -0.09130228348913956 0.38709397184908662 0 -0.082880434874088485 0.38248476341960341 0 -0.086774337470216012 0.37384307470338102 0 -0.082880434874088485 0.38248476341960341 0 -0.077428933915894824 0.37701814065145711 0 -0.082880434874088485 0.38248476341960341 0 -0.077428933915894824 0.37701814065145711 0 -0.074782377101552736 0.38556474213370701 0 -0.072155233561553664 0.37153369486437771 0 -0.077428933915894824 0.37701814065145711 0 -0.069074818946103247 0.37973647281096229 0 -0.077428933915894824 0.37701814065145711 0 -0.074782377101552736 0.38556474213370701 0 -0.069074818946103247 0.37973647281096229 0 -0.070771902938630921 0.39286299772997191 0 -0.081803437302026716 0.39285963696623938 0 -0.074782377101552736 0.38556474213370701 0 -0.074782377101552736 0.38556474213370701 0 -0.065026038731020558 0.38769570135879378 0 -0.069074818946103247 0.37973647281096229 0 -0.070771902938630921 0.39286299772997191 0 -0.074782377101552736 0.38556474213370701 0 -0.065026038731020558 0.38769570135879378 0 -0.065026038731020558 0.38769570135879378 0 -0.069074818946103247 0.37973647281096229 0 -0.057200385704486149 0.37844554081274367 0 -0.072155233561553664 0.37153369486437771 0 -0.069074818946103247 0.37973647281096229 0 -0.057200385704486149 0.37844554081274367 0 -0.057200385704486149 0.37844554081274367 0 -0.055316971896482423 0.39296845760679239 0 -0.044145249056348868 0.39798624758143519 0 -0.057200385704486149 0.37844554081274367 0 -0.041003508701907221 0.3985148466928734 0 -0.045915776193041651 0.37010471017449598 0 -0.057200385704486149 0.37844554081274367 0 -0.03974008913880657 0.38367798493073868 0 -0.065026038731020558 0.38769570135879378 0 -0.057200385704486149 0.37844554081274367 0 -0.055316971896482423 0.39296845760679239 0 -0.057200385704486149 0.37844554081274367 0 -0.041003508701907221 0.3985148466928734 0 -0.044145249056348868 0.39798624758143519 0 -0.066183220770869314 0.40840693413697909 0 -0.062280926548281303 0.40284227779169268 0 -0.056927073263895511 0.40757600330765781 0 -0.0567404010420288 0.40019805693760102 0 -0.050394999025985973 0.40433067166059478 0 -0.056927073263895511 0.40757600330765781 0 -0.062280926548281303 0.40284227779169268 0 -0.0567404010420288 0.40019805693760102 0 -0.056927073263895511 0.40757600330765781 0 -0.063356527029419532 0.39608139415358251 0 -0.062280926548281303 0.40284227779169268 0 -0.0567404010420288 0.40019805693760102 0 -0.063356527029419532 0.39608139415358251 0 -0.065026038731020558 0.38769570135879378 0 -0.055316971896482423 0.39296845760679239 0 -0.063356527029419532 0.39608139415358251 0 -0.0567404010420288 0.40019805693760102 0 -0.055316971896482423 0.39296845760679239 0 -0.055316971896482423 0.39296845760679239 0 -0.049488393473571757 0.39786099795172669 0 -0.044145249056348868 0.39798624758143519 0 -0.0567404010420288 0.40019805693760102 0 -0.055316971896482423 0.39296845760679239 0 -0.051670285571601651 0.39921135806357771 0 -0.055316971896482423 0.39296845760679239 0 -0.049488393473571757 0.39786099795172669 0 -0.051670285571601651 0.39921135806357771 0 -0.0567404010420288 0.40019805693760102 0 -0.051670285571601651 0.39921135806357771 0 -0.050394999025985973 0.40433067166059478 0 -0.051670285571601651 0.39921135806357771 0 -0.050394999025985973 0.40433067166059478 0 -0.0468210673698541 0.40127792855510169 0 -0.049488393473571757 0.39786099795172669 0 -0.051670285571601651 0.39921135806357771 0 -0.0468210673698541 0.40127792855510169 0 -0.042667132271137727 0.4058911995475597 0 -0.043659239349811967 0.40091755559424253 0 -0.0468210673698541 0.40127792855510169 0 -0.050394999025985973 0.40433067166059478 0 -0.042667132271137727 0.4058911995475597 0 -0.0468210673698541 0.40127792855510169 0 -0.049488393473571757 0.39786099795172669 0 -0.0468210673698541 0.40127792855510169 0 -0.044145249056348868 0.39798624758143519 0 -0.043659239349811967 0.40091755559424253 0 -0.0468210673698541 0.40127792855510169 0 -0.044145249056348868 0.39798624758143519 0 -0.043659239349811967 0.40091755559424253 0 -0.041003508701907221 0.3985148466928734 0 -0.044145249056348868 0.39798624758143519 0 -0.042667132271137727 0.4058911995475597 0 -0.043659239349811967 0.40091755559424253 0 -0.041003508701907221 0.3985148466928734 0 -0.041003508701907221 0.3985148466928734 0 -0.044145249056348868 0.39798624758143519 0 -0.045915776193041651 0.37010471017449598 0 -0.02213366766769638 0.38204947652497928 0 -0.045915776193041651 0.37010471017449598 0 -0.03974008913880657 0.38367798493073868 0 -0.02213366766769638 0.38204947652497928 0 -0.057200385704486149 0.37844554081274367 0 -0.041003508701907221 0.3985148466928734 0 -0.03974008913880657 0.38367798493073868 0 -0.041003508701907221 0.3985148466928734 0 -0.03974008913880657 0.38367798493073868 0 -0.031679971499136358 0.38952137297201689 0 -0.03974008913880657 0.38367798493073868 0 -0.031679971499136358 0.38952137297201689 0 -0.02213366766769638 0.38204947652497928 0 -0.031679971499136358 0.38952137297201689 0 -0.02213366766769638 0.38204947652497928 0 -0.020934060930571791 0.3935116988942905 0 -0.041003508701907221 0.3985148466928734 0 -0.011501597641767719 0.40347855540612021 0 -0.041003508701907221 0.3985148466928734 0 -0.020934060930571791 0.3935116988942905 0 -0.011501597641767719 0.40347855540612021 0 -0.041003508701907221 0.3985148466928734 0 -0.031679971499136358 0.38952137297201689 0 -0.020934060930571791 0.3935116988942905 0 -0.041003508701907221 0.3985148466928734 0 -0.011501597641767719 0.40347855540612021 0 -0.027511825870050001 0.41523218729792599 0 -0.020934060930571791 0.3935116988942905 0 -0.011501597641767719 0.40347855540612021 0 0.001648440857648738 0.39399424287546259 0 -0.02213366766769638 0.38204947652497928 0 -0.020934060930571791 0.3935116988942905 0 0.001648440857648738 0.39399424287546259 0 -0.02213366766769638 0.38204947652497928 0 -0.0032523513916702961 0.37561980347304919 0 0.003093702987385379 0.38732411584027049 0 -0.02213366766769638 0.38204947652497928 0 0.001648440857648738 0.39399424287546259 0 -0.02213366766769638 0.38204947652497928 0 0.003093702987385379 0.38732411584027049 0 0.001648440857648738 0.39399424287546259 0 -0.011238256012332481 0.36921786798185902 0 -0.02213366766769638 0.38204947652497928 0 -0.0032523513916702961 0.37561980347304919 0 -0.01402014303819249 0.43194952790297841 0 0.0013436152914496589 0.41728723247614569 0 0.0106338495084003 0.43254427085224217 0 -0.01402014303819249 0.43194952790297841 0 -0.01292248781464014 0.41698687577079258 0 0.0013436152914496589 0.41728723247614569 0 -0.011501597641767719 0.40347855540612021 0 -0.01292248781464014 0.41698687577079258 0 0.0013436152914496589 0.41728723247614569 0 -0.011501597641767719 0.40347855540612021 0 -0.01292248781464014 0.41698687577079258 0 -0.027511825870050001 0.41523218729792599 0 -0.01402014303819249 0.43194952790297841 0 -0.01292248781464014 0.41698687577079258 0 -0.027511825870050001 0.41523218729792599 0 -0.01402014303819249 0.43194952790297841 0 -0.027511825870050001 0.41523218729792599 0 -0.028979027106191099 0.4334772452080296 0 -0.01402014303819249 0.43194952790297841 0 -0.027511825870050001 0.41523218729792599 0 -0.027511825870050001 0.41523218729792599 0 -0.028979027106191099 0.4334772452080296 0 -0.041765964497343877 0.42811082950293322 0 -0.028979027106191099 0.4334772452080296 0 -0.041765964497343877 0.42811082950293322 0 -0.040005792589402303 0.44288214128047332 0 -0.041765964497343877 0.42811082950293322 0 -0.052524681956666583 0.43646565246300562 0 -0.040005792589402303 0.44288214128047332 0 -0.027511825870050001 0.41523218729792599 0 -0.041765964497343877 0.42811082950293322 0 -0.046721709200595152 0.41424264172679542 0 -0.041003508701907221 0.3985148466928734 0 -0.027511825870050001 0.41523218729792599 0 -0.042667132271137727 0.4058911995475597 0 -0.027511825870050001 0.41523218729792599 0 -0.046721709200595152 0.41424264172679542 0 -0.042667132271137727 0.4058911995475597 0 -0.041003508701907221 0.3985148466928734 0 -0.027511825870050001 0.41523218729792599 0 -0.050394999025985973 0.40433067166059478 0 -0.042667132271137727 0.4058911995475597 0 -0.046721709200595152 0.41424264172679542 0 -0.050394999025985973 0.40433067166059478 0 -0.046721709200595152 0.41424264172679542 0 -0.056927073263895511 0.40757600330765781 0 -0.046721709200595152 0.41424264172679542 0 -0.059241182995612568 0.41543543759228402 0 -0.056927073263895511 0.40757600330765781 0 -0.046721709200595152 0.41424264172679542 0 -0.059241182995612568 0.41543543759228402 0 -0.054331406610055123 0.42446304502272908 0 -0.065427469022776977 0.42253758268595182 0 -0.059241182995612568 0.41543543759228402 0 -0.054331406610055123 0.42446304502272908 0 -0.066183220770869314 0.40840693413697909 0 -0.059241182995612568 0.41543543759228402 0 -0.056927073263895511 0.40757600330765781 0 -0.041765964497343877 0.42811082950293322 0 -0.046721709200595152 0.41424264172679542 0 -0.054331406610055123 0.42446304502272908 0 -0.041765964497343877 0.42811082950293322 0 -0.052524681956666583 0.43646565246300562 0 -0.054331406610055123 0.42446304502272908 0 -0.065427469022776977 0.42253758268595182 0 -0.063957416842675766 0.43114574284397378 0 -0.054331406610055123 0.42446304502272908 0 -0.063957416842675766 0.43114574284397378 0 -0.052524681956666583 0.43646565246300562 0 -0.054331406610055123 0.42446304502272908 0 -0.063957416842675766 0.43114574284397378 0 -0.052524681956666583 0.43646565246300562 0 -0.063306140560349194 0.442500334121881 0 -0.052524681956666583 0.43646565246300562 0 -0.051420538808233517 0.44974718312522111 0 -0.063306140560349194 0.442500334121881 0 -0.051420538808233517 0.44974718312522111 0 -0.062635022449027175 0.45425512386635758 0 -0.063306140560349194 0.442500334121881 0 -0.052524681956666583 0.43646565246300562 0 -0.051420538808233517 0.44974718312522111 0 -0.040005792589402303 0.44288214128047332 0 -0.05149053627783122 0.46454567803069902 0 -0.067491278228082249 0.47066919548255109 0 -0.062635022449027175 0.45425512386635758 0 -0.051420538808233517 0.44974718312522111 0 -0.05149053627783122 0.46454567803069902 0 -0.062635022449027175 0.45425512386635758 0 -0.05149053627783122 0.46454567803069902 0 -0.036482667664151827 0.45815304903537468 0 -0.03238723551033796 0.4792929385189918 0 -0.051420538808233517 0.44974718312522111 0 -0.05149053627783122 0.46454567803069902 0 -0.036482667664151827 0.45815304903537468 0 -0.036482667664151827 0.45815304903537468 0 -0.040005792589402303 0.44288214128047332 0 -0.021591409535966839 0.4492115400558368 0 -0.051420538808233517 0.44974718312522111 0 -0.036482667664151827 0.45815304903537468 0 -0.040005792589402303 0.44288214128047332 0 -0.028979027106191099 0.4334772452080296 0 -0.040005792589402303 0.44288214128047332 0 -0.021591409535966839 0.4492115400558368 0 -0.01402014303819249 0.43194952790297841 0 -0.028979027106191099 0.4334772452080296 0 -0.021591409535966839 0.4492115400558368 0 -0.036482667664151827 0.45815304903537468 0 -0.02304310809586331 0.46579632886357458 0 -0.03238723551033796 0.4792929385189918 0 -0.021591409535966839 0.4492115400558368 0 -0.02304310809586331 0.46579632886357458 0 -0.01017154077671473 0.46134020060629721 0 -0.036482667664151827 0.45815304903537468 0 -0.021591409535966839 0.4492115400558368 0 -0.02304310809586331 0.46579632886357458 0 -0.01017154077671473 0.46134020060629721 0 -0.00052846020633500607 0.44866686850803073 0 0.0049529218925743867 0.46680918847077951 0 -0.02304310809586331 0.46579632886357458 0 -0.01017154077671473 0.46134020060629721 0 -0.01064764793798288 0.47621707713326439 0 -0.01017154077671473 0.46134020060629721 0 -0.01064764793798288 0.47621707713326439 0 0.0049529218925743867 0.46680918847077951 0 -0.01402014303819249 0.43194952790297841 0 -0.00052846020633500607 0.44866686850803073 0 0.0106338495084003 0.43254427085224217 0 -0.01402014303819249 0.43194952790297841 0 -0.021591409535966839 0.4492115400558368 0 -0.00052846020633500607 0.44866686850803073 0 -0.021591409535966839 0.4492115400558368 0 -0.01017154077671473 0.46134020060629721 0 -0.00052846020633500607 0.44866686850803073 0 -0.01402014303819249 0.43194952790297841 0 -0.00052846020633500607 0.44866686850803073 0 -0.01250183937419636 0.5 0 -0.01064764793798288 0.47621707713326439 0 0.0076545284232591802 0.48240144018456949 0 -0.02304310809586331 0.46579632886357458 0 -0.01064764793798288 0.47621707713326439 0 -0.03238723551033796 0.4792929385189918 0 -0.01250183937419636 0.5 0 -0.01064764793798288 0.47621707713326439 0 -0.03238723551033796 0.4792929385189918 0 -0.01250183937419636 0.5 0 -0.039139819238850897 0.5 0 -0.03238723551033796 0.4792929385189918 0 -0.039139819238850897 0.5 0 -0.03238723551033796 0.4792929385189918 0 -0.055461077255968043 0.48322897654606461 0 -0.05149053627783122 0.46454567803069902 0 -0.03238723551033796 0.4792929385189918 0 -0.055461077255968043 0.48322897654606461 0 -0.05149053627783122 0.46454567803069902 0 -0.055461077255968043 0.48322897654606461 0 -0.067491278228082249 0.47066919548255109 0 -0.039139819238850897 0.5 0 -0.055461077255968043 0.48322897654606461 0 -0.065777799103505119 0.5 0 -0.055461077255968043 0.48322897654606461 0 -0.065777799103505119 0.5 0 -0.076479795177200827 0.48486604724414623 0 -0.065777799103505119 0.5 0 -0.076479795177200827 0.48486604724414623 0 -0.092415778968159362 0.49999999999999939 0 -0.076479795177200827 0.48486604724414623 0 -0.092415778968159362 0.49999999999999939 0 -0.092723774734895084 0.48394691639139442 0 -0.076479795177200827 0.48486604724414623 0 -0.092723774734895084 0.48394691639139442 0 -0.086456347966031549 0.46814817963074512 0 -0.055461077255968043 0.48322897654606461 0 -0.076479795177200827 0.48486604724414623 0 -0.067491278228082249 0.47066919548255109 0 -0.076479795177200827 0.48486604724414623 0 -0.067491278228082249 0.47066919548255109 0 -0.086456347966031549 0.46814817963074512 0 -0.067491278228082249 0.47066919548255109 0 -0.062635022449027175 0.45425512386635758 0 -0.074755919964193243 0.45869860196685552 0 -0.067491278228082249 0.47066919548255109 0 -0.074755919964193243 0.45869860196685552 0 -0.086456347966031549 0.46814817963074512 0 -0.062635022449027175 0.45425512386635758 0 -0.074755919964193243 0.45869860196685552 0 -0.074188538578585136 0.44678648626563983 0 -0.072829289225864 0.43657235218649099 0 -0.063306140560349194 0.442500334121881 0 -0.074188538578585136 0.44678648626563983 0 -0.062635022449027175 0.45425512386635758 0 -0.063306140560349194 0.442500334121881 0 -0.074188538578585136 0.44678648626563983 0 -0.074755919964193243 0.45869860196685552 0 -0.074188538578585136 0.44678648626563983 0 -0.083780442739403507 0.45268387426289891 0 -0.072829289225864 0.43657235218649099 0 -0.074188538578585136 0.44678648626563983 0 -0.082518125034485051 0.44167333765349209 0 -0.074188538578585136 0.44678648626563983 0 -0.082518125034485051 0.44167333765349209 0 -0.083780442739403507 0.45268387426289891 0 -0.083780442739403507 0.45268387426289891 0 -0.092832513515081122 0.44585672208962879 0 -0.093605572514604704 0.45491853116202913 0 -0.082518125034485051 0.44167333765349209 0 -0.083780442739403507 0.45268387426289891 0 -0.092832513515081122 0.44585672208962879 0 -0.091878848516879524 0.43649781636831653 0 -0.082518125034485051 0.44167333765349209 0 -0.092832513515081122 0.44585672208962879 0 -0.074755919964193243 0.45869860196685552 0 -0.083780442739403507 0.45268387426289891 0 -0.086456347966031549 0.46814817963074512 0 -0.083780442739403507 0.45268387426289891 0 -0.093605572514604704 0.45491853116202913 0 -0.086456347966031549 0.46814817963074512 0 -0.086456347966031549 0.46814817963074512 0 -0.1031171296539167 0.46241334890172492 0 -0.10347160021028259 0.47480658632654299 0 -0.093605572514604704 0.45491853116202913 0 -0.086456347966031549 0.46814817963074512 0 -0.1031171296539167 0.46241334890172492 0 -0.093605572514604704 0.45491853116202913 0 -0.1031171296539167 0.46241334890172492 0 -0.10391741271556849 0.45049268883209692 0 -0.1031171296539167 0.46241334890172492 0 -0.10391741271556849 0.45049268883209692 0 -0.1139003908698623 0.45669261702036812 0 -0.091878848516879524 0.43649781636831653 0 -0.092832513515081122 0.44585672208962879 0 -0.102365778850666 0.4391822315065057 0 -0.092832513515081122 0.44585672208962879 0 -0.10391741271556849 0.45049268883209692 0 -0.102365778850666 0.4391822315065057 0 -0.092832513515081122 0.44585672208962879 0 -0.093605572514604704 0.45491853116202913 0 -0.10391741271556849 0.45049268883209692 0 -0.10391741271556849 0.45049268883209692 0 -0.102365778850666 0.4391822315065057 0 -0.11768309088928031 0.4438926823123247 0 -0.13105555655845111 0.45839257278334378 0 -0.11768309088928031 0.4438926823123247 0 -0.1139003908698623 0.45669261702036812 0 -0.10391741271556849 0.45049268883209692 0 -0.11768309088928031 0.4438926823123247 0 -0.1139003908698623 0.45669261702036812 0 -0.13105555655845111 0.45839257278334378 0 -0.1139003908698623 0.45669261702036812 0 -0.1184225529282712 0.46972963768613368 0 -0.1031171296539167 0.46241334890172492 0 -0.1139003908698623 0.45669261702036812 0 -0.1184225529282712 0.46972963768613368 0 -0.1184225529282712 0.46972963768613368 0 -0.1175184600531282 0.48799274604273718 0 -0.10347160021028259 0.47480658632654299 0 -0.092415778968159362 0.49999999999999939 0 -0.1175184600531282 0.48799274604273718 0 -0.1224076461003292 0.5 0 -0.092415778968159362 0.49999999999999939 0 -0.1175184600531282 0.48799274604273718 0 -0.092415778968159362 0.49999999999999939 0 -0.092723774734895084 0.48394691639139442 0 -0.1175184600531282 0.48799274604273718 0 -0.092723774734895084 0.48394691639139442 0 -0.1175184600531282 0.48799274604273718 0 -0.10347160021028259 0.47480658632654299 0 -0.092723774734895084 0.48394691639139442 0 -0.086456347966031549 0.46814817963074512 0 -0.10347160021028259 0.47480658632654299 0 -0.1031171296539167 0.46241334890172492 0 -0.1184225529282712 0.46972963768613368 0 -0.10347160021028259 0.47480658632654299 0 -0.15940859043492361 0.071477193222024102 0 -0.18362975152474079 0.096476395000309245 0 -0.15580781043382111 0.096596361046073359 0 -0.15940859043492361 0.071477193222024102 0 -0.1663200590117403 0.053968285398157803 0 -0.18454642398044779 0.062417075909303878 0 -0.15940859043492361 0.071477193222024102 0 -0.18454642398044779 0.062417075909303878 0 -0.1887399592072404 0.078316061083796615 0 -0.15940859043492361 0.071477193222024102 0 -0.18454642398044779 0.062417075909303878 0 -0.15940859043492361 0.071477193222024102 0 -0.18362975152474079 0.096476395000309245 0 -0.1887399592072404 0.078316061083796615 0 -0.1713341562941321 0.112919956400394 0 -0.18879259228780271 0.1222701031832945 0 -0.1770052701644729 0.13499806750932039 0 -0.18362975152474079 0.096476395000309245 0 -0.1713341562941321 0.112919956400394 0 -0.18879259228780271 0.1222701031832945 0 -0.1713341562941321 0.112919956400394 0 -0.14816739564826539 0.1231039291826278 0 -0.1770052701644729 0.13499806750932039 0 -0.1713341562941321 0.112919956400394 0 -0.15580781043382111 0.096596361046073359 0 -0.14816739564826539 0.1231039291826278 0 -0.18362975152474079 0.096476395000309245 0 -0.1713341562941321 0.112919956400394 0 -0.15580781043382111 0.096596361046073359 0 -0.15580781043382111 0.096596361046073359 0 -0.14816739564826539 0.1231039291826278 0 -0.1378509077199401 0.096143297307685435 0 -0.14816739564826539 0.1231039291826278 0 -0.12657716360276669 0.12310650762350681 0 -0.12875591833246069 0.108057739511321 0 -0.14816739564826539 0.1231039291826278 0 -0.1378509077199401 0.096143297307685435 0 -0.12875591833246069 0.108057739511321 0 -0.1378509077199401 0.096143297307685435 0 -0.12875591833246069 0.108057739511321 0 -0.1249671344832058 0.095321376938317687 0 -0.1378509077199401 0.096143297307685435 0 -0.13427075688939921 0.080537310534744347 0 -0.1249671344832058 0.095321376938317687 0 -0.15580781043382111 0.096596361046073359 0 -0.1378509077199401 0.096143297307685435 0 -0.13427075688939921 0.080537310534744347 0 -0.15940859043492361 0.071477193222024102 0 -0.15580781043382111 0.096596361046073359 0 -0.13427075688939921 0.080537310534744347 0 -0.15940859043492361 0.071477193222024102 0 -0.13427075688939921 0.080537310534744347 0 -0.1397481249632927 0.06024987588356686 0 -0.15940859043492361 0.071477193222024102 0 -0.13427075688939921 0.080537310534744347 0 -0.13427075688939921 0.080537310534744347 0 -0.1397481249632927 0.06024987588356686 0 -0.1151516584172792 0.071401630032271513 0 -0.1397481249632927 0.06024987588356686 0 -0.13269560399203029 0.043481475628475409 0 -0.1211703934906829 0.053205832217077677 0 -0.1397481249632927 0.06024987588356686 0 -0.13269560399203029 0.043481475628475409 0 -0.14900355808579091 0.043008767106318208 0 -0.1397481249632927 0.06024987588356686 0 -0.1151516584172792 0.071401630032271513 0 -0.1211703934906829 0.053205832217077677 0 -0.13269560399203029 0.043481475628475409 0 -0.12122003470389341 0.038313093484726439 0 -0.1211703934906829 0.053205832217077677 0 -0.13269560399203029 0.043481475628475409 0 -0.13691490995235411 0.03145737697176116 0 -0.14900355808579091 0.043008767106318208 0 -0.13269560399203029 0.043481475628475409 0 -0.1281166027561679 0.034653908107402112 0 -0.13691490995235411 0.03145737697176116 0 -0.13269560399203029 0.043481475628475409 0 -0.1281166027561679 0.034653908107402112 0 -0.12122003470389341 0.038313093484726439 0 -0.1281166027561679 0.034653908107402112 0 -0.13691490995235411 0.03145737697176116 0 -0.12876264870797979 0.028507343294626439 0 -0.14900355808579091 0.043008767106318208 0 -0.15028524398060669 0.026754292422516951 0 -0.1670365055793249 0.035879574575104739 0 -0.13691490995235411 0.03145737697176116 0 -0.14900355808579091 0.043008767106318208 0 -0.15028524398060669 0.026754292422516951 0 -0.1397481249632927 0.06024987588356686 0 -0.14900355808579091 0.043008767106318208 0 -0.1663200590117403 0.053968285398157803 0 -0.15940859043492361 0.071477193222024102 0 -0.1397481249632927 0.06024987588356686 0 -0.1663200590117403 0.053968285398157803 0 -0.1417879398993824 -0.0024116532707104642 0 -0.1387338479091183 0.0076093373582494768 0 -0.13171544283719769 0.0035556788566010271 0 -0.13171544283719769 0.0035556788566010271 0 -0.13163606419128959 0.012522060292273939 0 -0.12230137410214451 0.005776940634701893 0 -0.13057995099799841 -0.0048476183902445612 0 -0.13171544283719769 0.0035556788566010271 0 -0.12230137410214451 0.005776940634701893 0 -0.13163606419128959 0.012522060292273939 0 -0.12695807669463399 0.017859165548682821 0 -0.12230137410214451 0.005776940634701893 0 -0.1387338479091183 0.0076093373582494768 0 -0.13163606419128959 0.012522060292273939 0 -0.1401842422721061 0.017572152549137882 0 -0.1387338479091183 0.0076093373582494768 0 -0.13171544283719769 0.0035556788566010271 0 -0.13163606419128959 0.012522060292273939 0 -0.13163606419128959 0.012522060292273939 0 -0.1401842422721061 0.017572152549137882 0 -0.13147783756144121 0.022013361721512411 0 -0.13163606419128959 0.012522060292273939 0 -0.12695807669463399 0.017859165548682821 0 -0.13147783756144121 0.022013361721512411 0 -0.12695807669463399 0.017859165548682821 0 -0.12737987587918459 0.0241155463442107 0 -0.1223209405526835 0.028082314812021121 0 -0.12695807669463399 0.017859165548682821 0 -0.13147783756144121 0.022013361721512411 0 -0.12737987587918459 0.0241155463442107 0 -0.13147783756144121 0.022013361721512411 0 -0.12737987587918459 0.0241155463442107 0 -0.12876264870797979 0.028507343294626439 0 -0.13691490995235411 0.03145737697176116 0 -0.13147783756144121 0.022013361721512411 0 -0.12876264870797979 0.028507343294626439 0 -0.12737987587918459 0.0241155463442107 0 -0.12876264870797979 0.028507343294626439 0 -0.1223209405526835 0.028082314812021121 0 -0.1281166027561679 0.034653908107402112 0 -0.12876264870797979 0.028507343294626439 0 -0.1223209405526835 0.028082314812021121 0 -0.13691490995235411 0.03145737697176116 0 -0.1401842422721061 0.017572152549137882 0 -0.13147783756144121 0.022013361721512411 0 -0.13691490995235411 0.03145737697176116 0 -0.1401842422721061 0.017572152549137882 0 -0.15028524398060669 0.026754292422516951 0 -0.15028524398060669 0.026754292422516951 0 -0.14982015893026829 0.01697076051556581 0 -0.1604655991227448 0.016748148726663411 0 -0.1401842422721061 0.017572152549137882 0 -0.15028524398060669 0.026754292422516951 0 -0.14982015893026829 0.01697076051556581 0 -0.1417879398993824 -0.0024116532707104642 0 -0.1580998636435412 -0.00051526238868952366 0 -0.14834555034561539 0.0068084483639449999 0 -0.1580998636435412 -0.00051526238868952366 0 -0.14834555034561539 0.0068084483639449999 0 -0.1604655991227448 0.016748148726663411 0 -0.1401842422721061 0.017572152549137882 0 -0.14982015893026829 0.01697076051556581 0 -0.14834555034561539 0.0068084483639449999 0 -0.1387338479091183 0.0076093373582494768 0 -0.1401842422721061 0.017572152549137882 0 -0.14834555034561539 0.0068084483639449999 0 -0.14982015893026829 0.01697076051556581 0 -0.14834555034561539 0.0068084483639449999 0 -0.1604655991227448 0.016748148726663411 0 -0.1417879398993824 -0.0024116532707104642 0 -0.1387338479091183 0.0076093373582494768 0 -0.14834555034561539 0.0068084483639449999 0 -0.1580998636435412 -0.00051526238868952366 0 -0.1604655991227448 0.016748148726663411 0 -0.1742163982088388 0.005876272703105305 0 -0.1604655991227448 0.016748148726663411 0 -0.18033308518937069 0.023239854246947099 0 -0.1742163982088388 0.005876272703105305 0 -0.15028524398060669 0.026754292422516951 0 -0.1604655991227448 0.016748148726663411 0 -0.1670365055793249 0.035879574575104739 0 -0.1604655991227448 0.016748148726663411 0 -0.18033308518937069 0.023239854246947099 0 -0.1670365055793249 0.035879574575104739 0 -0.18033308518937069 0.023239854246947099 0 -0.1742163982088388 0.005876272703105305 0 -0.190283724709085 0.01208221348436837 0 -0.1903218184318938 -0.0043180036185569521 0 -0.1742163982088388 0.005876272703105305 0 -0.190283724709085 0.01208221348436837 0 -0.14900355808579091 0.043008767106318208 0 -0.1663200590117403 0.053968285398157803 0 -0.1670365055793249 0.035879574575104739 0 -0.18033308518937069 0.023239854246947099 0 -0.1670365055793249 0.035879574575104739 0 -0.1896350219775485 0.042732703922871103 0 -0.1663200590117403 0.053968285398157803 0 -0.1670365055793249 0.035879574575104739 0 -0.1896350219775485 0.042732703922871103 0 -0.1663200590117403 0.053968285398157803 0 -0.18454642398044779 0.062417075909303878 0 -0.1896350219775485 0.042732703922871103 0 -0.1896350219775485 0.042732703922871103 0 -0.20191668402454599 0.067980781736738966 0 -0.18454642398044779 0.062417075909303878 0 -0.1896350219775485 0.042732703922871103 0 -0.20191668402454599 0.067980781736738966 0 -0.1896350219775485 0.042732703922871103 0 -0.21246009014085329 0.046566823846925648 0 -0.20191668402454599 0.067980781736738966 0 -0.1896350219775485 0.042732703922871103 0 -0.21246009014085329 0.046566823846925648 0 -0.20036126153868261 0.026120212069569659 0 -0.21246009014085329 0.046566823846925648 0 -0.20036126153868261 0.026120212069569659 0 -0.22214124443510699 0.02496321786674514 0 -0.21246009014085329 0.046566823846925648 0 -0.2206679531713282 0.066283001116438534 0 -0.20191668402454599 0.067980781736738966 0 -0.190283724709085 0.01208221348436837 0 -0.20036126153868261 0.026120212069569659 0 -0.2065817610270263 0.0075071539919539312 0 -0.1903218184318938 -0.0043180036185569521 0 -0.190283724709085 0.01208221348436837 0 -0.2065817610270263 0.0075071539919539312 0 -0.18033308518937069 0.023239854246947099 0 -0.190283724709085 0.01208221348436837 0 -0.20036126153868261 0.026120212069569659 0 -0.18033308518937069 0.023239854246947099 0 -0.1896350219775485 0.042732703922871103 0 -0.20036126153868261 0.026120212069569659 0 -0.20036126153868261 0.026120212069569659 0 -0.2065817610270263 0.0075071539919539312 0 -0.22214124443510699 0.02496321786674514 0 -0.2283891854478462 -0.00083030875624854825 0 -0.22214124443510699 0.02496321786674514 0 -0.24312134646853831 0.01450623166043024 0 -0.2283891854478462 -0.00083030875624854825 0 -0.22214124443510699 0.02496321786674514 0 -0.2283891854478462 -0.00083030875624854825 0 -0.2065817610270263 0.0075071539919539312 0 -0.22214124443510699 0.02496321786674514 0 -0.22214124443510699 0.02496321786674514 0 -0.2389047369610883 0.029952140539484601 0 -0.24312134646853831 0.01450623166043024 0 -0.25249222007733008 0.024067731356460301 0 -0.2389047369610883 0.029952140539484601 0 -0.24312134646853831 0.01450623166043024 0 -0.2283891854478462 -0.00083030875624854825 0 -0.25294301608417369 -0.0039445141545991248 0 -0.24312134646853831 0.01450623166043024 0 -0.21246009014085329 0.046566823846925648 0 -0.22958443759696021 0.045461423057167577 0 -0.2206679531713282 0.066283001116438534 0 -0.22958443759696021 0.045461423057167577 0 -0.23500643339697541 0.063066863111628069 0 -0.2206679531713282 0.066283001116438534 0 -0.22214124443510699 0.02496321786674514 0 -0.2389047369610883 0.029952140539484601 0 -0.22958443759696021 0.045461423057167577 0 -0.21246009014085329 0.046566823846925648 0 -0.22214124443510699 0.02496321786674514 0 -0.22958443759696021 0.045461423057167577 0 -0.2389047369610883 0.029952140539484601 0 -0.22958443759696021 0.045461423057167577 0 -0.24640506611100191 0.039844229913112879 0 -0.25249222007733008 0.024067731356460301 0 -0.2389047369610883 0.029952140539484601 0 -0.24640506611100191 0.039844229913112879 0 -0.22958443759696021 0.045461423057167577 0 -0.24640506611100191 0.039844229913112879 0 -0.23500643339697541 0.063066863111628069 0 -0.25799236876567688 0.045663256659938221 0 -0.24640506611100191 0.039844229913112879 0 -0.23500643339697541 0.063066863111628069 0 -0.25434312613861959 0.066411686048620314 0 -0.25749231291970759 0.056531848829054293 0 -0.23500643339697541 0.063066863111628069 0 -0.25799236876567688 0.045663256659938221 0 -0.23500643339697541 0.063066863111628069 0 -0.25434312613861959 0.066411686048620314 0 -0.23500643339697541 0.063066863111628069 0 -0.24788998695731221 0.077642454016861165 0 -0.23500643339697541 0.063066863111628069 0 -0.24788998695731221 0.077642454016861165 0 -0.23084172779709081 0.081393255395564135 0 -0.24788998695731221 0.077642454016861165 0 -0.24303933278011891 0.091192920881186912 0 -0.23084172779709081 0.081393255395564135 0 -0.24303933278011891 0.091192920881186912 0 -0.23084172779709081 0.081393255395564135 0 -0.22861851435120409 0.1000165098566603 0 -0.23084172779709081 0.081393255395564135 0 -0.21419834607154359 0.093228859550606849 0 -0.22861851435120409 0.1000165098566603 0 -0.23084172779709081 0.081393255395564135 0 -0.2206679531713282 0.066283001116438534 0 -0.21419834607154359 0.093228859550606849 0 -0.23500643339697541 0.063066863111628069 0 -0.23084172779709081 0.081393255395564135 0 -0.2206679531713282 0.066283001116438534 0 -0.2206679531713282 0.066283001116438534 0 -0.21419834607154359 0.093228859550606849 0 -0.20191668402454599 0.067980781736738966 0 -0.21419834607154359 0.093228859550606849 0 -0.20191668402454599 0.067980781736738966 0 -0.18362975152474079 0.096476395000309245 0 -0.21419834607154359 0.093228859550606849 0 -0.1887399592072404 0.078316061083796615 0 -0.21419834607154359 0.093228859550606849 0 -0.1887399592072404 0.078316061083796615 0 -0.20191668402454599 0.067980781736738966 0 -0.18454642398044779 0.062417075909303878 0 -0.1887399592072404 0.078316061083796615 0 -0.20191668402454599 0.067980781736738966 0 -0.18879259228780271 0.1222701031832945 0 -0.2056573371532335 0.11299472516303211 0 -0.20433011423770059 0.1344860433190595 0 -0.18362975152474079 0.096476395000309245 0 -0.18879259228780271 0.1222701031832945 0 -0.2056573371532335 0.11299472516303211 0 -0.18362975152474079 0.096476395000309245 0 -0.21419834607154359 0.093228859550606849 0 -0.2056573371532335 0.11299472516303211 0 -0.21419834607154359 0.093228859550606849 0 -0.2056573371532335 0.11299472516303211 0 -0.2264800081185411 0.1184769373644747 0 -0.2056573371532335 0.11299472516303211 0 -0.2264800081185411 0.1184769373644747 0 -0.21602023872387879 0.12733263826939481 0 -0.2056573371532335 0.11299472516303211 0 -0.20433011423770059 0.1344860433190595 0 -0.21602023872387879 0.12733263826939481 0 -0.2264800081185411 0.1184769373644747 0 -0.22861851435120409 0.1000165098566603 0 -0.2344876005653494 0.1123110678072272 0 -0.2264800081185411 0.1184769373644747 0 -0.22877738876331219 0.12843873876545001 0 -0.21602023872387879 0.12733263826939481 0 -0.2264800081185411 0.1184769373644747 0 -0.2365597549691088 0.12328481764405561 0 -0.22877738876331219 0.12843873876545001 0 -0.2264800081185411 0.1184769373644747 0 -0.2365597549691088 0.12328481764405561 0 -0.2344876005653494 0.1123110678072272 0 -0.21419834607154359 0.093228859550606849 0 -0.2264800081185411 0.1184769373644747 0 -0.21419834607154359 0.093228859550606849 0 -0.2264800081185411 0.1184769373644747 0 -0.22861851435120409 0.1000165098566603 0 -0.25072939394446242 0.10778156506337259 0 -0.24152155323770519 0.1022028097380961 0 -0.2344876005653494 0.1123110678072272 0 -0.24303933278011891 0.091192920881186912 0 -0.22861851435120409 0.1000165098566603 0 -0.24152155323770519 0.1022028097380961 0 -0.22861851435120409 0.1000165098566603 0 -0.24152155323770519 0.1022028097380961 0 -0.2344876005653494 0.1123110678072272 0 -0.2525350539876744 0.099588398652101742 0 -0.25072939394446242 0.10778156506337259 0 -0.24152155323770519 0.1022028097380961 0 -0.2525350539876744 0.099588398652101742 0 -0.24303933278011891 0.091192920881186912 0 -0.24152155323770519 0.1022028097380961 0 -0.2620321675666325 0.11900809124661969 0 -0.2344876005653494 0.1123110678072272 0 -0.2620321675666325 0.11900809124661969 0 -0.25072939394446242 0.10778156506337259 0 -0.2344876005653494 0.1123110678072272 0 -0.2620321675666325 0.11900809124661969 0 -0.2365597549691088 0.12328481764405561 0 -0.2344876005653494 0.1123110678072272 0 -0.2620321675666325 0.11900809124661969 0 -0.2365597549691088 0.12328481764405561 0 -0.24375256804740261 0.13440458663971991 0 -0.2365597549691088 0.12328481764405561 0 -0.24375256804740261 0.13440458663971991 0 -0.22877738876331219 0.12843873876545001 0 -0.24375256804740261 0.13440458663971991 0 -0.22877738876331219 0.12843873876545001 0 -0.2251245581746659 0.1388828908699534 0 -0.22877738876331219 0.12843873876545001 0 -0.2251245581746659 0.1388828908699534 0 -0.21602023872387879 0.12733263826939481 0 -0.2251245581746659 0.1388828908699534 0 -0.23788274734181011 0.15021578604015701 0 -0.21975777736412641 0.15785006925841921 0 -0.24375256804740261 0.13440458663971991 0 -0.2251245581746659 0.1388828908699534 0 -0.23788274734181011 0.15021578604015701 0 -0.2579810565534168 0.148210593847102 0 -0.24375256804740261 0.13440458663971991 0 -0.23788274734181011 0.15021578604015701 0 -0.2579810565534168 0.148210593847102 0 -0.23788274734181011 0.15021578604015701 0 -0.24279777656943871 0.1717307895855901 0 -0.24279777656943871 0.1717307895855901 0 -0.22244009867183739 0.18111139551371469 0 -0.24164847853012569 0.2013249750850542 0 -0.2654345765159446 0.1793111017148519 0 -0.24279777656943871 0.1717307895855901 0 -0.24164847853012569 0.2013249750850542 0 -0.24279777656943871 0.1717307895855901 0 -0.22244009867183739 0.18111139551371469 0 -0.21975777736412641 0.15785006925841921 0 -0.23788274734181011 0.15021578604015701 0 -0.24279777656943871 0.1717307895855901 0 -0.21975777736412641 0.15785006925841921 0 -0.21975777736412641 0.15785006925841921 0 -0.2021015710991772 0.17273829677170341 0 -0.19978637735189769 0.15419603442676 0 -0.22244009867183739 0.18111139551371469 0 -0.21975777736412641 0.15785006925841921 0 -0.2021015710991772 0.17273829677170341 0 -0.22244009867183739 0.18111139551371469 0 -0.2021015710991772 0.17273829677170341 0 -0.20324783835908641 0.18947041956307389 0 -0.2021015710991772 0.17273829677170341 0 -0.20324783835908641 0.18947041956307389 0 -0.18634912604029141 0.19141475840509481 0 -0.2021015710991772 0.17273829677170341 0 -0.18634912604029141 0.19141475840509481 0 -0.18167719810238209 0.16320641295720759 0 -0.2021015710991772 0.17273829677170341 0 -0.19978637735189769 0.15419603442676 0 -0.18167719810238209 0.16320641295720759 0 -0.19978637735189769 0.15419603442676 0 -0.19079892435253629 0.14174543170765169 0 -0.18167719810238209 0.16320641295720759 0 -0.19978637735189769 0.15419603442676 0 -0.19079892435253629 0.14174543170765169 0 -0.20433011423770059 0.1344860433190595 0 -0.18879259228780271 0.1222701031832945 0 -0.19079892435253629 0.14174543170765169 0 -0.20433011423770059 0.1344860433190595 0 -0.2251245581746659 0.1388828908699534 0 -0.20433011423770059 0.1344860433190595 0 -0.21602023872387879 0.12733263826939481 0 -0.2251245581746659 0.1388828908699534 0 -0.21975777736412641 0.15785006925841921 0 -0.20433011423770059 0.1344860433190595 0 -0.21975777736412641 0.15785006925841921 0 -0.19978637735189769 0.15419603442676 0 -0.20433011423770059 0.1344860433190595 0 -0.24171017555263449 0.26216460468462471 0 -0.2293437786670241 0.23519656531734831 0 -0.21365426342473709 0.2496874146368894 0 -0.25908863043855029 0.2411351193443326 0 -0.24171017555263449 0.26216460468462471 0 -0.2293437786670241 0.23519656531734831 0 -0.24171017555263449 0.26216460468462471 0 -0.2293437786670241 0.23519656531734831 0 -0.25059512117356458 0.21888907334571511 0 -0.2293437786670241 0.23519656531734831 0 -0.22616393970335519 0.21567737492556799 0 -0.25059512117356458 0.21888907334571511 0 -0.25908863043855029 0.2411351193443326 0 -0.2293437786670241 0.23519656531734831 0 -0.2293437786670241 0.23519656531734831 0 -0.22616393970335519 0.21567737492556799 0 -0.2114801678462844 0.23155031524981301 0 -0.22616393970335519 0.21567737492556799 0 -0.24164847853012569 0.2013249750850542 0 -0.21433742402068889 0.19982670629004751 0 -0.25059512117356458 0.21888907334571511 0 -0.22616393970335519 0.21567737492556799 0 -0.24164847853012569 0.2013249750850542 0 -0.24164847853012569 0.2013249750850542 0 -0.21433742402068889 0.19982670629004751 0 -0.22244009867183739 0.18111139551371469 0 -0.24164847853012569 0.2013249750850542 0 -0.21433742402068889 0.19982670629004751 0 -0.22244009867183739 0.18111139551371469 0 -0.21433742402068889 0.19982670629004751 0 -0.20324783835908641 0.18947041956307389 0 -0.21433742402068889 0.19982670629004751 0 -0.20324783835908641 0.18947041956307389 0 -0.1999073794359493 0.20342765482000141 0 -0.20324783835908641 0.18947041956307389 0 -0.1999073794359493 0.20342765482000141 0 -0.18634912604029141 0.19141475840509481 0 -0.19102105397820071 0.21962310385298181 0 -0.18634912604029141 0.19141475840509481 0 -0.1999073794359493 0.20342765482000141 0 -0.20643487300491931 0.2170463514023904 0 -0.19102105397820071 0.21962310385298181 0 -0.1999073794359493 0.20342765482000141 0 -0.19102105397820071 0.21962310385298181 0 -0.18634912604029141 0.19141475840509481 0 -0.21433742402068889 0.19982670629004751 0 -0.1999073794359493 0.20342765482000141 0 -0.20643487300491931 0.2170463514023904 0 -0.22616393970335519 0.21567737492556799 0 -0.21433742402068889 0.19982670629004751 0 -0.20643487300491931 0.2170463514023904 0 -0.22616393970335519 0.21567737492556799 0 -0.20643487300491931 0.2170463514023904 0 -0.2114801678462844 0.23155031524981301 0 -0.2114801678462844 0.23155031524981301 0 -0.19935772842533439 0.2278065414546494 0 -0.2011445960308848 0.23975207852801711 0 -0.20643487300491931 0.2170463514023904 0 -0.2114801678462844 0.23155031524981301 0 -0.19935772842533439 0.2278065414546494 0 -0.20643487300491931 0.2170463514023904 0 -0.19102105397820071 0.21962310385298181 0 -0.19935772842533439 0.2278065414546494 0 -0.19102105397820071 0.21962310385298181 0 -0.19935772842533439 0.2278065414546494 0 -0.18670795126638279 0.23106085824004469 0 -0.19935772842533439 0.2278065414546494 0 -0.2011445960308848 0.23975207852801711 0 -0.18670795126638279 0.23106085824004469 0 -0.19626025269296349 0.25781805234130623 0 -0.18670795126638279 0.23106085824004469 0 -0.19626025269296349 0.25781805234130623 0 -0.18101791975181741 0.24719309672024251 0 -0.18670795126638279 0.23106085824004469 0 -0.19626025269296349 0.25781805234130623 0 -0.2011445960308848 0.23975207852801711 0 -0.18670795126638279 0.23106085824004469 0 -0.2293437786670241 0.23519656531734831 0 -0.2114801678462844 0.23155031524981301 0 -0.21365426342473709 0.2496874146368894 0 -0.19626025269296349 0.25781805234130623 0 -0.2011445960308848 0.23975207852801711 0 -0.21365426342473709 0.2496874146368894 0 -0.2114801678462844 0.23155031524981301 0 -0.2011445960308848 0.23975207852801711 0 -0.21365426342473709 0.2496874146368894 0 -0.15294642574990741 0.25604946101299991 0 -0.16577386047382259 0.24751986018205691 0 -0.15490919601680381 0.23593993741640021 0 -0.1675572366223399 0.23530736372720851 0 -0.16577386047382259 0.24751986018205691 0 -0.15490919601680381 0.23593993741640021 0 -0.1675572366223399 0.23530736372720851 0 -0.16577386047382259 0.24751986018205691 0 -0.18101791975181741 0.24719309672024251 0 -0.18101791975181741 0.24719309672024251 0 -0.17413155363094401 0.22209575776036469 0 -0.1675572366223399 0.23530736372720851 0 -0.18101791975181741 0.24719309672024251 0 -0.17413155363094401 0.22209575776036469 0 -0.18101791975181741 0.24719309672024251 0 -0.18670795126638279 0.23106085824004469 0 -0.17413155363094401 0.22209575776036469 0 -0.18670795126638279 0.23106085824004469 0 -0.17413155363094401 0.22209575776036469 0 -0.1771556498398022 0.20430366413878329 0 -0.17413155363094401 0.22209575776036469 0 -0.1619536532383119 0.22378816655697839 0 -0.15952571421577949 0.21131668058337019 0 -0.1675572366223399 0.23530736372720851 0 -0.17413155363094401 0.22209575776036469 0 -0.1619536532383119 0.22378816655697839 0 -0.1675572366223399 0.23530736372720851 0 -0.1619536532383119 0.22378816655697839 0 -0.15490919601680381 0.23593993741640021 0 -0.17413155363094401 0.22209575776036469 0 -0.16724518751007059 0.1969984188004871 0 -0.17413155363094401 0.22209575776036469 0 -0.15952571421577949 0.21131668058337019 0 -0.16724518751007059 0.1969984188004871 0 -0.17413155363094401 0.22209575776036469 0 -0.1771556498398022 0.20430366413878329 0 -0.16724518751007059 0.1969984188004871 0 -0.18670795126638279 0.23106085824004469 0 -0.1771556498398022 0.20430366413878329 0 -0.19102105397820071 0.21962310385298181 0 -0.1771556498398022 0.20430366413878329 0 -0.18634912604029141 0.19141475840509481 0 -0.19102105397820071 0.21962310385298181 0 -0.18670795126638279 0.23106085824004469 0 -0.1771556498398022 0.20430366413878329 0 -0.1771556498398022 0.20430366413878329 0 -0.1675190490566659 0.17757656485467041 0 -0.1771556498398022 0.20430366413878329 0 -0.18634912604029141 0.19141475840509481 0 -0.1675190490566659 0.17757656485467041 0 -0.16724518751007059 0.1969984188004871 0 -0.14813250727804039 0.19645231862167489 0 -0.1550926531764252 0.18702668824866039 0 -0.15952571421577949 0.21131668058337019 0 -0.16724518751007059 0.1969984188004871 0 -0.14813250727804039 0.19645231862167489 0 -0.1771556498398022 0.20430366413878329 0 -0.16724518751007059 0.1969984188004871 0 -0.1675190490566659 0.17757656485467041 0 -0.14813250727804039 0.19645231862167489 0 -0.12941209069554571 0.2003431763722219 0 -0.13747386886092389 0.17707945071780951 0 -0.12941209069554571 0.2003431763722219 0 -0.1281562246320897 0.2175770626991623 0 -0.14616566942153059 0.21724874117734599 0 -0.14813250727804039 0.19645231862167489 0 -0.12941209069554571 0.2003431763722219 0 -0.14616566942153059 0.21724874117734599 0 -0.15952571421577949 0.21131668058337019 0 -0.14813250727804039 0.19645231862167489 0 -0.14616566942153059 0.21724874117734599 0 -0.1619536532383119 0.22378816655697839 0 -0.15952571421577949 0.21131668058337019 0 -0.14616566942153059 0.21724874117734599 0 -0.1619536532383119 0.22378816655697839 0 -0.14616566942153059 0.21724874117734599 0 -0.15490919601680381 0.23593993741640021 0 -0.14616566942153059 0.21724874117734599 0 -0.1318290496093541 0.2355433548754689 0 -0.15490919601680381 0.23593993741640021 0 -0.1281562246320897 0.2175770626991623 0 -0.14616566942153059 0.21724874117734599 0 -0.1318290496093541 0.2355433548754689 0 -0.15294642574990741 0.25604946101299991 0 -0.1318290496093541 0.2355433548754689 0 -0.15490919601680381 0.23593993741640021 0 -0.14816739564826539 0.1231039291826278 0 -0.1578853720307434 0.15032519961007479 0 -0.1770052701644729 0.13499806750932039 0 -0.18879259228780271 0.1222701031832945 0 -0.19079892435253629 0.14174543170765169 0 -0.1770052701644729 0.13499806750932039 0 -0.19079892435253629 0.14174543170765169 0 -0.1770052701644729 0.13499806750932039 0 -0.18167719810238209 0.16320641295720759 0 -0.1770052701644729 0.13499806750932039 0 -0.18167719810238209 0.16320641295720759 0 -0.1578853720307434 0.15032519961007479 0 -0.1770052701644729 0.13499806750932039 0 -0.18167719810238209 0.16320641295720759 0 -0.18634912604029141 0.19141475840509481 0 -0.18167719810238209 0.16320641295720759 0 -0.18634912604029141 0.19141475840509481 0 -0.18167719810238209 0.16320641295720759 0 -0.1675190490566659 0.17757656485467041 0 -0.16724518751007059 0.1969984188004871 0 -0.1675190490566659 0.17757656485467041 0 -0.1550926531764252 0.18702668824866039 0 -0.1578853720307434 0.15032519961007479 0 -0.18167719810238209 0.16320641295720759 0 -0.1675190490566659 0.17757656485467041 0 -0.1578853720307434 0.15032519961007479 0 -0.1675190490566659 0.17757656485467041 0 -0.1578853720307434 0.15032519961007479 0 -0.1675190490566659 0.17757656485467041 0 -0.13747386886092389 0.17707945071780951 0 -0.1578853720307434 0.15032519961007479 0 -0.13747386886092389 0.17707945071780951 0 -0.1359079242987884 0.15653397658697829 0 -0.14813250727804039 0.19645231862167489 0 -0.1550926531764252 0.18702668824866039 0 -0.13747386886092389 0.17707945071780951 0 -0.1675190490566659 0.17757656485467041 0 -0.13747386886092389 0.17707945071780951 0 -0.1675190490566659 0.17757656485467041 0 -0.1550926531764252 0.18702668824866039 0 -0.13747386886092389 0.17707945071780951 0 -0.13747386886092389 0.17707945071780951 0 -0.1359079242987884 0.15653397658697829 0 -0.1074286886651819 0.1765823365809486 0 -0.1359079242987884 0.15653397658697829 0 -0.13191827894755451 0.13733086437048289 0 -0.1158772011211894 0.15170294992438119 0 -0.1578853720307434 0.15032519961007479 0 -0.1359079242987884 0.15653397658697829 0 -0.13191827894755451 0.13733086437048289 0 -0.14816739564826539 0.1231039291826278 0 -0.1578853720307434 0.15032519961007479 0 -0.14816739564826539 0.1231039291826278 0 -0.1578853720307434 0.15032519961007479 0 -0.13191827894755451 0.13733086437048289 0 -0.14816739564826539 0.1231039291826278 0 -0.12657716360276669 0.12310650762350681 0 -0.13191827894755451 0.13733086437048289 0 -0.12657716360276669 0.12310650762350681 0 -0.13191827894755451 0.13733086437048289 0 -0.1170845323107038 0.1344741454535513 0 -0.12657716360276669 0.12310650762350681 0 -0.1170845323107038 0.1344741454535513 0 -0.114713447798675 0.1218234311603321 0 -0.1170845323107038 0.1344741454535513 0 -0.10680865697662149 0.12845956652096779 0 -0.1060704032384807 0.1401034049915594 0 -0.1170845323107038 0.1344741454535513 0 -0.10680865697662149 0.12845956652096779 0 -0.114713447798675 0.1218234311603321 0 -0.10680865697662149 0.12845956652096779 0 -0.1060704032384807 0.1401034049915594 0 -0.096263605355771234 0.12850386005873851 0 -0.1060704032384807 0.1401034049915594 0 -0.096263605355771234 0.12850386005873851 0 -0.093518905059209595 0.13680161881542749 0 -0.1060704032384807 0.1401034049915594 0 -0.096263605355771234 0.12850386005873851 0 -0.096263605355771234 0.12850386005873851 0 -0.093518905059209595 0.13680161881542749 0 -0.1060704032384807 0.1401034049915594 0 -0.098981601339243899 0.1464427113123884 0 -0.1158772011211894 0.15170294992438119 0 -0.098981601339243899 0.1464427113123884 0 -0.1158772011211894 0.15170294992438119 0 -0.093348966133319972 0.15791267304327269 0 -0.1060704032384807 0.1401034049915594 0 -0.098981601339243899 0.1464427113123884 0 -0.093518905059209595 0.13680161881542749 0 -0.13191827894755451 0.13733086437048289 0 -0.1170845323107038 0.1344741454535513 0 -0.1158772011211894 0.15170294992438119 0 -0.1170845323107038 0.1344741454535513 0 -0.1060704032384807 0.1401034049915594 0 -0.1158772011211894 0.15170294992438119 0 -0.1060704032384807 0.1401034049915594 0 -0.1158772011211894 0.15170294992438119 0 -0.1359079242987884 0.15653397658697829 0 -0.1158772011211894 0.15170294992438119 0 -0.1074286886651819 0.1765823365809486 0 -0.12941209069554571 0.2003431763722219 0 -0.13747386886092389 0.17707945071780951 0 -0.1074286886651819 0.1765823365809486 0 -0.13747386886092389 0.17707945071780951 0 -0.1074286886651819 0.1765823365809486 0 -0.1158772011211894 0.15170294992438119 0 -0.1074286886651819 0.1765823365809486 0 -0.093348966133319972 0.15791267304327269 0 -0.1074286886651819 0.1765823365809486 0 -0.093348966133319972 0.15791267304327269 0 -0.077383508469439893 0.17608522244408831 0 -0.093348966133319972 0.15791267304327269 0 -0.077383508469439893 0.17608522244408831 0 -0.075674466385079131 0.1507594679240695 0 -0.077383508469439893 0.17608522244408831 0 -0.094104768198070107 0.19183787015208359 0 -0.078570852937688632 0.1936801048691871 0 -0.1074286886651819 0.1765823365809486 0 -0.077383508469439893 0.17608522244408831 0 -0.1074286886651819 0.1765823365809486 0 -0.077383508469439893 0.17608522244408831 0 -0.094104768198070107 0.19183787015208359 0 -0.077383508469439893 0.17608522244408831 0 -0.063477692443392547 0.18996063418990319 0 -0.056598737505764149 0.17574132690376659 0 -0.077383508469439893 0.17608522244408831 0 -0.078570852937688632 0.1936801048691871 0 -0.063477692443392547 0.18996063418990319 0 -0.077383508469439893 0.17608522244408831 0 -0.078570852937688632 0.1936801048691871 0 -0.077383508469439893 0.17608522244408831 0 -0.056598737505764149 0.17574132690376659 0 -0.077383508469439893 0.17608522244408831 0 -0.075674466385079131 0.1507594679240695 0 -0.061107191160310888 0.16064807737017561 0 -0.077383508469439893 0.17608522244408831 0 -0.075674466385079131 0.1507594679240695 0 -0.077383508469439893 0.17608522244408831 0 -0.061107191160310888 0.16064807737017561 0 -0.056598737505764149 0.17574132690376659 0 -0.075674466385079131 0.1507594679240695 0 -0.053165940977139198 0.14274999722987741 0 -0.061107191160310888 0.16064807737017561 0 -0.073965424300725419 0.12543371340405049 0 -0.053165940977139198 0.14274999722987741 0 -0.061592657402914572 0.1201060039517301 0 -0.075674466385079131 0.1507594679240695 0 -0.073965424300725419 0.12543371340405049 0 -0.053165940977139198 0.14274999722987741 0 -0.075674466385079131 0.1507594679240695 0 -0.073965424300725419 0.12543371340405049 0 -0.084066767845300233 0.13135145576561361 0 -0.075674466385079131 0.1507594679240695 0 -0.073965424300725419 0.12543371340405049 0 -0.096263605355771234 0.12850386005873851 0 -0.084066767845300233 0.13135145576561361 0 -0.093518905059209595 0.13680161881542749 0 -0.084066767845300233 0.13135145576561361 0 -0.093518905059209595 0.13680161881542749 0 -0.088253681292884634 0.14495053520505341 0 -0.075674466385079131 0.1507594679240695 0 -0.084066767845300233 0.13135145576561361 0 -0.088253681292884634 0.14495053520505341 0 -0.093348966133319972 0.15791267304327269 0 -0.075674466385079131 0.1507594679240695 0 -0.088253681292884634 0.14495053520505341 0 -0.098981601339243899 0.1464427113123884 0 -0.093518905059209595 0.13680161881542749 0 -0.088253681292884634 0.14495053520505341 0 -0.098981601339243899 0.1464427113123884 0 -0.093348966133319972 0.15791267304327269 0 -0.088253681292884634 0.14495053520505341 0 -0.1118890512575265 0.25409267622051801 0 -0.091615337555515847 0.25249170529676312 0 -0.1010300293153446 0.241879223297428 0 -0.1118890512575265 0.25409267622051801 0 -0.1010300293153446 0.241879223297428 0 -0.10933410624300539 0.22859109864447269 0 -0.091615337555515847 0.25249170529676312 0 -0.1010300293153446 0.241879223297428 0 -0.091281622205330648 0.23234141302795841 0 -0.1118890512575265 0.25409267622051801 0 -0.1318290496093541 0.2355433548754689 0 -0.10933410624300539 0.22859109864447269 0 -0.1118890512575265 0.25409267622051801 0 -0.1318290496093541 0.2355433548754689 0 -0.1281562246320897 0.2175770626991623 0 -0.1318290496093541 0.2355433548754689 0 -0.10933410624300539 0.22859109864447269 0 -0.10933410624300539 0.22859109864447269 0 -0.087340904216534523 0.21341548852242259 0 -0.091281622205330648 0.23234141302795841 0 -0.1010300293153446 0.241879223297428 0 -0.10933410624300539 0.22859109864447269 0 -0.091281622205330648 0.23234141302795841 0 -0.10933410624300539 0.22859109864447269 0 -0.1091046884750333 0.20461448179775321 0 -0.087340904216534523 0.21341548852242259 0 -0.1091046884750333 0.20461448179775321 0 -0.094104768198070107 0.19183787015208359 0 -0.087340904216534523 0.21341548852242259 0 -0.1281562246320897 0.2175770626991623 0 -0.10933410624300539 0.22859109864447269 0 -0.1091046884750333 0.20461448179775321 0 -0.12941209069554571 0.2003431763722219 0 -0.1281562246320897 0.2175770626991623 0 -0.1091046884750333 0.20461448179775321 0 -0.12941209069554571 0.2003431763722219 0 -0.1074286886651819 0.1765823365809486 0 -0.1091046884750333 0.20461448179775321 0 -0.1074286886651819 0.1765823365809486 0 -0.1091046884750333 0.20461448179775321 0 -0.094104768198070107 0.19183787015208359 0 -0.094104768198070107 0.19183787015208359 0 -0.078570852937688632 0.1936801048691871 0 -0.087340904216534523 0.21341548852242259 0 -0.078570852937688632 0.1936801048691871 0 -0.063477692443392547 0.18996063418990319 0 -0.067259206873907254 0.20503836957862939 0 -0.067259206873907254 0.20503836957862939 0 -0.087340904216534523 0.21341548852242259 0 -0.067344349307093057 0.22041781288693049 0 -0.078570852937688632 0.1936801048691871 0 -0.067259206873907254 0.20503836957862939 0 -0.087340904216534523 0.21341548852242259 0 -0.067259206873907254 0.20503836957862939 0 -0.067344349307093057 0.22041781288693049 0 -0.053258759730467523 0.21845460250718901 0 -0.087340904216534523 0.21341548852242259 0 -0.091281622205330648 0.23234141302795841 0 -0.076260868936149348 0.23307789877714921 0 -0.067344349307093057 0.22041781288693049 0 -0.076260868936149348 0.23307789877714921 0 -0.058509586977111193 0.23439253932339671 0 -0.087340904216534523 0.21341548852242259 0 -0.067344349307093057 0.22041781288693049 0 -0.076260868936149348 0.23307789877714921 0 -0.076260868936149348 0.23307789877714921 0 -0.067806062199156719 0.24530920727196051 0 -0.058509586977111193 0.23439253932339671 0 -0.076260868936149348 0.23307789877714921 0 -0.067806062199156719 0.24530920727196051 0 -0.080483036429240096 0.2440327700363463 0 -0.075451291250047903 0.25694362580790031 0 -0.067806062199156719 0.24530920727196051 0 -0.080483036429240096 0.2440327700363463 0 -0.091615337555515847 0.25249170529676312 0 -0.091281622205330648 0.23234141302795841 0 -0.091615337555515847 0.25249170529676312 0 -0.091281622205330648 0.23234141302795841 0 -0.080483036429240096 0.2440327700363463 0 -0.091281622205330648 0.23234141302795841 0 -0.076260868936149348 0.23307789877714921 0 -0.080483036429240096 0.2440327700363463 0 -0.05221810329459884 0.25065852250401982 0 -0.029371611893066269 0.25645655512449222 0 -0.038190801557791781 0.2365800575918352 0 -0.05221810329459884 0.25065852250401982 0 -0.067806062199156719 0.24530920727196051 0 -0.058509586977111193 0.23439253932339671 0 -0.05221810329459884 0.25065852250401982 0 -0.038190801557791781 0.2365800575918352 0 -0.058509586977111193 0.23439253932339671 0 -0.038190801557791781 0.2365800575918352 0 -0.058509586977111193 0.23439253932339671 0 -0.053258759730467523 0.21845460250718901 0 -0.067344349307093057 0.22041781288693049 0 -0.058509586977111193 0.23439253932339671 0 -0.053258759730467523 0.21845460250718901 0 -0.038190801557791781 0.2365800575918352 0 -0.038115828332247692 0.21185598794506141 0 -0.053258759730467523 0.21845460250718901 0 -0.038190801557791781 0.2365800575918352 0 -0.038115828332247692 0.21185598794506141 0 -0.0228269517655076 0.21267181858831391 0 -0.038115828332247692 0.21185598794506141 0 -0.050132785334654192 0.20244284771728099 0 -0.034418804279601353 0.19786223145348941 0 -0.038115828332247692 0.21185598794506141 0 -0.034418804279601353 0.19786223145348941 0 -0.0228269517655076 0.21267181858831391 0 -0.038115828332247692 0.21185598794506141 0 -0.053258759730467523 0.21845460250718901 0 -0.050132785334654192 0.20244284771728099 0 -0.067259206873907254 0.20503836957862939 0 -0.053258759730467523 0.21845460250718901 0 -0.050132785334654192 0.20244284771728099 0 -0.063477692443392547 0.18996063418990319 0 -0.067259206873907254 0.20503836957862939 0 -0.050132785334654192 0.20244284771728099 0 -0.063477692443392547 0.18996063418990319 0 -0.050132785334654192 0.20244284771728099 0 -0.044923654789074598 0.1877001939917283 0 -0.044923654789074598 0.1877001939917283 0 -0.034418804279601353 0.19786223145348941 0 -0.029099942628946961 0.18479669232248391 0 -0.050132785334654192 0.20244284771728099 0 -0.044923654789074598 0.1877001939917283 0 -0.034418804279601353 0.19786223145348941 0 -0.022302768432227591 0.1933997611938317 0 -0.007463101973223427 0.18876357958479281 0 -0.0228269517655076 0.21267181858831391 0 -0.034418804279601353 0.19786223145348941 0 -0.022302768432227591 0.1933997611938317 0 -0.0228269517655076 0.21267181858831391 0 -0.034418804279601353 0.19786223145348941 0 -0.022302768432227591 0.1933997611938317 0 -0.029099942628946961 0.18479669232248391 0 -0.022302768432227591 0.1933997611938317 0 -0.007463101973223427 0.18876357958479281 0 -0.017705041513858509 0.1829044840200785 0 -0.007463101973223427 0.18876357958479281 0 -0.005275676271668802 0.21774829851582531 0 0.002753366196703856 0.20115536479644069 0 -0.007463101973223427 0.18876357958479281 0 -0.0228269517655076 0.21267181858831391 0 -0.007463101973223427 0.18876357958479281 0 -0.005275676271668802 0.21774829851582531 0 -0.007463101973223427 0.18876357958479281 0 -0.005275676271668802 0.21774829851582531 0 -0.0228269517655076 0.21267181858831391 0 -0.038190801557791781 0.2365800575918352 0 -0.0228269517655076 0.21267181858831391 0 -0.038190801557791781 0.2365800575918352 0 -0.0228269517655076 0.21267181858831391 0 -0.015920096978065491 0.2269891070594697 0 -0.005275676271668802 0.21774829851582531 0 -0.0228269517655076 0.21267181858831391 0 -0.015920096978065491 0.2269891070594697 0 -0.005275676271668802 0.21774829851582531 0 -0.015920096978065491 0.2269891070594697 0 0.0020556172919030061 0.22969659453765121 0 -0.015920096978065491 0.2269891070594697 0 -0.0132036173542375 0.24142005493606999 0 0.0020556172919030061 0.22969659453765121 0 -0.003801187714800694 0.2577130827019859 0 -0.0132036173542375 0.24142005493606999 0 0.0058676114778445192 0.24394813624842429 0 -0.0132036173542375 0.24142005493606999 0 0.0058676114778445192 0.24394813624842429 0 0.0020556172919030061 0.22969659453765121 0 -0.029371611893066269 0.25645655512449222 0 -0.038190801557791781 0.2365800575918352 0 -0.0132036173542375 0.24142005493606999 0 -0.038190801557791781 0.2365800575918352 0 -0.015920096978065491 0.2269891070594697 0 -0.0132036173542375 0.24142005493606999 0 -0.036375102195713133 0.15563843663765831 0 -0.053165940977139198 0.14274999722987741 0 -0.044739224551363803 0.16539399050802489 0 -0.036375102195713133 0.15563843663765831 0 -0.053165940977139198 0.14274999722987741 0 -0.028341014833811341 0.14560933825548811 0 -0.053165940977139198 0.14274999722987741 0 -0.028341014833811341 0.14560933825548811 0 -0.03868174522535972 0.1240473308715986 0 -0.053165940977139198 0.14274999722987741 0 -0.03868174522535972 0.1240473308715986 0 -0.061592657402914572 0.1201060039517301 0 -0.053165940977139198 0.14274999722987741 0 -0.061592657402914572 0.1201060039517301 0 -0.053165940977139198 0.14274999722987741 0 -0.061107191160310888 0.16064807737017561 0 -0.044739224551363803 0.16539399050802489 0 -0.053165940977139198 0.14274999722987741 0 -0.044739224551363803 0.16539399050802489 0 -0.061107191160310888 0.16064807737017561 0 -0.056598737505764149 0.17574132690376659 0 -0.044739224551363803 0.16539399050802489 0 -0.063477692443392547 0.18996063418990319 0 -0.044923654789074598 0.1877001939917283 0 -0.056598737505764149 0.17574132690376659 0 -0.056598737505764149 0.17574132690376659 0 -0.035813966542088432 0.17539743136344549 0 -0.044739224551363803 0.16539399050802489 0 -0.056598737505764149 0.17574132690376659 0 -0.035813966542088432 0.17539743136344549 0 -0.044923654789074598 0.1877001939917283 0 -0.035813966542088432 0.17539743136344549 0 -0.029099942628946961 0.18479669232248391 0 -0.044923654789074598 0.1877001939917283 0 -0.056598737505764149 0.17574132690376659 0 -0.035813966542088432 0.17539743136344549 0 -0.035813966542088432 0.17539743136344549 0 -0.044739224551363803 0.16539399050802489 0 -0.025629072458465171 0.16268486970582141 0 -0.036375102195713133 0.15563843663765831 0 -0.044739224551363803 0.16539399050802489 0 -0.025629072458465171 0.16268486970582141 0 -0.025629072458465171 0.16268486970582141 0 -0.0150291955784127 0.1750535358231223 0 -0.0096818147409168907 0.15936428802732039 0 -0.035813966542088432 0.17539743136344549 0 -0.025629072458465171 0.16268486970582141 0 -0.0150291955784127 0.1750535358231223 0 -0.035813966542088432 0.17539743136344549 0 -0.029099942628946961 0.18479669232248391 0 -0.0150291955784127 0.1750535358231223 0 -0.035813966542088432 0.17539743136344549 0 -0.0150291955784127 0.1750535358231223 0 -0.017705041513858509 0.1829044840200785 0 -0.0150291955784127 0.1750535358231223 0 -0.022302768432227591 0.1933997611938317 0 -0.029099942628946961 0.18479669232248391 0 -0.017705041513858509 0.1829044840200785 0 -0.029099942628946961 0.18479669232248391 0 -0.017705041513858509 0.1829044840200785 0 -0.0150291955784127 0.1750535358231223 0 -0.007463101973223427 0.18876357958479281 0 -0.0085059202130760726 0.17494560462146011 0 -0.007463101973223427 0.18876357958479281 0 -0.017705041513858509 0.1829044840200785 0 -0.0085059202130760726 0.17494560462146011 0 -0.017705041513858509 0.1829044840200785 0 -0.0150291955784127 0.1750535358231223 0 -0.0085059202130760726 0.17494560462146011 0 -0.0150291955784127 0.1750535358231223 0 -0.0085059202130760726 0.17494560462146011 0 -0.0085059202130760726 0.17494560462146011 0 -0.0016595837892881961 0.16690814552126121 0 0.00152320308121993 0.17477966722526561 0 -0.007463101973223427 0.18876357958479281 0 -0.0085059202130760726 0.17494560462146011 0 0.00152320308121993 0.17477966722526561 0 -0.0085059202130760726 0.17494560462146011 0 0.00152320308121993 0.17477966722526561 0 -0.007463101973223427 0.18876357958479281 0 0.00152320308121993 0.17477966722526561 0 -0.007463101973223427 0.18876357958479281 0 0.002140971452858713 0.18364242502540129 0 0.00152320308121993 0.17477966722526561 0 -0.0150291955784127 0.1750535358231223 0 -0.0085059202130760726 0.17494560462146011 0 -0.0096818147409168907 0.15936428802732039 0 -0.0150291955784127 0.1750535358231223 0 -0.0096818147409168907 0.15936428802732039 0 -0.0085059202130760726 0.17494560462146011 0 -0.0096818147409168907 0.15936428802732039 0 -0.0085059202130760726 0.17494560462146011 0 -0.0096818147409168907 0.15936428802732039 0 -0.0016595837892881961 0.16690814552126121 0 -0.0096818147409168907 0.15936428802732039 0 -0.0016595837892881961 0.16690814552126121 0 0.0001064681306336774 0.15756277403706509 0 -0.0096818147409168907 0.15936428802732039 0 -0.0037591455483598382 0.14198714071007951 0 -0.0096818147409168907 0.15936428802732039 0 -0.0037591455483598382 0.14198714071007951 0 0.0001064681306336774 0.15756277403706509 0 -0.0096818147409168907 0.15936428802732039 0 -0.01159012527369643 0.13407801458433569 0 -0.0096818147409168907 0.15936428802732039 0 -0.0037591455483598382 0.14198714071007951 0 -0.01159012527369643 0.13407801458433569 0 -0.036375102195713133 0.15563843663765831 0 -0.025629072458465171 0.16268486970582141 0 -0.028341014833811341 0.14560933825548811 0 -0.0096818147409168907 0.15936428802732039 0 -0.028341014833811341 0.14560933825548811 0 -0.01159012527369643 0.13407801458433569 0 -0.025629072458465171 0.16268486970582141 0 -0.0096818147409168907 0.15936428802732039 0 -0.028341014833811341 0.14560933825548811 0 -0.028341014833811341 0.14560933825548811 0 -0.01159012527369643 0.13407801458433569 0 -0.02262041688271765 0.123233982260728 0 -0.028341014833811341 0.14560933825548811 0 -0.01159012527369643 0.13407801458433569 0 -0.028341014833811341 0.14560933825548811 0 -0.02262041688271765 0.123233982260728 0 -0.03868174522535972 0.1240473308715986 0 -0.0037591455483598382 0.14198714071007951 0 -0.01159012527369643 0.13407801458433569 0 0.0021635236441959311 0.12460999339283819 0 -0.0037591455483598382 0.14198714071007951 0 0.0021635236441959311 0.12460999339283819 0 -0.01159012527369643 0.13407801458433569 0 -0.0031425574752979718 0.12470109485475191 0 0.0021635236441959311 0.12460999339283819 0 -0.01159012527369643 0.13407801458433569 0 0.0021635236441959311 0.12460999339283819 0 -0.01159012527369643 0.13407801458433569 0 -0.01334254953246585 0.1108573289389843 0 -0.01159012527369643 0.13407801458433569 0 -0.0031425574752979718 0.12470109485475191 0 -0.01334254953246585 0.1108573289389843 0 -0.0031425574752979718 0.12470109485475191 0 -0.01334254953246585 0.1108573289389843 0 -0.0037623842807102191 0.116292955140074 0 -0.0031425574752979718 0.12470109485475191 0 -0.0037623842807102191 0.116292955140074 0 0.0032721501760273608 0.12135727642738139 0 -0.01334254953246585 0.1108573289389843 0 -0.0037623842807102191 0.116292955140074 0 -0.0018365802911041219 0.1082561203391786 0 -0.0037623842807102191 0.116292955140074 0 -0.0018365802911041219 0.1082561203391786 0 0.0032721501760273608 0.12135727642738139 0 -0.01334254953246585 0.1108573289389843 0 -0.0018365802911041219 0.1082561203391786 0 -0.01509497379123545 0.087636643293632965 0 -0.0018365802911041219 0.1082561203391786 0 -0.01509497379123545 0.087636643293632965 0 0.001583510103870723 0.089177686246289162 0 -0.01334254953246585 0.1108573289389843 0 -0.01509497379123545 0.087636643293632965 0 -0.01334254953246585 0.1108573289389843 0 -0.01509497379123545 0.087636643293632965 0 -0.031352310533498823 0.10473335269399529 0 -0.01159012527369643 0.13407801458433569 0 -0.01334254953246585 0.1108573289389843 0 -0.02262041688271765 0.123233982260728 0 -0.01334254953246585 0.1108573289389843 0 -0.02262041688271765 0.123233982260728 0 -0.031352310533498823 0.10473335269399529 0 -0.02262041688271765 0.123233982260728 0 -0.03868174522535972 0.1240473308715986 0 -0.031352310533498823 0.10473335269399529 0 -0.005333146609222272 0.074067114519107358 0 -0.01509497379123545 0.087636643293632965 0 -0.016847398050005041 0.064415957648281716 0 -0.005333146609222272 0.074067114519107358 0 -0.016847398050005041 0.064415957648281716 0 -0.0015312491341777921 0.059118206923547731 0 -0.005333146609222272 0.074067114519107358 0 -0.0015312491341777921 0.059118206923547731 0 0.0068083593362450612 0.072815881212642403 0 -0.005333146609222272 0.074067114519107358 0 -0.01509497379123545 0.087636643293632965 0 0.001583510103870723 0.089177686246289162 0 -0.01509497379123545 0.087636643293632965 0 -0.033445019759802637 0.080046650172629796 0 -0.031352310533498823 0.10473335269399529 0 -0.016847398050005041 0.064415957648281716 0 -0.033445019759802637 0.080046650172629796 0 -0.037641240237984881 0.059164941648782922 0 -0.01509497379123545 0.087636643293632965 0 -0.016847398050005041 0.064415957648281716 0 -0.01509497379123545 0.087636643293632965 0 -0.016847398050005041 0.064415957648281716 0 -0.033445019759802637 0.080046650172629796 0 -0.033445019759802637 0.080046650172629796 0 -0.053830307033339589 0.078313476161182005 0 -0.037641240237984881 0.059164941648782922 0 -0.053830307033339589 0.078313476161182005 0 -0.037641240237984881 0.059164941648782922 0 -0.053830307033339589 0.078313476161182005 0 -0.042946459366534288 0.056623274469289088 0 -0.037641240237984881 0.059164941648782922 0 -0.033445019759802637 0.080046650172629796 0 -0.031352310533498823 0.10473335269399529 0 -0.048864507438126682 0.096116565545900395 0 -0.033445019759802637 0.080046650172629796 0 -0.053830307033339589 0.078313476161182005 0 -0.048864507438126682 0.096116565545900395 0 -0.053830307033339589 0.078313476161182005 0 -0.056713168552316312 0.07642391714492322 0 -0.070479877738099411 0.096224559820556582 0 -0.053830307033339589 0.078313476161182005 0 -0.048864507438126682 0.096116565545900395 0 -0.070479877738099411 0.096224559820556582 0 -0.053830307033339589 0.078313476161182005 0 -0.070479877738099411 0.096224559820556582 0 -0.053830307033339589 0.078313476161182005 0 -0.056713168552316312 0.07642391714492322 0 -0.042946459366534288 0.056623274469289088 0 -0.056713168552316312 0.07642391714492322 0 -0.060437503099759822 0.060133962241818772 0 -0.042946459366534288 0.056623274469289088 0 -0.056713168552316312 0.07642391714492322 0 -0.042946459366534288 0.056623274469289088 0 -0.03868174522535972 0.1240473308715986 0 -0.031352310533498823 0.10473335269399529 0 -0.047416961104783793 0.11119496777449291 0 -0.031352310533498823 0.10473335269399529 0 -0.048864507438126682 0.096116565545900395 0 -0.047416961104783793 0.11119496777449291 0 -0.048864507438126682 0.096116565545900395 0 -0.057309191218806767 0.1072423069738415 0 -0.047416961104783793 0.11119496777449291 0 -0.048864507438126682 0.096116565545900395 0 -0.057309191218806767 0.1072423069738415 0 -0.070479877738099411 0.096224559820556582 0 -0.03868174522535972 0.1240473308715986 0 -0.047416961104783793 0.11119496777449291 0 -0.061592657402914572 0.1201060039517301 0 -0.057309191218806767 0.1072423069738415 0 -0.047416961104783793 0.11119496777449291 0 -0.061592657402914572 0.1201060039517301 0 -0.073965424300725419 0.12543371340405049 0 -0.061592657402914572 0.1201060039517301 0 -0.072256382216372914 0.1001079588840313 0 -0.073965424300725419 0.12543371340405049 0 -0.072256382216372914 0.1001079588840313 0 -0.073965424300725419 0.12543371340405049 0 -0.072256382216372914 0.1001079588840313 0 -0.077145423004087679 0.1058116062431279 0 -0.096263605355771234 0.12850386005873851 0 -0.088567346537820404 0.1108170133311361 0 -0.094591198983589822 0.11442772522357041 0 -0.096263605355771234 0.12850386005873851 0 -0.088567346537820404 0.1108170133311361 0 -0.077145423004087679 0.1058116062431279 0 -0.096263605355771234 0.12850386005873851 0 -0.077145423004087679 0.1058116062431279 0 -0.096263605355771234 0.12850386005873851 0 -0.084066767845300233 0.13135145576561361 0 -0.077145423004087679 0.1058116062431279 0 -0.073965424300725419 0.12543371340405049 0 -0.084066767845300233 0.13135145576561361 0 -0.077145423004087679 0.1058116062431279 0 -0.088567346537820404 0.1108170133311361 0 -0.094591198983589822 0.11442772522357041 0 -0.094269938877201032 0.10636300468649761 0 -0.087588784372963094 0.097095601615566809 0 -0.092439764153883733 0.098913240744992054 0 -0.087564463010098903 0.1032825841493267 0 -0.087588784372963094 0.097095601615566809 0 -0.087564463010098903 0.1032825841493267 0 -0.08349366074143727 0.099184238875912739 0 -0.087588784372963094 0.097095601615566809 0 -0.089778496529287447 0.093789799816601738 0 -0.085326947630005756 0.092966590499088203 0 -0.089778496529287447 0.093789799816601738 0 -0.092439764153883733 0.098913240744992054 0 -0.093725115175399804 0.093241697013595734 0 -0.087588784372963094 0.097095601615566809 0 -0.089778496529287447 0.093789799816601738 0 -0.092439764153883733 0.098913240744992054 0 -0.092439764153883733 0.098913240744992054 0 -0.087564463010098903 0.1032825841493267 0 -0.094269938877201032 0.10636300468649761 0 -0.088567346537820404 0.1108170133311361 0 -0.087564463010098903 0.1032825841493267 0 -0.094269938877201032 0.10636300468649761 0 -0.088567346537820404 0.1108170133311361 0 -0.087564463010098903 0.1032825841493267 0 -0.082618831540007681 0.1038334115444149 0 -0.088567346537820404 0.1108170133311361 0 -0.082618831540007681 0.1038334115444149 0 -0.077145423004087679 0.1058116062431279 0 -0.087564463010098903 0.1032825841493267 0 -0.082618831540007681 0.1038334115444149 0 -0.08349366074143727 0.099184238875912739 0 -0.082618831540007681 0.1038334115444149 0 -0.078708242049016691 0.099775124338904092 0 -0.077145423004087679 0.1058116062431279 0 -0.082618831540007681 0.1038334115444149 0 -0.078708242049016691 0.099775124338904092 0 -0.08349366074143727 0.099184238875912739 0 -0.078708242049016691 0.099775124338904092 0 -0.08349366074143727 0.099184238875912739 0 -0.081032756774601047 0.095096016781068687 0 -0.087588784372963094 0.097095601615566809 0 -0.08349366074143727 0.099184238875912739 0 -0.084360537379751785 0.096085611942909099 0 -0.084360537379751785 0.096085611942909099 0 -0.081032756774601047 0.095096016781068687 0 -0.085326947630005756 0.092966590499088203 0 -0.08349366074143727 0.099184238875912739 0 -0.084360537379751785 0.096085611942909099 0 -0.081032756774601047 0.095096016781068687 0 -0.087588784372963094 0.097095601615566809 0 -0.084360537379751785 0.096085611942909099 0 -0.085326947630005756 0.092966590499088203 0 -0.078708242049016691 0.099775124338904092 0 -0.081032756774601047 0.095096016781068687 0 -0.076023477137688186 0.095434054872095914 0 -0.081032756774601047 0.095096016781068687 0 -0.076023477137688186 0.095434054872095914 0 -0.07841526010678164 0.092804103680774644 0 -0.057309191218806767 0.1072423069738415 0 -0.061592657402914572 0.1201060039517301 0 -0.070479877738099411 0.096224559820556582 0 -0.061592657402914572 0.1201060039517301 0 -0.070479877738099411 0.096224559820556582 0 -0.061592657402914572 0.1201060039517301 0 -0.072256382216372914 0.1001079588840313 0 -0.070479877738099411 0.096224559820556582 0 -0.078708242049016691 0.099775124338904092 0 -0.076023477137688186 0.095434054872095914 0 -0.072157113426940964 0.098636926066507202 0 -0.078708242049016691 0.099775124338904092 0 -0.072157113426940964 0.098636926066507202 0 -0.077145423004087679 0.1058116062431279 0 -0.072256382216372914 0.1001079588840313 0 -0.072157113426940964 0.098636926066507202 0 -0.077145423004087679 0.1058116062431279 0 -0.072256382216372914 0.1001079588840313 0 -0.072157113426940964 0.098636926066507202 0 -0.070479877738099411 0.096224559820556582 0 -0.072256382216372914 0.1001079588840313 0 -0.070479877738099411 0.096224559820556582 0 -0.072256382216372914 0.1001079588840313 0 -0.072157113426940964 0.098636926066507202 0 -0.072157113426940964 0.098636926066507202 0 -0.071761852522374492 0.09277967964053431 0 -0.072157113426940964 0.098636926066507202 0 -0.070479877738099411 0.096224559820556582 0 -0.072157113426940964 0.098636926066507202 0 -0.070479877738099411 0.096224559820556582 0 -0.071761852522374492 0.09277967964053431 0 -0.076023477137688186 0.095434054872095914 0 -0.072157113426940964 0.098636926066507202 0 -0.071761852522374492 0.09277967964053431 0 -0.070479877738099411 0.096224559820556582 0 -0.071761852522374492 0.09277967964053431 0 -0.072157113426940964 0.098636926066507202 0 -0.077145423004087679 0.1058116062431279 0 -0.072256382216372914 0.1001079588840313 0 -0.077145423004087679 0.1058116062431279 0 -0.071761852522374492 0.09277967964053431 0 -0.070483423162121292 0.073835038987520502 0 -0.056713168552316312 0.07642391714492322 0 -0.070479877738099411 0.096224559820556582 0 -0.071761852522374492 0.09277967964053431 0 -0.071761852522374492 0.09277967964053431 0 -0.082012952954967397 0.065233262084672422 0 -0.056713168552316312 0.07642391714492322 0 -0.071761852522374492 0.09277967964053431 0 -0.070483423162121292 0.073835038987520502 0 -0.071761852522374492 0.09277967964053431 0 -0.082012952954967397 0.065233262084672422 0 -0.08049688581209552 0.08427118309079118 0 -0.056713168552316312 0.07642391714492322 0 -0.070479877738099411 0.096224559820556582 0 -0.077508157237419939 0.089693400766039613 0 -0.071761852522374492 0.09277967964053431 0 -0.08049688581209552 0.08427118309079118 0 -0.076023477137688186 0.095434054872095914 0 -0.075918226323489227 0.09274216353609796 0 -0.071761852522374492 0.09277967964053431 0 -0.077508157237419939 0.089693400766039613 0 -0.075918226323489227 0.09274216353609796 0 -0.071761852522374492 0.09277967964053431 0 -0.077508157237419939 0.089693400766039613 0 -0.075918226323489227 0.09274216353609796 0 -0.07841526010678164 0.092804103680774644 0 -0.076023477137688186 0.095434054872095914 0 -0.075918226323489227 0.09274216353609796 0 -0.07841526010678164 0.092804103680774644 0 -0.071761852522374492 0.09277967964053431 0 -0.070483423162121292 0.073835038987520502 0 -0.082012952954967397 0.065233262084672422 0 -0.056713168552316312 0.07642391714492322 0 -0.070483423162121292 0.073835038987520502 0 -0.060437503099759822 0.060133962241818772 0 -0.070483423162121292 0.073835038987520502 0 -0.082012952954967397 0.065233262084672422 0 -0.074370846350274813 0.052929052646573438 0 -0.082012952954967397 0.065233262084672422 0 -0.08049688581209552 0.08427118309079118 0 -0.085152696935135844 0.079445153637107913 0 -0.082012952954967397 0.065233262084672422 0 -0.08940838900780626 0.074061638982882247 0 -0.085152696935135844 0.079445153637107913 0 -0.08940838900780626 0.074061638982882247 0 -0.09004023617079368 0.082376346655255339 0 -0.096915560378743659 0.077655038521306397 0 -0.082012952954967397 0.065233262084672422 0 -0.08940838900780626 0.074061638982882247 0 -0.095255706566442194 0.063565479666302577 0 -0.084951972161965705 0.087420719967821775 0 -0.081593683060709771 0.091054882448571073 0 -0.08049688581209552 0.08427118309079118 0 -0.081032756774601047 0.095096016781068687 0 -0.085326947630005756 0.092966590499088203 0 -0.081593683060709771 0.091054882448571073 0 -0.084951972161965705 0.087420719967821775 0 -0.085326947630005756 0.092966590499088203 0 -0.081593683060709771 0.091054882448571073 0 -0.077508157237419939 0.089693400766039613 0 -0.081593683060709771 0.091054882448571073 0 -0.07841526010678164 0.092804103680774644 0 -0.081032756774601047 0.095096016781068687 0 -0.081593683060709771 0.091054882448571073 0 -0.07841526010678164 0.092804103680774644 0 -0.077508157237419939 0.089693400766039613 0 -0.081593683060709771 0.091054882448571073 0 -0.08049688581209552 0.08427118309079118 0 -0.084951972161965705 0.087420719967821775 0 -0.08049688581209552 0.08427118309079118 0 -0.085152696935135844 0.079445153637107913 0 -0.08940838900780626 0.074061638982882247 0 -0.085152696935135844 0.079445153637107913 0 -0.09004023617079368 0.082376346655255339 0 -0.084951972161965705 0.087420719967821775 0 -0.085152696935135844 0.079445153637107913 0 -0.09004023617079368 0.082376346655255339 0 -0.084951972161965705 0.087420719967821775 0 -0.09004023617079368 0.082376346655255339 0 -0.090657039643256346 0.087583103203599369 0 -0.09004023617079368 0.082376346655255339 0 -0.090657039643256346 0.087583103203599369 0 -0.095919969282605072 0.08464536949379059 0 -0.090657039643256346 0.087583103203599369 0 -0.094413932662694711 0.089373080421656148 0 -0.095919969282605072 0.08464536949379059 0 -0.090657039643256346 0.087583103203599369 0 -0.091332788920222174 0.090892618151563201 0 -0.094413932662694711 0.089373080421656148 0 -0.090657039643256346 0.087583103203599369 0 -0.088089360590472537 0.09047541030236303 0 -0.091332788920222174 0.090892618151563201 0 -0.084951972161965705 0.087420719967821775 0 -0.090657039643256346 0.087583103203599369 0 -0.088089360590472537 0.09047541030236303 0 -0.084951972161965705 0.087420719967821775 0 -0.085326947630005756 0.092966590499088203 0 -0.088089360590472537 0.09047541030236303 0 -0.089778496529287447 0.093789799816601738 0 -0.085326947630005756 0.092966590499088203 0 -0.088089360590472537 0.09047541030236303 0 -0.089778496529287447 0.093789799816601738 0 -0.088089360590472537 0.09047541030236303 0 -0.091332788920222174 0.090892618151563201 0 -0.089778496529287447 0.093789799816601738 0 -0.091332788920222174 0.090892618151563201 0 -0.093725115175399804 0.093241697013595734 0 -0.091332788920222174 0.090892618151563201 0 -0.093725115175399804 0.093241697013595734 0 -0.094413932662694711 0.089373080421656148 0 -0.093725115175399804 0.093241697013595734 0 -0.097794224649120992 0.091100725106319849 0 -0.094413932662694711 0.089373080421656148 0 -0.093725115175399804 0.093241697013595734 0 -0.097794224649120992 0.091100725106319849 0 -0.097113133602636445 0.09540407341344255 0 -0.097794224649120992 0.091100725106319849 0 -0.101387546141226 0.08868734400049666 0 -0.1021348475887592 0.092197233657305269 0 -0.097794224649120992 0.091100725106319849 0 -0.1021348475887592 0.092197233657305269 0 -0.097113133602636445 0.09540407341344255 0 -0.10003028175473511 0.085972047896200679 0 -0.098287827629708405 0.087982756939349677 0 -0.095919969282605072 0.08464536949379059 0 -0.10003028175473511 0.085972047896200679 0 -0.101387546141226 0.08868734400049666 0 -0.098287827629708405 0.087982756939349677 0 -0.097794224649120992 0.091100725106319849 0 -0.101387546141226 0.08868734400049666 0 -0.098287827629708405 0.087982756939349677 0 -0.098287827629708405 0.087982756939349677 0 -0.094413932662694711 0.089373080421656148 0 -0.095919969282605072 0.08464536949379059 0 -0.097794224649120992 0.091100725106319849 0 -0.098287827629708405 0.087982756939349677 0 -0.094413932662694711 0.089373080421656148 0 -0.1000366524258203 0.082168796948343864 0 -0.1053380624857007 0.080014860111178032 0 -0.096915560378743659 0.077655038521306397 0 -0.095919969282605072 0.08464536949379059 0 -0.1000366524258203 0.082168796948343864 0 -0.096915560378743659 0.077655038521306397 0 -0.09004023617079368 0.082376346655255339 0 -0.095919969282605072 0.08464536949379059 0 -0.096915560378743659 0.077655038521306397 0 -0.10003028175473511 0.085972047896200679 0 -0.1000366524258203 0.082168796948343864 0 -0.10451941329431599 0.086375972099022577 0 -0.10003028175473511 0.085972047896200679 0 -0.095919969282605072 0.08464536949379059 0 -0.1000366524258203 0.082168796948343864 0 -0.1000366524258203 0.082168796948343864 0 -0.1053380624857007 0.080014860111178032 0 -0.10451941329431599 0.086375972099022577 0 -0.1053380624857007 0.080014860111178032 0 -0.1091329233438751 0.089597427847465216 0 -0.10451941329431599 0.086375972099022577 0 -0.1091329233438751 0.089597427847465216 0 -0.1021348475887592 0.092197233657305269 0 -0.099541540211498442 0.098620019446436141 0 -0.1091329233438751 0.089597427847465216 0 -0.10451941329431599 0.086375972099022577 0 -0.10462420049560719 0.089206343603928762 0 -0.1091329233438751 0.089597427847465216 0 -0.1021348475887592 0.092197233657305269 0 -0.10462420049560719 0.089206343603928762 0 -0.101387546141226 0.08868734400049666 0 -0.1021348475887592 0.092197233657305269 0 -0.10462420049560719 0.089206343603928762 0 -0.10003028175473511 0.085972047896200679 0 -0.101387546141226 0.08868734400049666 0 -0.10451941329431599 0.086375972099022577 0 -0.101387546141226 0.08868734400049666 0 -0.10451941329431599 0.086375972099022577 0 -0.10462420049560719 0.089206343603928762 0 -0.095255706566442194 0.063565479666302577 0 -0.096915560378743659 0.077655038521306397 0 -0.1036508864491399 0.069753273503244853 0 -0.095255706566442194 0.063565479666302577 0 -0.1036508864491399 0.069753273503244853 0 -0.1055934443975336 0.056129359185165817 0 -0.08940838900780626 0.074061638982882247 0 -0.095255706566442194 0.063565479666302577 0 -0.096915560378743659 0.077655038521306397 0 -0.1053380624857007 0.080014860111178032 0 -0.096915560378743659 0.077655038521306397 0 -0.1036508864491399 0.069753273503244853 0 -0.1053380624857007 0.080014860111178032 0 -0.1036508864491399 0.069753273503244853 0 -0.1151516584172792 0.071401630032271513 0 -0.1036508864491399 0.069753273503244853 0 -0.1151516584172792 0.071401630032271513 0 -0.1055934443975336 0.056129359185165817 0 -0.1053380624857007 0.080014860111178032 0 -0.1091329233438751 0.089597427847465216 0 -0.1151516584172792 0.071401630032271513 0 -0.1091329233438751 0.089597427847465216 0 -0.1151516584172792 0.071401630032271513 0 -0.13427075688939921 0.080537310534744347 0 -0.1091329233438751 0.089597427847465216 0 -0.1151516584172792 0.071401630032271513 0 -0.13427075688939921 0.080537310534744347 0 -0.1091329233438751 0.089597427847465216 0 -0.13427075688939921 0.080537310534744347 0 -0.1091329233438751 0.089597427847465216 0 -0.1249671344832058 0.095321376938317687 0 -0.1091329233438751 0.089597427847465216 0 -0.1249671344832058 0.095321376938317687 0 -0.114825166130354 0.1022711094903723 0 -0.114825166130354 0.1022711094903723 0 -0.1187293040339872 0.1130992575679203 0 -0.1026982643498231 0.10905064395310191 0 -0.12875591833246069 0.108057739511321 0 -0.1249671344832058 0.095321376938317687 0 -0.114825166130354 0.1022711094903723 0 -0.12875591833246069 0.108057739511321 0 -0.114825166130354 0.1022711094903723 0 -0.1187293040339872 0.1130992575679203 0 -0.12657716360276669 0.12310650762350681 0 -0.12875591833246069 0.108057739511321 0 -0.1187293040339872 0.1130992575679203 0 -0.1187293040339872 0.1130992575679203 0 -0.114713447798675 0.1218234311603321 0 -0.1026982643498231 0.10905064395310191 0 -0.12657716360276669 0.12310650762350681 0 -0.1187293040339872 0.1130992575679203 0 -0.114713447798675 0.1218234311603321 0 -0.10680865697662149 0.12845956652096779 0 -0.096263605355771234 0.12850386005873851 0 -0.1026982643498231 0.10905064395310191 0 -0.096263605355771234 0.12850386005873851 0 -0.1026982643498231 0.10905064395310191 0 -0.096263605355771234 0.12850386005873851 0 -0.094591198983589822 0.11442772522357041 0 -0.1026982643498231 0.10905064395310191 0 -0.10680865697662149 0.12845956652096779 0 -0.114713447798675 0.1218234311603321 0 -0.1026982643498231 0.10905064395310191 0 -0.094591198983589822 0.11442772522357041 0 -0.094269938877201032 0.10636300468649761 0 -0.1026982643498231 0.10905064395310191 0 -0.1091329233438751 0.089597427847465216 0 -0.114825166130354 0.1022711094903723 0 -0.1026982643498231 0.10905064395310191 0 -0.1091329233438751 0.089597427847465216 0 -0.1026982643498231 0.10905064395310191 0 -0.1091329233438751 0.089597427847465216 0 -0.099541540211498442 0.098620019446436141 0 -0.1026982643498231 0.10905064395310191 0 -0.094269938877201032 0.10636300468649761 0 -0.099541540211498442 0.098620019446436141 0 -0.1026982643498231 0.10905064395310191 0 -0.092439764153883733 0.098913240744992054 0 -0.094269938877201032 0.10636300468649761 0 -0.099541540211498442 0.098620019446436141 0 -0.092439764153883733 0.098913240744992054 0 -0.093725115175399804 0.093241697013595734 0 -0.097113133602636445 0.09540407341344255 0 -0.092439764153883733 0.098913240744992054 0 -0.097113133602636445 0.09540407341344255 0 -0.099541540211498442 0.098620019446436141 0 -0.1021348475887592 0.092197233657305269 0 -0.097113133602636445 0.09540407341344255 0 -0.099541540211498442 0.098620019446436141 0 -0.1061459562420157 0.025432329169787792 0 -0.1025151538201534 0.01014042697294831 0 -0.092264053387560413 0.037686844528810368 0 -0.1025151538201534 0.01014042697294831 0 -0.092264053387560413 0.037686844528810368 0 -0.1025151538201534 0.01014042697294831 0 -0.092264053387560413 0.037686844528810368 0 -0.088993575730032859 0.011799634218255001 0 -0.1061459562420157 0.025432329169787792 0 -0.1025151538201534 0.01014042697294831 0 -0.1102553817689232 0.012252851330817291 0 -0.096863240999418149 0.00022479736315716289 0 -0.1025151538201534 0.01014042697294831 0 -0.088993575730032859 0.011799634218255001 0 -0.096863240999418149 0.00022479736315716289 0 -0.107397708295269 0.002490208923942749 0 -0.1025151538201534 0.01014042697294831 0 -0.107397708295269 0.002490208923942749 0 -0.1025151538201534 0.01014042697294831 0 -0.1102553817689232 0.012252851330817291 0 -0.1155178281547062 -0.00046850373691600602 0 -0.1102553817689232 0.012252851330817291 0 -0.1174133788035405 0.028527370439086441 0 -0.1155178281547062 -0.00046850373691600602 0 -0.12230137410214451 0.005776940634701893 0 -0.1174133788035405 0.028527370439086441 0 -0.1155178281547062 -0.00046850373691600602 0 -0.1174133788035405 0.028527370439086441 0 -0.1155178281547062 -0.00046850373691600602 0 -0.107397708295269 0.002490208923942749 0 -0.1102553817689232 0.012252851330817291 0 -0.12230137410214451 0.005776940634701893 0 -0.1223209405526835 0.028082314812021121 0 -0.12695807669463399 0.017859165548682821 0 -0.12230137410214451 0.005776940634701893 0 -0.1223209405526835 0.028082314812021121 0 -0.1061459562420157 0.025432329169787792 0 -0.1102553817689232 0.012252851330817291 0 -0.1174133788035405 0.028527370439086441 0 -0.12230137410214451 0.005776940634701893 0 -0.1174133788035405 0.028527370439086441 0 -0.1223209405526835 0.028082314812021121 0 -0.1061459562420157 0.025432329169787792 0 -0.1174133788035405 0.028527370439086441 0 -0.1082818134299009 0.038554152577276547 0 -0.1174133788035405 0.028527370439086441 0 -0.1223209405526835 0.028082314812021121 0 -0.12122003470389341 0.038313093484726439 0 -0.1281166027561679 0.034653908107402112 0 -0.1223209405526835 0.028082314812021121 0 -0.12122003470389341 0.038313093484726439 0 -0.12122003470389341 0.038313093484726439 0 -0.1211703934906829 0.053205832217077677 0 -0.1082818134299009 0.038554152577276547 0 -0.1174133788035405 0.028527370439086441 0 -0.12122003470389341 0.038313093484726439 0 -0.1082818134299009 0.038554152577276547 0 -0.1151516584172792 0.071401630032271513 0 -0.1211703934906829 0.053205832217077677 0 -0.1211703934906829 0.053205832217077677 0 -0.1055934443975336 0.056129359185165817 0 -0.1082818134299009 0.038554152577276547 0 -0.1151516584172792 0.071401630032271513 0 -0.1211703934906829 0.053205832217077677 0 -0.1055934443975336 0.056129359185165817 0 -0.095255706566442194 0.063565479666302577 0 -0.1055934443975336 0.056129359185165817 0 -0.092264053387560413 0.037686844528810368 0 -0.1055934443975336 0.056129359185165817 0 -0.1082818134299009 0.038554152577276547 0 -0.092264053387560413 0.037686844528810368 0 -0.1061459562420157 0.025432329169787792 0 -0.1082818134299009 0.038554152577276547 0 -0.092264053387560413 0.037686844528810368 0 -0.092264053387560413 0.037686844528810368 0 -0.074370846350274813 0.052929052646573438 0 -0.075503343235238302 0.035188964456939142 0 -0.082012952954967397 0.065233262084672422 0 -0.092264053387560413 0.037686844528810368 0 -0.082012952954967397 0.065233262084672422 0 -0.092264053387560413 0.037686844528810368 0 -0.074370846350274813 0.052929052646573438 0 -0.082012952954967397 0.065233262084672422 0 -0.095255706566442194 0.063565479666302577 0 -0.092264053387560413 0.037686844528810368 0 -0.070483423162121292 0.073835038987520502 0 -0.074370846350274813 0.052929052646573438 0 -0.060437503099759822 0.060133962241818772 0 -0.074370846350274813 0.052929052646573438 0 -0.065523802262001676 0.045496243579679491 0 -0.060437503099759822 0.060133962241818772 0 -0.075503343235238302 0.035188964456939142 0 -0.065523802262001676 0.045496243579679491 0 -0.065621202011729607 0.02176153123714376 0 -0.074370846350274813 0.052929052646573438 0 -0.075503343235238302 0.035188964456939142 0 -0.065523802262001676 0.045496243579679491 0 -0.065621202011729607 0.02176153123714376 0 -0.077214742217672022 0.019749161853291911 0 -0.062979732174216235 0.0083289368604879122 0 -0.075503343235238302 0.035188964456939142 0 -0.065621202011729607 0.02176153123714376 0 -0.077214742217672022 0.019749161853291911 0 -0.092264053387560413 0.037686844528810368 0 -0.077214742217672022 0.019749161853291911 0 -0.088993575730032859 0.011799634218255001 0 -0.092264053387560413 0.037686844528810368 0 -0.075503343235238302 0.035188964456939142 0 -0.077214742217672022 0.019749161853291911 0 -0.096863240999418149 0.00022479736315716289 0 -0.087213483529468727 0.00022202246297349271 0 -0.088993575730032859 0.011799634218255001 0 -0.077214742217672022 0.019749161853291911 0 -0.088993575730032859 0.011799634218255001 0 -0.07704828605407936 0.0049092754591547553 0 -0.087213483529468727 0.00022202246297349271 0 -0.088993575730032859 0.011799634218255001 0 -0.07704828605407936 0.0049092754591547553 0 -0.077214742217672022 0.019749161853291911 0 -0.07704828605407936 0.0049092754591547553 0 -0.062979732174216235 0.0083289368604879122 0 -0.069908215392903594 -0.002398961949724077 0 -0.059989889028608308 -0.0052361409502406208 0 -0.062979732174216235 0.0083289368604879122 0 -0.069908215392903594 -0.002398961949724077 0 -0.07704828605407936 0.0049092754591547553 0 -0.062979732174216235 0.0083289368604879122 0 -0.059989889028608308 -0.0052361409502406208 0 -0.062979732174216235 0.0083289368604879122 0 -0.050740169376238417 0.0033643182093420852 0 -0.065621202011729607 0.02176153123714376 0 -0.062979732174216235 0.0083289368604879122 0 -0.047179820944434132 0.01515806336534941 0 -0.062979732174216235 0.0083289368604879122 0 -0.050740169376238417 0.0033643182093420852 0 -0.047179820944434132 0.01515806336534941 0 -0.065621202011729607 0.02176153123714376 0 -0.04740047609624172 0.029292081515398562 0 -0.065621202011729607 0.02176153123714376 0 -0.047179820944434132 0.01515806336534941 0 -0.04740047609624172 0.029292081515398562 0 -0.047179820944434132 0.01515806336534941 0 -0.04740047609624172 0.029292081515398562 0 -0.034885955454308067 0.02465044743291437 0 -0.04740047609624172 0.029292081515398562 0 -0.034885955454308067 0.02465044743291437 0 -0.029179750180754041 0.036822631793653762 0 -0.047179820944434132 0.01515806336534941 0 -0.034885955454308067 0.02465044743291437 0 -0.032819227506527597 0.013429233545884539 0 -0.047179820944434132 0.01515806336534941 0 -0.032819227506527597 0.013429233545884539 0 -0.036950842078273947 0.0029240675261142271 0 -0.032819227506527597 0.013429233545884539 0 -0.036950842078273947 0.0029240675261142271 0 -0.025823828014685531 0.0062081803611656388 0 -0.050740169376238417 0.0033643182093420852 0 -0.047179820944434132 0.01515806336534941 0 -0.036950842078273947 0.0029240675261142271 0 -0.065523802262001676 0.045496243579679491 0 -0.060437503099759822 0.060133962241818772 0 -0.051133373018405592 0.043315208453774422 0 -0.060437503099759822 0.060133962241818772 0 -0.051133373018405592 0.043315208453774422 0 -0.042946459366534288 0.056623274469289088 0 -0.065523802262001676 0.045496243579679491 0 -0.065621202011729607 0.02176153123714376 0 -0.051133373018405592 0.043315208453774422 0 -0.065621202011729607 0.02176153123714376 0 -0.04740047609624172 0.029292081515398562 0 -0.051133373018405592 0.043315208453774422 0 -0.04740047609624172 0.029292081515398562 0 -0.029179750180754041 0.036822631793653762 0 -0.051133373018405592 0.043315208453774422 0 -0.042946459366534288 0.056623274469289088 0 -0.029179750180754041 0.036822631793653762 0 -0.04740047609624172 0.029292081515398562 0 -0.051133373018405592 0.043315208453774422 0 -0.029179750180754041 0.036822631793653762 0 -0.042946459366534288 0.056623274469289088 0 -0.029179750180754041 0.036822631793653762 0 -0.042946459366534288 0.056623274469289088 0 -0.037641240237984881 0.059164941648782922 0 -0.029179750180754041 0.036822631793653762 0 -0.016847398050005041 0.064415957648281716 0 -0.037641240237984881 0.059164941648782922 0 -0.018599822308772929 0.041195272002930293 0 -0.016847398050005041 0.064415957648281716 0 -0.018599822308772929 0.041195272002930293 0 -0.037641240237984881 0.059164941648782922 0 -0.021452173442631652 0.040016407136382597 0 -0.037641240237984881 0.059164941648782922 0 -0.021452173442631652 0.040016407136382597 0 -0.029179750180754041 0.036822631793653762 0 -0.037641240237984881 0.059164941648782922 0 -0.018599822308772929 0.041195272002930293 0 -0.021452173442631652 0.040016407136382597 0 -0.018599822308772929 0.041195272002930293 0 -0.018915246266367411 0.037015713013355538 0 -0.018599822308772929 0.041195272002930293 0 -0.021452173442631652 0.040016407136382597 0 -0.018915246266367411 0.037015713013355538 0 -0.018599822308772929 0.041195272002930293 0 -0.021452173442631652 0.040016407136382597 0 -0.021452173442631652 0.040016407136382597 0 -0.029179750180754041 0.036822631793653762 0 -0.021452173442631652 0.040016407136382597 0 -0.029179750180754041 0.036822631793653762 0 -0.019178368248714332 0.033529186957881679 0 -0.021452173442631652 0.040016407136382597 0 -0.018915246266367411 0.037015713013355538 0 -0.019178368248714332 0.033529186957881679 0 -0.021452173442631652 0.040016407136382597 0 -0.018915246266367411 0.037015713013355538 0 -0.018599822308772929 0.041195272002930293 0 -0.018915246266367411 0.037015713013355538 0 -0.014586329211115931 0.037573769464121567 0 -0.018915246266367411 0.037015713013355538 0 -0.019178368248714332 0.033529186957881679 0 -0.018599822308772929 0.041195272002930293 0 -0.008334224526893563 0.038318863673824401 0 -0.00050477985666078778 0.048673877828230717 0 -0.018599822308772929 0.041195272002930293 0 -0.00050477985666078778 0.048673877828230717 0 -0.018599822308772929 0.041195272002930293 0 -0.014586329211115931 0.037573769464121567 0 -0.008334224526893563 0.038318863673824401 0 -0.018915246266367411 0.037015713013355538 0 -0.01249602374242747 0.033765229166375893 0 -0.0085776863452767856 0.027660676724905679 0 -0.01249602374242747 0.033765229166375893 0 -0.014586329211115931 0.037573769464121567 0 -0.008334224526893563 0.038318863673824401 0 -0.018915246266367411 0.037015713013355538 0 -0.01249602374242747 0.033765229166375893 0 -0.014586329211115931 0.037573769464121567 0 -0.01249602374242747 0.033765229166375893 0 -0.008334224526893563 0.038318863673824401 0 -0.0088910256949653738 0.033170501600674113 0 -0.01249602374242747 0.033765229166375893 0 -0.0088910256949653738 0.033170501600674113 0 -0.0085776863452767856 0.027660676724905679 0 -0.008334224526893563 0.038318863673824401 0 -0.0088910256949653738 0.033170501600674113 0 -0.0061561681652636856 0.03293723683759045 0 -0.008334224526893563 0.038318863673824401 0 -0.0061561681652636856 0.03293723683759045 0 -0.00047694794954515488 0.039099440946302931 0 -0.0061561681652636856 0.03293723683759045 0 -0.0010700309983285789 0.032009749476524012 0 -0.00047694794954515488 0.039099440946302931 0 -0.008334224526893563 0.038318863673824401 0 -0.00047694794954515488 0.039099440946302931 0 -0.00050477985666078778 0.048673877828230717 0 -0.016847398050005041 0.064415957648281716 0 -0.018599822308772929 0.041195272002930293 0 -0.00050477985666078778 0.048673877828230717 0 -0.016847398050005041 0.064415957648281716 0 -0.00050477985666078778 0.048673877828230717 0 -0.0015312491341777921 0.059118206923547731 0 -0.021384516162332241 -0.003836002136512084 0 -0.025823828014685531 0.0062081803611656388 0 -0.01214072631160833 0.012315422509175869 0 -0.032819227506527597 0.013429233545884539 0 -0.025823828014685531 0.0062081803611656388 0 -0.01214072631160833 0.012315422509175869 0 -0.021384516162332241 -0.003836002136512084 0 -0.036950842078273947 0.0029240675261142271 0 -0.025823828014685531 0.0062081803611656388 0 -0.029179750180754041 0.036822631793653762 0 -0.019178368248714332 0.033529186957881679 0 -0.01214072631160833 0.012315422509175869 0 -0.029179750180754041 0.036822631793653762 0 -0.01214072631160833 0.012315422509175869 0 -0.034885955454308067 0.02465044743291437 0 -0.032819227506527597 0.013429233545884539 0 -0.01214072631160833 0.012315422509175869 0 -0.034885955454308067 0.02465044743291437 0 -0.029179750180754041 0.036822631793653762 0 -0.01214072631160833 0.012315422509175869 0 -0.018915246266367411 0.037015713013355538 0 -0.0085776863452767856 0.027660676724905679 0 -0.0010724131078876441 0.015911092787059301 0 -0.019178368248714332 0.033529186957881679 0 -0.0010724131078876441 0.015911092787059301 0 -0.01214072631160833 0.012315422509175869 0 -0.018915246266367411 0.037015713013355538 0 -0.019178368248714332 0.033529186957881679 0 -0.0010724131078876441 0.015911092787059301 0 -0.018915246266367411 0.037015713013355538 0 -0.0010724131078876441 0.015911092787059301 0 -0.0088910256949653738 0.033170501600674113 0 -0.0061561681652636856 0.03293723683759045 0 -0.0085776863452767856 0.027660676724905679 0 -0.0061561681652636856 0.03293723683759045 0 -0.0085776863452767856 0.027660676724905679 0 -0.0034793155433819139 0.028314383307405391 0 -0.0085776863452767856 0.027660676724905679 0 -0.0034793155433819139 0.028314383307405391 0 -0.0029875305955275508 0.02289340739367374 0 -0.0034793155433819139 0.028314383307405391 0 -0.0029875305955275508 0.02289340739367374 0 0.001394838387487029 0.026070846104333099 0 -0.0010700309983285789 0.032009749476524012 0 -0.0034793155433819139 0.028314383307405391 0 0.001394838387487029 0.026070846104333099 0 -0.0061561681652636856 0.03293723683759045 0 -0.0010700309983285789 0.032009749476524012 0 -0.0034793155433819139 0.028314383307405391 0 -0.0085776863452767856 0.027660676724905679 0 -0.0029875305955275508 0.02289340739367374 0 -0.0010724131078876441 0.015911092787059301 0 -0.0029875305955275508 0.02289340739367374 0 -0.0010724131078876441 0.015911092787059301 0 7.2611720239252285e-05 0.021175590292708608 0 -0.0029875305955275508 0.02289340739367374 0 7.2611720239252285e-05 0.021175590292708608 0 0.001394838387487029 0.026070846104333099 0 -0.021384516162332241 -0.003836002136512084 0 -0.0033274161263136641 -0.0028916397382215109 0 -0.0010724131078876441 0.015911092787059301 0 -0.021384516162332241 -0.003836002136512084 0 -0.0010724131078876441 0.015911092787059301 0 -0.021384516162332241 -0.003836002136512084 0 -0.0010724131078876441 0.015911092787059301 0 -0.01214072631160833 0.012315422509175869 0 -0.0033274161263136641 -0.0028916397382215109 0 -0.0010724131078876441 0.015911092787059301 0 0.01092251487472262 0.001723413203535543 0 -0.0010724131078876441 0.015911092787059301 0 0.01092251487472262 0.001723413203535543 0 0.01384479700463844 0.01381427559626427 0 -0.0010724131078876441 0.015911092787059301 0 0.01092251487472262 0.001723413203535543 0 -0.0010724131078876441 0.015911092787059301 0 7.2611720239252285e-05 0.021175590292708608 0 0.002955552196885175 0.01982701488576831 0 -0.0010724131078876441 0.015911092787059301 0 0.002955552196885175 0.01982701488576831 0 -0.0010724131078876441 0.015911092787059301 0 0.01384479700463844 0.01381427559626427 0 0.002955552196885175 0.01982701488576831 0 7.2611720239252285e-05 0.021175590292708608 0 0.002955552196885175 0.01982701488576831 0 0.001394838387487029 0.026070846104333099 0 0.001394838387487029 0.026070846104333099 0 0.01154018314483797 0.02652910944079731 0 0.0046002490069217703 0.034655278801824667 0 -0.0010700309983285789 0.032009749476524012 0 0.001394838387487029 0.026070846104333099 0 0.0046002490069217703 0.034655278801824667 0 0.002955552196885175 0.01982701488576831 0 0.001394838387487029 0.026070846104333099 0 0.01154018314483797 0.02652910944079731 0 0.01384479700463844 0.01381427559626427 0 0.002955552196885175 0.01982701488576831 0 0.01154018314483797 0.02652910944079731 0 0.01154018314483797 0.02652910944079731 0 0.027561332831569151 0.025285979174290041 0 0.019790049428015519 0.041588669850917769 0 0.01384479700463844 0.01381427559626427 0 0.01154018314483797 0.02652910944079731 0 0.027561332831569151 0.025285979174290041 0 0.01092251487472262 0.001723413203535543 0 0.01384479700463844 0.01381427559626427 0 0.028694772504043609 0.0047047656665304563 0 0.01384479700463844 0.01381427559626427 0 0.027561332831569151 0.025285979174290041 0 0.028694772504043609 0.0047047656665304563 0 -0.00050477985666078778 0.048673877828230717 0 0.017590262595451042 0.056152483653531857 0 -0.00050477985666078778 0.048673877828230717 0 0.0087451052410201634 0.06224916932544345 0 0.017590262595451042 0.056152483653531857 0 -0.00050477985666078778 0.048673877828230717 0 0.0090955554598608213 0.044231120733006557 0 0.017590262595451042 0.056152483653531857 0 0.0087451052410201634 0.06224916932544345 0 0.017590262595451042 0.056152483653531857 0 0.018240785648590899 0.068133682155604641 0 -0.00050477985666078778 0.048673877828230717 0 -0.0015312491341777921 0.059118206923547731 0 0.0087451052410201634 0.06224916932544345 0 0.0090955554598608213 0.044231120733006557 0 0.019790049428015519 0.041588669850917769 0 0.017590262595451042 0.056152483653531857 0 0.0090955554598608213 0.044231120733006557 0 0.0046002490069217703 0.034655278801824667 0 0.019790049428015519 0.041588669850917769 0 -0.00047694794954515488 0.039099440946302931 0 -0.00050477985666078778 0.048673877828230717 0 0.0090955554598608213 0.044231120733006557 0 -0.00047694794954515488 0.039099440946302931 0 0.0090955554598608213 0.044231120733006557 0 0.0046002490069217703 0.034655278801824667 0 -0.0010700309983285789 0.032009749476524012 0 -0.00047694794954515488 0.039099440946302931 0 0.0046002490069217703 0.034655278801824667 0 0.01154018314483797 0.02652910944079731 0 0.0046002490069217703 0.034655278801824667 0 0.019790049428015519 0.041588669850917769 0 0.027561332831569151 0.025285979174290041 0 0.019790049428015519 0.041588669850917769 0 0.040431841837143143 0.046800028908849933 0 0.019790049428015519 0.041588669850917769 0 0.029828325831313968 0.06021571462222336 0 0.017590262595451042 0.056152483653531857 0 0.019790049428015519 0.041588669850917769 0 0.029828325831313968 0.06021571462222336 0 0.040431841837143143 0.046800028908849933 0 0.029828325831313968 0.06021571462222336 0 0.017590262595451042 0.056152483653531857 0 0.018240785648590899 0.068133682155604641 0 0.040431841837143143 0.046800028908849933 0 0.055407805301967747 0.060690752653053147 0 0.041497155086761758 0.067572727030944385 0 0.029828325831313968 0.06021571462222336 0 0.040431841837143143 0.046800028908849933 0 0.041497155086761758 0.067572727030944385 0 0.027561332831569151 0.025285979174290041 0 0.040431841837143143 0.046800028908849933 0 0.050120584186652981 0.032525996737310707 0 0.040431841837143143 0.046800028908849933 0 0.050120584186652981 0.032525996737310707 0 0.06257907467965125 0.045570478591694268 0 0.050120584186652981 0.032525996737310707 0 0.066933851772783381 0.023846681051450179 0 0.06257907467965125 0.045570478591694268 0 0.040431841837143143 0.046800028908849933 0 0.055407805301967747 0.060690752653053147 0 0.06257907467965125 0.045570478591694268 0 0.028694772504043609 0.0047047656665304563 0 0.04584149721768499 0.017310115254620721 0 0.046293469969232372 -0.00090224555574176465 0 0.027561332831569151 0.025285979174290041 0 0.028694772504043609 0.0047047656665304563 0 0.04584149721768499 0.017310115254620721 0 0.027561332831569151 0.025285979174290041 0 0.050120584186652981 0.032525996737310707 0 0.04584149721768499 0.017310115254620721 0 0.050120584186652981 0.032525996737310707 0 0.04584149721768499 0.017310115254620721 0 0.066933851772783381 0.023846681051450179 0 0.04584149721768499 0.017310115254620721 0 0.066933851772783381 0.023846681051450179 0 0.063826800831932831 -0.0029737486069354238 0 0.04584149721768499 0.017310115254620721 0 0.046293469969232372 -0.00090224555574176465 0 0.063826800831932831 -0.0029737486069354238 0 0.04584149721768499 0.017310115254620721 0 0.063826800831932831 -0.0029737486069354238 0 0.066933851772783381 0.023846681051450179 0 0.088448283331516581 -0.00084696866821552059 0 0.063826800831932831 -0.0029737486069354238 0 0.089186667451719104 0.024109273061430639 0 0.066933851772783381 0.023846681051450179 0 0.081212936586179285 0.043014894008302038 0 0.089186667451719104 0.024109273061430639 0 0.066933851772783381 0.023846681051450179 0 0.088448283331516581 -0.00084696866821552059 0 0.066933851772783381 0.023846681051450179 0 0.06257907467965125 0.045570478591694268 0 0.081212936586179285 0.043014894008302038 0 0.06257907467965125 0.045570478591694268 0 0.081212936586179285 0.043014894008302038 0 0.075429358023995682 0.065103094723996072 0 0.055407805301967747 0.060690752653053147 0 0.06257907467965125 0.045570478591694268 0 0.075429358023995682 0.065103094723996072 0 0.081212936586179285 0.043014894008302038 0 0.094338692463271367 0.057976755862954699 0 0.075429358023995682 0.065103094723996072 0 0.081212936586179285 0.043014894008302038 0 0.098338527086455657 0.038364734323949393 0 0.094338692463271367 0.057976755862954699 0 0.089186667451719104 0.024109273061430639 0 0.081212936586179285 0.043014894008302038 0 0.098338527086455657 0.038364734323949393 0 0.098338527086455657 0.038364734323949393 0 0.11579903493797131 0.043328489601557371 0 0.1102124079147387 0.01715756621682811 0 0.098338527086455657 0.038364734323949393 0 0.094338692463271367 0.057976755862954699 0 0.11579903493797131 0.043328489601557371 0 0.094338692463271367 0.057976755862954699 0 0.11579903493797131 0.043328489601557371 0 0.1059101885651626 0.063258587877511291 0 0.094338692463271367 0.057976755862954699 0 0.11579903493797131 0.043328489601557371 0 0.11579903493797131 0.043328489601557371 0 0.11677700271289169 0.064089737390947393 0 0.1059101885651626 0.063258587877511291 0 0.11579903493797131 0.043328489601557371 0 0.11677700271289169 0.064089737390947393 0 0.13351069346381711 0.055331942959774907 0 0.11579903493797131 0.043328489601557371 0 0.1102124079147387 0.01715756621682811 0 0.13725937741267111 0.028680223340160061 0 0.1102124079147387 0.01715756621682811 0 0.088448283331516581 -0.00084696866821552059 0 0.1111034777010447 -0.016073487200564139 0 0.089186667451719104 0.024109273061430639 0 0.1102124079147387 0.01715756621682811 0 0.088448283331516581 -0.00084696866821552059 0 0.089186667451719104 0.024109273061430639 0 0.098338527086455657 0.038364734323949393 0 0.1102124079147387 0.01715756621682811 0 0.1036555177921394 0.1070937509318004 0 0.10780450041161641 0.097479536624187693 0 0.114332205292767 0.10601203551914 0 0.1036555177921394 0.1070937509318004 0 0.10780450041161641 0.097479536624187693 0 0.095428935239175533 0.099187026039206524 0 0.10780450041161641 0.097479536624187693 0 0.095428935239175533 0.099187026039206524 0 0.10113403402724989 0.087146412840504367 0 0.1036555177921394 0.1070937509318004 0 0.095428935239175533 0.099187026039206524 0 0.092584893735206952 0.1109419662094023 0 0.1036555177921394 0.1070937509318004 0 0.1020357171107084 0.11720600058332301 0 0.092584893735206952 0.1109419662094023 0 0.1020357171107084 0.11720600058332301 0 0.09242752547318589 0.1236435089584256 0 0.10765570259187141 0.12940381664167419 0 0.1020357171107084 0.11720600058332301 0 0.09242752547318589 0.1236435089584256 0 0.092584893735206952 0.1109419662094023 0 0.1020357171107084 0.11720600058332301 0 0.1123102956901891 0.11641748749037199 0 0.10765570259187141 0.12940381664167419 0 0.1036555177921394 0.1070937509318004 0 0.1020357171107084 0.11720600058332301 0 0.1123102956901891 0.11641748749037199 0 0.1247659303441568 0.1142936916850647 0 0.10765570259187141 0.12940381664167419 0 0.1293369423252092 0.119792206936713 0 0.1123102956901891 0.11641748749037199 0 0.1185643214196887 0.11035224031316131 0 0.114332205292767 0.10601203551914 0 0.1247659303441568 0.1142936916850647 0 0.10765570259187141 0.12940381664167419 0 0.1123102956901891 0.11641748749037199 0 0.1247659303441568 0.1142936916850647 0 0.10765570259187141 0.12940381664167419 0 0.1036555177921394 0.1070937509318004 0 0.1123102956901891 0.11641748749037199 0 0.114332205292767 0.10601203551914 0 0.1123102956901891 0.11641748749037199 0 0.1247659303441568 0.1142936916850647 0 0.1185643214196887 0.11035224031316131 0 0.1247659303441568 0.1142936916850647 0 0.1185643214196887 0.11035224031316131 0 0.122848854351642 0.1046857465580683 0 0.122848854351642 0.1046857465580683 0 0.114332205292767 0.10601203551914 0 0.1183413589010478 0.097388162189350785 0 0.1185643214196887 0.11035224031316131 0 0.122848854351642 0.1046857465580683 0 0.114332205292767 0.10601203551914 0 0.10780450041161641 0.097479536624187693 0 0.1183413589010478 0.097388162189350785 0 0.11399278730561301 0.088253852843748343 0 0.10780450041161641 0.097479536624187693 0 0.114332205292767 0.10601203551914 0 0.1183413589010478 0.097388162189350785 0 0.122848854351642 0.1046857465580683 0 0.1183413589010478 0.097388162189350785 0 0.12524347148294721 0.098019655842539077 0 0.1183413589010478 0.097388162189350785 0 0.12487841548934769 0.091409860032516652 0 0.12524347148294721 0.098019655842539077 0 0.11399278730561301 0.088253852843748343 0 0.124798649776035 0.076818473181798755 0 0.1082869441156339 0.077016787113535143 0 0.1183413589010478 0.097388162189350785 0 0.12487841548934769 0.091409860032516652 0 0.11399278730561301 0.088253852843748343 0 0.12487841548934769 0.091409860032516652 0 0.11399278730561301 0.088253852843748343 0 0.124798649776035 0.076818473181798755 0 0.124798649776035 0.076818473181798755 0 0.11677700271289169 0.064089737390947393 0 0.1082869441156339 0.077016787113535143 0 0.124798649776035 0.076818473181798755 0 0.11677700271289169 0.064089737390947393 0 0.13351069346381711 0.055331942959774907 0 0.11677700271289169 0.064089737390947393 0 0.1059101885651626 0.063258587877511291 0 0.1082869441156339 0.077016787113535143 0 0.094338692463271367 0.057976755862954699 0 0.1059101885651626 0.063258587877511291 0 0.094349268596044825 0.073881169418561848 0 0.1059101885651626 0.063258587877511291 0 0.1082869441156339 0.077016787113535143 0 0.094349268596044825 0.073881169418561848 0 0.10780450041161641 0.097479536624187693 0 0.11399278730561301 0.088253852843748343 0 0.10113403402724989 0.087146412840504367 0 0.11399278730561301 0.088253852843748343 0 0.1082869441156339 0.077016787113535143 0 0.10113403402724989 0.087146412840504367 0 0.094349268596044825 0.073881169418561848 0 0.10113403402724989 0.087146412840504367 0 0.089112490139847816 0.089406275476022076 0 0.1082869441156339 0.077016787113535143 0 0.094349268596044825 0.073881169418561848 0 0.10113403402724989 0.087146412840504367 0 0.095428935239175533 0.099187026039206524 0 0.10113403402724989 0.087146412840504367 0 0.089112490139847816 0.089406275476022076 0 0.094349268596044825 0.073881169418561848 0 0.072362941086598215 0.08534206383065418 0 0.089112490139847816 0.089406275476022076 0 0.072362941086598215 0.08534206383065418 0 0.082536816687189485 0.1013762910288889 0 0.094349268596044825 0.073881169418561848 0 0.089112490139847816 0.089406275476022076 0 0.072362941086598215 0.08534206383065418 0 0.094338692463271367 0.057976755862954699 0 0.094349268596044825 0.073881169418561848 0 0.075429358023995682 0.065103094723996072 0 0.094349268596044825 0.073881169418561848 0 0.075429358023995682 0.065103094723996072 0 0.072362941086598215 0.08534206383065418 0 0.075429358023995682 0.065103094723996072 0 0.072362941086598215 0.08534206383065418 0 0.057434945670027257 0.077416817981315944 0 0.055407805301967747 0.060690752653053147 0 0.075429358023995682 0.065103094723996072 0 0.057434945670027257 0.077416817981315944 0 0.072362941086598215 0.08534206383065418 0 0.071663400503000629 0.1021618503183019 0 0.062209259381921497 0.10006405431329821 0 0.072362941086598215 0.08534206383065418 0 0.071663400503000629 0.1021618503183019 0 0.082536816687189485 0.1013762910288889 0 0.071663400503000629 0.1021618503183019 0 0.070567877497126424 0.1112468850218974 0 0.062298584239220682 0.1090674445423951 0 0.071663400503000629 0.1021618503183019 0 0.062298584239220682 0.1090674445423951 0 0.062209259381921497 0.10006405431329821 0 0.071663400503000629 0.1021618503183019 0 0.082536816687189485 0.1013762910288889 0 0.070567877497126424 0.1112468850218974 0 0.095428935239175533 0.099187026039206524 0 0.082536816687189485 0.1013762910288889 0 0.092584893735206952 0.1109419662094023 0 0.095428935239175533 0.099187026039206524 0 0.089112490139847816 0.089406275476022076 0 0.082536816687189485 0.1013762910288889 0 0.082536816687189485 0.1013762910288889 0 0.092584893735206952 0.1109419662094023 0 0.079352592906080752 0.1173531653497789 0 0.09242752547318589 0.1236435089584256 0 0.092584893735206952 0.1109419662094023 0 0.079352592906080752 0.1173531653497789 0 0.09242752547318589 0.1236435089584256 0 0.079352592906080752 0.1173531653497789 0 0.079978096581841171 0.13225501434627571 0 0.082536816687189485 0.1013762910288889 0 0.079352592906080752 0.1173531653497789 0 0.070567877497126424 0.1112468850218974 0 0.079352592906080752 0.1173531653497789 0 0.065472544634477173 0.11909667416850871 0 0.070537755582774087 0.12703520517421771 0 0.079352592906080752 0.1173531653497789 0 0.070567877497126424 0.1112468850218974 0 0.065472544634477173 0.11909667416850871 0 0.070567877497126424 0.1112468850218974 0 0.065472544634477173 0.11909667416850871 0 0.062298584239220682 0.1090674445423951 0 0.065472544634477173 0.11909667416850871 0 0.056692538389397633 0.1245807539552599 0 0.070537755582774087 0.12703520517421771 0 0.065472544634477173 0.11909667416850871 0 0.056692538389397633 0.1245807539552599 0 0.056782074467545997 0.1146388945851876 0 0.056692538389397633 0.1245807539552599 0 0.045101947570998217 0.11350364562738061 0 0.042083970433307839 0.13075551145667949 0 0.056692538389397633 0.1245807539552599 0 0.056782074467545997 0.1146388945851876 0 0.045101947570998217 0.11350364562738061 0 0.056782074467545997 0.1146388945851876 0 0.054344757503636321 0.10694595463239349 0 0.045101947570998217 0.11350364562738061 0 0.065472544634477173 0.11909667416850871 0 0.056782074467545997 0.1146388945851876 0 0.062298584239220682 0.1090674445423951 0 0.056782074467545997 0.1146388945851876 0 0.062298584239220682 0.1090674445423951 0 0.054344757503636321 0.10694595463239349 0 0.072362941086598215 0.08534206383065418 0 0.062209259381921497 0.10006405431329821 0 0.050376613577151688 0.096802958242746456 0 0.062298584239220682 0.1090674445423951 0 0.062209259381921497 0.10006405431329821 0 0.054344757503636321 0.10694595463239349 0 0.050376613577151688 0.096802958242746456 0 0.054344757503636321 0.10694595463239349 0 0.045101947570998217 0.11350364562738061 0 0.062209259381921497 0.10006405431329821 0 0.050376613577151688 0.096802958242746456 0 0.054344757503636321 0.10694595463239349 0 0.049696755835292858 0.091888084292754843 0 0.038080809072045613 0.092335797907688644 0 0.027657353996455442 0.10706002338352209 0 0.038080809072045613 0.092335797907688644 0 0.03243160938496871 0.089141374289933739 0 0.027657353996455442 0.10706002338352209 0 0.049696755835292858 0.091888084292754843 0 0.027657353996455442 0.10706002338352209 0 0.050376613577151688 0.096802958242746456 0 0.045101947570998217 0.11350364562738061 0 0.027657353996455442 0.10706002338352209 0 0.050376613577151688 0.096802958242746456 0 0.027657353996455442 0.10706002338352209 0 0.050376613577151688 0.096802958242746456 0 0.049696755835292858 0.091888084292754843 0 0.027657353996455442 0.10706002338352209 0 0.027657353996455442 0.10706002338352209 0 0.042083970433307839 0.13075551145667949 0 0.045101947570998217 0.11350364562738061 0 0.027657353996455442 0.10706002338352209 0 0.042083970433307839 0.13075551145667949 0 0.026472654952860789 0.1222577815081469 0 0.027657353996455442 0.10706002338352209 0 0.042083970433307839 0.13075551145667949 0 0.055407805301967747 0.060690752653053147 0 0.057434945670027257 0.077416817981315944 0 0.041497155086761758 0.067572727030944385 0 0.057434945670027257 0.077416817981315944 0 0.042537517071465587 0.081253709664543761 0 0.041497155086761758 0.067572727030944385 0 0.072362941086598215 0.08534206383065418 0 0.050376613577151688 0.096802958242746456 0 0.049696755835292858 0.091888084292754843 0 0.072362941086598215 0.08534206383065418 0 0.057434945670027257 0.077416817981315944 0 0.049696755835292858 0.091888084292754843 0 0.072362941086598215 0.08534206383065418 0 0.050376613577151688 0.096802958242746456 0 0.057434945670027257 0.077416817981315944 0 0.049696755835292858 0.091888084292754843 0 0.042537517071465587 0.081253709664543761 0 0.049696755835292858 0.091888084292754843 0 0.038080809072045613 0.092335797907688644 0 0.042537517071465587 0.081253709664543761 0 0.038080809072045613 0.092335797907688644 0 0.03243160938496871 0.089141374289933739 0 0.042537517071465587 0.081253709664543761 0 0.03243160938496871 0.089141374289933739 0 0.042537517071465587 0.081253709664543761 0 0.029331933887401278 0.076702056172753594 0 0.029828325831313968 0.06021571462222336 0 0.041497155086761758 0.067572727030944385 0 0.029331933887401278 0.076702056172753594 0 0.042537517071465587 0.081253709664543761 0 0.041497155086761758 0.067572727030944385 0 0.029331933887401278 0.076702056172753594 0 0.029828325831313968 0.06021571462222336 0 0.018240785648590899 0.068133682155604641 0 0.029331933887401278 0.076702056172753594 0 0.018240785648590899 0.068133682155604641 0 0.029331933887401278 0.076702056172753594 0 0.0171407270001139 0.080666787947033247 0 0.0171407270001139 0.080666787947033247 0 0.02434191841512158 0.088016759458995952 0 0.01514796780666842 0.086513555501736839 0 0.0171407270001139 0.080666787947033247 0 0.01514796780666842 0.086513555501736839 0 0.03243160938496871 0.089141374289933739 0 0.029331933887401278 0.076702056172753594 0 0.02434191841512158 0.088016759458995952 0 0.029331933887401278 0.076702056172753594 0 0.0171407270001139 0.080666787947033247 0 0.02434191841512158 0.088016759458995952 0 0.001583510103870723 0.089177686246289162 0 0.01514796780666842 0.086513555501736839 0 0.0068083593362450612 0.072815881212642403 0 0.001583510103870723 0.089177686246289162 0 0.01514796780666842 0.086513555501736839 0 0.0092100589913479206 0.1039354159645591 0 -0.005333146609222272 0.074067114519107358 0 0.001583510103870723 0.089177686246289162 0 0.0068083593362450612 0.072815881212642403 0 0.0171407270001139 0.080666787947033247 0 0.01514796780666842 0.086513555501736839 0 0.0068083593362450612 0.072815881212642403 0 0.01514796780666842 0.086513555501736839 0 0.0068083593362450612 0.072815881212642403 0 0.018240785648590899 0.068133682155604641 0 0.0171407270001139 0.080666787947033247 0 0.0068083593362450612 0.072815881212642403 0 -0.0015312491341777921 0.059118206923547731 0 0.0087451052410201634 0.06224916932544345 0 0.0068083593362450612 0.072815881212642403 0 -0.0015312491341777921 0.059118206923547731 0 0.0068083593362450612 0.072815881212642403 0 0.0087451052410201634 0.06224916932544345 0 0.018240785648590899 0.068133682155604641 0 0.0068083593362450612 0.072815881212642403 0 0.018168236242608791 0.11359233844539381 0 0.027657353996455442 0.10706002338352209 0 0.018168236242608791 0.11359233844539381 0 0.026472654952860789 0.1222577815081469 0 0.016630560882108548 0.12699102487538269 0 0.018168236242608791 0.11359233844539381 0 0.026472654952860789 0.1222577815081469 0 0.027657353996455442 0.10706002338352209 0 0.02434191841512158 0.088016759458995952 0 0.01514796780666842 0.086513555501736839 0 0.027657353996455442 0.10706002338352209 0 0.01514796780666842 0.086513555501736839 0 0.027657353996455442 0.10706002338352209 0 0.03243160938496871 0.089141374289933739 0 0.02434191841512158 0.088016759458995952 0 0.027657353996455442 0.10706002338352209 0 0.01514796780666842 0.086513555501736839 0 0.027657353996455442 0.10706002338352209 0 0.017545904259270231 0.10277533332380299 0 0.018168236242608791 0.11359233844539381 0 0.027657353996455442 0.10706002338352209 0 0.017545904259270231 0.10277533332380299 0 -0.0018365802911041219 0.1082561203391786 0 0.001583510103870723 0.089177686246289162 0 0.0092100589913479206 0.1039354159645591 0 0.018168236242608791 0.11359233844539381 0 0.017545904259270231 0.10277533332380299 0 0.0092100589913479206 0.1039354159645591 0 0.01514796780666842 0.086513555501736839 0 0.017545904259270231 0.10277533332380299 0 0.0092100589913479206 0.1039354159645591 0 0.01514796780666842 0.086513555501736839 0 0.0092100589913479206 0.1039354159645591 0 0.018168236242608791 0.11359233844539381 0 0.0021635236441959311 0.12460999339283819 0 0.016630560882108548 0.12699102487538269 0 -0.0018365802911041219 0.1082561203391786 0 0.0092100589913479206 0.1039354159645591 0 0.0032721501760273608 0.12135727642738139 0 0.018168236242608791 0.11359233844539381 0 0.0092100589913479206 0.1039354159645591 0 0.0032721501760273608 0.12135727642738139 0 0.0092100589913479206 0.1039354159645591 0 0.0032721501760273608 0.12135727642738139 0 0.018168236242608791 0.11359233844539381 0 0.0021635236441959311 0.12460999339283819 0 0.018168236242608791 0.11359233844539381 0 0.0021635236441959311 0.12460999339283819 0 0.0032721501760273608 0.12135727642738139 0 0.018168236242608791 0.11359233844539381 0 0.0032721501760273608 0.12135727642738139 0 -0.0031425574752979718 0.12470109485475191 0 0.0032721501760273608 0.12135727642738139 0 -0.0031425574752979718 0.12470109485475191 0 0.0021635236441959311 0.12460999339283819 0 0.0032721501760273608 0.12135727642738139 0 0.0021635236441959311 0.12460999339283819 0 0.0032721501760273608 0.12135727642738139 0 -0.0037591455483598382 0.14198714071007951 0 0.0021635236441959311 0.12460999339283819 0 0.0078837508940362601 0.1344409928392421 0 -0.0037591455483598382 0.14198714071007951 0 0.0078837508940362601 0.1344409928392421 0 0.0084001758446218405 0.14295092131693199 0 0.0078837508940362601 0.1344409928392421 0 0.01761107833187809 0.13846602557217139 0 0.0084001758446218405 0.14295092131693199 0 0.0078837508940362601 0.1344409928392421 0 0.016630560882108548 0.12699102487538269 0 0.01761107833187809 0.13846602557217139 0 0.0021635236441959311 0.12460999339283819 0 0.0078837508940362601 0.1344409928392421 0 0.016630560882108548 0.12699102487538269 0 0.026472654952860789 0.1222577815081469 0 0.016630560882108548 0.12699102487538269 0 0.02709022113857372 0.1316861801084396 0 0.016630560882108548 0.12699102487538269 0 0.01761107833187809 0.13846602557217139 0 0.02709022113857372 0.1316861801084396 0 0.01761107833187809 0.13846602557217139 0 0.02709022113857372 0.1316861801084396 0 0.03115316179123866 0.14228715498021821 0 0.028948093841273961 0.15602230872797179 0 0.03115316179123866 0.14228715498021821 0 0.02033180274148039 0.14949132791102651 0 0.01761107833187809 0.13846602557217139 0 0.03115316179123866 0.14228715498021821 0 0.02033180274148039 0.14949132791102651 0 0.028948093841273961 0.15602230872797179 0 0.02033180274148039 0.14949132791102651 0 0.01832190429768309 0.16011462735109269 0 0.02033180274148039 0.14949132791102651 0 0.0086102250436261574 0.15333253083689849 0 0.01832190429768309 0.16011462735109269 0 0.02033180274148039 0.14949132791102651 0 0.0086102250436261574 0.15333253083689849 0 0.0084001758446218405 0.14295092131693199 0 0.01761107833187809 0.13846602557217139 0 0.02033180274148039 0.14949132791102651 0 0.0084001758446218405 0.14295092131693199 0 -0.0037591455483598382 0.14198714071007951 0 0.0086102250436261574 0.15333253083689849 0 0.0084001758446218405 0.14295092131693199 0 -0.0037591455483598382 0.14198714071007951 0 0.0086102250436261574 0.15333253083689849 0 0.0001064681306336774 0.15756277403706509 0 -0.0016595837892881961 0.16690814552126121 0 0.0001064681306336774 0.15756277403706509 0 0.0070226596881065827 0.16622176508976599 0 0.0086102250436261574 0.15333253083689849 0 0.0001064681306336774 0.15756277403706509 0 0.0070226596881065827 0.16622176508976599 0 0.0070226596881065827 0.16622176508976599 0 0.00152320308121993 0.17477966722526561 0 -0.0016595837892881961 0.16690814552126121 0 0.0070226596881065827 0.16622176508976599 0 0.00152320308121993 0.17477966722526561 0 0.0070226596881065827 0.16622176508976599 0 0.01674811200991928 0.17452776267979089 0 0.01832190429768309 0.16011462735109269 0 0.0070226596881065827 0.16622176508976599 0 0.00152320308121993 0.17477966722526561 0 0.01674811200991928 0.17452776267979089 0 0.0086102250436261574 0.15333253083689849 0 0.0070226596881065827 0.16622176508976599 0 0.01832190429768309 0.16011462735109269 0 0.002140971452858713 0.18364242502540129 0 0.0084328583994580878 0.18143818449148699 0 0.006070926303980359 0.1895882688000611 0 0.002140971452858713 0.18364242502540129 0 0.00152320308121993 0.17477966722526561 0 0.0084328583994580878 0.18143818449148699 0 -0.007463101973223427 0.18876357958479281 0 0.002140971452858713 0.18364242502540129 0 0.006070926303980359 0.1895882688000611 0 0.00152320308121993 0.17477966722526561 0 0.0084328583994580878 0.18143818449148699 0 0.01674811200991928 0.17452776267979089 0 0.00152320308121993 0.17477966722526561 0 0.01674811200991928 0.17452776267979089 0 0.01448433487929276 0.18637835006768941 0 0.0084328583994580878 0.18143818449148699 0 0.01674811200991928 0.17452776267979089 0 0.01448433487929276 0.18637835006768941 0 0.0084328583994580878 0.18143818449148699 0 0.006070926303980359 0.1895882688000611 0 0.01448433487929276 0.18637835006768941 0 0.01674811200991928 0.17452776267979089 0 0.02458456050698167 0.18793983030350669 0 0.01674811200991928 0.17452776267979089 0 0.031973020938618583 0.1742758581343177 0 0.02458456050698167 0.18793983030350669 0 0.01674811200991928 0.17452776267979089 0 0.031973020938618583 0.1742758581343177 0 0.01674811200991928 0.17452776267979089 0 0.01832190429768309 0.16011462735109269 0 0.031973020938618583 0.1742758581343177 0 0.01832190429768309 0.16011462735109269 0 0.029365975657740871 0.16428699336108399 0 0.031973020938618583 0.1742758581343177 0 0.01832190429768309 0.16011462735109269 0 0.031973020938618583 0.1742758581343177 0 0.028948093841273961 0.15602230872797179 0 0.01832190429768309 0.16011462735109269 0 0.029365975657740871 0.16428699336108399 0 0.028948093841273961 0.15602230872797179 0 0.050830342215405278 0.1643064408405947 0 0.04208958049293933 0.14926247768123971 0 0.028948093841273961 0.15602230872797179 0 0.038220883553387867 0.1667351792309536 0 0.050830342215405278 0.1643064408405947 0 0.028948093841273961 0.15602230872797179 0 0.050830342215405278 0.1643064408405947 0 0.038220883553387867 0.1667351792309536 0 0.031973020938618583 0.1742758581343177 0 0.048398257425431593 0.17400409350499321 0 0.028948093841273961 0.15602230872797179 0 0.029365975657740871 0.16428699336108399 0 0.038220883553387867 0.1667351792309536 0 0.029365975657740871 0.16428699336108399 0 0.038220883553387867 0.1667351792309536 0 0.031973020938618583 0.1742758581343177 0 0.038220883553387867 0.1667351792309536 0 0.048398257425431593 0.17400409350499321 0 0.050830342215405278 0.1643064408405947 0 0.031973020938618583 0.1742758581343177 0 0.048398257425431593 0.17400409350499321 0 0.052845324527522823 0.19592811676447761 0 0.031973020938618583 0.1742758581343177 0 0.02458456050698167 0.18793983030350669 0 0.052845324527522823 0.19592811676447761 0 0.031973020938618583 0.1742758581343177 0 0.052845324527522823 0.19592811676447761 0 0.031973020938618583 0.1742758581343177 0 0.048398257425431593 0.17400409350499321 0 0.048398257425431593 0.17400409350499321 0 0.060648932811440792 0.18347726446656989 0 0.052845324527522823 0.19592811676447761 0 0.048398257425431593 0.17400409350499321 0 0.064823493912244595 0.17373232887566889 0 0.048398257425431593 0.17400409350499321 0 0.060648932811440792 0.18347726446656989 0 0.064823493912244595 0.17373232887566889 0 0.048398257425431593 0.17400409350499321 0 0.050830342215405278 0.1643064408405947 0 0.064823493912244595 0.17373232887566889 0 0.050830342215405278 0.1643064408405947 0 0.072712590589536566 0.17259057295321761 0 0.050830342215405278 0.1643064408405947 0 0.055777654798910503 0.15324717025852039 0 0.064803893719087458 0.15988483454542701 0 0.055777654798910503 0.15324717025852039 0 0.06118062011409129 0.1433255336935024 0 0.067909168306486661 0.14954906301281559 0 0.055777654798910503 0.15324717025852039 0 0.06118062011409129 0.1433255336935024 0 0.055252106197535268 0.13450799784494091 0 0.055777654798910503 0.15324717025852039 0 0.042083970433307839 0.13075551145667949 0 0.050830342215405278 0.1643064408405947 0 0.055777654798910503 0.15324717025852039 0 0.04208958049293933 0.14926247768123971 0 0.055777654798910503 0.15324717025852039 0 0.055252106197535268 0.13450799784494091 0 0.042083970433307839 0.13075551145667949 0 0.06118062011409129 0.1433255336935024 0 0.055252106197535268 0.13450799784494091 0 0.065783551153432734 0.13599790365773259 0 0.056692538389397633 0.1245807539552599 0 0.055252106197535268 0.13450799784494091 0 0.065783551153432734 0.13599790365773259 0 0.056692538389397633 0.1245807539552599 0 0.055252106197535268 0.13450799784494091 0 0.042083970433307839 0.13075551145667949 0 0.026472654952860789 0.1222577815081469 0 0.02709022113857372 0.1316861801084396 0 0.042083970433307839 0.13075551145667949 0 0.02709022113857372 0.1316861801084396 0 0.03115316179123866 0.14228715498021821 0 0.042083970433307839 0.13075551145667949 0 0.03115316179123866 0.14228715498021821 0 0.042083970433307839 0.13075551145667949 0 0.04208958049293933 0.14926247768123971 0 0.055777654798910503 0.15324717025852039 0 0.042083970433307839 0.13075551145667949 0 0.04208958049293933 0.14926247768123971 0 0.028948093841273961 0.15602230872797179 0 0.03115316179123866 0.14228715498021821 0 0.04208958049293933 0.14926247768123971 0 0.020681723571402431 0.23608925355953059 0 0.036299095253663129 0.24730403330242759 0 0.018164465504250351 0.25574875128904662 0 0.020681723571402431 0.23608925355953059 0 0.036018340986606882 0.23400821578652881 0 0.036299095253663129 0.24730403330242759 0 0.020681723571402431 0.23608925355953059 0 0.0058676114778445192 0.24394813624842429 0 0.018164465504250351 0.25574875128904662 0 0.020681723571402431 0.23608925355953059 0 0.0058676114778445192 0.24394813624842429 0 0.0020556172919030061 0.22969659453765121 0 -0.005275676271668802 0.21774829851582531 0 0.0020556172919030061 0.22969659453765121 0 0.014245920019885949 0.22092910239964761 0 0.020681723571402431 0.23608925355953059 0 0.0020556172919030061 0.22969659453765121 0 0.014245920019885949 0.22092910239964761 0 0.020681723571402431 0.23608925355953059 0 0.014245920019885949 0.22092910239964761 0 0.030902721600599051 0.22226750056425329 0 0.020681723571402431 0.23608925355953059 0 0.030902721600599051 0.22226750056425329 0 0.036018340986606882 0.23400821578652881 0 0.030902721600599051 0.22226750056425329 0 0.022337088812028252 0.21119545620646599 0 0.034056692224854197 0.20464755076360519 0 0.014245920019885949 0.22092910239964761 0 0.030902721600599051 0.22226750056425329 0 0.022337088812028252 0.21119545620646599 0 0.022337088812028252 0.21119545620646599 0 0.01658521717612441 0.19839770406360119 0 0.034056692224854197 0.20464755076360519 0 0.022337088812028252 0.21119545620646599 0 0.010129183186614731 0.20988518519639621 0 0.01658521717612441 0.19839770406360119 0 -0.005275676271668802 0.21774829851582531 0 0.014245920019885949 0.22092910239964761 0 0.010129183186614731 0.20988518519639621 0 -0.005275676271668802 0.21774829851582531 0 0.010129183186614731 0.20988518519639621 0 0.002753366196703856 0.20115536479644069 0 0.014245920019885949 0.22092910239964761 0 0.022337088812028252 0.21119545620646599 0 0.010129183186614731 0.20988518519639621 0 0.010129183186614731 0.20988518519639621 0 0.002753366196703856 0.20115536479644069 0 0.01658521717612441 0.19839770406360119 0 0.002753366196703856 0.20115536479644069 0 0.006070926303980359 0.1895882688000611 0 0.01658521717612441 0.19839770406360119 0 -0.007463101973223427 0.18876357958479281 0 0.002753366196703856 0.20115536479644069 0 0.006070926303980359 0.1895882688000611 0 0.01448433487929276 0.18637835006768941 0 0.006070926303980359 0.1895882688000611 0 0.01658521717612441 0.19839770406360119 0 0.01448433487929276 0.18637835006768941 0 0.01658521717612441 0.19839770406360119 0 0.02458456050698167 0.18793983030350669 0 0.01658521717612441 0.19839770406360119 0 0.02458456050698167 0.18793983030350669 0 0.034056692224854197 0.20464755076360519 0 0.02458456050698167 0.18793983030350669 0 0.052845324527522823 0.19592811676447761 0 0.034056692224854197 0.20464755076360519 0 0.060648932811440792 0.18347726446656989 0 0.052845324527522823 0.19592811676447761 0 0.070359440824875413 0.19006479282159799 0 0.052845324527522823 0.19592811676447761 0 0.05686714372131392 0.2172615686982958 0 0.044481244641439023 0.21329165921631341 0 0.052845324527522823 0.19592811676447761 0 0.05686714372131392 0.2172615686982958 0 0.073717628116427347 0.21758037539463709 0 0.030902721600599051 0.22226750056425329 0 0.034056692224854197 0.20464755076360519 0 0.044481244641439023 0.21329165921631341 0 0.052845324527522823 0.19592811676447761 0 0.034056692224854197 0.20464755076360519 0 0.044481244641439023 0.21329165921631341 0 0.030902721600599051 0.22226750056425329 0 0.044481244641439023 0.21329165921631341 0 0.047734341132905152 0.22635355929093509 0 0.030902721600599051 0.22226750056425329 0 0.036018340986606882 0.23400821578652881 0 0.047734341132905152 0.22635355929093509 0 0.036018340986606882 0.23400821578652881 0 0.047734341132905152 0.22635355929093509 0 0.049069645198662561 0.23837102512601441 0 0.05686714372131392 0.2172615686982958 0 0.044481244641439023 0.21329165921631341 0 0.047734341132905152 0.22635355929093509 0 0.05686714372131392 0.2172615686982958 0 0.047734341132905152 0.22635355929093509 0 0.066112880728891946 0.23095080847514751 0 0.047734341132905152 0.22635355929093509 0 0.049069645198662561 0.23837102512601441 0 0.066112880728891946 0.23095080847514751 0 0.049069645198662561 0.23837102512601441 0 0.058508133341355663 0.2443212415556574 0 0.066112880728891946 0.23095080847514751 0 0.058508133341355663 0.2443212415556574 0 0.066112880728891946 0.23095080847514751 0 0.058508133341355663 0.2443212415556574 0 0.049745079748552613 0.24728829234538999 0 0.058206689455242579 0.25102936970770728 0 0.049069645198662561 0.23837102512601441 0 0.058508133341355663 0.2443212415556574 0 0.049745079748552613 0.24728829234538999 0 0.049069645198662561 0.23837102512601441 0 0.049745079748552613 0.24728829234538999 0 0.036299095253663129 0.24730403330242759 0 0.036018340986606882 0.23400821578652881 0 0.049069645198662561 0.23837102512601441 0 0.036299095253663129 0.24730403330242759 0 0.087908634740110569 0.23796968740185831 0 0.10693173846321941 0.2406304519534597 0 0.081403483681635191 0.25088749610120481 0 0.087908634740110569 0.23796968740185831 0 0.071341524017299304 0.24277262772590921 0 0.081403483681635191 0.25088749610120481 0 0.087908634740110569 0.23796968740185831 0 0.071341524017299304 0.24277262772590921 0 0.08246321223226051 0.2266527639952183 0 0.071341524017299304 0.24277262772590921 0 0.058206689455242579 0.25102936970770728 0 0.081403483681635191 0.25088749610120481 0 0.058508133341355663 0.2443212415556574 0 0.071341524017299304 0.24277262772590921 0 0.058206689455242579 0.25102936970770728 0 0.058508133341355663 0.2443212415556574 0 0.071341524017299304 0.24277262772590921 0 0.066112880728891946 0.23095080847514751 0 0.071341524017299304 0.24277262772590921 0 0.066112880728891946 0.23095080847514751 0 0.08246321223226051 0.2266527639952183 0 0.066112880728891946 0.23095080847514751 0 0.08246321223226051 0.2266527639952183 0 0.073717628116427347 0.21758037539463709 0 0.05686714372131392 0.2172615686982958 0 0.066112880728891946 0.23095080847514751 0 0.073717628116427347 0.21758037539463709 0 0.066112880728891946 0.23095080847514751 0 0.073717628116427347 0.21758037539463709 0 0.08246321223226051 0.2266527639952183 0 0.073717628116427347 0.21758037539463709 0 0.08246321223226051 0.2266527639952183 0 0.08679600918750642 0.21524126602627089 0 0.073717628116427347 0.21758037539463709 0 0.087908634740110569 0.23796968740185831 0 0.08246321223226051 0.2266527639952183 0 0.097403215306140073 0.22890509723350069 0 0.08246321223226051 0.2266527639952183 0 0.08679600918750642 0.21524126602627089 0 0.097403215306140073 0.22890509723350069 0 0.08679600918750642 0.21524126602627089 0 0.084156233540047407 0.1992275402302385 0 0.1000270296290275 0.2134152738806879 0 0.073717628116427347 0.21758037539463709 0 0.084156233540047407 0.1992275402302385 0 0.08679600918750642 0.21524126602627089 0 0.073717628116427347 0.21758037539463709 0 0.084156233540047407 0.1992275402302385 0 0.073717628116427347 0.21758037539463709 0 0.070269656752218246 0.2007002063027378 0 0.084156233540047407 0.1992275402302385 0 0.052845324527522823 0.19592811676447761 0 0.073717628116427347 0.21758037539463709 0 0.052845324527522823 0.19592811676447761 0 0.073717628116427347 0.21758037539463709 0 0.070269656752218246 0.2007002063027378 0 0.070269656752218246 0.2007002063027378 0 0.070359440824875413 0.19006479282159799 0 0.084156233540047407 0.1992275402302385 0 0.052845324527522823 0.19592811676447761 0 0.070269656752218246 0.2007002063027378 0 0.070359440824875413 0.19006479282159799 0 0.070359440824875413 0.19006479282159799 0 0.084156233540047407 0.1992275402302385 0 0.078334351608090311 0.18467713533180949 0 0.084156233540047407 0.1992275402302385 0 0.078334351608090311 0.18467713533180949 0 0.09459483896366791 0.18087470506584019 0 0.084156233540047407 0.1992275402302385 0 0.09459483896366791 0.18087470506584019 0 0.084156233540047407 0.1992275402302385 0 0.10320656550229081 0.19881780672710109 0 0.09459483896366791 0.18087470506584019 0 0.10320656550229081 0.19881780672710109 0 0.09459483896366791 0.18087470506584019 0 0.1092119497254668 0.18640841780802531 0 0.10320656550229081 0.19881780672710109 0 0.117459303059863 0.1969482568964798 0 0.1092119497254668 0.18640841780802531 0 0.117459303059863 0.1969482568964798 0 0.1092119497254668 0.18640841780802531 0 0.11879746473652231 0.18529317749117541 0 0.117459303059863 0.1969482568964798 0 0.11879746473652231 0.18529317749117541 0 0.12855489898333891 0.18796932689223331 0 0.117459303059863 0.1969482568964798 0 0.12827123418788791 0.19714034300122751 0 0.12855489898333891 0.18796932689223331 0 0.117459303059863 0.1969482568964798 0 0.12864689888851871 0.20867496938557101 0 0.12827123418788791 0.19714034300122751 0 0.117459303059863 0.1969482568964798 0 0.12864689888851871 0.20867496938557101 0 0.10320656550229081 0.19881780672710109 0 0.117459303059863 0.1969482568964798 0 0.11432543351621299 0.21022839605357199 0 0.11432543351621299 0.21022839605357199 0 0.1000270296290275 0.2134152738806879 0 0.1177893186758676 0.22465271066951439 0 0.11432543351621299 0.21022839605357199 0 0.1177893186758676 0.22465271066951439 0 0.12864689888851871 0.20867496938557101 0 0.1177893186758676 0.22465271066951439 0 0.12864689888851871 0.20867496938557101 0 0.117459303059863 0.1969482568964798 0 0.11432543351621299 0.21022839605357199 0 0.12864689888851871 0.20867496938557101 0 0.084156233540047407 0.1992275402302385 0 0.10320656550229081 0.19881780672710109 0 0.1000270296290275 0.2134152738806879 0 0.10320656550229081 0.19881780672710109 0 0.11432543351621299 0.21022839605357199 0 0.1000270296290275 0.2134152738806879 0 0.097403215306140073 0.22890509723350069 0 0.1177893186758676 0.22465271066951439 0 0.10693173846321941 0.2406304519534597 0 0.1000270296290275 0.2134152738806879 0 0.097403215306140073 0.22890509723350069 0 0.1177893186758676 0.22465271066951439 0 0.08679600918750642 0.21524126602627089 0 0.1000270296290275 0.2134152738806879 0 0.097403215306140073 0.22890509723350069 0 0.1177893186758676 0.22465271066951439 0 0.10693173846321941 0.2406304519534597 0 0.1177893186758676 0.22465271066951439 0 0.10693173846321941 0.2406304519534597 0 0.12579994597389649 0.23304936037154181 0 0.1177893186758676 0.22465271066951439 0 0.12579994597389649 0.23304936037154181 0 0.12953032313459109 0.22208327138759229 0 0.10693173846321941 0.2406304519534597 0 0.12579994597389649 0.23304936037154181 0 0.1092846353136276 0.24530042491702261 0 0.12579994597389649 0.23304936037154181 0 0.1158375621076702 0.25067689428936651 0 0.1092846353136276 0.24530042491702261 0 0.10693173846321941 0.2406304519534597 0 0.12579994597389649 0.23304936037154181 0 0.1092846353136276 0.24530042491702261 0 0.1158375621076702 0.25067689428936651 0 0.10693173846321941 0.2406304519534597 0 0.1000390767132061 0.25077351919703078 0 0.10693173846321941 0.2406304519534597 0 0.081403483681635191 0.25088749610120481 0 0.1092846353136276 0.24530042491702261 0 0.1158375621076702 0.25067689428936651 0 0.1000390767132061 0.25077351919703078 0 0.10693173846321941 0.2406304519534597 0 0.081403483681635191 0.25088749610120481 0 0.1000390767132061 0.25077351919703078 0 0.1092846353136276 0.24530042491702261 0 0.10693173846321941 0.2406304519534597 0 0.1000390767132061 0.25077351919703078 0 0.087908634740110569 0.23796968740185831 0 0.097403215306140073 0.22890509723350069 0 0.10693173846321941 0.2406304519534597 0 0.081687732114626765 0.14684019032230081 0 0.088277255354525505 0.16333767551625961 0 0.094742176532340336 0.15009506493206609 0 0.081687732114626765 0.14684019032230081 0 0.093599168620738873 0.13671246267399281 0 0.094742176532340336 0.15009506493206609 0 0.09242752547318589 0.1236435089584256 0 0.093599168620738873 0.13671246267399281 0 0.079978096581841171 0.13225501434627571 0 0.081687732114626765 0.14684019032230081 0 0.093599168620738873 0.13671246267399281 0 0.079978096581841171 0.13225501434627571 0 0.081687732114626765 0.14684019032230081 0 0.079978096581841171 0.13225501434627571 0 0.065783551153432734 0.13599790365773259 0 0.079352592906080752 0.1173531653497789 0 0.079978096581841171 0.13225501434627571 0 0.070537755582774087 0.12703520517421771 0 0.079978096581841171 0.13225501434627571 0 0.070537755582774087 0.12703520517421771 0 0.065783551153432734 0.13599790365773259 0 0.056692538389397633 0.1245807539552599 0 0.070537755582774087 0.12703520517421771 0 0.065783551153432734 0.13599790365773259 0 0.06118062011409129 0.1433255336935024 0 0.065783551153432734 0.13599790365773259 0 0.067909168306486661 0.14954906301281559 0 0.081687732114626765 0.14684019032230081 0 0.065783551153432734 0.13599790365773259 0 0.067909168306486661 0.14954906301281559 0 0.081687732114626765 0.14684019032230081 0 0.067909168306486661 0.14954906301281559 0 0.075911386566338168 0.1596881580839179 0 0.055777654798910503 0.15324717025852039 0 0.067909168306486661 0.14954906301281559 0 0.064803893719087458 0.15988483454542701 0 0.067909168306486661 0.14954906301281559 0 0.064803893719087458 0.15988483454542701 0 0.075911386566338168 0.1596881580839179 0 0.050830342215405278 0.1643064408405947 0 0.064823493912244595 0.17373232887566889 0 0.072712590589536566 0.17259057295321761 0 0.050830342215405278 0.1643064408405947 0 0.064803893719087458 0.15988483454542701 0 0.072712590589536566 0.17259057295321761 0 0.064803893719087458 0.15988483454542701 0 0.075911386566338168 0.1596881580839179 0 0.072712590589536566 0.17259057295321761 0 0.060648932811440792 0.18347726446656989 0 0.070359440824875413 0.19006479282159799 0 0.069375761949237544 0.1809084188897728 0 0.060648932811440792 0.18347726446656989 0 0.069375761949237544 0.1809084188897728 0 0.064823493912244595 0.17373232887566889 0 0.069375761949237544 0.1809084188897728 0 0.064823493912244595 0.17373232887566889 0 0.072712590589536566 0.17259057295321761 0 0.069375761949237544 0.1809084188897728 0 0.072712590589536566 0.17259057295321761 0 0.078334351608090311 0.18467713533180949 0 0.070359440824875413 0.19006479282159799 0 0.069375761949237544 0.1809084188897728 0 0.078334351608090311 0.18467713533180949 0 0.072712590589536566 0.17259057295321761 0 0.078334351608090311 0.18467713533180949 0 0.09459483896366791 0.18087470506584019 0 0.072712590589536566 0.17259057295321761 0 0.09459483896366791 0.18087470506584019 0 0.072712590589536566 0.17259057295321761 0 0.088277255354525505 0.16333767551625961 0 0.09459483896366791 0.18087470506584019 0 0.081687732114626765 0.14684019032230081 0 0.075911386566338168 0.1596881580839179 0 0.088277255354525505 0.16333767551625961 0 0.075911386566338168 0.1596881580839179 0 0.072712590589536566 0.17259057295321761 0 0.088277255354525505 0.16333767551625961 0 0.088277255354525505 0.16333767551625961 0 0.1061755400841808 0.1605138723561306 0 0.09459483896366791 0.18087470506584019 0 0.1061755400841808 0.1605138723561306 0 0.09459483896366791 0.18087470506584019 0 0.088277255354525505 0.16333767551625961 0 0.1061755400841808 0.1605138723561306 0 0.094742176532340336 0.15009506493206609 0 0.1061755400841808 0.1605138723561306 0 0.09459483896366791 0.18087470506584019 0 0.1116737527241623 0.17457907988859059 0 0.09459483896366791 0.18087470506584019 0 0.1092119497254668 0.18640841780802531 0 0.1116737527241623 0.17457907988859059 0 0.09459483896366791 0.18087470506584019 0 0.1092119497254668 0.18640841780802531 0 0.1092119497254668 0.18640841780802531 0 0.1116737527241623 0.17457907988859059 0 0.11879746473652231 0.18529317749117541 0 0.1116737527241623 0.17457907988859059 0 0.1239767726002837 0.1770395781239677 0 0.11879746473652231 0.18529317749117541 0 0.1116737527241623 0.17457907988859059 0 0.1239767726002837 0.1770395781239677 0 0.1217902956242778 0.166858642507212 0 0.1239767726002837 0.1770395781239677 0 0.11879746473652231 0.18529317749117541 0 0.12855489898333891 0.18796932689223331 0 0.1061755400841808 0.1605138723561306 0 0.1217902956242778 0.166858642507212 0 0.1216769407235485 0.1551710764347897 0 0.1061755400841808 0.1605138723561306 0 0.1116737527241623 0.17457907988859059 0 0.1217902956242778 0.166858642507212 0 0.1217902956242778 0.166858642507212 0 0.1216769407235485 0.1551710764347897 0 0.131151555832098 0.16109286570018699 0 0.1061755400841808 0.1605138723561306 0 0.11775624120469499 0.14015303964642181 0 0.1061755400841808 0.1605138723561306 0 0.1216769407235485 0.1551710764347897 0 0.11775624120469499 0.14015303964642181 0 0.1216769407235485 0.1551710764347897 0 0.11775624120469499 0.14015303964642181 0 0.13057841444816731 0.1471084378309373 0 0.1061755400841808 0.1605138723561306 0 0.1039711864876298 0.14307112379164641 0 0.094742176532340336 0.15009506493206609 0 0.1061755400841808 0.1605138723561306 0 0.1039711864876298 0.14307112379164641 0 0.11775624120469499 0.14015303964642181 0 0.093599168620738873 0.13671246267399281 0 0.1039711864876298 0.14307112379164641 0 0.094742176532340336 0.15009506493206609 0 0.09242752547318589 0.1236435089584256 0 0.093599168620738873 0.13671246267399281 0 0.10765570259187141 0.12940381664167419 0 0.093599168620738873 0.13671246267399281 0 0.1039711864876298 0.14307112379164641 0 0.10765570259187141 0.12940381664167419 0 0.11775624120469499 0.14015303964642181 0 0.1293369423252092 0.119792206936713 0 0.10765570259187141 0.12940381664167419 0 0.11775624120469499 0.14015303964642181 0 0.1293369423252092 0.119792206936713 0 0.1039711864876298 0.14307112379164641 0 0.10765570259187141 0.12940381664167419 0 0.11775624120469499 0.14015303964642181 0 0.11775624120469499 0.14015303964642181 0 0.13102143557059431 0.13284774123514059 0 0.1293369423252092 0.119792206936713 0 0.13102143557059431 0.13284774123514059 0 0.1293369423252092 0.119792206936713 0 0.1344392088821951 0.1248850534906687 0 0.11775624120469499 0.14015303964642181 0 0.13102143557059431 0.13284774123514059 0 0.13057841444816731 0.1471084378309373 0 0.13102143557059431 0.13284774123514059 0 0.14085207836490729 0.12829005994119411 0 0.14195561666022541 0.1401793973023078 0 0.13102143557059431 0.13284774123514059 0 0.14195561666022541 0.1401793973023078 0 0.13057841444816731 0.1471084378309373 0 0.13102143557059431 0.13284774123514059 0 0.14085207836490729 0.12829005994119411 0 0.1344392088821951 0.1248850534906687 0 0.14195561666022541 0.1401793973023078 0 0.15538944168809321 0.13183294992385991 0 0.1505873313717323 0.14798372679160141 0 0.14085207836490729 0.12829005994119411 0 0.15538944168809321 0.13183294992385991 0 0.14494357910474781 0.12060044278686 0 0.14085207836490729 0.12829005994119411 0 0.14195561666022541 0.1401793973023078 0 0.15538944168809321 0.13183294992385991 0 0.1505873313717323 0.14798372679160141 0 0.14567081604098381 0.1612268395982854 0 0.16523484678384251 0.15483306777098671 0 0.14195561666022541 0.1401793973023078 0 0.1505873313717323 0.14798372679160141 0 0.14041576403563 0.1515480830735641 0 0.1505873313717323 0.14798372679160141 0 0.14041576403563 0.1515480830735641 0 0.14567081604098381 0.1612268395982854 0 0.14041576403563 0.1515480830735641 0 0.13057841444816731 0.1471084378309373 0 0.131151555832098 0.16109286570018699 0 0.14195561666022541 0.1401793973023078 0 0.14041576403563 0.1515480830735641 0 0.13057841444816731 0.1471084378309373 0 0.1216769407235485 0.1551710764347897 0 0.13057841444816731 0.1471084378309373 0 0.131151555832098 0.16109286570018699 0 0.1217902956242778 0.166858642507212 0 0.131151555832098 0.16109286570018699 0 0.13562088356923169 0.17269112047307661 0 0.131151555832098 0.16109286570018699 0 0.13562088356923169 0.17269112047307661 0 0.14567081604098381 0.1612268395982854 0 0.14041576403563 0.1515480830735641 0 0.131151555832098 0.16109286570018699 0 0.14567081604098381 0.1612268395982854 0 0.1239767726002837 0.1770395781239677 0 0.13200013897353041 0.18051996338261461 0 0.12855489898333891 0.18796932689223331 0 0.1239767726002837 0.1770395781239677 0 0.1217902956242778 0.166858642507212 0 0.13562088356923169 0.17269112047307661 0 0.1239767726002837 0.1770395781239677 0 0.13200013897353041 0.18051996338261461 0 0.13562088356923169 0.17269112047307661 0 0.13200013897353041 0.18051996338261461 0 0.13562088356923169 0.17269112047307661 0 0.1398480007412671 0.18437982804118061 0 0.13200013897353041 0.18051996338261461 0 0.1398480007412671 0.18437982804118061 0 0.12855489898333891 0.18796932689223331 0 0.1398480007412671 0.18437982804118061 0 0.14985282437837111 0.17746886410910981 0 0.13924986163344591 0.19307191674734109 0 0.14985282437837111 0.17746886410910981 0 0.13924986163344591 0.19307191674734109 0 0.1398480007412671 0.18437982804118061 0 0.14985282437837111 0.17746886410910981 0 0.13562088356923169 0.17269112047307661 0 0.1398480007412671 0.18437982804118061 0 0.14985282437837111 0.17746886410910981 0 0.13562088356923169 0.17269112047307661 0 0.14985282437837111 0.17746886410910981 0 0.14567081604098381 0.1612268395982854 0 0.14985282437837111 0.17746886410910981 0 0.14567081604098381 0.1612268395982854 0 0.16523484678384251 0.15483306777098671 0 0.14985282437837111 0.17746886410910981 0 0.17258783977404241 0.161764352256244 0 0.16523484678384251 0.15483306777098671 0 0.14985282437837111 0.17746886410910981 0 0.16523484678384251 0.15483306777098671 0 0.14985282437837111 0.17746886410910981 0 0.17258783977404241 0.161764352256244 0 0.17258783977404241 0.161764352256244 0 0.18006822267978989 0.19372136298750389 0 0.19166568357997421 0.1677300814776885 0 0.16543598058425149 0.18307959857377271 0 0.17258783977404241 0.161764352256244 0 0.18006822267978989 0.19372136298750389 0 0.14985282437837111 0.17746886410910981 0 0.16543598058425149 0.18307959857377271 0 0.15923503550479909 0.19936381494223071 0 0.14985282437837111 0.17746886410910981 0 0.16543598058425149 0.18307959857377271 0 0.17258783977404241 0.161764352256244 0 0.17258783977404241 0.161764352256244 0 0.1953228551697159 0.14605984040338121 0 0.19166568357997421 0.1677300814776885 0 0.1789732409684486 0.14762463317599431 0 0.18061686918930969 0.1321972714328605 0 0.16523484678384251 0.15483306777098671 0 0.17258783977404241 0.161764352256244 0 0.1789732409684486 0.14762463317599431 0 0.1953228551697159 0.14605984040338121 0 0.17258783977404241 0.161764352256244 0 0.1953228551697159 0.14605984040338121 0 0.1789732409684486 0.14762463317599431 0 0.18061686918930969 0.1321972714328605 0 0.1953228551697159 0.14605984040338121 0 0.18061686918930969 0.1321972714328605 0 0.16523484678384251 0.15483306777098671 0 0.17258783977404241 0.161764352256244 0 0.1789732409684486 0.14762463317599431 0 0.16523484678384251 0.15483306777098671 0 0.15538944168809321 0.13183294992385991 0 0.18061686918930969 0.1321972714328605 0 0.16523484678384251 0.15483306777098671 0 0.15538944168809321 0.13183294992385991 0 0.18061686918930969 0.1321972714328605 0 0.16492584702047369 0.1174061600226544 0 0.15538944168809321 0.13183294992385991 0 0.1505873313717323 0.14798372679160141 0 0.16523484678384251 0.15483306777098671 0 0.15653962242538089 0.23791180940586129 0 0.14212432673693021 0.25051612215573321 0 0.16841109136619001 0.25035535002209891 0 0.13854509777952051 0.23749951989531651 0 0.15653962242538089 0.23791180940586129 0 0.14212432673693021 0.25051612215573321 0 0.13854509777952051 0.23749951989531651 0 0.1158375621076702 0.25067689428936651 0 0.14212432673693021 0.25051612215573321 0 0.13854509777952051 0.23749951989531651 0 0.12579994597389649 0.23304936037154181 0 0.1158375621076702 0.25067689428936651 0 0.12579994597389649 0.23304936037154181 0 0.14466815348457299 0.22546826878962251 0 0.13854509777952051 0.23749951989531651 0 0.12579994597389649 0.23304936037154181 0 0.14466815348457299 0.22546826878962251 0 0.12579994597389649 0.23304936037154181 0 0.12953032313459109 0.22208327138759229 0 0.14466815348457299 0.22546826878962251 0 0.14466815348457299 0.22546826878962251 0 0.15317170904083949 0.2220516096603681 0 0.15653962242538089 0.23791180940586129 0 0.13854509777952051 0.23749951989531651 0 0.14466815348457299 0.22546826878962251 0 0.15653962242538089 0.23791180940586129 0 0.14466815348457299 0.22546826878962251 0 0.15317170904083949 0.2220516096603681 0 0.14636210249895101 0.21030262029265359 0 0.14466815348457299 0.22546826878962251 0 0.15653962242538089 0.23791180940586129 0 0.14466815348457299 0.22546826878962251 0 0.15317170904083949 0.2220516096603681 0 0.15317170904083949 0.2220516096603681 0 0.14636210249895101 0.21030262029265359 0 0.16007124081254509 0.21288124948284309 0 0.14636210249895101 0.21030262029265359 0 0.15923503550479909 0.19936381494223071 0 0.16007124081254509 0.21288124948284309 0 0.1177893186758676 0.22465271066951439 0 0.12953032313459109 0.22208327138759229 0 0.12864689888851871 0.20867496938557101 0 0.14466815348457299 0.22546826878962251 0 0.12864689888851871 0.20867496938557101 0 0.14636210249895101 0.21030262029265359 0 0.12864689888851871 0.20867496938557101 0 0.13924986163344591 0.19307191674734109 0 0.12953032313459109 0.22208327138759229 0 0.14466815348457299 0.22546826878962251 0 0.12864689888851871 0.20867496938557101 0 0.14466815348457299 0.22546826878962251 0 0.14636210249895101 0.21030262029265359 0 0.12864689888851871 0.20867496938557101 0 0.12864689888851871 0.20867496938557101 0 0.13924986163344591 0.19307191674734109 0 0.12864689888851871 0.20867496938557101 0 0.12827123418788791 0.19714034300122751 0 0.13924986163344591 0.19307191674734109 0 0.12827123418788791 0.19714034300122751 0 0.12855489898333891 0.18796932689223331 0 0.13924986163344591 0.19307191674734109 0 0.1398480007412671 0.18437982804118061 0 0.12855489898333891 0.18796932689223331 0 0.13924986163344591 0.19307191674734109 0 0.14985282437837111 0.17746886410910981 0 0.13924986163344591 0.19307191674734109 0 0.15923503550479909 0.19936381494223071 0 0.14636210249895101 0.21030262029265359 0 0.13924986163344591 0.19307191674734109 0 0.15923503550479909 0.19936381494223071 0 0.16543598058425149 0.18307959857377271 0 0.15923503550479909 0.19936381494223071 0 0.18006822267978989 0.19372136298750389 0 0.15923503550479909 0.19936381494223071 0 0.18006822267978989 0.19372136298750389 0 0.17398938987015339 0.2107481431320479 0 0.18006822267978989 0.19372136298750389 0 0.17398938987015339 0.2107481431320479 0 0.1940566097535846 0.21309726758632591 0 0.17398938987015339 0.2107481431320479 0 0.18214569880672651 0.22418667106398521 0 0.1940566097535846 0.21309726758632591 0 0.17398938987015339 0.2107481431320479 0 0.16007124081254509 0.21288124948284309 0 0.16759796714798231 0.22194005938691561 0 0.15923503550479909 0.19936381494223071 0 0.17398938987015339 0.2107481431320479 0 0.16007124081254509 0.21288124948284309 0 0.15317170904083949 0.2220516096603681 0 0.16184883609548101 0.22902762349980799 0 0.15653962242538089 0.23791180940586129 0 0.15317170904083949 0.2220516096603681 0 0.16007124081254509 0.21288124948284309 0 0.16759796714798231 0.22194005938691561 0 0.15317170904083949 0.2220516096603681 0 0.16184883609548101 0.22902762349980799 0 0.16759796714798231 0.22194005938691561 0 0.16184883609548101 0.22902762349980799 0 0.17145661291342709 0.2347654375022778 0 0.15653962242538089 0.23791180940586129 0 0.16184883609548101 0.22902762349980799 0 0.16759796714798231 0.22194005938691561 0 0.17145661291342709 0.2347654375022778 0 0.17398938987015339 0.2107481431320479 0 0.16759796714798231 0.22194005938691561 0 0.18214569880672651 0.22418667106398521 0 0.18214569880672651 0.22418667106398521 0 0.18636180325365179 0.24235386445591481 0 0.17145661291342709 0.2347654375022778 0 0.16759796714798231 0.22194005938691561 0 0.18214569880672651 0.22418667106398521 0 0.17145661291342709 0.2347654375022778 0 0.18636180325365179 0.24235386445591481 0 0.1747211428589826 0.24593649975133941 0 0.17145661291342709 0.2347654375022778 0 0.18636180325365179 0.24235386445591481 0 0.1747211428589826 0.24593649975133941 0 0.17952402000674381 0.2520226033605788 0 0.1747211428589826 0.24593649975133941 0 0.16812815002286219 0.24386354234701321 0 0.16841109136619001 0.25035535002209891 0 0.16812815002286219 0.24386354234701321 0 0.15653962242538089 0.23791180940586129 0 0.16841109136619001 0.25035535002209891 0 0.1747211428589826 0.24593649975133941 0 0.16841109136619001 0.25035535002209891 0 0.1714012993392548 0.25348965248705402 0 0.1747211428589826 0.24593649975133941 0 0.16812815002286219 0.24386354234701321 0 0.17145661291342709 0.2347654375022778 0 0.16812815002286219 0.24386354234701321 0 0.17145661291342709 0.2347654375022778 0 0.15653962242538089 0.23791180940586129 0 0.15653962242538089 0.23791180940586129 0 0.16841109136619001 0.25035535002209891 0 0.2026037954013068 0.23290658259496841 0 0.19805650336663561 0.25051744093571798 0 0.2126139676599979 0.25280608166212842 0 0.2026037954013068 0.23290658259496841 0 0.2263870823403186 0.2335722459716735 0 0.2126139676599979 0.25280608166212842 0 0.18636180325365179 0.24235386445591481 0 0.2026037954013068 0.23290658259496841 0 0.19805650336663561 0.25051744093571798 0 0.18636180325365179 0.24235386445591481 0 0.18726961294756361 0.25700075406908229 0 0.19805650336663561 0.25051744093571798 0 0.18214569880672651 0.22418667106398521 0 0.2026037954013068 0.23290658259496841 0 0.1940566097535846 0.21309726758632591 0 0.18214569880672651 0.22418667106398521 0 0.18636180325365179 0.24235386445591481 0 0.2026037954013068 0.23290658259496841 0 0.2026037954013068 0.23290658259496841 0 0.2176051494034987 0.2161709783965354 0 0.1940566097535846 0.21309726758632591 0 0.2026037954013068 0.23290658259496841 0 0.2176051494034987 0.2161709783965354 0 0.2263870823403186 0.2335722459716735 0 0.2176051494034987 0.2161709783965354 0 0.1940566097535846 0.21309726758632591 0 0.20792740236003229 0.2008498673429146 0 0.18006822267978989 0.19372136298750389 0 0.1940566097535846 0.21309726758632591 0 0.20792740236003229 0.2008498673429146 0 0.18006822267978989 0.19372136298750389 0 0.20792740236003229 0.2008498673429146 0 0.18006822267978989 0.19372136298750389 0 0.20792740236003229 0.2008498673429146 0 0.2003499944359243 0.18261874827626021 0 0.20792740236003229 0.2008498673429146 0 0.2003499944359243 0.18261874827626021 0 0.22003242202730641 0.1810718619259177 0 0.23578658204027469 0.20797837169832531 0 0.24232717449122229 0.1754176844194309 0 0.25498475944591098 0.19595034648853779 0 0.23578658204027469 0.20797837169832531 0 0.22003242202730641 0.1810718619259177 0 0.24232717449122229 0.1754176844194309 0 0.20792740236003229 0.2008498673429146 0 0.23578658204027469 0.20797837169832531 0 0.22003242202730641 0.1810718619259177 0 0.23578658204027469 0.20797837169832531 0 0.24605056247769441 0.22571276935411971 0 0.2636457617205169 0.21510687605373599 0 0.23578658204027469 0.20797837169832531 0 0.2636457617205169 0.21510687605373599 0 0.2176051494034987 0.2161709783965354 0 0.20792740236003229 0.2008498673429146 0 0.23578658204027469 0.20797837169832531 0 0.20792740236003229 0.2008498673429146 0 0.23578658204027469 0.20797837169832531 0 0.2176051494034987 0.2161709783965354 0 0.23578658204027469 0.20797837169832531 0 0.2263870823403186 0.2335722459716735 0 0.23578658204027469 0.20797837169832531 0 0.2263870823403186 0.2335722459716735 0 0.24605056247769441 0.22571276935411971 0 0.24605056247769441 0.22571276935411971 0 0.24267178507654771 0.24534256314771391 0 0.25941888381920158 0.23540832826924099 0 0.2263870823403186 0.2335722459716735 0 0.24605056247769441 0.22571276935411971 0 0.24267178507654771 0.24534256314771391 0 0.2263870823403186 0.2335722459716735 0 0.24267178507654771 0.24534256314771391 0 0.2311458149466103 0.2572215684888034 0 0.2263870823403186 0.2335722459716735 0 0.2126139676599979 0.25280608166212842 0 0.2311458149466103 0.2572215684888034 0 0.20783409674313169 0.13741753521184361 0 0.2101911609741979 0.1600754198391158 0 0.2266413247383256 0.1477994530886024 0 0.20783409674313169 0.13741753521184361 0 0.1953228551697159 0.14605984040338121 0 0.2101911609741979 0.1600754198391158 0 0.20783409674313169 0.13741753521184361 0 0.22034533831654671 0.12877523002030469 0 0.20783409674313169 0.13741753521184361 0 0.2266413247383256 0.1477994530886024 0 0.22034533831654671 0.12877523002030469 0 0.2130573439354865 0.12556909040460659 0 0.20783409674313169 0.13741753521184361 0 0.22034533831654671 0.12877523002030469 0 0.2130573439354865 0.12556909040460659 0 0.22034533831654671 0.12877523002030469 0 0.2130573439354865 0.12556909040460659 0 0.20783409674313169 0.13741753521184361 0 0.19940991659445809 0.12816200672447159 0 0.20783409674313169 0.13741753521184361 0 0.19940991659445809 0.12816200672447159 0 0.1953228551697159 0.14605984040338121 0 0.18061686918930969 0.1321972714328605 0 0.19940991659445809 0.12816200672447159 0 0.1953228551697159 0.14605984040338121 0 0.18061686918930969 0.1321972714328605 0 0.1953228551697159 0.14605984040338121 0 0.20783409674313169 0.13741753521184361 0 0.1953228551697159 0.14605984040338121 0 0.1953228551697159 0.14605984040338121 0 0.2101911609741979 0.1600754198391158 0 0.1953228551697159 0.14605984040338121 0 0.19166568357997421 0.1677300814776885 0 0.2101911609741979 0.1600754198391158 0 0.19166568357997421 0.1677300814776885 0 0.2003499944359243 0.18261874827626021 0 0.2101911609741979 0.1600754198391158 0 0.18006822267978989 0.19372136298750389 0 0.19166568357997421 0.1677300814776885 0 0.2003499944359243 0.18261874827626021 0 0.2003499944359243 0.18261874827626021 0 0.2101911609741979 0.1600754198391158 0 0.22003242202730641 0.1810718619259177 0 0.2101911609741979 0.1600754198391158 0 0.22989565488096919 0.16425420442049871 0 0.22003242202730641 0.1810718619259177 0 0.2101911609741979 0.1600754198391158 0 0.22989565488096919 0.16425420442049871 0 0.2266413247383256 0.1477994530886024 0 0.22989565488096919 0.16425420442049871 0 0.22003242202730641 0.1810718619259177 0 0.24232717449122229 0.1754176844194309 0 0.22989565488096919 0.16425420442049871 0 0.2496601512483185 0.1601743804363345 0 0.2266413247383256 0.1477994530886024 0 0.22989565488096919 0.16425420442049871 0 0.24232717449122229 0.1754176844194309 0 0.2496601512483185 0.1601743804363345 0 0.2496601512483185 0.1601743804363345 0 0.2266413247383256 0.1477994530886024 0 0.24398190054973831 0.1391734431077998 0 0.2266413247383256 0.1477994530886024 0 0.22034533831654671 0.12877523002030469 0 0.24398190054973831 0.1391734431077998 0 0.22034533831654671 0.12877523002030469 0 0.2407475413530113 0.1280661565958057 0 0.2315722610867971 0.12102008498749819 0 0.22034533831654671 0.12877523002030469 0 0.24398190054973831 0.1391734431077998 0 0.22034533831654671 0.12877523002030469 0 0.24398190054973831 0.1391734431077998 0 0.2407475413530113 0.1280661565958057 0 0.24398190054973831 0.1391734431077998 0 0.2407475413530113 0.1280661565958057 0 0.261308773507689 0.13900998603117909 0 0.2407475413530113 0.1280661565958057 0 0.2469437854187965 0.1182968448211616 0 0.261308773507689 0.13900998603117909 0 0.2469437854187965 0.1182968448211616 0 0.232578797329904 0.097583703611144115 0 0.2315722610867971 0.12102008498749819 0 0.2407475413530113 0.1280661565958057 0 0.2469437854187965 0.1182968448211616 0 0.2315722610867971 0.12102008498749819 0 0.2469437854187965 0.1182968448211616 0 0.232578797329904 0.097583703611144115 0 0.2469437854187965 0.1182968448211616 0 0.232578797329904 0.097583703611144115 0 0.25046480317450609 0.099576550146509457 0 0.232578797329904 0.097583703611144115 0 0.21934977133299899 0.10931400187753609 0 0.2315722610867971 0.12102008498749819 0 0.232578797329904 0.097583703611144115 0 0.21934977133299899 0.10931400187753609 0 0.20568149589044291 0.095312798745037591 0 0.21934977133299899 0.10931400187753609 0 0.2315722610867971 0.12102008498749819 0 0.2183684255214379 0.1198485914858341 0 0.22034533831654671 0.12877523002030469 0 0.2315722610867971 0.12102008498749819 0 0.2183684255214379 0.1198485914858341 0 0.22034533831654671 0.12877523002030469 0 0.2315722610867971 0.12102008498749819 0 0.2130573439354865 0.12556909040460659 0 0.2183684255214379 0.1198485914858341 0 0.20751741293536 0.1145645501392256 0 0.2130573439354865 0.12556909040460659 0 0.22034533831654671 0.12877523002030469 0 0.2183684255214379 0.1198485914858341 0 0.2130573439354865 0.12556909040460659 0 0.19940991659445809 0.12816200672447159 0 0.20751741293536 0.1145645501392256 0 0.21934977133299899 0.10931400187753609 0 0.2183684255214379 0.1198485914858341 0 0.20751741293536 0.1145645501392256 0 0.21934977133299899 0.10931400187753609 0 0.20751741293536 0.1145645501392256 0 0.20568149589044291 0.095312798745037591 0 0.20751741293536 0.1145645501392256 0 0.20568149589044291 0.095312798745037591 0 0.1931491825398767 0.11375503508894939 0 0.20568149589044291 0.095312798745037591 0 0.1931491825398767 0.11375503508894939 0 0.20568149589044291 0.095312798745037591 0 0.1931491825398767 0.11375503508894939 0 0.18177967028550859 0.092603433087268608 0 0.18061686918930969 0.1321972714328605 0 0.19940991659445809 0.12816200672447159 0 0.1931491825398767 0.11375503508894939 0 0.19940991659445809 0.12816200672447159 0 0.20751741293536 0.1145645501392256 0 0.1931491825398767 0.11375503508894939 0 0.19332032167158619 0.076133431662046211 0 0.20587722859862789 0.075698088826430782 0 0.2003947429467903 0.060514009996653233 0 0.19332032167158619 0.076133431662046211 0 0.2003947429467903 0.060514009996653233 0 0.18944401842261921 0.061130862901843747 0 0.20568149589044291 0.095312798745037591 0 0.19332032167158619 0.076133431662046211 0 0.18177967028550859 0.092603433087268608 0 0.20568149589044291 0.095312798745037591 0 0.19332032167158619 0.076133431662046211 0 0.20587722859862789 0.075698088826430782 0 0.20568149589044291 0.095312798745037591 0 0.2182138092410108 0.076870562401127093 0 0.20587722859862789 0.075698088826430782 0 0.20568149589044291 0.095312798745037591 0 0.2182138092410108 0.076870562401127093 0 0.2182138092410108 0.076870562401127093 0 0.2101742818039837 0.065278219544001079 0 0.2182138092410108 0.076870562401127093 0 0.20587722859862789 0.075698088826430782 0 0.2101742818039837 0.065278219544001079 0 0.20587722859862789 0.075698088826430782 0 0.2101742818039837 0.065278219544001079 0 0.2003947429467903 0.060514009996653233 0 0.2182138092410108 0.076870562401127093 0 0.24278017553260481 0.080200034452542368 0 0.2325586615746863 0.055761039390018058 0 0.2182138092410108 0.076870562401127093 0 0.2325586615746863 0.055761039390018058 0 0.2182138092410108 0.076870562401127093 0 0.2101742818039837 0.065278219544001079 0 0.2325586615746863 0.055761039390018058 0 0.232578797329904 0.097583703611144115 0 0.20568149589044291 0.095312798745037591 0 0.2182138092410108 0.076870562401127093 0 0.232578797329904 0.097583703611144115 0 0.2182138092410108 0.076870562401127093 0 0.24278017553260481 0.080200034452542368 0 0.232578797329904 0.097583703611144115 0 0.2182138092410108 0.076870562401127093 0 0.232578797329904 0.097583703611144115 0 0.24278017553260481 0.080200034452542368 0 0.25046480317450609 0.099576550146509457 0 0.24278017553260481 0.080200034452542368 0 0.2325586615746863 0.055761039390018058 0 0.25658949859462632 0.062019955848455592 0 0.24690351390836071 0.03465151637890812 0 0.2325586615746863 0.055761039390018058 0 0.25658949859462632 0.062019955848455592 0 0.24690351390836071 0.03465151637890812 0 0.2277130534191697 0.03917354393684528 0 0.2325586615746863 0.055761039390018058 0 0.24690351390836071 0.03465151637890812 0 0.2325586615746863 0.055761039390018058 0 0.24690351390836071 0.03465151637890812 0 0.2277130534191697 0.03917354393684528 0 0.22836074406739559 0.024743122071422301 0 0.2277130534191697 0.03917354393684528 0 0.22836074406739559 0.024743122071422301 0 0.21545700017698829 0.032910947476712547 0 0.2277130534191697 0.03917354393684528 0 0.21528534736841459 0.047801094367163392 0 0.21545700017698829 0.032910947476712547 0 0.2101742818039837 0.065278219544001079 0 0.2325586615746863 0.055761039390018058 0 0.21528534736841459 0.047801094367163392 0 0.2277130534191697 0.03917354393684528 0 0.2325586615746863 0.055761039390018058 0 0.21528534736841459 0.047801094367163392 0 0.2514278043575876 0.013096146282630261 0 0.24658817508467629 -0.0044264657669183492 0 0.23805184844727961 0.0096405052919858736 0 0.2514278043575876 0.013096146282630261 0 0.24658817508467629 -0.0044264657669183492 0 0.24690351390836071 0.03465151637890812 0 0.23805184844727961 0.0096405052919858736 0 0.2514278043575876 0.013096146282630261 0 0.24690351390836071 0.03465151637890812 0 0.23805184844727961 0.0096405052919858736 0 0.24690351390836071 0.03465151637890812 0 0.23805184844727961 0.0096405052919858736 0 0.22836074406739559 0.024743122071422301 0 0.22836074406739559 0.024743122071422301 0 0.21658744866895391 0.019709025044469891 0 0.21545700017698829 0.032910947476712547 0 0.22836074406739559 0.024743122071422301 0 0.2256032999981358 0.014617270229534161 0 0.21658744866895391 0.019709025044469891 0 0.23805184844727961 0.0096405052919858736 0 0.22836074406739559 0.024743122071422301 0 0.2256032999981358 0.014617270229534161 0 0.23805184844727961 0.0096405052919858736 0 0.2256032999981358 0.014617270229534161 0 0.22390351563285851 0.0061246133966942071 0 0.2256032999981358 0.014617270229534161 0 0.2159732633661324 0.010761496540858201 0 0.21658744866895391 0.019709025044469891 0 0.2256032999981358 0.014617270229534161 0 0.22390351563285851 0.0061246133966942071 0 0.2159732633661324 0.010761496540858201 0 0.22390351563285851 0.0061246133966942071 0 0.2146470487559263 0.001390620045747815 0 0.2234680367370217 -0.003243545264484643 0 0.23805184844727961 0.0096405052919858736 0 0.22390351563285851 0.0061246133966942071 0 0.2234680367370217 -0.003243545264484643 0 0.20379875346761769 0.0036712573804652641 0 0.19820780820653869 0.0015596858391489451 0 0.20749118994731919 -0.00166711343590039 0 0.20379875346761769 0.0036712573804652641 0 0.2085118540234463 0.0026187771861385062 0 0.20749118994731919 -0.00166711343590039 0 0.20379875346761769 0.0036712573804652641 0 0.20903187135971829 0.007216438937259732 0 0.2035705421930212 0.01023455120957909 0 0.20379875346761769 0.0036712573804652641 0 0.20903187135971829 0.007216438937259732 0 0.2085118540234463 0.0026187771861385062 0 0.2085118540234463 0.0026187771861385062 0 0.2146470487559263 0.001390620045747815 0 0.20749118994731919 -0.00166711343590039 0 0.20903187135971829 0.007216438937259732 0 0.2085118540234463 0.0026187771861385062 0 0.2146470487559263 0.001390620045747815 0 0.22390351563285851 0.0061246133966942071 0 0.2146470487559263 0.001390620045747815 0 0.2159732633661324 0.010761496540858201 0 0.20903187135971829 0.007216438937259732 0 0.2146470487559263 0.001390620045747815 0 0.2159732633661324 0.010761496540858201 0 0.2159732633661324 0.010761496540858201 0 0.20746983926391671 0.015182023449613599 0 0.21658744866895391 0.019709025044469891 0 0.20903187135971829 0.007216438937259732 0 0.2159732633661324 0.010761496540858201 0 0.20746983926391671 0.015182023449613599 0 0.20903187135971829 0.007216438937259732 0 0.20746983926391671 0.015182023449613599 0 0.2035705421930212 0.01023455120957909 0 0.20746983926391671 0.015182023449613599 0 0.2035705421930212 0.01023455120957909 0 0.19948387913177701 0.01474522507591838 0 0.20746983926391671 0.015182023449613599 0 0.20700908205813101 0.023606021563133611 0 0.19862166111021079 0.022696510011994419 0 0.20746983926391671 0.015182023449613599 0 0.21658744866895391 0.019709025044469891 0 0.20700908205813101 0.023606021563133611 0 0.21658744866895391 0.019709025044469891 0 0.20700908205813101 0.023606021563133611 0 0.21545700017698829 0.032910947476712547 0 0.20700908205813101 0.023606021563133611 0 0.21545700017698829 0.032910947476712547 0 0.20454661495733389 0.03157396477988135 0 0.20700908205813101 0.023606021563133611 0 0.19862166111021079 0.022696510011994419 0 0.20454661495733389 0.03157396477988135 0 0.19610993701950699 0.029724245291675638 0 0.19862166111021079 0.022696510011994419 0 0.20454661495733389 0.03157396477988135 0 0.19610993701950699 0.029724245291675638 0 0.19059076371491049 0.02315885093251396 0 0.19862166111021079 0.022696510011994419 0 0.19610993701950699 0.029724245291675638 0 0.19059076371491049 0.02315885093251396 0 0.1870939220043922 0.030487289760792159 0 0.19059076371491049 0.02315885093251396 0 0.19055205566411071 0.0146566512811875 0 0.18339340990504449 0.02056898831114181 0 0.19059076371491049 0.02315885093251396 0 0.19862166111021079 0.022696510011994419 0 0.19055205566411071 0.0146566512811875 0 0.20746983926391671 0.015182023449613599 0 0.19862166111021079 0.022696510011994419 0 0.19948387913177701 0.01474522507591838 0 0.19862166111021079 0.022696510011994419 0 0.19948387913177701 0.01474522507591838 0 0.19055205566411071 0.0146566512811875 0 0.19948387913177701 0.01474522507591838 0 0.19741222882502821 0.0078758560217893694 0 0.19055205566411071 0.0146566512811875 0 0.2035705421930212 0.01023455120957909 0 0.19948387913177701 0.01474522507591838 0 0.19741222882502821 0.0078758560217893694 0 0.19741222882502821 0.0078758560217893694 0 0.19055205566411071 0.0146566512811875 0 0.1893300298381568 0.0037459509503512769 0 0.19741222882502821 0.0078758560217893694 0 0.1893300298381568 0.0037459509503512769 0 0.19820780820653869 0.0015596858391489451 0 0.20379875346761769 0.0036712573804652641 0 0.2035705421930212 0.01023455120957909 0 0.19741222882502821 0.0078758560217893694 0 0.20379875346761769 0.0036712573804652641 0 0.19741222882502821 0.0078758560217893694 0 0.19820780820653869 0.0015596858391489451 0 0.21528534736841459 0.047801094367163392 0 0.1992823379393846 0.049269923614671307 0 0.2003947429467903 0.060514009996653233 0 0.2101742818039837 0.065278219544001079 0 0.21528534736841459 0.047801094367163392 0 0.2003947429467903 0.060514009996653233 0 0.21528534736841459 0.047801094367163392 0 0.21545700017698829 0.032910947476712547 0 0.2062300441317422 0.040055097399651907 0 0.21528534736841459 0.047801094367163392 0 0.2062300441317422 0.040055097399651907 0 0.1992823379393846 0.049269923614671307 0 0.21545700017698829 0.032910947476712547 0 0.20454661495733389 0.03157396477988135 0 0.2062300441317422 0.040055097399651907 0 0.2062300441317422 0.040055097399651907 0 0.19657892021658971 0.038719556759830909 0 0.1992823379393846 0.049269923614671307 0 0.20454661495733389 0.03157396477988135 0 0.2062300441317422 0.040055097399651907 0 0.19657892021658971 0.038719556759830909 0 0.19610993701950699 0.029724245291675638 0 0.20454661495733389 0.03157396477988135 0 0.19657892021658971 0.038719556759830909 0 0.19610993701950699 0.029724245291675638 0 0.19657892021658971 0.038719556759830909 0 0.1870939220043922 0.030487289760792159 0 0.19657892021658971 0.038719556759830909 0 0.18672387432124479 0.042585121827844033 0 0.1870939220043922 0.030487289760792159 0 0.19657892021658971 0.038719556759830909 0 0.1992823379393846 0.049269923614671307 0 0.18672387432124479 0.042585121827844033 0 0.1992823379393846 0.049269923614671307 0 0.18944401842261921 0.061130862901843747 0 0.18672387432124479 0.042585121827844033 0 0.1992823379393846 0.049269923614671307 0 0.2003947429467903 0.060514009996653233 0 0.18944401842261921 0.061130862901843747 0 0.18944401842261921 0.061130862901843747 0 0.17779619683857489 0.050809400973672939 0 0.18672387432124479 0.042585121827844033 0 0.18944401842261921 0.061130862901843747 0 0.17779619683857489 0.050809400973672939 0 0.1760966136010125 0.068963316815236347 0 0.17779619683857489 0.050809400973672939 0 0.18672387432124479 0.042585121827844033 0 0.1701478505059085 0.025093696956253169 0 0.18672387432124479 0.042585121827844033 0 0.1870939220043922 0.030487289760792159 0 0.1701478505059085 0.025093696956253169 0 0.17779619683857489 0.050809400973672939 0 0.1701478505059085 0.025093696956253169 0 0.17779619683857489 0.050809400973672939 0 0.1606350396780325 0.040619500672280533 0 0.1701478505059085 0.025093696956253169 0 0.1606350396780325 0.040619500672280533 0 0.1701478505059085 0.025093696956253169 0 0.15445150263183829 0.030321357587143289 0 0.17779619683857489 0.050809400973672939 0 0.1606350396780325 0.040619500672280533 0 0.15376111678648741 0.055710700852589563 0 0.17779619683857489 0.050809400973672939 0 0.15376111678648741 0.055710700852589563 0 0.1607388761134845 0.069719810748983285 0 0.17908430037394671 0.0098305577970843154 0 0.18038015996075341 -0.005838343130063919 0 0.1624995041732421 -0.00062200706116678425 0 0.1893300298381568 0.0037459509503512769 0 0.17908430037394671 0.0098305577970843154 0 0.18038015996075341 -0.005838343130063919 0 0.19055205566411071 0.0146566512811875 0 0.1893300298381568 0.0037459509503512769 0 0.17908430037394671 0.0098305577970843154 0 0.19055205566411071 0.0146566512811875 0 0.17908430037394671 0.0098305577970843154 0 0.18339340990504449 0.02056898831114181 0 0.18339340990504449 0.02056898831114181 0 0.1870939220043922 0.030487289760792159 0 0.1701478505059085 0.025093696956253169 0 0.17908430037394671 0.0098305577970843154 0 0.18339340990504449 0.02056898831114181 0 0.1701478505059085 0.025093696956253169 0 0.19059076371491049 0.02315885093251396 0 0.18339340990504449 0.02056898831114181 0 0.1870939220043922 0.030487289760792159 0 0.1701478505059085 0.025093696956253169 0 0.15871971988737091 0.01403195707876281 0 0.15445150263183829 0.030321357587143289 0 0.17908430037394671 0.0098305577970843154 0 0.1701478505059085 0.025093696956253169 0 0.1624995041732421 -0.00062200706116678425 0 0.1701478505059085 0.025093696956253169 0 0.1624995041732421 -0.00062200706116678425 0 0.1701478505059085 0.025093696956253169 0 0.15871971988737091 0.01403195707876281 0 0.1624995041732421 -0.00062200706116678425 0 0.15871971988737091 0.01403195707876281 0 0.14727000091299489 0.0059589223388665392 0 0.1624995041732421 -0.00062200706116678425 0 0.15871971988737091 0.01403195707876281 0 0.13725937741267111 0.028680223340160061 0 0.15871971988737091 0.01403195707876281 0 0.14727000091299489 0.0059589223388665392 0 0.13725937741267111 0.028680223340160061 0 0.15871971988737091 0.01403195707876281 0 0.15445150263183829 0.030321357587143289 0 0.13725937741267111 0.028680223340160061 0 0.14727000091299489 0.0059589223388665392 0 0.13725937741267111 0.028680223340160061 0 0.1312801766641751 -0.0018119188418418051 0 0.1102124079147387 0.01715756621682811 0 0.13725937741267111 0.028680223340160061 0 0.1312801766641751 -0.0018119188418418051 0 0.15376111678648741 0.055710700852589563 0 0.13351069346381711 0.055331942959774907 0 0.14213589720981121 0.072462919511007848 0 0.15376111678648741 0.055710700852589563 0 0.14792354599456931 0.042132745082389657 0 0.13351069346381711 0.055331942959774907 0 0.1606350396780325 0.040619500672280533 0 0.15376111678648741 0.055710700852589563 0 0.14792354599456931 0.042132745082389657 0 0.15445150263183829 0.030321357587143289 0 0.13725937741267111 0.028680223340160061 0 0.14792354599456931 0.042132745082389657 0 0.1606350396780325 0.040619500672280533 0 0.15445150263183829 0.030321357587143289 0 0.14792354599456931 0.042132745082389657 0 0.11579903493797131 0.043328489601557371 0 0.13725937741267111 0.028680223340160061 0 0.13725937741267111 0.028680223340160061 0 0.14792354599456931 0.042132745082389657 0 0.13351069346381711 0.055331942959774907 0 0.11579903493797131 0.043328489601557371 0 0.13725937741267111 0.028680223340160061 0 0.13351069346381711 0.055331942959774907 0 0.124798649776035 0.076818473181798755 0 0.13351069346381711 0.055331942959774907 0 0.14213589720981121 0.072462919511007848 0 0.14213589720981121 0.072462919511007848 0 0.14631442293751329 0.085184558059123158 0 0.1607388761134845 0.069719810748983285 0 0.15376111678648741 0.055710700852589563 0 0.14213589720981121 0.072462919511007848 0 0.1607388761134845 0.069719810748983285 0 0.14187615809644211 0.099183566728455214 0 0.15475358607039941 0.09587415124396173 0 0.15898638584872729 0.084073441771845794 0 0.14213589720981121 0.072462919511007848 0 0.14631442293751329 0.085184558059123158 0 0.13416513203143179 0.088953902021464651 0 0.14631442293751329 0.085184558059123158 0 0.14187615809644211 0.099183566728455214 0 0.15898638584872729 0.084073441771845794 0 0.14187615809644211 0.099183566728455214 0 0.15898638584872729 0.084073441771845794 0 0.14631442293751329 0.085184558059123158 0 0.1607388761134845 0.069719810748983285 0 0.15898638584872729 0.084073441771845794 0 0.14631442293751329 0.085184558059123158 0 0.13416513203143179 0.088953902021464651 0 0.14187615809644211 0.099183566728455214 0 0.124798649776035 0.076818473181798755 0 0.14213589720981121 0.072462919511007848 0 0.13416513203143179 0.088953902021464651 0 0.12487841548934769 0.091409860032516652 0 0.124798649776035 0.076818473181798755 0 0.13416513203143179 0.088953902021464651 0 0.12487841548934769 0.091409860032516652 0 0.13416513203143179 0.088953902021464651 0 0.13050638593473249 0.098681553035200126 0 0.1247659303441568 0.1142936916850647 0 0.1360833552175976 0.1118119766644224 0 0.14187615809644211 0.099183566728455214 0 0.12487841548934769 0.091409860032516652 0 0.13050638593473249 0.098681553035200126 0 0.12524347148294721 0.098019655842539077 0 0.1247659303441568 0.1142936916850647 0 0.13050638593473249 0.098681553035200126 0 0.14187615809644211 0.099183566728455214 0 0.1247659303441568 0.1142936916850647 0 0.14187615809644211 0.099183566728455214 0 0.122848854351642 0.1046857465580683 0 0.13050638593473249 0.098681553035200126 0 0.12524347148294721 0.098019655842539077 0 0.1247659303441568 0.1142936916850647 0 0.122848854351642 0.1046857465580683 0 0.13050638593473249 0.098681553035200126 0 0.1360833552175976 0.1118119766644224 0 0.14187615809644211 0.099183566728455214 0 0.1436557498359107 0.1071631789160349 0 0.13416513203143179 0.088953902021464651 0 0.13050638593473249 0.098681553035200126 0 0.14187615809644211 0.099183566728455214 0 0.1247659303441568 0.1142936916850647 0 0.1293369423252092 0.119792206936713 0 0.1360833552175976 0.1118119766644224 0 0.1293369423252092 0.119792206936713 0 0.1360833552175976 0.1118119766644224 0 0.13654637926806959 0.11861020584962691 0 0.1360833552175976 0.1118119766644224 0 0.14080186215871909 0.1129834274930077 0 0.1436557498359107 0.1071631789160349 0 0.1360833552175976 0.1118119766644224 0 0.13654637926806959 0.11861020584962691 0 0.14080186215871909 0.1129834274930077 0 0.14085207836490729 0.12829005994119411 0 0.13654637926806959 0.11861020584962691 0 0.1344392088821951 0.1248850534906687 0 0.1293369423252092 0.119792206936713 0 0.13654637926806959 0.11861020584962691 0 0.1344392088821951 0.1248850534906687 0 0.15260042432517679 0.1147630796692129 0 0.14923482485164249 0.1026150486124434 0 0.16492584702047369 0.1174061600226544 0 0.15538944168809321 0.13183294992385991 0 0.14494357910474781 0.12060044278686 0 0.15260042432517679 0.1147630796692129 0 0.13654637926806959 0.11861020584962691 0 0.14494357910474781 0.12060044278686 0 0.14080186215871909 0.1129834274930077 0 0.14085207836490729 0.12829005994119411 0 0.13654637926806959 0.11861020584962691 0 0.14494357910474781 0.12060044278686 0 0.14494357910474781 0.12060044278686 0 0.14080186215871909 0.1129834274930077 0 0.15260042432517679 0.1147630796692129 0 0.14080186215871909 0.1129834274930077 0 0.15260042432517679 0.1147630796692129 0 0.1436557498359107 0.1071631789160349 0 0.14187615809644211 0.099183566728455214 0 0.1436557498359107 0.1071631789160349 0 0.14923482485164249 0.1026150486124434 0 0.15260042432517679 0.1147630796692129 0 0.1436557498359107 0.1071631789160349 0 0.14923482485164249 0.1026150486124434 0 0.14187615809644211 0.099183566728455214 0 0.14923482485164249 0.1026150486124434 0 0.15475358607039941 0.09587415124396173 0 0.14923482485164249 0.1026150486124434 0 0.15475358607039941 0.09587415124396173 0 0.16609523831516881 0.099647306215411707 0 0.16609523831516881 0.099647306215411707 0 0.16492584702047369 0.1174061600226544 0 0.1782333677479985 0.1093645102106278 0 0.14923482485164249 0.1026150486124434 0 0.16609523831516881 0.099647306215411707 0 0.16492584702047369 0.1174061600226544 0 0.15538944168809321 0.13183294992385991 0 0.15260042432517679 0.1147630796692129 0 0.16492584702047369 0.1174061600226544 0 0.14923482485164249 0.1026150486124434 0 0.16492584702047369 0.1174061600226544 0 0.18061686918930969 0.1321972714328605 0 0.16492584702047369 0.1174061600226544 0 0.18061686918930969 0.1321972714328605 0 0.1931491825398767 0.11375503508894939 0 0.18061686918930969 0.1321972714328605 0 0.16492584702047369 0.1174061600226544 0 0.1782333677479985 0.1093645102106278 0 0.18061686918930969 0.1321972714328605 0 0.1931491825398767 0.11375503508894939 0 0.1782333677479985 0.1093645102106278 0 0.1931491825398767 0.11375503508894939 0 0.1782333677479985 0.1093645102106278 0 0.18177967028550859 0.092603433087268608 0 0.16609523831516881 0.099647306215411707 0 0.1782333677479985 0.1093645102106278 0 0.18177967028550859 0.092603433087268608 0 0.19332032167158619 0.076133431662046211 0 0.18177967028550859 0.092603433087268608 0 0.1760966136010125 0.068963316815236347 0 0.18177967028550859 0.092603433087268608 0 0.1760966136010125 0.068963316815236347 0 0.15898638584872729 0.084073441771845794 0 0.19332032167158619 0.076133431662046211 0 0.18944401842261921 0.061130862901843747 0 0.1760966136010125 0.068963316815236347 0 0.17779619683857489 0.050809400973672939 0 0.1760966136010125 0.068963316815236347 0 0.1607388761134845 0.069719810748983285 0 0.1760966136010125 0.068963316815236347 0 0.15898638584872729 0.084073441771845794 0 0.1760966136010125 0.068963316815236347 0 0.1607388761134845 0.069719810748983285 0 0.15898638584872729 0.084073441771845794 0 0.16609523831516881 0.099647306215411707 0 0.18177967028550859 0.092603433087268608 0 0.15898638584872729 0.084073441771845794 0 0.15475358607039941 0.09587415124396173 0 0.16609523831516881 0.099647306215411707 0 0.15898638584872729 0.084073441771845794 0 0.1032641159447996 0.47130571930020537 0 0.098199673164049567 0.48440385360168098 0 0.1174137361435979 0.48659443128289082 0 0.1032641159447996 0.47130571930020537 0 0.090644089777044246 0.46071264985638261 0 0.087726351484282206 0.4757041361064076 0 0.1032641159447996 0.47130571930020537 0 0.098199673164049567 0.48440385360168098 0 0.087726351484282206 0.4757041361064076 0 0.098199673164049567 0.48440385360168098 0 0.095196381942725061 0.49999999999999811 0 0.1174137361435979 0.48659443128289082 0 0.095196381942725061 0.49999999999999811 0 0.1174137361435979 0.48659443128289082 0 0.095196381942725061 0.49999999999999811 0 0.1174137361435979 0.48659443128289082 0 0.1230844670130324 0.5 0 0.1174137361435979 0.48659443128289082 0 0.1230844670130324 0.5 0 0.13429775002903949 0.48769629589874153 0 0.1032641159447996 0.47130571930020537 0 0.1174137361435979 0.48659443128289082 0 0.11814267704777991 0.46287907790262539 0 0.11814267704777991 0.46287907790262539 0 0.1090831032913482 0.44151337362712922 0 0.1029605458527392 0.45680636590790891 0 0.1090831032913482 0.44151337362712922 0 0.1222215169895683 0.43055506621509182 0 0.1355420099013448 0.44897423405586961 0 0.1090831032913482 0.44151337362712922 0 0.1355420099013448 0.44897423405586961 0 0.11814267704777991 0.46287907790262539 0 0.1090831032913482 0.44151337362712922 0 0.1355420099013448 0.44897423405586961 0 0.1090831032913482 0.44151337362712922 0 0.082624196681351667 0.43405251319838878 0 0.1090831032913482 0.44151337362712922 0 0.093668743202723836 0.44762100885320188 0 0.082624196681351667 0.43405251319838878 0 0.1090831032913482 0.44151337362712922 0 0.1029605458527392 0.45680636590790891 0 0.093668743202723836 0.44762100885320188 0 0.1032641159447996 0.47130571930020537 0 0.11814267704777991 0.46287907790262539 0 0.1029605458527392 0.45680636590790891 0 0.1029605458527392 0.45680636590790891 0 0.090644089777044246 0.46071264985638261 0 0.093668743202723836 0.44762100885320188 0 0.1032641159447996 0.47130571930020537 0 0.1029605458527392 0.45680636590790891 0 0.090644089777044246 0.46071264985638261 0 0.090644089777044246 0.46071264985638261 0 0.074457070103730705 0.46257047923964278 0 0.087726351484282206 0.4757041361064076 0 0.090644089777044246 0.46071264985638261 0 0.080473876037316677 0.44775606882805619 0 0.074457070103730705 0.46257047923964278 0 0.090644089777044246 0.46071264985638261 0 0.093668743202723836 0.44762100885320188 0 0.080473876037316677 0.44775606882805619 0 0.080473876037316677 0.44775606882805619 0 0.07186446301557603 0.43721087370155109 0 0.082624196681351667 0.43405251319838878 0 0.093668743202723836 0.44762100885320188 0 0.080473876037316677 0.44775606882805619 0 0.082624196681351667 0.43405251319838878 0 0.080473876037316677 0.44775606882805619 0 0.067478747807318884 0.44824240703308438 0 0.07186446301557603 0.43721087370155109 0 0.080473876037316677 0.44775606882805619 0 0.067478747807318884 0.44824240703308438 0 0.074457070103730705 0.46257047923964278 0 0.067478747807318884 0.44824240703308438 0 0.056593540600440792 0.43332633092017098 0 0.07186446301557603 0.43721087370155109 0 0.074457070103730705 0.46257047923964278 0 0.068703290701365161 0.480273013129071 0 0.054778655625604411 0.46054602625813951 0 0.067478747807318884 0.44824240703308438 0 0.074457070103730705 0.46257047923964278 0 0.054778655625604411 0.46054602625813951 0 0.074457070103730705 0.46257047923964278 0 0.068703290701365161 0.480273013129071 0 0.087726351484282206 0.4757041361064076 0 0.068703290701365161 0.480273013129071 0 0.087726351484282206 0.4757041361064076 0 0.087397780304843797 0.48841498131890421 0 0.098199673164049567 0.48440385360168098 0 0.087726351484282206 0.4757041361064076 0 0.087397780304843797 0.48841498131890421 0 0.068703290701365161 0.480273013129071 0 0.087397780304843797 0.48841498131890421 0 0.082627925777126854 0.500000000000002 0 0.095196381942725061 0.49999999999999811 0 0.087397780304843797 0.48841498131890421 0 0.082627925777126854 0.500000000000002 0 0.098199673164049567 0.48440385360168098 0 0.095196381942725061 0.49999999999999811 0 0.087397780304843797 0.48841498131890421 0 0.068703290701365161 0.480273013129071 0 0.082627925777126854 0.500000000000002 0 0.068703290701365161 0.480273013129071 0 0.082627925777126854 0.500000000000002 0 0.067412100219766791 0.49999999999999939 0 0.068703290701365161 0.480273013129071 0 0.067412100219766791 0.49999999999999939 0 0.051384546047637612 0.48455195668633999 0 0.067412100219766791 0.49999999999999939 0 0.051384546047637612 0.48455195668633999 0 0.067412100219766791 0.49999999999999939 0 0.051384546047637612 0.48455195668633999 0 0.040774120355112409 0.5 0 0.051384546047637612 0.48455195668633999 0 0.03535699187550817 0.46910391337268098 0 0.054778655625604411 0.46054602625813951 0 0.068703290701365161 0.480273013129071 0 0.051384546047637612 0.48455195668633999 0 0.054778655625604411 0.46054602625813951 0 0.068703290701365161 0.480273013129071 0 0.054778655625604411 0.46054602625813951 0 0.051384546047637612 0.48455195668633999 0 0.03535699187550817 0.46910391337268098 0 0.051384546047637612 0.48455195668633999 0 0.03535699187550817 0.46910391337268098 0 0.02821908441121148 0.48472492888181112 0 0.051384546047637612 0.48455195668633999 0 0.040774120355112409 0.5 0 0.02821908441121148 0.48472492888181112 0 0.040774120355112409 0.5 0 0.02821908441121148 0.48472492888181112 0 0.01413614049045803 0.5 0 0.02821908441121148 0.48472492888181112 0 0.0076545284232591802 0.48240144018456949 0 0.01413614049045803 0.5 0 0.03535699187550817 0.46910391337268098 0 0.02821908441121148 0.48472492888181112 0 0.021768511057490419 0.46665744662156222 0 0.02821908441121148 0.48472492888181112 0 0.0076545284232591802 0.48240144018456949 0 0.021768511057490419 0.46665744662156222 0 -0.01064764793798288 0.47621707713326439 0 0.0076545284232591802 0.48240144018456949 0 0.0049529218925743867 0.46680918847077951 0 0.0076545284232591802 0.48240144018456949 0 0.0049529218925743867 0.46680918847077951 0 0.021768511057490419 0.46665744662156222 0 -0.01250183937419636 0.5 0 0.0076545284232591802 0.48240144018456949 0 0.01413614049045803 0.5 0 -0.00052846020633500607 0.44866686850803073 0 0.0097077257863687864 0.44738042733621552 0 0.0106338495084003 0.43254427085224217 0 0.0097077257863687864 0.44738042733621552 0 0.017473351475404499 0.4519492731285249 0 0.01590662502410296 0.44222541233301238 0 0.0097077257863687864 0.44738042733621552 0 0.012210926571244 0.45580754052006289 0 0.017473351475404499 0.4519492731285249 0 0.0097077257863687864 0.44738042733621552 0 0.01590662502410296 0.44222541233301238 0 0.0106338495084003 0.43254427085224217 0 -0.00052846020633500607 0.44866686850803073 0 0.0097077257863687864 0.44738042733621552 0 0.012210926571244 0.45580754052006289 0 -0.00052846020633500607 0.44866686850803073 0 0.0049529218925743867 0.46680918847077951 0 0.012210926571244 0.45580754052006289 0 0.0049529218925743867 0.46680918847077951 0 0.012210926571244 0.45580754052006289 0 0.021768511057490419 0.46665744662156222 0 0.03535699187550817 0.46910391337268098 0 0.019329437703378739 0.45365587005902203 0 0.021768511057490419 0.46665744662156222 0 0.012210926571244 0.45580754052006289 0 0.019329437703378739 0.45365587005902203 0 0.017473351475404499 0.4519492731285249 0 0.03535699187550817 0.46910391337268098 0 0.019329437703378739 0.45365587005902203 0 0.034251486490603167 0.45421246625762329 0 0.019329437703378739 0.45365587005902203 0 0.017473351475404499 0.4519492731285249 0 0.034251486490603167 0.45421246625762329 0 0.03535699187550817 0.46910391337268098 0 0.019329437703378739 0.45365587005902203 0 0.012210926571244 0.45580754052006289 0 0.019329437703378739 0.45365587005902203 0 0.021768511057490419 0.46665744662156222 0 0.017473351475404499 0.4519492731285249 0 0.040854020549842877 0.44081903938720829 0 0.017473351475404499 0.4519492731285249 0 0.02373567640472124 0.43865769501039648 0 0.040854020549842877 0.44081903938720829 0 0.017473351475404499 0.4519492731285249 0 0.040854020549842877 0.44081903938720829 0 0.034251486490603167 0.45421246625762329 0 0.01590662502410296 0.44222541233301238 0 0.02373567640472124 0.43865769501039648 0 0.0106338495084003 0.43254427085224217 0 0.017473351475404499 0.4519492731285249 0 0.01590662502410296 0.44222541233301238 0 0.02373567640472124 0.43865769501039648 0 0.040854020549842877 0.44081903938720829 0 0.034251486490603167 0.45421246625762329 0 0.054778655625604411 0.46054602625813951 0 0.03535699187550817 0.46910391337268098 0 0.034251486490603167 0.45421246625762329 0 0.054778655625604411 0.46054602625813951 0 0.040854020549842877 0.44081903938720829 0 0.054778655625604411 0.46054602625813951 0 0.056593540600440792 0.43332633092017098 0 0.040854020549842877 0.44081903938720829 0 0.054778655625604411 0.46054602625813951 0 0.067478747807318884 0.44824240703308438 0 0.054778655625604411 0.46054602625813951 0 0.056593540600440792 0.43332633092017098 0 0.050292255717270182 0.42370996645412751 0 0.072333060651035494 0.42583362245312689 0 0.056593540600440792 0.43332633092017098 0 0.050292255717270182 0.42370996645412751 0 0.072333060651035494 0.42583362245312689 0 0.040854020549842877 0.44081903938720829 0 0.056593540600440792 0.43332633092017098 0 0.050292255717270182 0.42370996645412751 0 0.040854020549842877 0.44081903938720829 0 0.056593540600440792 0.43332633092017098 0 0.040379385383908423 0.41220755221488381 0 0.061340936507533653 0.39494009087976412 0 0.062758457349444935 0.4159728403104001 0 0.050292255717270182 0.42370996645412751 0 0.062758457349444935 0.4159728403104001 0 0.072333060651035494 0.42583362245312689 0 0.040379385383908423 0.41220755221488381 0 0.062758457349444935 0.4159728403104001 0 0.050292255717270182 0.42370996645412751 0 0.040379385383908423 0.41220755221488381 0 0.062758457349444935 0.4159728403104001 0 0.050292255717270182 0.42370996645412751 0 0.040379385383908423 0.41220755221488381 0 0.039911316840524423 0.42341192928217858 0 0.040379385383908423 0.41220755221488381 0 0.039911316840524423 0.42341192928217858 0 0.029427166984108521 0.42463065175328629 0 0.040854020549842877 0.44081903938720829 0 0.050292255717270182 0.42370996645412751 0 0.039911316840524423 0.42341192928217858 0 0.02373567640472124 0.43865769501039648 0 0.040854020549842877 0.44081903938720829 0 0.029427166984108521 0.42463065175328629 0 0.040854020549842877 0.44081903938720829 0 0.029427166984108521 0.42463065175328629 0 0.040854020549842877 0.44081903938720829 0 0.039911316840524423 0.42341192928217858 0 0.029427166984108521 0.42463065175328629 0 0.02373567640472124 0.43865769501039648 0 0.029427166984108521 0.42463065175328629 0 0.0106338495084003 0.43254427085224217 0 0.029427166984108521 0.42463065175328629 0 0.018000313418372219 0.40844226411936557 0 0.0106338495084003 0.43254427085224217 0 0.040379385383908423 0.41220755221488381 0 0.018000313418372219 0.40844226411936557 0 0.029427166984108521 0.42463065175328629 0 0.018000313418372219 0.40844226411936557 0 0.040379385383908423 0.41220755221488381 0 0.029427166984108521 0.42463065175328629 0 0.018000313418372219 0.40844226411936557 0 -0.011501597641767719 0.40347855540612021 0 0.018000313418372219 0.40844226411936557 0 0.0013436152914496589 0.41728723247614569 0 0.018000313418372219 0.40844226411936557 0 0.0013436152914496589 0.41728723247614569 0 0.0106338495084003 0.43254427085224217 0 0.01217932921301799 0.38232777491086978 0 0.003093702987385379 0.38732411584027049 0 0.01723011412923596 0.39249071705572552 0 0.01217932921301799 0.38232777491086978 0 0.0061949725133139261 0.37800393931065812 0 0.01291863258956745 0.37376477294501698 0 0.01217932921301799 0.38232777491086978 0 0.02169489966675275 0.38069357226399803 0 0.01291863258956745 0.37376477294501698 0 0.01217932921301799 0.38232777491086978 0 0.0061949725133139261 0.37800393931065812 0 0.003093702987385379 0.38732411584027049 0 -0.0032523513916702961 0.37561980347304919 0 0.0061949725133139261 0.37800393931065812 0 0.003093702987385379 0.38732411584027049 0 -0.011501597641767719 0.40347855540612021 0 0.018000313418372219 0.40844226411936557 0 0.001648440857648738 0.39399424287546259 0 0.018000313418372219 0.40844226411936557 0 0.003093702987385379 0.38732411584027049 0 0.018000313418372219 0.40844226411936557 0 0.003093702987385379 0.38732411584027049 0 0.001648440857648738 0.39399424287546259 0 0.018000313418372219 0.40844226411936557 0 0.003093702987385379 0.38732411584027049 0 0.01723011412923596 0.39249071705572552 0 -0.011501597641767719 0.40347855540612021 0 0.018000313418372219 0.40844226411936557 0 0.018000313418372219 0.40844226411936557 0 0.01723011412923596 0.39249071705572552 0 0.037155115223125111 0.3929797580420118 0 0.01723011412923596 0.39249071705572552 0 0.02169489966675275 0.38069357226399803 0 0.037155115223125111 0.3929797580420118 0 0.02169489966675275 0.38069357226399803 0 0.037155115223125111 0.3929797580420118 0 0.03288923705235209 0.37206969264692041 0 0.01217932921301799 0.38232777491086978 0 0.01723011412923596 0.39249071705572552 0 0.02169489966675275 0.38069357226399803 0 0.037155115223125111 0.3929797580420118 0 0.053027119018581939 0.37740418556572369 0 0.03288923705235209 0.37206969264692041 0 0.040379385383908423 0.41220755221488381 0 0.018000313418372219 0.40844226411936557 0 0.037155115223125111 0.3929797580420118 0 0.040379385383908423 0.41220755221488381 0 0.037155115223125111 0.3929797580420118 0 0.061340936507533653 0.39494009087976412 0 0.037155115223125111 0.3929797580420118 0 0.061340936507533653 0.39494009087976412 0 0.037155115223125111 0.3929797580420118 0 0.061340936507533653 0.39494009087976412 0 0.053027119018581939 0.37740418556572369 0 0.061340936507533653 0.39494009087976412 0 0.053027119018581939 0.37740418556572369 0 0.073466805376879829 0.38359086070339338 0 0.053027119018581939 0.37740418556572369 0 0.073466805376879829 0.38359086070339338 0 0.068489585094018465 0.36604325843972718 0 0.085526757791942201 0.39690042371751633 0 0.098867302605028878 0.38248776678305052 0 0.085684458196462421 0.3749256885592297 0 0.073466805376879829 0.38359086070339338 0 0.085526757791942201 0.39690042371751633 0 0.085684458196462421 0.3749256885592297 0 0.061340936507533653 0.39494009087976412 0 0.073466805376879829 0.38359086070339338 0 0.085526757791942201 0.39690042371751633 0 0.061340936507533653 0.39494009087976412 0 0.085526757791942201 0.39690042371751633 0 0.074230779507238498 0.40724935780020832 0 0.061340936507533653 0.39494009087976412 0 0.074230779507238498 0.40724935780020832 0 0.062758457349444935 0.4159728403104001 0 0.061340936507533653 0.39494009087976412 0 0.085526757791942201 0.39690042371751633 0 0.062758457349444935 0.4159728403104001 0 0.072333060651035494 0.42583362245312689 0 0.085137529314981114 0.41973812840591829 0 0.062758457349444935 0.4159728403104001 0 0.085137529314981114 0.41973812840591829 0 0.074230779507238498 0.40724935780020832 0 0.062758457349444935 0.4159728403104001 0 0.085137529314981114 0.41973812840591829 0 0.056593540600440792 0.43332633092017098 0 0.072333060651035494 0.42583362245312689 0 0.056593540600440792 0.43332633092017098 0 0.072333060651035494 0.42583362245312689 0 0.07186446301557603 0.43721087370155109 0 0.072333060651035494 0.42583362245312689 0 0.07186446301557603 0.43721087370155109 0 0.082624196681351667 0.43405251319838878 0 0.072333060651035494 0.42583362245312689 0 0.085137529314981114 0.41973812840591829 0 0.097273214173337716 0.42823663390405631 0 0.072333060651035494 0.42583362245312689 0 0.082624196681351667 0.43405251319838878 0 0.097273214173337716 0.42823663390405631 0 0.072333060651035494 0.42583362245312689 0 0.097273214173337716 0.42823663390405631 0 0.072333060651035494 0.42583362245312689 0 0.085137529314981114 0.41973812840591829 0 0.085137529314981114 0.41973812840591829 0 0.098053581592115413 0.4219112595328483 0 0.097273214173337716 0.42823663390405631 0 0.085526757791942201 0.39690042371751633 0 0.085137529314981114 0.41973812840591829 0 0.1033606835708977 0.41106310008544961 0 0.085526757791942201 0.39690042371751633 0 0.074230779507238498 0.40724935780020832 0 0.085137529314981114 0.41973812840591829 0 0.085137529314981114 0.41973812840591829 0 0.098053581592115413 0.4219112595328483 0 0.085137529314981114 0.41973812840591829 0 0.1033606835708977 0.41106310008544961 0 0.085137529314981114 0.41973812840591829 0 0.098053581592115413 0.4219112595328483 0 0.1033606835708977 0.41106310008544961 0 0.098053581592115413 0.4219112595328483 0 0.10492092117440389 0.41868945162666282 0 0.1033606835708977 0.41106310008544961 0 0.10492092117440389 0.41868945162666282 0 0.1033606835708977 0.41106310008544961 0 0.1142449206715738 0.40993236292452562 0 0.1033606835708977 0.41106310008544961 0 0.1142449206715738 0.40993236292452562 0 0.1097125790763506 0.39886075655526848 0 0.1090831032913482 0.44151337362712922 0 0.082624196681351667 0.43405251319838878 0 0.097273214173337716 0.42823663390405631 0 0.098053581592115413 0.4219112595328483 0 0.10492092117440389 0.41868945162666282 0 0.097273214173337716 0.42823663390405631 0 0.10492092117440389 0.41868945162666282 0 0.097273214173337716 0.42823663390405631 0 0.111672205864095 0.42230390168643378 0 0.097273214173337716 0.42823663390405631 0 0.1222215169895683 0.43055506621509182 0 0.1090831032913482 0.44151337362712922 0 0.097273214173337716 0.42823663390405631 0 0.1222215169895683 0.43055506621509182 0 0.097273214173337716 0.42823663390405631 0 0.111672205864095 0.42230390168643378 0 0.1222215169895683 0.43055506621509182 0 0.111672205864095 0.42230390168643378 0 0.1222215169895683 0.43055506621509182 0 0.12727356898040859 0.42749199149124872 0 0.111672205864095 0.42230390168643378 0 0.12727356898040859 0.42749199149124872 0 0.1222215169895683 0.43055506621509182 0 0.12727356898040859 0.42749199149124872 0 0.1142449206715738 0.40993236292452562 0 0.1241117666352399 0.414664476187036 0 0.13389840036075901 0.4008210893930208 0 0.111672205864095 0.42230390168643378 0 0.1142449206715738 0.40993236292452562 0 0.1241117666352399 0.414664476187036 0 0.10492092117440389 0.41868945162666282 0 0.111672205864095 0.42230390168643378 0 0.1142449206715738 0.40993236292452562 0 0.111672205864095 0.42230390168643378 0 0.1241117666352399 0.414664476187036 0 0.12727356898040859 0.42749199149124872 0 0.1097125790763506 0.39886075655526848 0 0.12513284746317749 0.38990891281356388 0 0.13389840036075901 0.4008210893930208 0 0.1142449206715738 0.40993236292452562 0 0.1097125790763506 0.39886075655526848 0 0.13389840036075901 0.4008210893930208 0 0.1097125790763506 0.39886075655526848 0 0.13389840036075901 0.4008210893930208 0 0.1097125790763506 0.39886075655526848 0 0.1123255105565857 0.3835935729645209 0 0.12513284746317749 0.38990891281356388 0 0.1123255105565857 0.3835935729645209 0 0.12667681049296869 0.37468288151574802 0 0.12513284746317749 0.38990891281356388 0 0.1123255105565857 0.3835935729645209 0 0.098867302605028878 0.38248776678305052 0 0.10380625213116609 0.36681033269572783 0 0.1097125790763506 0.39886075655526848 0 0.1123255105565857 0.3835935729645209 0 0.098867302605028878 0.38248776678305052 0 0.085526757791942201 0.39690042371751633 0 0.1033606835708977 0.41106310008544961 0 0.1097125790763506 0.39886075655526848 0 0.085526757791942201 0.39690042371751633 0 0.1097125790763506 0.39886075655526848 0 0.098867302605028878 0.38248776678305052 0 0.085526757791942201 0.39690042371751633 0 0.1097125790763506 0.39886075655526848 0 0.10380625213116609 0.36681033269572783 0 0.121791350130113 0.35073521871117402 0 0.1007052577960512 0.34221239722094748 0 0.10380625213116609 0.36681033269572783 0 0.1007052577960512 0.34221239722094748 0 0.083950046179739043 0.35372148901596318 0 0.098867302605028878 0.38248776678305052 0 0.10380625213116609 0.36681033269572783 0 0.085684458196462421 0.3749256885592297 0 0.1123255105565857 0.3835935729645209 0 0.10380625213116609 0.36681033269572783 0 0.12667681049296869 0.37468288151574802 0 0.10380625213116609 0.36681033269572783 0 0.121791350130113 0.35073521871117402 0 0.12667681049296869 0.37468288151574802 0 0.121791350130113 0.35073521871117402 0 0.11729860110988161 0.32983367594317581 0 0.1007052577960512 0.34221239722094748 0 0.11729860110988161 0.32983367594317581 0 0.095719206813306992 0.31429212298423481 0 0.11586662343503459 0.30163064627889707 0 0.11729860110988161 0.32983367594317581 0 0.11586662343503459 0.30163064627889707 0 0.13319416010167251 0.31538624700923501 0 0.11729860110988161 0.32983367594317581 0 0.095719206813306992 0.31429212298423481 0 0.1007052577960512 0.34221239722094748 0 0.095719206813306992 0.31429212298423481 0 0.1007052577960512 0.34221239722094748 0 0.082215222261058929 0.33290163094109099 0 0.1007052577960512 0.34221239722094748 0 0.082215222261058929 0.33290163094109099 0 0.083950046179739043 0.35372148901596318 0 0.095719206813306992 0.31429212298423481 0 0.082215222261058929 0.33290163094109099 0 0.068137531246772368 0.31675827279013169 0 0.082215222261058929 0.33290163094109099 0 0.062533971357444443 0.34382019394507662 0 0.083950046179739043 0.35372148901596318 0 0.082215222261058929 0.33290163094109099 0 0.068137531246772368 0.31675827279013169 0 0.062533971357444443 0.34382019394507662 0 0.062533971357444443 0.34382019394507662 0 0.083950046179739043 0.35372148901596318 0 0.068489585094018465 0.36604325843972718 0 0.083950046179739043 0.35372148901596318 0 0.085684458196462421 0.3749256885592297 0 0.068489585094018465 0.36604325843972718 0 0.10380625213116609 0.36681033269572783 0 0.083950046179739043 0.35372148901596318 0 0.085684458196462421 0.3749256885592297 0 0.073466805376879829 0.38359086070339338 0 0.085684458196462421 0.3749256885592297 0 0.068489585094018465 0.36604325843972718 0 0.053027119018581939 0.37740418556572369 0 0.068489585094018465 0.36604325843972718 0 0.043505039128683198 0.35949711716939747 0 0.062533971357444443 0.34382019394507662 0 0.043505039128683198 0.35949711716939747 0 0.041865854656802273 0.34121808031290057 0 0.062533971357444443 0.34382019394507662 0 0.068489585094018465 0.36604325843972718 0 0.043505039128683198 0.35949711716939747 0 0.043505039128683198 0.35949711716939747 0 0.020355230950647452 0.35551514986499738 0 0.043505039128683198 0.35949711716939747 0 0.025601944473378799 0.34807643911551073 0 0.041865854656802273 0.34121808031290057 0 0.053027119018581939 0.37740418556572369 0 0.043505039128683198 0.35949711716939747 0 0.03288923705235209 0.37206969264692041 0 0.043505039128683198 0.35949711716939747 0 0.03288923705235209 0.37206969264692041 0 0.020355230950647452 0.35551514986499738 0 0.02169489966675275 0.38069357226399803 0 0.03288923705235209 0.37206969264692041 0 0.018985791125155079 0.36821286475801601 0 0.03288923705235209 0.37206969264692041 0 0.018985791125155079 0.36821286475801601 0 0.020355230950647452 0.35551514986499738 0 0.02169489966675275 0.38069357226399803 0 0.018985791125155079 0.36821286475801601 0 0.01291863258956745 0.37376477294501698 0 0.018985791125155079 0.36821286475801601 0 0.020355230950647452 0.35551514986499738 0 0.012240504401148541 0.3649199291097685 0 0.025601944473378799 0.34807643911551073 0 0.020355230950647452 0.35551514986499738 0 0.0097522298556234014 0.34452601696843482 0 0.043505039128683198 0.35949711716939747 0 0.025601944473378799 0.34807643911551073 0 0.020355230950647452 0.35551514986499738 0 -0.00279457722738843 0.35153318256059729 0 0.020355230950647452 0.35551514986499738 0 0.0097522298556234014 0.34452601696843482 0 -0.00279457722738843 0.35153318256059729 0 0.020355230950647452 0.35551514986499738 0 -0.00279457722738843 0.35153318256059729 0 0.020355230950647452 0.35551514986499738 0 0.0040331888674294556 0.361000529748496 0 -0.00279457722738843 0.35153318256059729 0 0.0097522298556234014 0.34452601696843482 0 0.0003971283265588885 0.34001882545974382 0 -0.0021732964277050241 0.36793156695004081 0 0.0040331888674294556 0.361000529748496 0 0.0062162986180164092 0.36843055731679147 0 0.0040331888674294556 0.361000529748496 0 0.0062162986180164092 0.36843055731679147 0 0.012240504401148541 0.3649199291097685 0 0.020355230950647452 0.35551514986499738 0 0.0040331888674294556 0.361000529748496 0 0.012240504401148541 0.3649199291097685 0 -0.0032523513916702961 0.37561980347304919 0 0.0061949725133139261 0.37800393931065812 0 0.0062162986180164092 0.36843055731679147 0 -0.0021732964277050241 0.36793156695004081 0 -0.0032523513916702961 0.37561980347304919 0 0.0062162986180164092 0.36843055731679147 0 0.0062162986180164092 0.36843055731679147 0 0.01291863258956745 0.37376477294501698 0 0.012240504401148541 0.3649199291097685 0 0.018985791125155079 0.36821286475801601 0 0.01291863258956745 0.37376477294501698 0 0.012240504401148541 0.3649199291097685 0 0.0061949725133139261 0.37800393931065812 0 0.0062162986180164092 0.36843055731679147 0 0.01291863258956745 0.37376477294501698 0 0.006573283492280594 0.32848561383034253 0 0.028303808494020689 0.31217451506703281 0 0.0084044717118903628 0.30019390425371051 0 0.0097522298556234014 0.34452601696843482 0 0.006573283492280594 0.32848561383034253 0 0.0003971283265588885 0.34001882545974382 0 0.025601944473378799 0.34807643911551073 0 0.0097522298556234014 0.34452601696843482 0 0.006573283492280594 0.32848561383034253 0 0.025601944473378799 0.34807643911551073 0 0.006573283492280594 0.32848561383034253 0 0.02827621514179678 0.33022506732778972 0 0.025601944473378799 0.34807643911551073 0 0.006573283492280594 0.32848561383034253 0 0.006573283492280594 0.32848561383034253 0 0.02827621514179678 0.33022506732778972 0 0.028303808494020689 0.31217451506703281 0 0.048203145276150952 0.32415512588035489 0 0.046872966543756722 0.3038481775010955 0 0.028303808494020689 0.31217451506703281 0 0.048203145276150952 0.32415512588035489 0 0.028303808494020689 0.31217451506703281 0 0.02827621514179678 0.33022506732778972 0 0.048203145276150952 0.32415512588035489 0 0.028303808494020689 0.31217451506703281 0 0.025601944473378799 0.34807643911551073 0 0.02827621514179678 0.33022506732778972 0 0.041865854656802273 0.34121808031290057 0 0.02827621514179678 0.33022506732778972 0 0.041865854656802273 0.34121808031290057 0 0.048203145276150952 0.32415512588035489 0 0.068137531246772368 0.31675827279013169 0 0.062533971357444443 0.34382019394507662 0 0.048203145276150952 0.32415512588035489 0 0.062533971357444443 0.34382019394507662 0 0.041865854656802273 0.34121808031290057 0 0.048203145276150952 0.32415512588035489 0 0.068137531246772368 0.31675827279013169 0 0.048203145276150952 0.32415512588035489 0 0.046872966543756722 0.3038481775010955 0 0.068137531246772368 0.31675827279013169 0 0.046872966543756722 0.3038481775010955 0 0.063171763626101773 0.2983780288142821 0 0.053781429056608057 0.28729842918667869 0 0.046872966543756722 0.3038481775010955 0 0.063171763626101773 0.2983780288142821 0 0.053781429056608057 0.28729842918667869 0 0.064264805205545353 0.27198102674761709 0 0.068342284926030963 0.28602842342453128 0 0.053781429056608057 0.28729842918667869 0 0.068342284926030963 0.28602842342453128 0 0.063171763626101773 0.2983780288142821 0 0.053781429056608057 0.28729842918667869 0 0.033474242236762687 0.28910176940930649 0 0.049314237021936047 0.27452582964441169 0 0.053781429056608057 0.28729842918667869 0 0.033474242236762687 0.28910176940930649 0 0.046872966543756722 0.3038481775010955 0 0.033474242236762687 0.28910176940930649 0 0.046872966543756722 0.3038481775010955 0 0.028303808494020689 0.31217451506703281 0 0.028303808494020689 0.31217451506703281 0 0.0084044717118903628 0.30019390425371051 0 0.033474242236762687 0.28910176940930649 0 0.028303808494020689 0.31217451506703281 0 0.0084044717118903628 0.30019390425371051 0 0.033474242236762687 0.28910176940930649 0 0.0084044717118903628 0.30019390425371051 0 0.01172972211772925 0.27888184410559058 0 -0.01149486507023899 0.28821329344038682 0 0.01172972211772925 0.27888184410559058 0 -0.01149486507023899 0.28821329344038682 0 0.0084044717118903628 0.30019390425371051 0 0.01172972211772925 0.27888184410559058 0 -0.01245537748881761 0.30889478854517421 0 0.006573283492280594 0.32848561383034253 0 0.0084044717118903628 0.30019390425371051 0 -0.003801187714800694 0.2577130827019859 0 0.0058676114778445192 0.24394813624842429 0 0.018164465504250351 0.25574875128904662 0 -0.003801187714800694 0.2577130827019859 0 0.01172972211772925 0.27888184410559058 0 0.018164465504250351 0.25574875128904662 0 0.01172972211772925 0.27888184410559058 0 0.018164465504250351 0.25574875128904662 0 0.034954309305697942 0.26955039477079529 0 0.033474242236762687 0.28910176940930649 0 0.01172972211772925 0.27888184410559058 0 0.034954309305697942 0.26955039477079529 0 0.01172972211772925 0.27888184410559058 0 0.034954309305697942 0.26955039477079529 0 0.036299095253663129 0.24730403330242759 0 0.018164465504250351 0.25574875128904662 0 0.034954309305697942 0.26955039477079529 0 0.04565378985208593 0.25558623459888008 0 0.034954309305697942 0.26955039477079529 0 0.058178896493666643 0.26021894543600022 0 0.034954309305697942 0.26955039477079529 0 0.058178896493666643 0.26021894543600022 0 0.036299095253663129 0.24730403330242759 0 0.04565378985208593 0.25558623459888008 0 0.034954309305697942 0.26955039477079529 0 0.049745079748552613 0.24728829234538999 0 0.036299095253663129 0.24730403330242759 0 0.04565378985208593 0.25558623459888008 0 0.033474242236762687 0.28910176940930649 0 0.034954309305697942 0.26955039477079529 0 0.049314237021936047 0.27452582964441169 0 0.034954309305697942 0.26955039477079529 0 0.049314237021936047 0.27452582964441169 0 0.058178896493666643 0.26021894543600022 0 0.049314237021936047 0.27452582964441169 0 0.058178896493666643 0.26021894543600022 0 0.064264805205545353 0.27198102674761709 0 0.053781429056608057 0.28729842918667869 0 0.049314237021936047 0.27452582964441169 0 0.064264805205545353 0.27198102674761709 0 0.04565378985208593 0.25558623459888008 0 0.058178896493666643 0.26021894543600022 0 0.058206689455242579 0.25102936970770728 0 0.049745079748552613 0.24728829234538999 0 0.04565378985208593 0.25558623459888008 0 0.058206689455242579 0.25102936970770728 0 0.058178896493666643 0.26021894543600022 0 0.081403483681635191 0.25088749610120481 0 0.058206689455242579 0.25102936970770728 0 0.081403483681635191 0.25088749610120481 0 0.058178896493666643 0.26021894543600022 0 0.074692872146568237 0.26392397785573007 0 0.081403483681635191 0.25088749610120481 0 0.058178896493666643 0.26021894543600022 0 0.058206689455242579 0.25102936970770728 0 0.081403483681635191 0.25088749610120481 0 0.058178896493666643 0.26021894543600022 0 0.074692872146568237 0.26392397785573007 0 0.064264805205545353 0.27198102674761709 0 0.081403483681635191 0.25088749610120481 0 0.088898879876329204 0.26030125614527849 0 0.098683877397188882 0.2527677963412433 0 0.081403483681635191 0.25088749610120481 0 0.1000390767132061 0.25077351919703078 0 0.081403483681635191 0.25088749610120481 0 0.1000390767132061 0.25077351919703078 0 0.098683877397188882 0.2527677963412433 0 0.074692872146568237 0.26392397785573007 0 0.081403483681635191 0.25088749610120481 0 0.088898879876329204 0.26030125614527849 0 0.074692872146568237 0.26392397785573007 0 0.088898879876329204 0.26030125614527849 0 0.080718295475664795 0.27623116484855048 0 0.088898879876329204 0.26030125614527849 0 0.080718295475664795 0.27623116484855048 0 0.09656361964120172 0.27056001848945671 0 0.080718295475664795 0.27623116484855048 0 0.097548118425458255 0.28749095324025897 0 0.09656361964120172 0.27056001848945671 0 0.074692872146568237 0.26392397785573007 0 0.080718295475664795 0.27623116484855048 0 0.064264805205545353 0.27198102674761709 0 0.080718295475664795 0.27623116484855048 0 0.064264805205545353 0.27198102674761709 0 0.068342284926030963 0.28602842342453128 0 0.080718295475664795 0.27623116484855048 0 0.068342284926030963 0.28602842342453128 0 0.078724606357340771 0.29795684116897342 0 0.068342284926030963 0.28602842342453128 0 0.063171763626101773 0.2983780288142821 0 0.078724606357340771 0.29795684116897342 0 0.068137531246772368 0.31675827279013169 0 0.063171763626101773 0.2983780288142821 0 0.078724606357340771 0.29795684116897342 0 0.095719206813306992 0.31429212298423481 0 0.068137531246772368 0.31675827279013169 0 0.078724606357340771 0.29795684116897342 0 0.095719206813306992 0.31429212298423481 0 0.078724606357340771 0.29795684116897342 0 0.097548118425458255 0.28749095324025897 0 0.080718295475664795 0.27623116484855048 0 0.078724606357340771 0.29795684116897342 0 0.097548118425458255 0.28749095324025897 0 0.078724606357340771 0.29795684116897342 0 0.097548118425458255 0.28749095324025897 0 0.097548118425458255 0.28749095324025897 0 0.1163716304935757 0.27702506531154458 0 0.095719206813306992 0.31429212298423481 0 0.097548118425458255 0.28749095324025897 0 0.11586662343503459 0.30163064627889707 0 0.11586662343503459 0.30163064627889707 0 0.1163716304935757 0.27702506531154458 0 0.1358339104109863 0.29507644728224969 0 0.097548118425458255 0.28749095324025897 0 0.11586662343503459 0.30163064627889707 0 0.1163716304935757 0.27702506531154458 0 0.1163716304935757 0.27702506531154458 0 0.1191664250018302 0.26445219791588293 0 0.13519514256169271 0.26655917738282953 0 0.1163716304935757 0.27702506531154458 0 0.1191664250018302 0.26445219791588293 0 0.10926136484438111 0.2635476546797918 0 0.1191664250018302 0.26445219791588293 0 0.1158375621076702 0.25067689428936651 0 0.13519514256169271 0.26655917738282953 0 0.1158375621076702 0.25067689428936651 0 0.10926136484438111 0.2635476546797918 0 0.1045306508841873 0.25593834177788283 0 0.1191664250018302 0.26445219791588293 0 0.1158375621076702 0.25067689428936651 0 0.10926136484438111 0.2635476546797918 0 0.1158375621076702 0.25067689428936651 0 0.1000390767132061 0.25077351919703078 0 0.10926136484438111 0.2635476546797918 0 0.099217243343269673 0.26126113474154772 0 0.09656361964120172 0.27056001848945671 0 0.1158375621076702 0.25067689428936651 0 0.1045306508841873 0.25593834177788283 0 0.1000390767132061 0.25077351919703078 0 0.10926136484438111 0.2635476546797918 0 0.1045306508841873 0.25593834177788283 0 0.099217243343269673 0.26126113474154772 0 0.1045306508841873 0.25593834177788283 0 0.098683877397188882 0.2527677963412433 0 0.099217243343269673 0.26126113474154772 0 0.1045306508841873 0.25593834177788283 0 0.1000390767132061 0.25077351919703078 0 0.098683877397188882 0.2527677963412433 0 0.1000390767132061 0.25077351919703078 0 0.098683877397188882 0.2527677963412433 0 0.088898879876329204 0.26030125614527849 0 0.099217243343269673 0.26126113474154772 0 0.09656361964120172 0.27056001848945671 0 0.088898879876329204 0.26030125614527849 0 0.098683877397188882 0.2527677963412433 0 0.099217243343269673 0.26126113474154772 0 0.1163716304935757 0.27702506531154458 0 0.10926136484438111 0.2635476546797918 0 0.09656361964120172 0.27056001848945671 0 0.097548118425458255 0.28749095324025897 0 0.1163716304935757 0.27702506531154458 0 0.09656361964120172 0.27056001848945671 0 0.13912765149830139 0.26978567670422537 0 0.13721301386918591 0.27950174645578701 0 0.15891142420306731 0.28601763707241612 0 0.13912765149830139 0.26978567670422537 0 0.15891142420306731 0.28601763707241612 0 0.1675919788870385 0.27135013769293143 0 0.13912765149830139 0.26978567670422537 0 0.15891142420306731 0.28601763707241612 0 0.13912765149830139 0.26978567670422537 0 0.1675919788870385 0.27135013769293143 0 0.13519514256169271 0.26655917738282953 0 0.13912765149830139 0.26978567670422537 0 0.15666830836153611 0.25462007983702689 0 0.14212432673693021 0.25051612215573321 0 0.13519514256169271 0.26655917738282953 0 0.15666830836153611 0.25462007983702689 0 0.14212432673693021 0.25051612215573321 0 0.15666830836153611 0.25462007983702689 0 0.16841109136619001 0.25035535002209891 0 0.13912765149830139 0.26978567670422537 0 0.15666830836153611 0.25462007983702689 0 0.16419754492817509 0.26115720364503892 0 0.13519514256169271 0.26655917738282953 0 0.15666830836153611 0.25462007983702689 0 0.14212432673693021 0.25051612215573321 0 0.16841109136619001 0.25035535002209891 0 0.1158375621076702 0.25067689428936651 0 0.13519514256169271 0.26655917738282953 0 0.1158375621076702 0.25067689428936651 0 0.14212432673693021 0.25051612215573321 0 0.13519514256169271 0.26655917738282953 0 0.1158375621076702 0.25067689428936651 0 0.14212432673693021 0.25051612215573321 0 0.1163716304935757 0.27702506531154458 0 0.13519514256169271 0.26655917738282953 0 0.1163716304935757 0.27702506531154458 0 0.1358204527399979 0.26960390590850031 0 0.13721301386918591 0.27950174645578701 0 0.1163716304935757 0.27702506531154458 0 0.13519514256169271 0.26655917738282953 0 0.1358204527399979 0.26960390590850031 0 0.1358204527399979 0.26960390590850031 0 0.13912765149830139 0.26978567670422537 0 0.13721301386918591 0.27950174645578701 0 0.13519514256169271 0.26655917738282953 0 0.1358204527399979 0.26960390590850031 0 0.13912765149830139 0.26978567670422537 0 0.1358204527399979 0.26960390590850031 0 0.13912765149830139 0.26978567670422537 0 0.13519514256169271 0.26655917738282953 0 0.13912765149830139 0.26978567670422537 0 0.1163716304935757 0.27702506531154458 0 0.13721301386918591 0.27950174645578701 0 0.1358339104109863 0.29507644728224969 0 0.11586662343503459 0.30163064627889707 0 0.1358339104109863 0.29507644728224969 0 0.13319416010167251 0.31538624700923501 0 0.1358339104109863 0.29507644728224969 0 0.1554215094137818 0.31406946492104548 0 0.13319416010167251 0.31538624700923501 0 0.1358339104109863 0.29507644728224969 0 0.15891142420306731 0.28601763707241612 0 0.1554215094137818 0.31406946492104548 0 0.13721301386918591 0.27950174645578701 0 0.1358339104109863 0.29507644728224969 0 0.15891142420306731 0.28601763707241612 0 0.15891142420306731 0.28601763707241612 0 0.16645743661502199 0.28796753908572592 0 0.17869519690783231 0.30224959744060781 0 0.15891142420306731 0.28601763707241612 0 0.16645743661502199 0.28796753908572592 0 0.1675919788870385 0.27135013769293143 0 0.15891142420306731 0.28601763707241612 0 0.17869519690783231 0.30224959744060781 0 0.15891142420306731 0.28601763707241612 0 0.17869519690783231 0.30224959744060781 0 0.1554215094137818 0.31406946492104548 0 0.17869519690783231 0.30224959744060781 0 0.1824682031138096 0.30322454844726282 0 0.19847896961259731 0.3184815578087995 0 0.16645743661502199 0.28796753908572592 0 0.17869519690783231 0.30224959744060781 0 0.1824682031138096 0.30322454844726282 0 0.1824682031138096 0.30322454844726282 0 0.18429442964806669 0.29444695699310802 0 0.18894878402513141 0.29969503275663262 0 0.16645743661502199 0.28796753908572592 0 0.1824682031138096 0.30322454844726282 0 0.16645743661502199 0.28796753908572592 0 0.1824682031138096 0.30322454844726282 0 0.17846408027287319 0.29024008889231612 0 0.16645743661502199 0.28796753908572592 0 0.17844220602886399 0.28151454477486881 0 0.17846408027287319 0.29024008889231612 0 0.17846408027287319 0.29024008889231612 0 0.18429442964806669 0.29444695699310802 0 0.1866243302286176 0.28615386388285308 0 0.1824682031138096 0.30322454844726282 0 0.17846408027287319 0.29024008889231612 0 0.18429442964806669 0.29444695699310802 0 0.17844220602886399 0.28151454477486881 0 0.17846408027287319 0.29024008889231612 0 0.1866243302286176 0.28615386388285308 0 0.17844220602886399 0.28151454477486881 0 0.1866243302286176 0.28615386388285308 0 0.19605630627577569 0.27291459868163642 0 0.1675919788870385 0.27135013769293143 0 0.17786624163426629 0.26133224603950361 0 0.19605630627577569 0.27291459868163642 0 0.17844220602886399 0.28151454477486881 0 0.1675919788870385 0.27135013769293143 0 0.19605630627577569 0.27291459868163642 0 0.1675919788870385 0.27135013769293143 0 0.19605630627577569 0.27291459868163642 0 0.16645743661502199 0.28796753908572592 0 0.17844220602886399 0.28151454477486881 0 0.1675919788870385 0.27135013769293143 0 0.13912765149830139 0.26978567670422537 0 0.1675919788870385 0.27135013769293143 0 0.16419754492817509 0.26115720364503892 0 0.15666830836153611 0.25462007983702689 0 0.16419754492817509 0.26115720364503892 0 0.16841109136619001 0.25035535002209891 0 0.16419754492817509 0.26115720364503892 0 0.1714012993392548 0.25348965248705402 0 0.17786624163426629 0.26133224603950361 0 0.1675919788870385 0.27135013769293143 0 0.16419754492817509 0.26115720364503892 0 0.17786624163426629 0.26133224603950361 0 0.16419754492817509 0.26115720364503892 0 0.16841109136619001 0.25035535002209891 0 0.1714012993392548 0.25348965248705402 0 0.16841109136619001 0.25035535002209891 0 0.1714012993392548 0.25348965248705402 0 0.1714012993392548 0.25348965248705402 0 0.17952402000674381 0.2520226033605788 0 0.17786624163426629 0.26133224603950361 0 0.1747211428589826 0.24593649975133941 0 0.1714012993392548 0.25348965248705402 0 0.17952402000674381 0.2520226033605788 0 0.17786624163426629 0.26133224603950361 0 0.18726961294756361 0.25700075406908229 0 0.19605630627577569 0.27291459868163642 0 0.17952402000674381 0.2520226033605788 0 0.17786624163426629 0.26133224603950361 0 0.18726961294756361 0.25700075406908229 0 0.18636180325365179 0.24235386445591481 0 0.17952402000674381 0.2520226033605788 0 0.18726961294756361 0.25700075406908229 0 0.18726961294756361 0.25700075406908229 0 0.19805650336663561 0.25051744093571798 0 0.19605630627577569 0.27291459868163642 0 0.19805650336663561 0.25051744093571798 0 0.19605630627577569 0.27291459868163642 0 0.2126139676599979 0.25280608166212842 0 0.19605630627577569 0.27291459868163642 0 0.2126139676599979 0.25280608166212842 0 0.2245206336645128 0.27447905967034142 0 0.19605630627577569 0.27291459868163642 0 0.2245206336645128 0.27447905967034142 0 0.19605630627577569 0.27291459868163642 0 0.2245206336645128 0.27447905967034142 0 0.21371123259017119 0.28720564665900361 0 0.2126139676599979 0.25280608166212842 0 0.2311458149466103 0.2572215684888034 0 0.2245206336645128 0.27447905967034142 0 0.2311458149466103 0.2572215684888034 0 0.2245206336645128 0.27447905967034142 0 0.2373324237039123 0.27319786906475668 0 0.2245206336645128 0.27447905967034142 0 0.2373324237039123 0.27319786906475668 0 0.23070386297051329 0.28456590708671797 0 0.2373324237039123 0.27319786906475668 0 0.24606232352481791 0.27633520882346141 0 0.24297040108111981 0.26382889275229299 0 0.2373324237039123 0.27319786906475668 0 0.24213659306140189 0.28100560642665862 0 0.24606232352481791 0.27633520882346141 0 0.2373324237039123 0.27319786906475668 0 0.24213659306140189 0.28100560642665862 0 0.23070386297051329 0.28456590708671797 0 0.24213659306140189 0.28100560642665862 0 0.24606232352481791 0.27633520882346141 0 0.25189326643671789 0.27813078065480401 0 0.24213659306140189 0.28100560642665862 0 0.25189326643671789 0.27813078065480401 0 0.24606232352481791 0.27633520882346141 0 0.25189326643671789 0.27813078065480401 0 0.25216271887999803 0.27643086421453078 0 0.24606232352481791 0.27633520882346141 0 0.25007920385097743 0.26883377229727617 0 0.25216271887999803 0.27643086421453078 0 0.24606232352481791 0.27633520882346141 0 0.24297040108111981 0.26382889275229299 0 0.25007920385097743 0.26883377229727617 0 0.2311458149466103 0.2572215684888034 0 0.2373324237039123 0.27319786906475668 0 0.24297040108111981 0.26382889275229299 0 0.24267178507654771 0.24534256314771391 0 0.24297040108111981 0.26382889275229299 0 0.25592753825363612 0.26144580776214171 0 0.24297040108111981 0.26382889275229299 0 0.25592753825363612 0.26144580776214171 0 0.25007920385097743 0.26883377229727617 0 0.24267178507654771 0.24534256314771391 0 0.2311458149466103 0.2572215684888034 0 0.24297040108111981 0.26382889275229299 0 0.23683795057509871 0.30165655108114181 0 0.2479575776623911 0.30296017900720612 0 0.23947973726436431 0.29158167427567649 0 0.23683795057509871 0.30165655108114181 0 0.2479575776623911 0.30296017900720612 0 0.23339363593474671 0.3133782805131925 0 0.2479575776623911 0.30296017900720612 0 0.23947973726436431 0.29158167427567649 0 0.25189326643671789 0.27813078065480401 0 0.2479575776623911 0.30296017900720612 0 0.25189326643671789 0.27813078065480401 0 0.24213659306140189 0.28100560642665862 0 0.23947973726436431 0.29158167427567649 0 0.25189326643671789 0.27813078065480401 0 0.24213659306140189 0.28100560642665862 0 0.23947973726436431 0.29158167427567649 0 0.23070386297051329 0.28456590708671797 0 0.23070386297051329 0.28456590708671797 0 0.22652085143889281 0.29870607052849218 0 0.21371123259017119 0.28720564665900361 0 0.2245206336645128 0.27447905967034142 0 0.23070386297051329 0.28456590708671797 0 0.21371123259017119 0.28720564665900361 0 0.23947973726436431 0.29158167427567649 0 0.23070386297051329 0.28456590708671797 0 0.22652085143889281 0.29870607052849218 0 0.22652085143889281 0.29870607052849218 0 0.21432051584211059 0.31051811577636962 0 0.23339363593474671 0.3133782805131925 0 0.23683795057509871 0.30165655108114181 0 0.22652085143889281 0.29870607052849218 0 0.23339363593474671 0.3133782805131925 0 0.23683795057509871 0.30165655108114181 0 0.23947973726436431 0.29158167427567649 0 0.22652085143889281 0.29870607052849218 0 0.21432051584211059 0.31051811577636962 0 0.2038635025208774 0.29680162168699559 0 0.19636460658304961 0.30644779219759938 0 0.22652085143889281 0.29870607052849218 0 0.21432051584211059 0.31051811577636962 0 0.2147246061957625 0.29813200279220109 0 0.21432051584211059 0.31051811577636962 0 0.2147246061957625 0.29813200279220109 0 0.2038635025208774 0.29680162168699559 0 0.22652085143889281 0.29870607052849218 0 0.2147246061957625 0.29813200279220109 0 0.21371123259017119 0.28720564665900361 0 0.2147246061957625 0.29813200279220109 0 0.21371123259017119 0.28720564665900361 0 0.2038635025208774 0.29680162168699559 0 0.21371123259017119 0.28720564665900361 0 0.2038635025208774 0.29680162168699559 0 0.19858465367420841 0.28754731285980978 0 0.19605630627577569 0.27291459868163642 0 0.21371123259017119 0.28720564665900361 0 0.19858465367420841 0.28754731285980978 0 0.2038635025208774 0.29680162168699559 0 0.19858465367420841 0.28754731285980978 0 0.19266789675559989 0.29466083338855997 0 0.18429442964806669 0.29444695699310802 0 0.19266789675559989 0.29466083338855997 0 0.18894878402513141 0.29969503275663262 0 0.18429442964806669 0.29444695699310802 0 0.1866243302286176 0.28615386388285308 0 0.19266789675559989 0.29466083338855997 0 0.1866243302286176 0.28615386388285308 0 0.19858465367420841 0.28754731285980978 0 0.19266789675559989 0.29466083338855997 0 0.1866243302286176 0.28615386388285308 0 0.19605630627577569 0.27291459868163642 0 0.19858465367420841 0.28754731285980978 0 0.21432051584211059 0.31051811577636962 0 0.19636460658304961 0.30644779219759938 0 0.19847896961259731 0.3184815578087995 0 0.17869519690783231 0.30224959744060781 0 0.19847896961259731 0.3184815578087995 0 0.1824682031138096 0.30322454844726282 0 0.19847896961259731 0.3184815578087995 0 0.1824682031138096 0.30322454844726282 0 0.19636460658304961 0.30644779219759938 0 0.19847896961259731 0.3184815578087995 0 0.2038635025208774 0.29680162168699559 0 0.19266789675559989 0.29466083338855997 0 0.19636460658304961 0.30644779219759938 0 0.19266789675559989 0.29466083338855997 0 0.19636460658304961 0.30644779219759938 0 0.18894878402513141 0.29969503275663262 0 0.1824682031138096 0.30322454844726282 0 0.19636460658304961 0.30644779219759938 0 0.18894878402513141 0.29969503275663262 0 0.19847896961259731 0.3184815578087995 0 0.19681690823685211 0.33367864624741839 0 0.18064057649261511 0.32685021285151672 0 0.19847896961259731 0.3184815578087995 0 0.19681690823685211 0.33367864624741839 0 0.21094096834232531 0.33035686879389953 0 0.19681690823685211 0.33367864624741839 0 0.19005326619627211 0.34929564997606832 0 0.18064057649261511 0.32685021285151672 0 0.19681690823685211 0.33367864624741839 0 0.20681896569869029 0.34237287097336161 0 0.19005326619627211 0.34929564997606832 0 0.20681896569869029 0.34237287097336161 0 0.21094096834232531 0.33035686879389953 0 0.2234029670720534 0.34223217977899928 0 0.19681690823685211 0.33367864624741839 0 0.20681896569869029 0.34237287097336161 0 0.21094096834232531 0.33035686879389953 0 0.21094096834232531 0.33035686879389953 0 0.2234029670720534 0.34223217977899928 0 0.21094096834232531 0.33035686879389953 0 0.21928258486316801 0.33555026676040589 0 0.2234029670720534 0.34223217977899928 0 0.19847896961259731 0.3184815578087995 0 0.21928258486316801 0.33555026676040589 0 0.21432051584211059 0.31051811577636962 0 0.19847896961259731 0.3184815578087995 0 0.21928258486316801 0.33555026676040589 0 0.19847896961259731 0.3184815578087995 0 0.21094096834232531 0.33035686879389953 0 0.21928258486316801 0.33555026676040589 0 0.19847896961259731 0.3184815578087995 0 0.21094096834232531 0.33035686879389953 0 0.21432051584211059 0.31051811577636962 0 0.23339363593474671 0.3133782805131925 0 0.21928258486316801 0.33555026676040589 0 0.23339363593474671 0.3133782805131925 0 0.21928258486316801 0.33555026676040589 0 0.24402188888806611 0.32778957735960851 0 0.21928258486316801 0.33555026676040589 0 0.2234029670720534 0.34223217977899928 0 0.2400862001137401 0.35261897571201067 0 0.24402188888806611 0.32778957735960851 0 0.2400862001137401 0.35261897571201067 0 0.26290601320526191 0.34770065800347438 0 0.21928258486316801 0.33555026676040589 0 0.24402188888806611 0.32778957735960851 0 0.2400862001137401 0.35261897571201067 0 0.24402188888806611 0.32778957735960851 0 0.2400862001137401 0.35261897571201067 0 0.2479575776623911 0.30296017900720612 0 0.23339363593474671 0.3133782805131925 0 0.24402188888806611 0.32778957735960851 0 0.2479575776623911 0.30296017900720612 0 0.24402188888806611 0.32778957735960851 0 0.2385563762538655 0.36227029933133009 0 0.23602044790039581 0.37826891581039362 0 0.24705229388111241 0.37186551169991677 0 0.2385563762538655 0.36227029933133009 0 0.23602044790039581 0.37826891581039362 0 0.24705229388111241 0.37186551169991677 0 0.2400862001137401 0.35261897571201067 0 0.26253999358176838 0.37104160374801037 0 0.24705229388111241 0.37186551169991677 0 0.2385563762538655 0.36227029933133009 0 0.2400862001137401 0.35261897571201067 0 0.2385563762538655 0.36227029933133009 0 0.2400862001137401 0.35261897571201067 0 0.2385563762538655 0.36227029933133009 0 0.2400862001137401 0.35261897571201067 0 0.2290875911661816 0.35322610736901022 0 0.2385563762538655 0.36227029933133009 0 0.2143048212250688 0.35578297465369912 0 0.2385563762538655 0.36227029933133009 0 0.2290875911661816 0.35322610736901022 0 0.2143048212250688 0.35578297465369912 0 0.21928258486316801 0.33555026676040589 0 0.2400862001137401 0.35261897571201067 0 0.2234029670720534 0.34223217977899928 0 0.2400862001137401 0.35261897571201067 0 0.2290875911661816 0.35322610736901022 0 0.2234029670720534 0.34223217977899928 0 0.2290875911661816 0.35322610736901022 0 0.2143048212250688 0.35578297465369912 0 0.2385563762538655 0.36227029933133009 0 0.22357691449082651 0.36910297570334749 0 0.2143048212250688 0.35578297465369912 0 0.2385563762538655 0.36227029933133009 0 0.22357691449082651 0.36910297570334749 0 0.23602044790039581 0.37826891581039362 0 0.22357691449082651 0.36910297570334749 0 0.2143048212250688 0.35578297465369912 0 0.19873589241598069 0.36541083906050281 0 0.22357691449082651 0.36910297570334749 0 0.19873589241598069 0.36541083906050281 0 0.19950107811322201 0.38370022965032291 0 0.20681896569869029 0.34237287097336161 0 0.2143048212250688 0.35578297465369912 0 0.19005326619627211 0.34929564997606832 0 0.20681896569869029 0.34237287097336161 0 0.2234029670720534 0.34223217977899928 0 0.2143048212250688 0.35578297465369912 0 0.2143048212250688 0.35578297465369912 0 0.19005326619627211 0.34929564997606832 0 0.19873589241598069 0.36541083906050281 0 0.2143048212250688 0.35578297465369912 0 0.19005326619627211 0.34929564997606832 0 0.19005326619627211 0.34929564997606832 0 0.19873589241598069 0.36541083906050281 0 0.1814197749944009 0.37361251882866042 0 0.19873589241598069 0.36541083906050281 0 0.1814197749944009 0.37361251882866042 0 0.19950107811322201 0.38370022965032291 0 0.19005326619627211 0.34929564997606832 0 0.1814197749944009 0.37361251882866042 0 0.16509257031027161 0.36286069665716891 0 0.16509257031027161 0.36286069665716891 0 0.14783464729622969 0.37227762792548869 0 0.16218144290138439 0.3834916893621993 0 0.1814197749944009 0.37361251882866042 0 0.16509257031027161 0.36286069665716891 0 0.16218144290138439 0.3834916893621993 0 0.16509257031027161 0.36286069665716891 0 0.16580171116747519 0.34280832529843752 0 0.14326457930586731 0.35567836855215951 0 0.19005326619627211 0.34929564997606832 0 0.16580171116747519 0.34280832529843752 0 0.19005326619627211 0.34929564997606832 0 0.16509257031027161 0.36286069665716891 0 0.16580171116747519 0.34280832529843752 0 0.19005326619627211 0.34929564997606832 0 0.18064057649261511 0.32685021285151672 0 0.16580171116747519 0.34280832529843752 0 0.17869519690783231 0.30224959744060781 0 0.19847896961259731 0.3184815578087995 0 0.18064057649261511 0.32685021285151672 0 0.18064057649261511 0.32685021285151672 0 0.16580171116747519 0.34280832529843752 0 0.1554215094137818 0.31406946492104548 0 0.17869519690783231 0.30224959744060781 0 0.18064057649261511 0.32685021285151672 0 0.1554215094137818 0.31406946492104548 0 0.16580171116747519 0.34280832529843752 0 0.14155015613867841 0.33632100062080661 0 0.16580171116747519 0.34280832529843752 0 0.14155015613867841 0.33632100062080661 0 0.1554215094137818 0.31406946492104548 0 0.14155015613867841 0.33632100062080661 0 0.1554215094137818 0.31406946492104548 0 0.13319416010167251 0.31538624700923501 0 0.11729860110988161 0.32983367594317581 0 0.14155015613867841 0.33632100062080661 0 0.13319416010167251 0.31538624700923501 0 0.121791350130113 0.35073521871117402 0 0.11729860110988161 0.32983367594317581 0 0.14155015613867841 0.33632100062080661 0 0.11729860110988161 0.32983367594317581 0 0.14155015613867841 0.33632100062080661 0 0.121791350130113 0.35073521871117402 0 0.14155015613867841 0.33632100062080661 0 0.14326457930586731 0.35567836855215951 0 0.12667681049296869 0.37468288151574802 0 0.14783464729622969 0.37227762792548869 0 0.14326457930586731 0.35567836855215951 0 0.121791350130113 0.35073521871117402 0 0.12667681049296869 0.37468288151574802 0 0.14326457930586731 0.35567836855215951 0 0.16509257031027161 0.36286069665716891 0 0.14783464729622969 0.37227762792548869 0 0.14326457930586731 0.35567836855215951 0 0.16580171116747519 0.34280832529843752 0 0.14155015613867841 0.33632100062080661 0 0.14326457930586731 0.35567836855215951 0 0.13389840036075901 0.4008210893930208 0 0.15808422164516739 0.40278142223077312 0 0.13389840036075901 0.4008210893930208 0 0.15134940535801311 0.41289473754427353 0 0.15808422164516739 0.40278142223077312 0 0.14433505632210469 0.38897765640963861 0 0.13389840036075901 0.4008210893930208 0 0.15808422164516739 0.40278142223077312 0 0.14433505632210469 0.38897765640963861 0 0.15808422164516739 0.40278142223077312 0 0.16218144290138439 0.3834916893621993 0 0.14783464729622969 0.37227762792548869 0 0.14433505632210469 0.38897765640963861 0 0.16218144290138439 0.3834916893621993 0 0.12667681049296869 0.37468288151574802 0 0.14433505632210469 0.38897765640963861 0 0.12513284746317749 0.38990891281356388 0 0.12667681049296869 0.37468288151574802 0 0.14783464729622969 0.37227762792548869 0 0.14433505632210469 0.38897765640963861 0 0.14433505632210469 0.38897765640963861 0 0.12513284746317749 0.38990891281356388 0 0.13389840036075901 0.4008210893930208 0 0.13389840036075901 0.4008210893930208 0 0.13386053487118471 0.41393437034052311 0 0.15134940535801311 0.41289473754427353 0 0.13386053487118471 0.41393437034052311 0 0.12727356898040859 0.42749199149124872 0 0.15134940535801311 0.41289473754427353 0 0.12727356898040859 0.42749199149124872 0 0.15134940535801311 0.41289473754427353 0 0.1241117666352399 0.414664476187036 0 0.13389840036075901 0.4008210893930208 0 0.13386053487118471 0.41393437034052311 0 0.1241117666352399 0.414664476187036 0 0.13386053487118471 0.41393437034052311 0 0.12727356898040859 0.42749199149124872 0 0.12727356898040859 0.42749199149124872 0 0.14266462953714501 0.4326101471142148 0 0.15134940535801311 0.41289473754427353 0 0.1222215169895683 0.43055506621509182 0 0.14266462953714501 0.4326101471142148 0 0.1355420099013448 0.44897423405586961 0 0.1222215169895683 0.43055506621509182 0 0.12727356898040859 0.42749199149124872 0 0.14266462953714501 0.4326101471142148 0 0.1222215169895683 0.43055506621509182 0 0.14266462953714501 0.4326101471142148 0 0.12727356898040859 0.42749199149124872 0 0.14266462953714501 0.4326101471142148 0 0.14266462953714501 0.4326101471142148 0 0.1633652141416819 0.43949393612289422 0 0.14266462953714501 0.4326101471142148 0 0.15134940535801311 0.41289473754427353 0 0.17035253442470941 0.43527790745649231 0 0.15134940535801311 0.41289473754427353 0 0.16992643385633521 0.41638132746425038 0 0.17035253442470941 0.43527790745649231 0 0.15134940535801311 0.41289473754427353 0 0.16992643385633521 0.41638132746425038 0 0.17542524173561749 0.39829748359729827 0 0.14266462953714501 0.4326101471142148 0 0.17035253442470941 0.43527790745649231 0 0.1633652141416819 0.43949393612289422 0 0.14266462953714501 0.4326101471142148 0 0.17035253442470941 0.43527790745649231 0 0.17035253442470941 0.43527790745649231 0 0.19804043931227419 0.43794566779876681 0 0.17035253442470941 0.43527790745649231 0 0.18524924097968701 0.42616599195830479 0 0.19804043931227419 0.43794566779876681 0 0.16992643385633521 0.41638132746425038 0 0.17035253442470941 0.43527790745649231 0 0.18524924097968701 0.42616599195830479 0 0.16992643385633521 0.41638132746425038 0 0.18524924097968701 0.42616599195830479 0 0.19182569847957601 0.41415776519245212 0 0.16992643385633521 0.41638132746425038 0 0.17542524173561749 0.39829748359729827 0 0.19182569847957601 0.41415776519245212 0 0.17542524173561749 0.39829748359729827 0 0.19950107811322201 0.38370022965032291 0 0.17542524173561749 0.39829748359729827 0 0.15808422164516739 0.40278142223077312 0 0.16218144290138439 0.3834916893621993 0 0.15134940535801311 0.41289473754427353 0 0.17542524173561749 0.39829748359729827 0 0.15134940535801311 0.41289473754427353 0 0.17542524173561749 0.39829748359729827 0 0.15808422164516739 0.40278142223077312 0 0.1814197749944009 0.37361251882866042 0 0.17542524173561749 0.39829748359729827 0 0.16218144290138439 0.3834916893621993 0 0.1814197749944009 0.37361251882866042 0 0.17542524173561749 0.39829748359729827 0 0.19950107811322201 0.38370022965032291 0 0.17542524173561749 0.39829748359729827 0 0.1968881358922932 0.40051169921548929 0 0.19182569847957601 0.41415776519245212 0 0.17542524173561749 0.39829748359729827 0 0.19950107811322201 0.38370022965032291 0 0.1968881358922932 0.40051169921548929 0 0.1968881358922932 0.40051169921548929 0 0.21956783597615001 0.39741298453788709 0 0.20825330720558749 0.41363764557204757 0 0.19950107811322201 0.38370022965032291 0 0.1968881358922932 0.40051169921548929 0 0.21956783597615001 0.39741298453788709 0 0.22357691449082651 0.36910297570334749 0 0.19950107811322201 0.38370022965032291 0 0.21956783597615001 0.39741298453788709 0 0.22357691449082651 0.36910297570334749 0 0.19950107811322201 0.38370022965032291 0 0.22357691449082651 0.36910297570334749 0 0.21956783597615001 0.39741298453788709 0 0.23602044790039581 0.37826891581039362 0 0.21956783597615001 0.39741298453788709 0 0.23621651794381759 0.39606728302397859 0 0.23602044790039581 0.37826891581039362 0 0.21956783597615001 0.39741298453788709 0 0.23621651794381759 0.39606728302397859 0 0.23128941448595799 0.40659371110406722 0 0.23621651794381759 0.39606728302397859 0 0.24898174236950191 0.38781772748184878 0 0.24613065731203901 0.40892885885798019 0 0.23621651794381759 0.39606728302397859 0 0.24613065731203901 0.40892885885798019 0 0.23128941448595799 0.40659371110406722 0 0.23621651794381759 0.39606728302397859 0 0.24898174236950191 0.38781772748184878 0 0.23602044790039581 0.37826891581039362 0 0.24705229388111241 0.37186551169991677 0 0.24898174236950191 0.38781772748184878 0 0.23602044790039581 0.37826891581039362 0 0.2383094726085728 0.42836870489275058 0 0.2286861294764225 0.44089841403267938 0 0.24002725964029381 0.44199114450147609 0 0.2383094726085728 0.42836870489275058 0 0.24002725964029381 0.44199114450147609 0 0.25200865658235339 0.42816213679954029 0 0.2383094726085728 0.42836870489275058 0 0.24613065731203901 0.40892885885798019 0 0.2246946600317542 0.42186297027207409 0 0.2383094726085728 0.42836870489275058 0 0.24613065731203901 0.40892885885798019 0 0.25200865658235339 0.42816213679954029 0 0.24613065731203901 0.40892885885798019 0 0.2246946600317542 0.42186297027207409 0 0.21956783597615001 0.39741298453788709 0 0.2246946600317542 0.42186297027207409 0 0.24613065731203901 0.40892885885798019 0 0.23128941448595799 0.40659371110406722 0 0.2246946600317542 0.42186297027207409 0 0.21956783597615001 0.39741298453788709 0 0.23128941448595799 0.40659371110406722 0 0.2246946600317542 0.42186297027207409 0 0.2246946600317542 0.42186297027207409 0 0.2113675496720141 0.42990431903542031 0 0.2286861294764225 0.44089841403267938 0 0.2383094726085728 0.42836870489275058 0 0.2246946600317542 0.42186297027207409 0 0.2286861294764225 0.44089841403267938 0 0.2246946600317542 0.42186297027207409 0 0.2286861294764225 0.44089841403267938 0 0.2113675496720141 0.42990431903542031 0 0.20825330720558749 0.41363764557204757 0 0.19868850637489249 0.42460818827214081 0 0.2113675496720141 0.42990431903542031 0 0.21336328439434821 0.43942204091572462 0 0.2286861294764225 0.44089841403267938 0 0.2246946600317542 0.42186297027207409 0 0.2113675496720141 0.42990431903542031 0 0.2113675496720141 0.42990431903542031 0 0.19804043931227419 0.43794566779876681 0 0.2113675496720141 0.42990431903542031 0 0.19804043931227419 0.43794566779876681 0 0.21336328439434821 0.43942204091572462 0 0.2246946600317542 0.42186297027207409 0 0.2113675496720141 0.42990431903542031 0 0.20825330720558749 0.41363764557204757 0 0.21956783597615001 0.39741298453788709 0 0.2246946600317542 0.42186297027207409 0 0.20825330720558749 0.41363764557204757 0 0.20825330720558749 0.41363764557204757 0 0.19182569847957601 0.41415776519245212 0 0.19868850637489249 0.42460818827214081 0 0.1968881358922932 0.40051169921548929 0 0.20825330720558749 0.41363764557204757 0 0.19182569847957601 0.41415776519245212 0 0.18524924097968701 0.42616599195830479 0 0.19182569847957601 0.41415776519245212 0 0.19868850637489249 0.42460818827214081 0 0.2113675496720141 0.42990431903542031 0 0.19868850637489249 0.42460818827214081 0 0.19804043931227419 0.43794566779876681 0 0.18524924097968701 0.42616599195830479 0 0.19868850637489249 0.42460818827214081 0 0.19804043931227419 0.43794566779876681 0 0.19068685815228989 0.44857949753733212 0 0.19804043931227419 0.43794566779876681 0 0.18406579874621889 0.44637772513157359 0 0.19804043931227419 0.43794566779876681 0 0.18406579874621889 0.44637772513157359 0 0.19068685815228989 0.44857949753733212 0 0.18893179637584301 0.45484319784173582 0 0.18406579874621889 0.44637772513157359 0 0.19068685815228989 0.44857949753733212 0 0.20207659074905779 0.44957542011665941 0 0.19804043931227419 0.43794566779876681 0 0.19068685815228989 0.44857949753733212 0 0.20207659074905779 0.44957542011665941 0 0.19576098225663871 0.4564021200232431 0 0.1902460961493746 0.46134194532400657 0 0.19576098225663871 0.4564021200232431 0 0.19563744817157619 0.4657254722805198 0 0.18830228766242391 0.46789107439417582 0 0.19563744817157619 0.4657254722805198 0 0.19321482884664931 0.469973179640987 0 0.18830228766242391 0.46789107439417582 0 0.1902460961493746 0.46134194532400657 0 0.19563744817157619 0.4657254722805198 0 0.19068685815228989 0.44857949753733212 0 0.18893179637584301 0.45484319784173582 0 0.19576098225663871 0.4564021200232431 0 0.1902460961493746 0.46134194532400657 0 0.18893179637584301 0.45484319784173582 0 0.19576098225663871 0.4564021200232431 0 0.20207659074905779 0.44957542011665941 0 0.19576098225663871 0.4564021200232431 0 0.203481134531631 0.46088639013801802 0 0.19563744817157619 0.4657254722805198 0 0.203481134531631 0.46088639013801802 0 0.20267652313796011 0.47169462412839741 0 0.19576098225663871 0.4564021200232431 0 0.19563744817157619 0.4657254722805198 0 0.203481134531631 0.46088639013801802 0 0.21063848607933119 0.46732547673432417 0 0.203481134531631 0.46088639013801802 0 0.20267652313796011 0.47169462412839741 0 0.21063848607933119 0.46732547673432417 0 0.203481134531631 0.46088639013801802 0 0.21161598470054391 0.45472167874653852 0 0.20207659074905779 0.44957542011665941 0 0.203481134531631 0.46088639013801802 0 0.21161598470054391 0.45472167874653852 0 0.21161598470054391 0.45472167874653852 0 0.22088629493546499 0.45039744680709698 0 0.21925011751343049 0.46072329776740739 0 0.21063848607933119 0.46732547673432417 0 0.21161598470054391 0.45472167874653852 0 0.21925011751343049 0.46072329776740739 0 0.21063848607933119 0.46732547673432417 0 0.21925011751343049 0.46072329776740739 0 0.2233689247287671 0.47152200604923128 0 0.19804043931227419 0.43794566779876681 0 0.21336328439434821 0.43942204091572462 0 0.20207659074905779 0.44957542011665941 0 0.19804043931227419 0.43794566779876681 0 0.21336328439434821 0.43942204091572462 0 0.20207659074905779 0.44957542011665941 0 0.21161598470054391 0.45472167874653852 0 0.21336328439434821 0.43942204091572462 0 0.21161598470054391 0.45472167874653852 0 0.21336328439434821 0.43942204091572462 0 0.22088629493546499 0.45039744680709698 0 0.2286861294764225 0.44089841403267938 0 0.22088629493546499 0.45039744680709698 0 0.23200509744595871 0.45672667703280462 0 0.21336328439434821 0.43942204091572462 0 0.2286861294764225 0.44089841403267938 0 0.2286861294764225 0.44089841403267938 0 0.23200509744595871 0.45672667703280462 0 0.24002725964029381 0.44199114450147609 0 0.2286861294764225 0.44089841403267938 0 0.23200509744595871 0.45672667703280462 0 0.21336328439434821 0.43942204091572462 0 0.2286861294764225 0.44089841403267938 0 0.22088629493546499 0.45039744680709698 0 0.2286861294764225 0.44089841403267938 0 0.24002725964029381 0.44199114450147609 0 0.23200509744595871 0.45672667703280462 0 0.23532406541549331 0.47255494003293008 0 0.22088629493546499 0.45039744680709698 0 0.21925011751343049 0.46072329776740739 0 0.23200509744595871 0.45672667703280462 0 0.23200509744595871 0.45672667703280462 0 0.23532406541549331 0.47255494003293008 0 0.2233689247287671 0.47152200604923128 0 0.21925011751343049 0.46072329776740739 0 0.23200509744595871 0.45672667703280462 0 0.2233689247287671 0.47152200604923128 0 0.23200509744595871 0.45672667703280462 0 0.24549366460999791 0.46578619223473638 0 0.23532406541549331 0.47255494003293008 0 0.23200509744595871 0.45672667703280462 0 0.24549366460999791 0.46578619223473638 0 0.24643528211696319 0.45408267180231282 0 0.24643528211696319 0.45408267180231282 0 0.24002725964029381 0.44199114450147609 0 0.25591305633075562 0.44432297042143287 0 0.24002725964029381 0.44199114450147609 0 0.25591305633075562 0.44432297042143287 0 0.25200865658235339 0.42816213679954029 0 0.23200509744595871 0.45672667703280462 0 0.24643528211696319 0.45408267180231282 0 0.24002725964029381 0.44199114450147609 0 0.2489289607792563 0.48938749058140502 0 0.23078075809482659 0.49580007108199042 0 0.25639315921179839 0.49509498739378149 0 0.2489289607792563 0.48938749058140502 0 0.2430474916606952 0.48599723225264818 0 0.23078075809482659 0.49580007108199042 0 0.23078075809482659 0.49580007108199042 0 0.25639315921179839 0.49509498739378149 0 0.2346368072942617 0.5 0 0.23078075809482659 0.49580007108199042 0 0.25639315921179839 0.49509498739378149 0 0.2430474916606952 0.48599723225264818 0 0.23402058318759189 0.48717715361981551 0 0.23078075809482659 0.49580007108199042 0 0.2430474916606952 0.48599723225264818 0 0.23740351744916979 0.48112008144194779 0 0.23402058318759189 0.48717715361981551 0 0.2489289607792563 0.48938749058140502 0 0.2430474916606952 0.48599723225264818 0 0.25243051935411648 0.48244039891002638 0 0.2430474916606952 0.48599723225264818 0 0.24440615230001439 0.47682146749936388 0 0.25243051935411648 0.48244039891002638 0 0.24549366460999791 0.46578619223473638 0 0.24440615230001439 0.47682146749936388 0 0.25598887898208578 0.47361867492880849 0 0.24549366460999791 0.46578619223473638 0 0.24440615230001439 0.47682146749936388 0 0.23532406541549331 0.47255494003293008 0 0.24440615230001439 0.47682146749936388 0 0.23532406541549331 0.47255494003293008 0 0.23740351744916979 0.48112008144194779 0 0.2430474916606952 0.48599723225264818 0 0.24440615230001439 0.47682146749936388 0 0.23740351744916979 0.48112008144194779 0 0.23740351744916979 0.48112008144194779 0 0.22910627561794319 0.48276920641071841 0 0.23402058318759189 0.48717715361981551 0 0.23532406541549331 0.47255494003293008 0 0.23740351744916979 0.48112008144194779 0 0.22910627561794319 0.48276920641071841 0 0.23532406541549331 0.47255494003293008 0 0.22910627561794319 0.48276920641071841 0 0.2233689247287671 0.47152200604923128 0 0.22910627561794319 0.48276920641071841 0 0.22057451474813211 0.4822928696792666 0 0.22456972001452671 0.48779682259597001 0 0.2233689247287671 0.47152200604923128 0 0.22057451474813211 0.4822928696792666 0 0.21507660865983161 0.47677715314369001 0 0.22910627561794319 0.48276920641071841 0 0.2233689247287671 0.47152200604923128 0 0.22057451474813211 0.4822928696792666 0 0.2346368072942617 0.5 0 0.23078075809482659 0.49580007108199042 0 0.20674872222395441 0.5 0 0.22057451474813211 0.4822928696792666 0 0.22456972001452671 0.48779682259597001 0 0.2178017658589845 0.48987589737568882 0 0.21987869358419071 0.49189250649022898 0 0.22456972001452671 0.48779682259597001 0 0.22881570152942751 0.48947804326217947 0 0.21987869358419071 0.49189250649022898 0 0.22456972001452671 0.48779682259597001 0 0.2178017658589845 0.48987589737568882 0 0.22881570152942751 0.48947804326217947 0 0.23402058318759189 0.48717715361981551 0 0.23078075809482659 0.49580007108199042 0 0.22910627561794319 0.48276920641071841 0 0.22456972001452671 0.48779682259597001 0 0.22881570152942751 0.48947804326217947 0 0.22910627561794319 0.48276920641071841 0 0.22881570152942751 0.48947804326217947 0 0.23402058318759189 0.48717715361981551 0 0.21987869358419071 0.49189250649022898 0 0.22881570152942751 0.48947804326217947 0 0.23078075809482659 0.49580007108199042 0 0.23078075809482659 0.49580007108199042 0 0.2051683569778549 0.4965051547701993 0 0.21987869358419071 0.49189250649022898 0 0.2121358590295242 0.49189904985534599 0 0.2051683569778549 0.4965051547701993 0 0.21987869358419071 0.49189250649022898 0 0.23078075809482659 0.49580007108199042 0 0.2051683569778549 0.4965051547701993 0 0.23078075809482659 0.49580007108199042 0 0.20674872222395441 0.5 0 0.2051683569778549 0.4965051547701993 0 0.21987869358419071 0.49189250649022898 0 0.2178017658589845 0.48987589737568882 0 0.2121358590295242 0.49189904985534599 0 0.22057451474813211 0.4822928696792666 0 0.2178017658589845 0.48987589737568882 0 0.21317323833378621 0.4838273073221962 0 0.2178017658589845 0.48987589737568882 0 0.21266425232000821 0.48864056381070192 0 0.21317323833378621 0.4838273073221962 0 0.21266425232000821 0.48864056381070192 0 0.20754614605773791 0.4889600006895764 0 0.21317323833378621 0.4838273073221962 0 0.2178017658589845 0.48987589737568882 0 0.21266425232000821 0.48864056381070192 0 0.2121358590295242 0.49189904985534599 0 0.21266425232000821 0.48864056381070192 0 0.2121358590295242 0.49189904985534599 0 0.20754614605773791 0.4889600006895764 0 0.2121358590295242 0.49189904985534599 0 0.20754614605773791 0.4889600006895764 0 0.20408711623711151 0.49207889665394278 0 0.20754614605773791 0.4889600006895764 0 0.21317323833378621 0.4838273073221962 0 0.2072056333273426 0.48375679912728681 0 0.20754614605773791 0.4889600006895764 0 0.2072056333273426 0.48375679912728681 0 0.20312617041988709 0.4876696459001989 0 0.2072056333273426 0.48375679912728681 0 0.2020377089959122 0.48328194185361389 0 0.20312617041988709 0.4876696459001989 0 0.20754614605773791 0.4889600006895764 0 0.20408711623711151 0.49207889665394278 0 0.20312617041988709 0.4876696459001989 0 0.20408711623711151 0.49207889665394278 0 0.2051683569778549 0.4965051547701993 0 0.20042747514828549 0.49471955152812491 0 0.2121358590295242 0.49189904985534599 0 0.20408711623711151 0.49207889665394278 0 0.2051683569778549 0.4965051547701993 0 0.21063848607933119 0.46732547673432417 0 0.2233689247287671 0.47152200604923128 0 0.21507660865983161 0.47677715314369001 0 0.21507660865983161 0.47677715314369001 0 0.21317323833378621 0.4838273073221962 0 0.20697347129279731 0.47792496752423708 0 0.22057451474813211 0.4822928696792666 0 0.21507660865983161 0.47677715314369001 0 0.21317323833378621 0.4838273073221962 0 0.21317323833378621 0.4838273073221962 0 0.2072056333273426 0.48375679912728681 0 0.20697347129279731 0.47792496752423708 0 0.2072056333273426 0.48375679912728681 0 0.20697347129279731 0.47792496752423708 0 0.2020377089959122 0.48328194185361389 0 0.20697347129279731 0.47792496752423708 0 0.20175148440819959 0.47796876562485352 0 0.2020377089959122 0.48328194185361389 0 0.21063848607933119 0.46732547673432417 0 0.21507660865983161 0.47677715314369001 0 0.20697347129279731 0.47792496752423708 0 0.21063848607933119 0.46732547673432417 0 0.20697347129279731 0.47792496752423708 0 0.20267652313796011 0.47169462412839741 0 0.20697347129279731 0.47792496752423708 0 0.20267652313796011 0.47169462412839741 0 0.20175148440819959 0.47796876562485352 0 0.19563744817157619 0.4657254722805198 0 0.20267652313796011 0.47169462412839741 0 0.1970826760391057 0.47314339469844169 0 0.20267652313796011 0.47169462412839741 0 0.1970826760391057 0.47314339469844169 0 0.20175148440819959 0.47796876562485352 0 0.1970826760391057 0.47314339469844169 0 0.1971728096020951 0.47859297385739508 0 0.20175148440819959 0.47796876562485352 0 0.1971728096020951 0.47859297385739508 0 0.20175148440819959 0.47796876562485352 0 0.2020377089959122 0.48328194185361389 0 0.1971728096020951 0.47859297385739508 0 0.2020377089959122 0.48328194185361389 0 0.19748773955256779 0.48417209066477912 0 0.1971728096020951 0.47859297385739508 0 0.19748773955256779 0.48417209066477912 0 0.193157480565572 0.48407366022735687 0 0.1971728096020951 0.47859297385739508 0 0.193157480565572 0.48407366022735687 0 0.19236709978093849 0.47930609041740357 0 0.18867646538771471 0.48357598541948182 0 0.19236709978093849 0.47930609041740357 0 0.18726360846330201 0.47958939352650581 0 0.193157480565572 0.48407366022735687 0 0.18867646538771471 0.48357598541948182 0 0.19236709978093849 0.47930609041740357 0 0.19236709978093849 0.47930609041740357 0 0.19170897385644811 0.47442174431681822 0 0.18726360846330201 0.47958939352650581 0 0.1971728096020951 0.47859297385739508 0 0.19236709978093849 0.47930609041740357 0 0.19170897385644811 0.47442174431681822 0 0.1970826760391057 0.47314339469844169 0 0.1971728096020951 0.47859297385739508 0 0.19170897385644811 0.47442174431681822 0 0.19170897385644811 0.47442174431681822 0 0.18726360846330201 0.47958939352650581 0 0.18702019909250761 0.47366639790920978 0 0.18830228766242391 0.46789107439417582 0 0.19170897385644811 0.47442174431681822 0 0.18702019909250761 0.47366639790920978 0 0.18830228766242391 0.46789107439417582 0 0.19170897385644811 0.47442174431681822 0 0.19321482884664931 0.469973179640987 0 0.1970826760391057 0.47314339469844169 0 0.19170897385644811 0.47442174431681822 0 0.19321482884664931 0.469973179640987 0 0.19563744817157619 0.4657254722805198 0 0.1970826760391057 0.47314339469844169 0 0.19321482884664931 0.469973179640987 0 0.2051683569778549 0.4965051547701993 0 0.178860637153647 0.5 0 0.17955595586088319 0.49721023845840812 0 0.2051683569778549 0.4965051547701993 0 0.17955595586088319 0.49721023845840812 0 0.2051683569778549 0.4965051547701993 0 0.19009441527570431 0.49487580996742669 0 0.17955595586088319 0.49721023845840812 0 0.20674872222395441 0.5 0 0.2051683569778549 0.4965051547701993 0 0.178860637153647 0.5 0 0.2051683569778549 0.4965051547701993 0 0.20042747514828549 0.49471955152812491 0 0.19009441527570431 0.49487580996742669 0 0.20042747514828549 0.49471955152812491 0 0.19911226470365201 0.49081612229120197 0 0.1952988750921571 0.4928418465616255 0 0.20408711623711151 0.49207889665394278 0 0.20042747514828549 0.49471955152812491 0 0.19911226470365201 0.49081612229120197 0 0.20312617041988709 0.4876696459001989 0 0.19946902154635721 0.48679419784524502 0 0.19911226470365201 0.49081612229120197 0 0.20408711623711151 0.49207889665394278 0 0.20312617041988709 0.4876696459001989 0 0.19911226470365201 0.49081612229120197 0 0.2020377089959122 0.48328194185361389 0 0.20312617041988709 0.4876696459001989 0 0.19946902154635721 0.48679419784524502 0 0.2020377089959122 0.48328194185361389 0 0.19748773955256779 0.48417209066477912 0 0.19946902154635721 0.48679419784524502 0 0.19748773955256779 0.48417209066477912 0 0.193157480565572 0.48407366022735687 0 0.19558122405976661 0.48803118851643129 0 0.19748773955256779 0.48417209066477912 0 0.19946902154635721 0.48679419784524502 0 0.19558122405976661 0.48803118851643129 0 0.19558122405976661 0.48803118851643129 0 0.19911226470365201 0.49081612229120197 0 0.19491709475186819 0.49062092054109407 0 0.19911226470365201 0.49081612229120197 0 0.19491709475186819 0.49062092054109407 0 0.1952988750921571 0.4928418465616255 0 0.19946902154635721 0.48679419784524502 0 0.19558122405976661 0.48803118851643129 0 0.19911226470365201 0.49081612229120197 0 0.19491709475186819 0.49062092054109407 0 0.1923427789424228 0.4922532554125944 0 0.1952988750921571 0.4928418465616255 0 0.19558122405976661 0.48803118851643129 0 0.19491709475186819 0.49062092054109407 0 0.1922503309613427 0.48916218992361699 0 0.19491709475186819 0.49062092054109407 0 0.1922503309613427 0.48916218992361699 0 0.1923427789424228 0.4922532554125944 0 0.193157480565572 0.48407366022735687 0 0.19558122405976661 0.48803118851643129 0 0.1922503309613427 0.48916218992361699 0 0.193157480565572 0.48407366022735687 0 0.1922503309613427 0.48916218992361699 0 0.18863535932383221 0.48775776964473561 0 0.193157480565572 0.48407366022735687 0 0.18867646538771471 0.48357598541948182 0 0.18863535932383221 0.48775776964473561 0 0.1922503309613427 0.48916218992361699 0 0.18876330584533649 0.49157708427497282 0 0.1923427789424228 0.4922532554125944 0 0.1922503309613427 0.48916218992361699 0 0.18863535932383221 0.48775776964473561 0 0.18876330584533649 0.49157708427497282 0 0.20042747514828549 0.49471955152812491 0 0.19009441527570431 0.49487580996742669 0 0.1952988750921571 0.4928418465616255 0 0.18876330584533649 0.49157708427497282 0 0.19009441527570431 0.49487580996742669 0 0.18671013031172601 0.4931508090353548 0 0.18876330584533649 0.49157708427497282 0 0.19009441527570431 0.49487580996742669 0 0.1923427789424228 0.4922532554125944 0 0.19009441527570431 0.49487580996742669 0 0.1923427789424228 0.4922532554125944 0 0.1952988750921571 0.4928418465616255 0 0.19009441527570431 0.49487580996742669 0 0.18395476924118509 0.49473998460991742 0 0.17955595586088319 0.49721023845840812 0 0.19009441527570431 0.49487580996742669 0 0.18671013031172601 0.4931508090353548 0 0.18395476924118509 0.49473998460991742 0 0.18671013031172601 0.4931508090353548 0 0.18395476924118509 0.49473998460991742 0 0.1845324265250837 0.49114604514593402 0 0.18395476924118509 0.49473998460991742 0 0.18107406680018881 0.49259803487277171 0 0.17955595586088319 0.49721023845840812 0 0.18395476924118509 0.49473998460991742 0 0.18107406680018881 0.49259803487277171 0 0.1845324265250837 0.49114604514593402 0 0.18867646538771471 0.48357598541948182 0 0.18497871971317881 0.48698536981414098 0 0.18184462201682919 0.48377614638624061 0 0.18867646538771471 0.48357598541948182 0 0.18863535932383221 0.48775776964473561 0 0.18497871971317881 0.48698536981414098 0 0.18497871971317881 0.48698536981414098 0 0.1845324265250837 0.49114604514593402 0 0.18175890751303009 0.48898427114006437 0 0.18876330584533649 0.49157708427497282 0 0.18671013031172601 0.4931508090353548 0 0.1845324265250837 0.49114604514593402 0 0.18863535932383221 0.48775776964473561 0 0.18497871971317881 0.48698536981414098 0 0.1845324265250837 0.49114604514593402 0 0.18863535932383221 0.48775776964473561 0 0.18876330584533649 0.49157708427497282 0 0.1845324265250837 0.49114604514593402 0 0.18107406680018881 0.49259803487277171 0 0.18175890751303009 0.48898427114006437 0 0.17636470250987041 0.49041575948123528 0 0.18107406680018881 0.49259803487277171 0 0.1845324265250837 0.49114604514593402 0 0.18175890751303009 0.48898427114006437 0 0.18175890751303009 0.48898427114006437 0 0.17636470250987041 0.49041575948123528 0 0.18184462201682919 0.48377614638624061 0 0.18497871971317881 0.48698536981414098 0 0.18175890751303009 0.48898427114006437 0 0.18184462201682919 0.48377614638624061 0 0.17636470250987041 0.49041575948123528 0 0.17132478918557659 0.48022278388738637 0 0.18184462201682919 0.48377614638624061 0 0.17636470250987041 0.49041575948123528 0 0.178860637153647 0.5 0 0.16530286520522161 0.49008547900791471 0 0.17636470250987041 0.49041575948123528 0 0.178860637153647 0.5 0 0.17955595586088319 0.49721023845840812 0 0.18107406680018881 0.49259803487277171 0 0.17636470250987041 0.49041575948123528 0 0.17955595586088319 0.49721023845840812 0 0.178860637153647 0.5 0 0.16530286520522161 0.49008547900791471 0 0.15097255208333971 0.5 0 0.16530286520522161 0.49008547900791471 0 0.15097255208333971 0.5 0 0.15478923980069009 0.47746270438147498 0 0.17636470250987041 0.49041575948123528 0 0.16530286520522161 0.49008547900791471 0 0.17132478918557659 0.48022278388738637 0 0.17132478918557659 0.48022278388738637 0 0.1719567141726227 0.46586264950857892 0 0.15478923980069009 0.47746270438147498 0 0.16530286520522161 0.49008547900791471 0 0.17132478918557659 0.48022278388738637 0 0.15478923980069009 0.47746270438147498 0 0.17132478918557659 0.48022278388738637 0 0.1808059263878565 0.47276337939933971 0 0.1719567141726227 0.46586264950857892 0 0.17132478918557659 0.48022278388738637 0 0.18184462201682919 0.48377614638624061 0 0.1808059263878565 0.47276337939933971 0 0.18184462201682919 0.48377614638624061 0 0.18726360846330201 0.47958939352650581 0 0.1808059263878565 0.47276337939933971 0 0.18867646538771471 0.48357598541948182 0 0.18184462201682919 0.48377614638624061 0 0.18726360846330201 0.47958939352650581 0 0.18726360846330201 0.47958939352650581 0 0.1808059263878565 0.47276337939933971 0 0.18702019909250761 0.47366639790920978 0 0.18830228766242391 0.46789107439417582 0 0.1808059263878565 0.47276337939933971 0 0.18702019909250761 0.47366639790920978 0 0.18259796628039129 0.461847862080359 0 0.1719567141726227 0.46586264950857892 0 0.18406579874621889 0.44637772513157359 0 0.1719567141726227 0.46586264950857892 0 0.18406579874621889 0.44637772513157359 0 0.161848444545345 0.45978329384867911 0 0.18830228766242391 0.46789107439417582 0 0.1808059263878565 0.47276337939933971 0 0.18259796628039129 0.461847862080359 0 0.18830228766242391 0.46789107439417582 0 0.1902460961493746 0.46134194532400657 0 0.18259796628039129 0.461847862080359 0 0.1902460961493746 0.46134194532400657 0 0.18893179637584301 0.45484319784173582 0 0.18259796628039129 0.461847862080359 0 0.18893179637584301 0.45484319784173582 0 0.18259796628039129 0.461847862080359 0 0.18406579874621889 0.44637772513157359 0 0.1808059263878565 0.47276337939933971 0 0.18259796628039129 0.461847862080359 0 0.1719567141726227 0.46586264950857892 0 0.18406579874621889 0.44637772513157359 0 0.161848444545345 0.45978329384867911 0 0.18406579874621889 0.44637772513157359 0 0.1633652141416819 0.43949393612289422 0 0.17035253442470941 0.43527790745649231 0 0.19804043931227419 0.43794566779876681 0 0.18406579874621889 0.44637772513157359 0 0.17035253442470941 0.43527790745649231 0 0.18406579874621889 0.44637772513157359 0 0.1633652141416819 0.43949393612289422 0 0.19068685815228989 0.44857949753733212 0 0.18406579874621889 0.44637772513157359 0 0.18406579874621889 0.44637772513157359 0 0.15945288376212291 0.44770438379681682 0 0.1633652141416819 0.43949393612289422 0 0.18406579874621889 0.44637772513157359 0 0.15945288376212291 0.44770438379681682 0 0.16200091651134119 0.45643509448460978 0 0.15945288376212291 0.44770438379681682 0 0.16200091651134119 0.45643509448460978 0 0.1519714652199449 0.44559520463992158 0 0.15945288376212291 0.44770438379681682 0 0.1633652141416819 0.43949393612289422 0 0.1519714652199449 0.44559520463992158 0 0.18406579874621889 0.44637772513157359 0 0.16200091651134119 0.45643509448460978 0 0.161848444545345 0.45978329384867911 0 0.1719567141726227 0.46586264950857892 0 0.161848444545345 0.45978329384867911 0 0.15478923980069009 0.47746270438147498 0 0.16200091651134119 0.45643509448460978 0 0.161848444545345 0.45978329384867911 0 0.14975561532562559 0.45959537123873578 0 0.14975561532562559 0.45959537123873578 0 0.1355420099013448 0.44897423405586961 0 0.13963109034447149 0.47318886256578502 0 0.161848444545345 0.45978329384867911 0 0.14975561532562559 0.45959537123873578 0 0.13963109034447149 0.47318886256578502 0 0.161848444545345 0.45978329384867911 0 0.13963109034447149 0.47318886256578502 0 0.16200091651134119 0.45643509448460978 0 0.14975561532562559 0.45959537123873578 0 0.1355420099013448 0.44897423405586961 0 0.14266462953714501 0.4326101471142148 0 0.1633652141416819 0.43949393612289422 0 0.1519714652199449 0.44559520463992158 0 0.16200091651134119 0.45643509448460978 0 0.1355420099013448 0.44897423405586961 0 0.14266462953714501 0.4326101471142148 0 0.1519714652199449 0.44559520463992158 0 0.1355420099013448 0.44897423405586961 0 0.16200091651134119 0.45643509448460978 0 0.1519714652199449 0.44559520463992158 0 0.1355420099013448 0.44897423405586961 0 0.11814267704777991 0.46287907790262539 0 0.1355420099013448 0.44897423405586961 0 0.13963109034447149 0.47318886256578502 0 0.1174137361435979 0.48659443128289082 0 0.13963109034447149 0.47318886256578502 0 0.1174137361435979 0.48659443128289082 0 0.13963109034447149 0.47318886256578502 0 0.13429775002903949 0.48769629589874153 0 0.1174137361435979 0.48659443128289082 0 0.11814267704777991 0.46287907790262539 0 0.13963109034447149 0.47318886256578502 0 0.1230844670130324 0.5 0 0.13429775002903949 0.48769629589874153 0 0.15097255208333971 0.5 0 0.13429775002903949 0.48769629589874153 0 0.15097255208333971 0.5 0 0.15478923980069009 0.47746270438147498 0 0.161848444545345 0.45978329384867911 0 0.13963109034447149 0.47318886256578502 0 0.15478923980069009 0.47746270438147498 0 0.13963109034447149 0.47318886256578502 0 0.13429775002903949 0.48769629589874153 0 0.15478923980069009 0.47746270438147498 0 0.35239221187922182 0.47355802317019202 0 0.33733521449800641 0.46350243771832172 0 0.34176218103674899 0.48175121885915939 0 0.35239221187922182 0.47355802317019202 0 0.35501577800381567 0.48753106715842842 0 0.36605293043992171 0.48052441783895777 0 0.35239221187922182 0.47355802317019202 0 0.35501577800381567 0.48753106715842842 0 0.34176218103674899 0.48175121885915939 0 0.34618914757549091 0.49999999999999739 0 0.35501577800381567 0.48753106715842842 0 0.37069828100298557 0.5 0 0.34618914757549091 0.49999999999999739 0 0.35501577800381567 0.48753106715842842 0 0.34176218103674899 0.48175121885915939 0 0.34618914757549091 0.49999999999999739 0 0.34176218103674899 0.48175121885915939 0 0.35501577800381567 0.48753106715842842 0 0.37069828100298557 0.5 0 0.36605293043992171 0.48052441783895777 0 0.37069828100298557 0.5 0 0.36605293043992171 0.48052441783895777 0 0.38080606823705021 0.48505130674619168 0 0.36605293043992171 0.48052441783895777 0 0.37480896092191662 0.46315474392800088 0 0.38080606823705021 0.48505130674619168 0 0.36605293043992171 0.48052441783895777 0 0.36184229317596572 0.46885426748261999 0 0.37480896092191662 0.46315474392800088 0 0.35239221187922182 0.47355802317019202 0 0.36605293043992171 0.48052441783895777 0 0.36184229317596572 0.46885426748261999 0 0.37480896092191662 0.46315474392800088 0 0.3523551674538869 0.44473211589200279 0 0.38988625776123992 0.44346344647874142 0 0.36184229317596572 0.46885426748261999 0 0.37480896092191662 0.46315474392800088 0 0.35411506946280269 0.45817988499332918 0 0.37480896092191662 0.46315474392800088 0 0.3523551674538869 0.44473211589200279 0 0.37480896092191662 0.46315474392800088 0 0.3523551674538869 0.44473211589200279 0 0.35411506946280269 0.45817988499332918 0 0.3523551674538869 0.44473211589200279 0 0.35411506946280269 0.45817988499332918 0 0.34329967405927653 0.45084944987370701 0 0.35411506946280269 0.45817988499332918 0 0.33733521449800641 0.46350243771832172 0 0.35411506946280269 0.45817988499332918 0 0.33733521449800641 0.46350243771832172 0 0.34140433506510792 0.45743392823696161 0 0.35239221187922182 0.47355802317019202 0 0.35411506946280269 0.45817988499332918 0 0.33733521449800641 0.46350243771832172 0 0.35239221187922182 0.47355802317019202 0 0.36184229317596572 0.46885426748261999 0 0.35411506946280269 0.45817988499332918 0 0.35411506946280269 0.45817988499332918 0 0.34140433506510792 0.45743392823696161 0 0.34329967405927653 0.45084944987370701 0 0.33733521449800641 0.46350243771832172 0 0.33668661429205171 0.46082878678764733 0 0.34140433506510792 0.45743392823696161 0 0.33558510301340178 0.45380908181180257 0 0.34329967405927653 0.45084944987370701 0 0.34140433506510792 0.45743392823696161 0 0.33668661429205171 0.46082878678764733 0 0.33558510301340178 0.45380908181180257 0 0.33733521449800641 0.46350243771832172 0 0.34140433506510792 0.45743392823696161 0 0.33668661429205171 0.46082878678764733 0 0.33733521449800641 0.46350243771832172 0 0.33668661429205171 0.46082878678764733 0 0.32809471030419551 0.45699805866677867 0 0.33668661429205171 0.46082878678764733 0 0.33558510301340178 0.45380908181180257 0 0.32809471030419551 0.45699805866677867 0 0.3523551674538869 0.44473211589200279 0 0.34329967405927653 0.45084944987370701 0 0.33476154382690049 0.44328067035980262 0 0.3523551674538869 0.44473211589200279 0 0.33476154382690049 0.44328067035980262 0 0.32990137398585712 0.42630948785600459 0 0.33558510301340178 0.45380908181180257 0 0.34329967405927653 0.45084944987370701 0 0.33476154382690049 0.44328067035980262 0 0.33558510301340178 0.45380908181180257 0 0.33476154382690049 0.44328067035980262 0 0.32809471030419551 0.45699805866677867 0 0.33476154382690049 0.44328067035980262 0 0.31282403550984078 0.44883062240078392 0 0.32809471030419551 0.45699805866677867 0 0.33476154382690049 0.44328067035980262 0 0.31282403550984078 0.44883062240078392 0 0.32990137398585712 0.42630948785600459 0 0.33733521449800641 0.46350243771832172 0 0.32809471030419551 0.45699805866677867 0 0.3113757506849717 0.47173675292231421 0 0.31282403550984078 0.44883062240078392 0 0.32809471030419551 0.45699805866677867 0 0.3113757506849717 0.47173675292231421 0 0.33733521449800641 0.46350243771832172 0 0.3113757506849717 0.47173675292231421 0 0.33733521449800641 0.46350243771832172 0 0.3269158586802407 0.47569142506901141 0 0.3113757506849717 0.47173675292231421 0 0.3269158586802407 0.47569142506901141 0 0.30349522198514212 0.48614486294220538 0 0.3113757506849717 0.47173675292231421 0 0.33733521449800641 0.46350243771832172 0 0.3269158586802407 0.47569142506901141 0 0.34176218103674899 0.48175121885915939 0 0.33733521449800641 0.46350243771832172 0 0.34176218103674899 0.48175121885915939 0 0.3269158586802407 0.47569142506901141 0 0.34176218103674899 0.48175121885915939 0 0.31830106250518359 0.5 0 0.34618914757549091 0.49999999999999739 0 0.34176218103674899 0.48175121885915939 0 0.31830106250518359 0.5 0 0.3269158586802407 0.47569142506901141 0 0.31830106250518359 0.5 0 0.30349522198514212 0.48614486294220538 0 0.31830106250518359 0.5 0 0.30349522198514212 0.48614486294220538 0 0.29041297743487632 0.5 0 0.3113757506849717 0.47173675292231421 0 0.28541628687193699 0.47997106812630669 0 0.29535713058816387 0.46450529983255812 0 0.3113757506849717 0.47173675292231421 0 0.28541628687193699 0.47997106812630669 0 0.30349522198514212 0.48614486294220538 0 0.3113757506849717 0.47173675292231421 0 0.28541628687193699 0.47997106812630669 0 0.28541628687193699 0.47997106812630669 0 0.27789784115840332 0.46278061498755169 0 0.29535713058816387 0.46450529983255812 0 0.30349522198514212 0.48614486294220538 0 0.28541628687193699 0.47997106812630669 0 0.29041297743487632 0.5 0 0.28541628687193699 0.47997106812630669 0 0.29041297743487632 0.5 0 0.27447520125967267 0.4913314035856583 0 0.28541628687193699 0.47997106812630669 0 0.27447520125967267 0.4913314035856583 0 0.25945682305890228 0.48820538333029928 0 0.29041297743487632 0.5 0 0.27447520125967267 0.4913314035856583 0 0.262524892364569 0.5 0 0.28541628687193699 0.47997106812630669 0 0.26734080929882742 0.47162165774249187 0 0.26412666351317382 0.47917143660758649 0 0.28541628687193699 0.47997106812630669 0 0.26734080929882742 0.47162165774249187 0 0.27789784115840332 0.46278061498755169 0 0.28541628687193699 0.47997106812630669 0 0.25945682305890228 0.48820538333029928 0 0.28541628687193699 0.47997106812630669 0 0.26412666351317382 0.47917143660758649 0 0.25945682305890228 0.48820538333029928 0 0.26412666351317382 0.47917143660758649 0 0.25243051935411648 0.48244039891002638 0 0.25945682305890228 0.48820538333029928 0 0.26734080929882742 0.47162165774249187 0 0.26412666351317382 0.47917143660758649 0 0.25598887898208578 0.47361867492880849 0 0.24440615230001439 0.47682146749936388 0 0.25598887898208578 0.47361867492880849 0 0.25243051935411648 0.48244039891002638 0 0.26412666351317382 0.47917143660758649 0 0.25598887898208578 0.47361867492880849 0 0.25243051935411648 0.48244039891002638 0 0.2346368072942617 0.5 0 0.25639315921179839 0.49509498739378149 0 0.262524892364569 0.5 0 0.2489289607792563 0.48938749058140502 0 0.25243051935411648 0.48244039891002638 0 0.25945682305890228 0.48820538333029928 0 0.2489289607792563 0.48938749058140502 0 0.25639315921179839 0.49509498739378149 0 0.25945682305890228 0.48820538333029928 0 0.25639315921179839 0.49509498739378149 0 0.262524892364569 0.5 0 0.25945682305890228 0.48820538333029928 0 0.27447520125967267 0.4913314035856583 0 0.262524892364569 0.5 0 0.25945682305890228 0.48820538333029928 0 0.24643528211696319 0.45408267180231282 0 0.25591305633075562 0.44432297042143287 0 0.25936695995354753 0.46101492954360712 0 0.25591305633075562 0.44432297042143287 0 0.27092561103552693 0.44800150092426527 0 0.26821754703098349 0.43087565162989089 0 0.25591305633075562 0.44432297042143287 0 0.25936695995354753 0.46101492954360712 0 0.27092561103552693 0.44800150092426527 0 0.24549366460999791 0.46578619223473638 0 0.24643528211696319 0.45408267180231282 0 0.25936695995354753 0.46101492954360712 0 0.24549366460999791 0.46578619223473638 0 0.25598887898208578 0.47361867492880849 0 0.25936695995354753 0.46101492954360712 0 0.26734080929882742 0.47162165774249187 0 0.25598887898208578 0.47361867492880849 0 0.25936695995354753 0.46101492954360712 0 0.26734080929882742 0.47162165774249187 0 0.25936695995354753 0.46101492954360712 0 0.27789784115840332 0.46278061498755169 0 0.27789784115840332 0.46278061498755169 0 0.27092561103552693 0.44800150092426527 0 0.28890354143577313 0.44955917929035771 0 0.25936695995354753 0.46101492954360712 0 0.27789784115840332 0.46278061498755169 0 0.27092561103552693 0.44800150092426527 0 0.27092561103552693 0.44800150092426527 0 0.28890354143577313 0.44955917929035771 0 0.28153598378262268 0.43505769262260041 0 0.27092561103552693 0.44800150092426527 0 0.28153598378262268 0.43505769262260041 0 0.26821754703098349 0.43087565162989089 0 0.28890354143577313 0.44955917929035771 0 0.29780101302257189 0.43137184093062142 0 0.28153598378262268 0.43505769262260041 0 0.27789784115840332 0.46278061498755169 0 0.28890354143577313 0.44955917929035771 0 0.29535713058816387 0.46450529983255812 0 0.31282403550984078 0.44883062240078392 0 0.3113757506849717 0.47173675292231421 0 0.29535713058816387 0.46450529983255812 0 0.31282403550984078 0.44883062240078392 0 0.28890354143577313 0.44955917929035771 0 0.29535713058816387 0.46450529983255812 0 0.31282403550984078 0.44883062240078392 0 0.28890354143577313 0.44955917929035771 0 0.29780101302257189 0.43137184093062142 0 0.29780101302257189 0.43137184093062142 0 0.30744758051782761 0.40788685982000661 0 0.32990137398585712 0.42630948785600459 0 0.29780101302257189 0.43137184093062142 0 0.30744758051782761 0.40788685982000661 0 0.28183220638825801 0.41548029033786682 0 0.29780101302257189 0.43137184093062142 0 0.28183220638825801 0.41548029033786682 0 0.28153598378262268 0.43505769262260041 0 0.28183220638825801 0.41548029033786682 0 0.28153598378262268 0.43505769262260041 0 0.26821754703098349 0.43087565162989089 0 0.28183220638825801 0.41548029033786682 0 0.26821754703098349 0.43087565162989089 0 0.26403909279540738 0.41515500927017979 0 0.28183220638825801 0.41548029033786682 0 0.26403909279540738 0.41515500927017979 0 0.26756665459232271 0.39599474744388402 0 0.24613065731203901 0.40892885885798019 0 0.26403909279540738 0.41515500927017979 0 0.26756665459232271 0.39599474744388402 0 0.24613065731203901 0.40892885885798019 0 0.26403909279540738 0.41515500927017979 0 0.25200865658235339 0.42816213679954029 0 0.25591305633075562 0.44432297042143287 0 0.26821754703098349 0.43087565162989089 0 0.25200865658235339 0.42816213679954029 0 0.26821754703098349 0.43087565162989089 0 0.26403909279540738 0.41515500927017979 0 0.25200865658235339 0.42816213679954029 0 0.24898174236950191 0.38781772748184878 0 0.26756665459232271 0.39599474744388402 0 0.26253999358176838 0.37104160374801037 0 0.24705229388111241 0.37186551169991677 0 0.24898174236950191 0.38781772748184878 0 0.26253999358176838 0.37104160374801037 0 0.24613065731203901 0.40892885885798019 0 0.26756665459232271 0.39599474744388402 0 0.24898174236950191 0.38781772748184878 0 0.24613065731203901 0.40892885885798019 0 0.26756665459232271 0.39599474744388402 0 0.28183220638825801 0.41548029033786682 0 0.26756665459232271 0.39599474744388402 0 0.28499378704979789 0.38946423178400852 0 0.26756665459232271 0.39599474744388402 0 0.28499378704979789 0.38946423178400852 0 0.26253999358176838 0.37104160374801037 0 0.28499378704979789 0.38946423178400852 0 0.26253999358176838 0.37104160374801037 0 0.28499378704979789 0.38946423178400852 0 0.30653347439178169 0.3857323188739496 0 0.28907691448801548 0.36105133502447312 0 0.30744758051782761 0.40788685982000661 0 0.28183220638825801 0.41548029033786682 0 0.28499378704979789 0.38946423178400852 0 0.30744758051782761 0.40788685982000661 0 0.28499378704979789 0.38946423178400852 0 0.30744758051782761 0.40788685982000661 0 0.28499378704979789 0.38946423178400852 0 0.30653347439178169 0.3857323188739496 0 0.33295544985568881 0.39393665851650977 0 0.35532768501086009 0.36701589240041649 0 0.32093070160568182 0.36767511668381841 0 0.30653347439178169 0.3857323188739496 0 0.33295544985568881 0.39393665851650977 0 0.32093070160568182 0.36767511668381841 0 0.30744758051782761 0.40788685982000661 0 0.30653347439178169 0.3857323188739496 0 0.33295544985568881 0.39393665851650977 0 0.30744758051782761 0.40788685982000661 0 0.33295544985568881 0.39393665851650977 0 0.32990137398585712 0.42630948785600459 0 0.31282403550984078 0.44883062240078392 0 0.29780101302257189 0.43137184093062142 0 0.32990137398585712 0.42630948785600459 0 0.30744758051782761 0.40788685982000661 0 0.32990137398585712 0.42630948785600459 0 0.33295544985568881 0.39393665851650977 0 0.32990137398585712 0.42630948785600459 0 0.35310308829934328 0.41820535507985251 0 0.3523551674538869 0.44473211589200279 0 0.32990137398585712 0.42630948785600459 0 0.3523551674538869 0.44473211589200279 0 0.37625496469857489 0.42221500663851708 0 0.38988625776123992 0.44346344647874142 0 0.3523551674538869 0.44473211589200279 0 0.32990137398585712 0.42630948785600459 0 0.35310308829934328 0.41820535507985251 0 0.3523551674538869 0.44473211589200279 0 0.35310308829934328 0.41820535507985251 0 0.37625496469857489 0.42221500663851708 0 0.35310308829934328 0.41820535507985251 0 0.3616161375097951 0.39515053978502601 0 0.37625496469857489 0.42221500663851708 0 0.3616161375097951 0.39515053978502601 0 0.38427520916446861 0.40023479431698228 0 0.37625496469857489 0.42221500663851708 0 0.3616161375097951 0.39515053978502601 0 0.37834073084672948 0.37783037574502559 0 0.38427520916446861 0.40023479431698228 0 0.3616161375097951 0.39515053978502601 0 0.35532768501086009 0.36701589240041649 0 0.37834073084672948 0.37783037574502559 0 0.3616161375097951 0.39515053978502601 0 0.35532768501086009 0.36701589240041649 0 0.33295544985568881 0.39393665851650977 0 0.3616161375097951 0.39515053978502601 0 0.35532768501086009 0.36701589240041649 0 0.33295544985568881 0.39393665851650977 0 0.35310308829934328 0.41820535507985251 0 0.3616161375097951 0.39515053978502601 0 0.35532768501086009 0.36701589240041649 0 0.37365197252320459 0.3554120332811726 0 0.34903923251192509 0.33888124501580708 0 0.35532768501086009 0.36701589240041649 0 0.34903923251192509 0.33888124501580708 0 0.35532768501086009 0.36701589240041649 0 0.34903923251192509 0.33888124501580708 0 0.33212759916543533 0.3505420392083593 0 0.35532768501086009 0.36701589240041649 0 0.37365197252320459 0.3554120332811726 0 0.37834073084672948 0.37783037574502559 0 0.37365197252320459 0.3554120332811726 0 0.36995255372025998 0.33759437321263341 0 0.34903923251192509 0.33888124501580708 0 0.36995255372025998 0.33759437321263341 0 0.3699760791463611 0.31955193753011218 0 0.34903923251192509 0.33888124501580708 0 0.34903923251192509 0.33888124501580708 0 0.3427507800129902 0.31074659763119772 0 0.3699760791463611 0.31955193753011218 0 0.34903923251192509 0.33888124501580708 0 0.3427507800129902 0.31074659763119772 0 0.34903923251192509 0.33888124501580708 0 0.32396443063003821 0.33093238911935102 0 0.33212759916543533 0.3505420392083593 0 0.34903923251192509 0.33888124501580708 0 0.32396443063003821 0.33093238911935102 0 0.3427507800129902 0.31074659763119772 0 0.32396443063003821 0.33093238911935102 0 0.31525642005538718 0.30816577968631997 0 0.3427507800129902 0.31074659763119772 0 0.32396443063003821 0.33093238911935102 0 0.33212759916543533 0.3505420392083593 0 0.31137594606867169 0.34820555282240362 0 0.33212759916543533 0.3505420392083593 0 0.32093070160568182 0.36767511668381841 0 0.31137594606867169 0.34820555282240362 0 0.35532768501086009 0.36701589240041649 0 0.33212759916543533 0.3505420392083593 0 0.32093070160568182 0.36767511668381841 0 0.32093070160568182 0.36767511668381841 0 0.31137594606867169 0.34820555282240362 0 0.28907691448801548 0.36105133502447312 0 0.30653347439178169 0.3857323188739496 0 0.32093070160568182 0.36767511668381841 0 0.28907691448801548 0.36105133502447312 0 0.31137594606867169 0.34820555282240362 0 0.28907691448801548 0.36105133502447312 0 0.29738465430059602 0.33272449463270498 0 0.28907691448801548 0.36105133502447312 0 0.28064438321681417 0.34202559499090618 0 0.29738465430059602 0.33272449463270498 0 0.28499378704979789 0.38946423178400852 0 0.28907691448801548 0.36105133502447312 0 0.26253999358176838 0.37104160374801037 0 0.28907691448801548 0.36105133502447312 0 0.26290601320526191 0.34770065800347438 0 0.26253999358176838 0.37104160374801037 0 0.28907691448801548 0.36105133502447312 0 0.26290601320526191 0.34770065800347438 0 0.28064438321681417 0.34202559499090618 0 0.2400862001137401 0.35261897571201067 0 0.26290601320526191 0.34770065800347438 0 0.26253999358176838 0.37104160374801037 0 0.2400862001137401 0.35261897571201067 0 0.26253999358176838 0.37104160374801037 0 0.24402188888806611 0.32778957735960851 0 0.25898653706984293 0.31348544496670511 0 0.27129707395987951 0.32591709038872191 0 0.2479575776623911 0.30296017900720612 0 0.24402188888806611 0.32778957735960851 0 0.25898653706984293 0.31348544496670511 0 0.24402188888806611 0.32778957735960851 0 0.26290601320526191 0.34770065800347438 0 0.27129707395987951 0.32591709038872191 0 0.26290601320526191 0.34770065800347438 0 0.28064438321681417 0.34202559499090618 0 0.27129707395987951 0.32591709038872191 0 0.25898653706984293 0.31348544496670511 0 0.27129707395987951 0.32591709038872191 0 0.27334308549620989 0.30744625631172012 0 0.27129707395987951 0.32591709038872191 0 0.29252707227494062 0.309988752873948 0 0.27334308549620989 0.30744625631172012 0 0.27129707395987951 0.32591709038872191 0 0.29738465430059602 0.33272449463270498 0 0.29252707227494062 0.309988752873948 0 0.28064438321681417 0.34202559499090618 0 0.27129707395987951 0.32591709038872191 0 0.29738465430059602 0.33272449463270498 0 0.32396443063003821 0.33093238911935102 0 0.31137594606867169 0.34820555282240362 0 0.29738465430059602 0.33272449463270498 0 0.29738465430059602 0.33272449463270498 0 0.29252707227494062 0.309988752873948 0 0.31525642005538718 0.30816577968631997 0 0.32396443063003821 0.33093238911935102 0 0.29738465430059602 0.33272449463270498 0 0.31525642005538718 0.30816577968631997 0 0.30539089083304111 0.2845371560790193 0 0.29252707227494062 0.309988752873948 0 0.31525642005538718 0.30816577968631997 0 0.30539089083304111 0.2845371560790193 0 0.28483517087167581 0.29128364086133252 0 0.29252707227494062 0.309988752873948 0 0.28483517087167581 0.29128364086133252 0 0.29252707227494062 0.309988752873948 0 0.27334308549620989 0.30744625631172012 0 0.27334308549620989 0.30744625631172012 0 0.27121786228956701 0.2915283108150914 0 0.25756168893310388 0.30227853869188481 0 0.27617648844821008 0.28212055265487268 0 0.27121786228956701 0.2915283108150914 0 0.2641728776986354 0.27451256555564729 0 0.28483517087167581 0.29128364086133252 0 0.27334308549620989 0.30744625631172012 0 0.27121786228956701 0.2915283108150914 0 0.28483517087167581 0.29128364086133252 0 0.27617648844821008 0.28212055265487268 0 0.27121786228956701 0.2915283108150914 0 0.25756168893310388 0.30227853869188481 0 0.25189326643671789 0.27813078065480401 0 0.2641728776986354 0.27451256555564729 0 0.27121786228956701 0.2915283108150914 0 0.25756168893310388 0.30227853869188481 0 0.2641728776986354 0.27451256555564729 0 0.2479575776623911 0.30296017900720612 0 0.25756168893310388 0.30227853869188481 0 0.25189326643671789 0.27813078065480401 0 0.25756168893310388 0.30227853869188481 0 0.2641728776986354 0.27451256555564729 0 0.25898653706984293 0.31348544496670511 0 0.27334308549620989 0.30744625631172012 0 0.25756168893310388 0.30227853869188481 0 0.2479575776623911 0.30296017900720612 0 0.25898653706984293 0.31348544496670511 0 0.25756168893310388 0.30227853869188481 0 0.25592753825363612 0.26144580776214171 0 0.2641728776986354 0.27451256555564729 0 0.27015936728998008 0.24937023260028501 0 0.25592753825363612 0.26144580776214171 0 0.25007920385097743 0.26883377229727617 0 0.25558558467081172 0.27030575245739902 0 0.25007920385097743 0.26883377229727617 0 0.25558558467081172 0.27030575245739902 0 0.25216271887999803 0.27643086421453078 0 0.25189326643671789 0.27813078065480401 0 0.25216271887999803 0.27643086421453078 0 0.2641728776986354 0.27451256555564729 0 0.25558558467081172 0.27030575245739902 0 0.25216271887999803 0.27643086421453078 0 0.2641728776986354 0.27451256555564729 0 0.25189326643671789 0.27813078065480401 0 0.25216271887999803 0.27643086421453078 0 0.25189326643671789 0.27813078065480401 0 0.2641728776986354 0.27451256555564729 0 0.25592753825363612 0.26144580776214171 0 0.25558558467081172 0.27030575245739902 0 0.2641728776986354 0.27451256555564729 0 0.27617648844821008 0.28212055265487268 0 0.2641728776986354 0.27451256555564729 0 0.29029904145935947 0.26681443259477411 0 0.2641728776986354 0.27451256555564729 0 0.29029904145935947 0.26681443259477411 0 0.2641728776986354 0.27451256555564729 0 0.27015936728998008 0.24937023260028501 0 0.2641728776986354 0.27451256555564729 0 0.29029904145935947 0.26681443259477411 0 0.27015936728998008 0.24937023260028501 0 0.29029904145935947 0.26681443259477411 0 0.27015936728998008 0.24937023260028501 0 0.28677752459831068 0.24004321204513401 0 0.29029904145935947 0.26681443259477411 0 0.30141958038718097 0.2498623262112846 0 0.28677752459831068 0.24004321204513401 0 0.30539089083304111 0.2845371560790193 0 0.28483517087167581 0.29128364086133252 0 0.29029904145935947 0.26681443259477411 0 0.28483517087167581 0.29128364086133252 0 0.27617648844821008 0.28212055265487268 0 0.29029904145935947 0.26681443259477411 0 0.30539089083304111 0.2845371560790193 0 0.29029904145935947 0.26681443259477411 0 0.31642520522008322 0.25911629963389998 0 0.29029904145935947 0.26681443259477411 0 0.31642520522008322 0.25911629963389998 0 0.29029904145935947 0.26681443259477411 0 0.31642520522008322 0.25911629963389998 0 0.30141958038718097 0.2498623262112846 0 0.31642520522008322 0.25911629963389998 0 0.30141958038718097 0.2498623262112846 0 0.32460622040201781 0.24146419014174819 0 0.31642520522008322 0.25911629963389998 0 0.34255136898080701 0.25141816667302591 0 0.32460622040201781 0.24146419014174819 0 0.31642520522008322 0.25911629963389998 0 0.34255136898080701 0.25141816667302591 0 0.31642520522008322 0.25911629963389998 0 0.34255136898080701 0.25141816667302591 0 0.34450056162764631 0.26707649539613049 0 0.31642520522008322 0.25911629963389998 0 0.33646232751405519 0.28261195024658808 0 0.34450056162764631 0.26707649539613049 0 0.30539089083304111 0.2845371560790193 0 0.31642520522008322 0.25911629963389998 0 0.33646232751405519 0.28261195024658808 0 0.30539089083304111 0.2845371560790193 0 0.31525642005538718 0.30816577968631997 0 0.33646232751405519 0.28261195024658808 0 0.31525642005538718 0.30816577968631997 0 0.3427507800129902 0.31074659763119772 0 0.33646232751405519 0.28261195024658808 0 0.3427507800129902 0.31074659763119772 0 0.33646232751405519 0.28261195024658808 0 0.33646232751405519 0.28261195024658808 0 0.35673421770879832 0.29738373853555439 0 0.36262849753920579 0.28015660216391147 0 0.3427507800129902 0.31074659763119772 0 0.33646232751405519 0.28261195024658808 0 0.35673421770879832 0.29738373853555439 0 0.3699760791463611 0.31955193753011218 0 0.3427507800129902 0.31074659763119772 0 0.35673421770879832 0.29738373853555439 0 0.3699760791463611 0.31955193753011218 0 0.35673421770879832 0.29738373853555439 0 0.37548698624165078 0.29943642061045378 0 0.36262849753920579 0.28015660216391147 0 0.37975749834133388 0.28640278463997337 0 0.37548698624165078 0.29943642061045378 0 0.35673421770879832 0.29738373853555439 0 0.36262849753920579 0.28015660216391147 0 0.37548698624165078 0.29943642061045378 0 0.36262849753920579 0.28015660216391147 0 0.36443540888407999 0.26207945826322709 0 0.37569481917474112 0.27335566819117318 0 0.36443540888407999 0.26207945826322709 0 0.38294953736987891 0.26171503098633109 0 0.37569481917474112 0.27335566819117318 0 0.36262849753920579 0.28015660216391147 0 0.37569481917474112 0.27335566819117318 0 0.37975749834133388 0.28640278463997337 0 0.36443540888407999 0.26207945826322709 0 0.38294953736987891 0.26171503098633109 0 0.36867753274152998 0.2437200337121492 0 0.34255136898080701 0.25141816667302591 0 0.36443540888407999 0.26207945826322709 0 0.36867753274152998 0.2437200337121492 0 0.34255136898080701 0.25141816667302591 0 0.36443540888407999 0.26207945826322709 0 0.34450056162764631 0.26707649539613049 0 0.36262849753920579 0.28015660216391147 0 0.36443540888407999 0.26207945826322709 0 0.34450056162764631 0.26707649539613049 0 0.33646232751405519 0.28261195024658808 0 0.36262849753920579 0.28015660216391147 0 0.34450056162764631 0.26707649539613049 0 0.39571553091322742 0.26780512041629351 0 0.39638521663416892 0.25609148502321438 0 0.40630582765063461 0.27370393739511478 0 0.39571553091322742 0.26780512041629351 0 0.39722154199822712 0.27971002826051378 0 0.38294953736987891 0.26171503098633109 0 0.39722154199822712 0.27971002826051378 0 0.40582633018194048 0.2828354714612526 0 0.40630582765063461 0.27370393739511478 0 0.39571553091322742 0.26780512041629351 0 0.39722154199822712 0.27971002826051378 0 0.40630582765063461 0.27370393739511478 0 0.39638521663416892 0.25609148502321438 0 0.40630582765063461 0.27370393739511478 0 0.39638521663416892 0.25609148502321438 0 0.40899785763602747 0.26047865711949308 0 0.41240040989541538 0.2484338620203948 0 0.39638521663416892 0.25609148502321438 0 0.40630582765063461 0.27370393739511478 0 0.40899785763602747 0.26047865711949308 0 0.39571553091322742 0.26780512041629351 0 0.39638521663416892 0.25609148502321438 0 0.38294953736987891 0.26171503098633109 0 0.38294953736987891 0.26171503098633109 0 0.36867753274152998 0.2437200337121492 0 0.39638521663416892 0.25609148502321438 0 0.38294953736987891 0.26171503098633109 0 0.38646460561770302 0.23847903265131409 0 0.39722154199822712 0.27971002826051378 0 0.38294953736987891 0.26171503098633109 0 0.38294953736987891 0.26171503098633109 0 0.37569481917474112 0.27335566819117318 0 0.38899520228364198 0.27852190988120018 0 0.39722154199822712 0.27971002826051378 0 0.38294953736987891 0.26171503098633109 0 0.38899520228364198 0.27852190988120018 0 0.37569481917474112 0.27335566819117318 0 0.38899520228364198 0.27852190988120018 0 0.37975749834133388 0.28640278463997337 0 0.38899520228364198 0.27852190988120018 0 0.37975749834133388 0.28640278463997337 0 0.3959819864674301 0.30054332235312797 0 0.37975749834133388 0.28640278463997337 0 0.37548698624165078 0.29943642061045378 0 0.3959819864674301 0.30054332235312797 0 0.3699760791463611 0.31955193753011218 0 0.37548698624165078 0.29943642061045378 0 0.38763338279914622 0.31530939047945511 0 0.37548698624165078 0.29943642061045378 0 0.3959819864674301 0.30054332235312797 0 0.38763338279914622 0.31530939047945511 0 0.3959819864674301 0.30054332235312797 0 0.4079851564711412 0.30885411177868582 0 0.40296877065121822 0.32256473482505582 0 0.3959819864674301 0.30054332235312797 0 0.40296877065121822 0.32256473482505582 0 0.3959819864674301 0.30054332235312797 0 0.40529839535651541 0.29597406398374998 0 0.4079851564711412 0.30885411177868582 0 0.38899520228364198 0.27852190988120018 0 0.3959819864674301 0.30054332235312797 0 0.39866469125755111 0.28751695918796888 0 0.38899520228364198 0.27852190988120018 0 0.3959819864674301 0.30054332235312797 0 0.39722154199822712 0.27971002826051378 0 0.38899520228364198 0.27852190988120018 0 0.39866469125755111 0.28751695918796888 0 0.3959819864674301 0.30054332235312797 0 0.40529839535651541 0.29597406398374998 0 0.39866469125755111 0.28751695918796888 0 0.39722154199822712 0.27971002826051378 0 0.39866469125755111 0.28751695918796888 0 0.40582633018194048 0.2828354714612526 0 0.40529839535651541 0.29597406398374998 0 0.39866469125755111 0.28751695918796888 0 0.40582633018194048 0.2828354714612526 0 0.41809576002461962 0.29832220754448691 0 0.41448928066545609 0.2718297331277838 0 0.40582633018194048 0.2828354714612526 0 0.41809576002461962 0.29832220754448691 0 0.41448928066545609 0.2718297331277838 0 0.41809576002461962 0.29832220754448691 0 0.42541027450711399 0.27580959255270582 0 0.41448928066545609 0.2718297331277838 0 0.40529839535651541 0.29597406398374998 0 0.40582633018194048 0.2828354714612526 0 0.41809576002461962 0.29832220754448691 0 0.41809576002461962 0.29832220754448691 0 0.42109442696936722 0.32433625437279823 0 0.4079851564711412 0.30885411177868582 0 0.41809576002461962 0.29832220754448691 0 0.42109442696936722 0.32433625437279823 0 0.40529839535651541 0.29597406398374998 0 0.4079851564711412 0.30885411177868582 0 0.41809576002461962 0.29832220754448691 0 0.41809576002461962 0.29832220754448691 0 0.43871486849956992 0.29866969844766328 0 0.43852797264197818 0.31637066565671917 0 0.41809576002461962 0.29832220754448691 0 0.43475653512982171 0.28293547832701721 0 0.42541027450711399 0.27580959255270582 0 0.41809576002461962 0.29832220754448691 0 0.43475653512982171 0.28293547832701721 0 0.43871486849956992 0.29866969844766328 0 0.42541027450711399 0.27580959255270582 0 0.42089997636389082 0.26368534403924843 0 0.43820200793736569 0.26179677213660102 0 0.43475653512982171 0.28293547832701721 0 0.42541027450711399 0.27580959255270582 0 0.43820200793736569 0.26179677213660102 0 0.41448928066545609 0.2718297331277838 0 0.42089997636389082 0.26368534403924843 0 0.42541027450711399 0.27580959255270582 0 0.41448928066545609 0.2718297331277838 0 0.42089997636389082 0.26368534403924843 0 0.40630582765063461 0.27370393739511478 0 0.40899785763602747 0.26047865711949308 0 0.42089997636389082 0.26368534403924843 0 0.41448928066545609 0.2718297331277838 0 0.40630582765063461 0.27370393739511478 0 0.42089997636389082 0.26368534403924843 0 0.40582633018194048 0.2828354714612526 0 0.41448928066545609 0.2718297331277838 0 0.40582633018194048 0.2828354714612526 0 0.41448928066545609 0.2718297331277838 0 0.40630582765063461 0.27370393739511478 0 0.40899785763602747 0.26047865711949308 0 0.42089997636389082 0.26368534403924843 0 0.41240040989541538 0.2484338620203948 0 0.42089997636389082 0.26368534403924843 0 0.43820200793736569 0.26179677213660102 0 0.43597362254584099 0.24453521661724409 0 0.42089997636389082 0.26368534403924843 0 0.43597362254584099 0.24453521661724409 0 0.41240040989541538 0.2484338620203948 0 0.42089997636389082 0.26368534403924843 0 0.43597362254584099 0.24453521661724409 0 0.43820200793736569 0.26179677213660102 0 0.4487665110108715 0.25226136978137409 0 0.46097385642212951 0.2609683157800467 0 0.43820200793736569 0.26179677213660102 0 0.4487665110108715 0.25226136978137409 0 0.43597362254584099 0.24453521661724409 0 0.48494373205816649 0.26373079297086571 0 0.5 0.28641055148512512 0 0.5 0.21817953246219399 0 0.43820200793736569 0.26179677213660102 0 0.46097385642212951 0.2609683157800467 0 0.45345235988955929 0.28296640799380002 0 0.43475653512982171 0.28293547832701721 0 0.43820200793736569 0.26179677213660102 0 0.45345235988955929 0.28296640799380002 0 0.46097385642212951 0.2609683157800467 0 0.4747002359159736 0.27921786933190362 0 0.45345235988955929 0.28296640799380002 0 0.4487665110108715 0.25226136978137409 0 0.46097385642212951 0.2609683157800467 0 0.45805191493046538 0.24216762228305941 0 0.48494373205816649 0.26373079297086571 0 0.47866945967535812 0.24456551590498901 0 0.46097385642212951 0.2609683157800467 0 0.48494373205816649 0.26373079297086571 0 0.47866945967535812 0.24456551590498901 0 0.46097385642212951 0.2609683157800467 0 0.4747002359159736 0.27921786933190362 0 0.48494373205816649 0.26373079297086571 0 0.4747002359159736 0.27921786933190362 0 0.48494373205816649 0.26373079297086571 0 0.5 0.28641055148512512 0 0.5 0.28641055148512512 0 0.47413123121001238 0.30201327842968062 0 0.5 0.33838446146100071 0 0.4747002359159736 0.27921786933190362 0 0.5 0.28641055148512512 0 0.47413123121001238 0.30201327842968062 0 0.47413123121001238 0.30201327842968062 0 0.45458071392900778 0.30412251510937077 0 0.46298406443420048 0.32498940170303681 0 0.4747002359159736 0.27921786933190362 0 0.47413123121001238 0.30201327842968062 0 0.45345235988955929 0.28296640799380002 0 0.47413123121001238 0.30201327842968062 0 0.45458071392900778 0.30412251510937077 0 0.45345235988955929 0.28296640799380002 0 0.43475653512982171 0.28293547832701721 0 0.45345235988955929 0.28296640799380002 0 0.43871486849956992 0.29866969844766328 0 0.45458071392900778 0.30412251510937077 0 0.45345235988955929 0.28296640799380002 0 0.43871486849956992 0.29866969844766328 0 0.45458071392900778 0.30412251510937077 0 0.43871486849956992 0.29866969844766328 0 0.43852797264197818 0.31637066565671917 0 0.45458071392900778 0.30412251510937077 0 0.43852797264197818 0.31637066565671917 0 0.46298406443420048 0.32498940170303681 0 0.44209201756461752 0.33817816992900668 0 0.46298406443420048 0.32498940170303681 0 0.46607795180413142 0.35806591320510661 0 0.43852797264197818 0.31637066565671917 0 0.44209201756461752 0.33817816992900668 0 0.46298406443420048 0.32498940170303681 0 0.5 0.33838446146100071 0 0.46607795180413142 0.35806591320510661 0 0.5 0.40766376727065312 0 0.47413123121001238 0.30201327842968062 0 0.46298406443420048 0.32498940170303681 0 0.5 0.33838446146100071 0 0.46298406443420048 0.32498940170303681 0 0.5 0.33838446146100071 0 0.46607795180413142 0.35806591320510661 0 0.46607795180413142 0.35806591320510661 0 0.44278089071812582 0.36137599210042187 0 0.45318576547496991 0.38733859300975437 0 0.44209201756461752 0.33817816992900668 0 0.46607795180413142 0.35806591320510661 0 0.44278089071812582 0.36137599210042187 0 0.44278089071812582 0.36137599210042187 0 0.42709176085886241 0.37636434802942048 0 0.45318576547496991 0.38733859300975437 0 0.44278089071812582 0.36137599210042187 0 0.42409309391411482 0.35035030120110933 0 0.42709176085886241 0.37636434802942048 0 0.42409309391411482 0.35035030120110933 0 0.42709176085886241 0.37636434802942048 0 0.41694233901879429 0.36660755976891141 0 0.42409309391411482 0.35035030120110933 0 0.42709176085886241 0.37636434802942048 0 0.41694233901879429 0.36660755976891141 0 0.41347916194989282 0.37970187851133302 0 0.42709176085886241 0.37636434802942048 0 0.41694233901879429 0.36660755976891141 0 0.39467422202503699 0.36075001840451498 0 0.41347916194989282 0.37970187851133302 0 0.41694233901879429 0.36660755976891141 0 0.40995555483500618 0.34458614729698361 0 0.39467422202503699 0.36075001840451498 0 0.41694233901879429 0.36660755976891141 0 0.40995555483500618 0.34458614729698361 0 0.42409309391411482 0.35035030120110933 0 0.41694233901879429 0.36660755976891141 0 0.40995555483500618 0.34458614729698361 0 0.44209201756461752 0.33817816992900668 0 0.44278089071812582 0.36137599210042187 0 0.42409309391411482 0.35035030120110933 0 0.42409309391411482 0.35035030120110933 0 0.42109442696936722 0.32433625437279823 0 0.44209201756461752 0.33817816992900668 0 0.42409309391411482 0.35035030120110933 0 0.42109442696936722 0.32433625437279823 0 0.41809576002461962 0.29832220754448691 0 0.43852797264197818 0.31637066565671917 0 0.42109442696936722 0.32433625437279823 0 0.43852797264197818 0.31637066565671917 0 0.44209201756461752 0.33817816992900668 0 0.42109442696936722 0.32433625437279823 0 0.4079851564711412 0.30885411177868582 0 0.42109442696936722 0.32433625437279823 0 0.40296877065121822 0.32256473482505582 0 0.40995555483500618 0.34458614729698361 0 0.40296877065121822 0.32256473482505582 0 0.40995555483500618 0.34458614729698361 0 0.42409309391411482 0.35035030120110933 0 0.42109442696936722 0.32433625437279823 0 0.40995555483500618 0.34458614729698361 0 0.42109442696936722 0.32433625437279823 0 0.40296877065121822 0.32256473482505582 0 0.40995555483500618 0.34458614729698361 0 0.40296877065121822 0.32256473482505582 0 0.38714293069954908 0.33653227702344179 0 0.3959819864674301 0.30054332235312797 0 0.40296877065121822 0.32256473482505582 0 0.38763338279914622 0.31530939047945511 0 0.40296877065121822 0.32256473482505582 0 0.38763338279914622 0.31530939047945511 0 0.38714293069954908 0.33653227702344179 0 0.3699760791463611 0.31955193753011218 0 0.38763338279914622 0.31530939047945511 0 0.38714293069954908 0.33653227702344179 0 0.36995255372025998 0.33759437321263341 0 0.3699760791463611 0.31955193753011218 0 0.38714293069954908 0.33653227702344179 0 0.37365197252320459 0.3554120332811726 0 0.36995255372025998 0.33759437321263341 0 0.38714293069954908 0.33653227702344179 0 0.37365197252320459 0.3554120332811726 0 0.38714293069954908 0.33653227702344179 0 0.39467422202503699 0.36075001840451498 0 0.37365197252320459 0.3554120332811726 0 0.39467422202503699 0.36075001840451498 0 0.37834073084672948 0.37783037574502559 0 0.39467422202503699 0.36075001840451498 0 0.40142084870743028 0.38760167685163399 0 0.40995555483500618 0.34458614729698361 0 0.38714293069954908 0.33653227702344179 0 0.39467422202503699 0.36075001840451498 0 0.40142084870743028 0.38760167685163399 0 0.40816747538982362 0.414453335298753 0 0.40142084870743028 0.38760167685163399 0 0.38427520916446861 0.40023479431698228 0 0.40816747538982362 0.414453335298753 0 0.39467422202503699 0.36075001840451498 0 0.40142084870743028 0.38760167685163399 0 0.37834073084672948 0.37783037574502559 0 0.39467422202503699 0.36075001840451498 0 0.40142084870743028 0.38760167685163399 0 0.41347916194989282 0.37970187851133302 0 0.40142084870743028 0.38760167685163399 0 0.37834073084672948 0.37783037574502559 0 0.38427520916446861 0.40023479431698228 0 0.37625496469857489 0.42221500663851708 0 0.40816747538982362 0.414453335298753 0 0.38988625776123992 0.44346344647874142 0 0.38427520916446861 0.40023479431698228 0 0.37625496469857489 0.42221500663851708 0 0.40816747538982362 0.414453335298753 0 0.40816747538982362 0.414453335298753 0 0.41491410207221679 0.4413049937458719 0 0.38988625776123992 0.44346344647874142 0 0.40816747538982362 0.414453335298753 0 0.42868400565242631 0.42396172887726102 0 0.42658398232591982 0.39843984229884127 0 0.40816747538982362 0.414453335298753 0 0.42868400565242631 0.42396172887726102 0 0.41491410207221679 0.4413049937458719 0 0.40816747538982362 0.414453335298753 0 0.41491410207221679 0.4413049937458719 0 0.42868400565242631 0.42396172887726102 0 0.43973780462130208 0.44618028131998078 0 0.41491410207221679 0.4413049937458719 0 0.42868400565242631 0.42396172887726102 0 0.42658398232591982 0.39843984229884127 0 0.45401666385286849 0.41943019172285778 0 0.40142084870743028 0.38760167685163399 0 0.40816747538982362 0.414453335298753 0 0.42658398232591982 0.39843984229884127 0 0.40142084870743028 0.38760167685163399 0 0.42658398232591982 0.39843984229884127 0 0.41347916194989282 0.37970187851133302 0 0.42658398232591982 0.39843984229884127 0 0.42709176085886241 0.37636434802942048 0 0.45318576547496991 0.38733859300975437 0 0.42658398232591982 0.39843984229884127 0 0.41347916194989282 0.37970187851133302 0 0.42709176085886241 0.37636434802942048 0 0.42658398232591982 0.39843984229884127 0 0.45318576547496991 0.38733859300975437 0 0.45401666385286849 0.41943019172285778 0 0.45318576547496991 0.38733859300975437 0 0.5 0.40766376727065312 0 0.45401666385286849 0.41943019172285778 0 0.46607795180413142 0.35806591320510661 0 0.45318576547496991 0.38733859300975437 0 0.5 0.40766376727065312 0 0.5 0.40766376727065312 0 0.45401666385286849 0.41943019172285778 0 0.47084233335889142 0.45087587263177897 0 0.42868400565242631 0.42396172887726102 0 0.45401666385286849 0.41943019172285778 0 0.43973780462130208 0.44618028131998078 0 0.5 0.40766376727065312 0 0.47084233335889142 0.45087587263177897 0 0.5 0.5 0 0.45401666385286849 0.41943019172285778 0 0.43973780462130208 0.44618028131998078 0 0.47084233335889142 0.45087587263177897 0 0.43973780462130208 0.44618028131998078 0 0.47084233335889142 0.45087587263177897 0 0.44831484699618268 0.47374066993596109 0 0.47084233335889142 0.45087587263177897 0 0.46813900348756893 0.48115413564193499 0 0.44831484699618268 0.47374066993596109 0 0.5 0.5 0 0.45339883359520139 0.5 0 0.46813900348756893 0.48115413564193499 0 0.47084233335889142 0.45087587263177897 0 0.5 0.5 0 0.46813900348756893 0.48115413564193499 0 0.45339883359520139 0.5 0 0.46813900348756893 0.48115413564193499 0 0.44831484699618268 0.47374066993596109 0 0.45339883359520139 0.5 0 0.44831484699618268 0.47374066993596109 0 0.42840735543700331 0.49500831064010992 0 0.45339883359520139 0.5 0 0.42840735543700331 0.49500831064010992 0 0.4197165478579753 0.49999999999999828 0 0.4197165478579753 0.49999999999999828 0 0.41557638615698872 0.48313535199397872 0 0.39726275438994629 0.48157737196399908 0 0.42840735543700331 0.49500831064010992 0 0.4197165478579753 0.49999999999999828 0 0.41557638615698872 0.48313535199397872 0 0.4197165478579753 0.49999999999999828 0 0.39726275438994629 0.48157737196399908 0 0.41557638615698872 0.48313535199397872 0 0.42166072875461003 0.4681566521929908 0 0.40221556349832138 0.46247164848637451 0 0.42840735543700331 0.49500831064010992 0 0.41557638615698872 0.48313535199397872 0 0.42166072875461003 0.4681566521929908 0 0.44831484699618268 0.47374066993596109 0 0.42840735543700331 0.49500831064010992 0 0.42166072875461003 0.4681566521929908 0 0.42840735543700331 0.49500831064010992 0 0.42166072875461003 0.4681566521929908 0 0.43973780462130208 0.44618028131998078 0 0.44831484699618268 0.47374066993596109 0 0.42166072875461003 0.4681566521929908 0 0.43973780462130208 0.44618028131998078 0 0.41491410207221679 0.4413049937458719 0 0.42166072875461003 0.4681566521929908 0 0.41491410207221679 0.4413049937458719 0 0.42166072875461003 0.4681566521929908 0 0.40221556349832138 0.46247164848637451 0 0.41491410207221679 0.4413049937458719 0 0.42166072875461003 0.4681566521929908 0 0.41491410207221679 0.4413049937458719 0 0.40221556349832138 0.46247164848637451 0 0.38988625776123992 0.44346344647874142 0 0.37480896092191662 0.46315474392800088 0 0.40221556349832138 0.46247164848637451 0 0.38988625776123992 0.44346344647874142 0 0.37480896092191662 0.46315474392800088 0 0.39726275438994629 0.48157737196399908 0 0.37480896092191662 0.46315474392800088 0 0.38080606823705021 0.48505130674619168 0 0.39726275438994629 0.48157737196399908 0 0.37069828100298557 0.5 0 0.38080606823705021 0.48505130674619168 0 0.39520741443048052 0.5 0 0.4197165478579753 0.49999999999999828 0 0.39520741443048052 0.5 0 0.39726275438994629 0.48157737196399908 0 0.38080606823705021 0.48505130674619168 0 0.39520741443048052 0.5 0 0.39726275438994629 0.48157737196399908 0 0.37480896092191662 0.46315474392800088 0 0.40221556349832138 0.46247164848637451 0 0.39726275438994629 0.48157737196399908 0 0.41557638615698872 0.48313535199397872 0 0.40221556349832138 0.46247164848637451 0 0.39726275438994629 0.48157737196399908 0 0.33525153475812242 0.084262718650584573 0 0.31971280580176331 0.081662910007172546 0 0.33150857820029922 0.1033205116786451 0 0.33525153475812242 0.084262718650584573 0 0.3443492115300239 0.095554347684836421 0 0.34638218006152072 0.073563462344991212 0 0.33525153475812242 0.084262718650584573 0 0.3443492115300239 0.095554347684836421 0 0.33525153475812242 0.084262718650584573 0 0.34638218006152072 0.073563462344991212 0 0.33747004358974858 0.060770467916564187 0 0.33525153475812242 0.084262718650584573 0 0.3181161479422453 0.062995043821679364 0 0.33747004358974858 0.060770467916564187 0 0.31795016390660819 0.065359059342087911 0 0.31295713744829701 0.067430129264832009 0 0.31971280580176331 0.081662910007172546 0 0.33525153475812242 0.084262718650584573 0 0.31795016390660819 0.065359059342087911 0 0.31971280580176331 0.081662910007172546 0 0.33525153475812242 0.084262718650584573 0 0.3181161479422453 0.062995043821679364 0 0.31795016390660819 0.065359059342087911 0 0.33525153475812242 0.084262718650584573 0 0.3181161479422453 0.062995043821679364 0 0.3181161479422453 0.062995043821679364 0 0.31795016390660819 0.065359059342087911 0 0.3181161479422453 0.062995043821679364 0 0.31795016390660819 0.065359059342087911 0 0.31295713744829701 0.067430129264832009 0 0.31295713744829701 0.067430129264832009 0 0.31971280580176331 0.081662910007172546 0 0.30956566698827459 0.093714742915960714 0 0.31971280580176331 0.081662910007172546 0 0.33150857820029922 0.1033205116786451 0 0.30956566698827459 0.093714742915960714 0 0.31863466888307179 0.10982505124397141 0 0.33150857820029922 0.1033205116786451 0 0.30956566698827459 0.093714742915960714 0 0.3272902338154613 0.12226559381418931 0 0.30617419652825228 0.11999935656708929 0 0.31863466888307179 0.10982505124397141 0 0.3272902338154613 0.12226559381418931 0 0.30617419652825228 0.11999935656708929 0 0.31863466888307179 0.10982505124397141 0 0.3272902338154613 0.12226559381418931 0 0.33150857820029922 0.1033205116786451 0 0.3272902338154613 0.12226559381418931 0 0.34840627110267042 0.12453183106128821 0 0.3272902338154613 0.12226559381418931 0 0.33150857820029922 0.1033205116786451 0 0.34840627110267042 0.12453183106128821 0 0.33150857820029922 0.1033205116786451 0 0.3443492115300239 0.095554347684836421 0 0.35238692157399898 0.1055303934794901 0 0.33525153475812242 0.084262718650584573 0 0.33150857820029922 0.1033205116786451 0 0.3443492115300239 0.095554347684836421 0 0.3443492115300239 0.095554347684836421 0 0.35238692157399898 0.1055303934794901 0 0.3443492115300239 0.095554347684836421 0 0.35238692157399898 0.1055303934794901 0 0.36353514138796478 0.09359971605992673 0 0.35238692157399898 0.1055303934794901 0 0.34840627110267042 0.12453183106128821 0 0.36952230838987887 0.12679806830839299 0 0.33150857820029922 0.1033205116786451 0 0.35238692157399898 0.1055303934794901 0 0.34840627110267042 0.12453183106128821 0 0.35238692157399898 0.1055303934794901 0 0.3700888224484169 0.10736588045092819 0 0.36952230838987887 0.12679806830839299 0 0.35238692157399898 0.1055303934794901 0 0.36952230838987887 0.12679806830839299 0 0.3700888224484169 0.10736588045092819 0 0.36952230838987887 0.12679806830839299 0 0.38403052040310648 0.1147536360125621 0 0.35238692157399898 0.1055303934794901 0 0.3700888224484169 0.10736588045092819 0 0.36353514138796478 0.09359971605992673 0 0.3700888224484169 0.10736588045092819 0 0.36353514138796478 0.09359971605992673 0 0.3809692204871386 0.096147588394266459 0 0.36353514138796478 0.09359971605992673 0 0.37454800916352271 0.082202256814306984 0 0.36180928298944798 0.072955313009734887 0 0.36353514138796478 0.09359971605992673 0 0.37454800916352271 0.082202256814306984 0 0.3809692204871386 0.096147588394266459 0 0.3443492115300239 0.095554347684836421 0 0.36180928298944798 0.072955313009734887 0 0.3443492115300239 0.095554347684836421 0 0.34638218006152072 0.073563462344991212 0 0.36180928298944798 0.072955313009734887 0 0.3443492115300239 0.095554347684836421 0 0.36353514138796478 0.09359971605992673 0 0.36180928298944798 0.072955313009734887 0 0.34638218006152072 0.073563462344991212 0 0.35301905594870392 0.059623690868350197 0 0.33747004358974858 0.060770467916564187 0 0.34638218006152072 0.073563462344991212 0 0.36180928298944798 0.072955313009734887 0 0.35301905594870392 0.059623690868350197 0 0.36180928298944798 0.072955313009734887 0 0.36465241728618092 0.055904256489018908 0 0.35301905594870392 0.059623690868350197 0 0.37454800916352271 0.082202256814306984 0 0.36180928298944798 0.072955313009734887 0 0.38332427111600043 0.069488932592974201 0 0.36180928298944798 0.072955313009734887 0 0.38332427111600043 0.069488932592974201 0 0.37861316384966948 0.050884971754705632 0 0.36465241728618092 0.055904256489018908 0 0.36516816635690219 0.040153050323284908 0 0.37861316384966948 0.050884971754705632 0 0.36180928298944798 0.072955313009734887 0 0.37861316384966948 0.050884971754705632 0 0.36180928298944798 0.072955313009734887 0 0.36465241728618092 0.055904256489018908 0 0.37861316384966948 0.050884971754705632 0 0.36465241728618092 0.055904256489018908 0 0.36516816635690219 0.040153050323284908 0 0.35301905594870392 0.059623690868350197 0 0.36516816635690219 0.040153050323284908 0 0.38067513689279259 0.032837320839533023 0 0.37861316384966948 0.050884971754705632 0 0.36516816635690219 0.040153050323284908 0 0.35027733442113212 0.033811267209788977 0 0.34832158488604348 0.047793084769106361 0 0.36516816635690219 0.040153050323284908 0 0.35027733442113212 0.033811267209788977 0 0.36188582283685528 0.026236292237898289 0 0.35027733442113212 0.033811267209788977 0 0.34832158488604348 0.047793084769106361 0 0.33567332411373091 0.044606947527543538 0 0.36516816635690219 0.040153050323284908 0 0.35301905594870392 0.059623690868350197 0 0.36516816635690219 0.040153050323284908 0 0.34832158488604348 0.047793084769106361 0 0.35301905594870392 0.059623690868350197 0 0.34832158488604348 0.047793084769106361 0 0.35301905594870392 0.059623690868350197 0 0.33747004358974858 0.060770467916564187 0 0.35336585276688132 0.01206692397073225 0 0.37012071982999178 -0.0010064330768083591 0 0.35336585276688132 0.01206692397073225 0 0.37731727676510057 0.020682409778219588 0 0.37012071982999178 -0.0010064330768083591 0 0.35336585276688132 0.01206692397073225 0 0.37012071982999178 -0.0010064330768083591 0 0.35618713663360291 -0.0073172624232477352 0 0.36516816635690219 0.040153050323284908 0 0.37731727676510057 0.020682409778219588 0 0.36188582283685528 0.026236292237898289 0 0.35336585276688132 0.01206692397073225 0 0.37731727676510057 0.020682409778219588 0 0.36516816635690219 0.040153050323284908 0 0.36188582283685528 0.026236292237898289 0 0.37731727676510057 0.020682409778219588 0 0.36516816635690219 0.040153050323284908 0 0.37731727676510057 0.020682409778219588 0 0.38067513689279259 0.032837320839533023 0 0.35027733442113212 0.033811267209788977 0 0.35336585276688132 0.01206692397073225 0 0.33661098570377079 0.025140281018272839 0 0.35027733442113212 0.033811267209788977 0 0.36188582283685528 0.026236292237898289 0 0.35336585276688132 0.01206692397073225 0 0.35336585276688132 0.01206692397073225 0 0.33661098570377079 0.025140281018272839 0 0.35336585276688132 0.01206692397073225 0 0.33450580440488148 0.008335136826803995 0 0.33661098570377079 0.025140281018272839 0 0.35336585276688132 0.01206692397073225 0 0.33450580440488148 0.008335136826803995 0 0.34222420328263592 -0.0047007069337207351 0 0.33450580440488148 0.008335136826803995 0 0.33299156353108411 -0.001861611209280044 0 0.32271284280328111 -0.002473047446176603 0 0.33450580440488148 0.008335136826803995 0 0.34222420328263592 -0.0047007069337207351 0 0.33299156353108411 -0.001861611209280044 0 0.33450580440488148 0.008335136826803995 0 0.33661098570377079 0.025140281018272839 0 0.32128448072197058 0.01787029530981829 0 0.32128448072197058 0.01787029530981829 0 0.31985611864066033 0.038213638065813252 0 0.33661098570377079 0.025140281018272839 0 0.32128448072197058 0.01787029530981829 0 0.31985611864066033 0.038213638065813252 0 0.32128448072197058 0.01787029530981829 0 0.31985611864066033 0.038213638065813252 0 0.31091207184572622 0.025904336052435691 0 0.32128448072197058 0.01787029530981829 0 0.31244634233680141 0.017091949552143378 0 0.31091207184572622 0.025904336052435691 0 0.32128448072197058 0.01787029530981829 0 0.31424911811307599 0.0081748539557583971 0 0.32271284280328111 -0.002473047446176603 0 0.33450580440488148 0.008335136826803995 0 0.32128448072197058 0.01787029530981829 0 0.32271284280328111 -0.002473047446176603 0 0.32128448072197058 0.01787029530981829 0 0.32271284280328111 -0.002473047446176603 0 0.32128448072197058 0.01787029530981829 0 0.31424911811307599 0.0081748539557583971 0 0.31244634233680141 0.017091949552143378 0 0.34832158488604348 0.047793084769106361 0 0.33747004358974858 0.060770467916564187 0 0.33567332411373091 0.044606947527543538 0 0.3181161479422453 0.062995043821679364 0 0.33747004358974858 0.060770467916564187 0 0.33567332411373091 0.044606947527543538 0 0.33661098570377079 0.025140281018272839 0 0.31985611864066033 0.038213638065813252 0 0.33661098570377079 0.025140281018272839 0 0.33567332411373091 0.044606947527543538 0 0.31985611864066033 0.038213638065813252 0 0.35027733442113212 0.033811267209788977 0 0.33661098570377079 0.025140281018272839 0 0.33567332411373091 0.044606947527543538 0 0.31985611864066033 0.038213638065813252 0 0.30852875593961399 0.038099498582453893 0 0.31091207184572622 0.025904336052435691 0 0.31985611864066033 0.038213638065813252 0 0.30652841806152198 0.048612872368150137 0 0.3181161479422453 0.062995043821679364 0 0.31985611864066033 0.038213638065813252 0 0.3181161479422453 0.062995043821679364 0 0.33567332411373091 0.044606947527543538 0 0.31985611864066033 0.038213638065813252 0 0.3181161479422453 0.062995043821679364 0 0.31985611864066033 0.038213638065813252 0 0.30652841806152198 0.048612872368150137 0 0.3181161479422453 0.062995043821679364 0 0.30457630562152399 0.056484570914770237 0 0.30705277180725682 0.051745115038219561 0 0.3181161479422453 0.062995043821679364 0 0.30457630562152399 0.056484570914770237 0 0.30420814508672411 0.062684185881636698 0 0.3181161479422453 0.062995043821679364 0 0.30652841806152198 0.048612872368150137 0 0.30022963179829271 0.05504155197854211 0 0.29614319521668597 0.057899373716453859 0 0.30420814508672411 0.062684185881636698 0 0.30457630562152399 0.056484570914770237 0 0.30022963179829271 0.05504155197854211 0 0.30371003699714022 0.053662929913729292 0 0.30457630562152399 0.056484570914770237 0 0.30022963179829271 0.05504155197854211 0 0.30420814508672411 0.062684185881636698 0 0.30022963179829271 0.05504155197854211 0 0.29614319521668597 0.057899373716453859 0 0.29544825187324308 0.048266324564932579 0 0.30298143876148759 0.051380481723385267 0 0.30652841806152198 0.048612872368150137 0 0.29544825187324308 0.048266324564932579 0 0.30022963179829271 0.05504155197854211 0 0.30298143876148759 0.051380481723385267 0 0.29544825187324308 0.048266324564932579 0 0.30371003699714022 0.053662929913729292 0 0.30298143876148759 0.051380481723385267 0 0.30705277180725682 0.051745115038219561 0 0.30022963179829271 0.05504155197854211 0 0.30371003699714022 0.053662929913729292 0 0.30298143876148759 0.051380481723385267 0 0.30298143876148759 0.051380481723385267 0 0.30652841806152198 0.048612872368150137 0 0.30705277180725682 0.051745115038219561 0 0.3181161479422453 0.062995043821679364 0 0.30652841806152198 0.048612872368150137 0 0.30705277180725682 0.051745115038219561 0 0.30298143876148759 0.051380481723385267 0 0.30652841806152198 0.048612872368150137 0 0.30652841806152198 0.048612872368150137 0 0.30705277180725682 0.051745115038219561 0 0.30457630562152399 0.056484570914770237 0 0.30371003699714022 0.053662929913729292 0 0.30705277180725682 0.051745115038219561 0 0.31985611864066033 0.038213638065813252 0 0.30652841806152198 0.048612872368150137 0 0.30852875593961399 0.038099498582453893 0 0.30652841806152198 0.048612872368150137 0 0.29975762144611062 0.030319055422438401 0 0.29200459082451752 0.030586548348337999 0 0.30652841806152198 0.048612872368150137 0 0.29200459082451752 0.030586548348337999 0 0.30652841806152198 0.048612872368150137 0 0.29079095567187407 0.041576296792682717 0 0.29544825187324308 0.048266324564932579 0 0.30652841806152198 0.048612872368150137 0 0.29975762144611062 0.030319055422438401 0 0.30652841806152198 0.048612872368150137 0 0.30852875593961399 0.038099498582453893 0 0.29975762144611062 0.030319055422438401 0 0.30852875593961399 0.038099498582453893 0 0.31091207184572622 0.025904336052435691 0 0.29975762144611062 0.030319055422438401 0 0.29079095567187407 0.041576296792682717 0 0.28153514842293992 0.047733821333239612 0 0.29544825187324308 0.048266324564932579 0 0.30652841806152198 0.048612872368150137 0 0.29079095567187407 0.041576296792682717 0 0.29200459082451752 0.030586548348337999 0 0.29079095567187407 0.041576296792682717 0 0.29200459082451752 0.030586548348337999 0 0.29079095567187407 0.041576296792682717 0 0.29200459082451752 0.030586548348337999 0 0.27821920692308971 0.035227004376671499 0 0.29079095567187407 0.041576296792682717 0 0.28153514842293992 0.047733821333239612 0 0.27821920692308971 0.035227004376671499 0 0.28153514842293992 0.047733821333239612 0 0.28735428736197333 0.058330326641594279 0 0.29544825187324308 0.048266324564932579 0 0.28735428736197333 0.058330326641594279 0 0.29614319521668597 0.057899373716453859 0 0.29544825187324308 0.048266324564932579 0 0.28735428736197333 0.058330326641594279 0 0.29614319521668597 0.057899373716453859 0 0.29338716920499208 0.067392230599858438 0 0.30132700360330089 0.0030616356865989119 0 0.30333969866643268 0.01641831289056116 0 0.31148870107994919 -0.0067535916651963891 0 0.31424911811307599 0.0081748539557583971 0 0.30333969866643268 0.01641831289056116 0 0.31148870107994919 -0.0067535916651963891 0 0.30132700360330089 0.0030616356865989119 0 0.29392569318817041 0.013190519841444859 0 0.29655392147865089 -0.010608698320414009 0 0.30333969866643268 0.01641831289056116 0 0.31148870107994919 -0.0067535916651963891 0 0.31424911811307599 0.0081748539557583971 0 0.30333969866643268 0.01641831289056116 0 0.31244634233680141 0.017091949552143378 0 0.30132700360330089 0.0030616356865989119 0 0.30333969866643268 0.01641831289056116 0 0.29392569318817041 0.013190519841444859 0 0.30333969866643268 0.01641831289056116 0 0.29975762144611062 0.030319055422438401 0 0.29392569318817041 0.013190519841444859 0 0.30333969866643268 0.01641831289056116 0 0.31244634233680141 0.017091949552143378 0 0.31091207184572622 0.025904336052435691 0 0.30333969866643268 0.01641831289056116 0 0.31091207184572622 0.025904336052435691 0 0.29975762144611062 0.030319055422438401 0 0.29200459082451752 0.030586548348337999 0 0.27962795318574779 0.0152252199111742 0 0.27821920692308971 0.035227004376671499 0 0.29200459082451752 0.030586548348337999 0 0.29392569318817041 0.013190519841444859 0 0.27962795318574779 0.0152252199111742 0 0.29975762144611062 0.030319055422438401 0 0.29392569318817041 0.013190519841444859 0 0.29200459082451752 0.030586548348337999 0 0.29392569318817041 0.013190519841444859 0 0.29975762144611062 0.030319055422438401 0 0.29200459082451752 0.030586548348337999 0 0.29392569318817041 0.013190519841444859 0 0.29200459082451752 0.030586548348337999 0 0.27962795318574779 0.0152252199111742 0 0.29392569318817041 0.013190519841444859 0 0.28599902287911799 0.0063808067141136113 0 0.28851177169426301 -0.0027103182415398122 0 0.29392569318817041 0.013190519841444859 0 0.29655392147865089 -0.010608698320414009 0 0.28599902287911799 0.0063808067141136113 0 0.27962795318574779 0.0152252199111742 0 0.28075668783632107 -0.00080087917984299206 0 0.29392569318817041 0.013190519841444859 0 0.28851177169426301 -0.0027103182415398122 0 0.29392569318817041 0.013190519841444859 0 0.28599902287911799 0.0063808067141136113 0 0.27962795318574779 0.0152252199111742 0 0.28599902287911799 0.0063808067141136113 0 0.28075668783632107 -0.00080087917984299206 0 0.28851177169426301 -0.0027103182415398122 0 0.27646982604050407 0.01130549391286018 0 0.27962795318574779 0.0152252199111742 0 0.28075668783632107 -0.00080087917984299206 0 0.27962795318574779 0.0152252199111742 0 0.28075668783632107 -0.00080087917984299206 0 0.27022478629405028 0.00033251994572997679 0 0.27646982604050407 0.01130549391286018 0 0.25856415010120698 0.017492018162320051 0 0.27022478629405028 0.00033251994572997679 0 0.27646982604050407 0.01130549391286018 0 0.28075668783632107 -0.00080087917984299206 0 0.27646982604050407 0.01130549391286018 0 0.27962795318574779 0.0152252199111742 0 0.27962795318574779 0.0152252199111742 0 0.27821920692308971 0.035227004376671499 0 0.27962795318574779 0.0152252199111742 0 0.27011968396887542 0.020694740476186978 0 0.27821920692308971 0.035227004376671499 0 0.27646982604050407 0.01130549391286018 0 0.27011968396887542 0.020694740476186978 0 0.25856415010120698 0.017492018162320051 0 0.27646982604050407 0.01130549391286018 0 0.27962795318574779 0.0152252199111742 0 0.27011968396887542 0.020694740476186978 0 0.27011968396887542 0.020694740476186978 0 0.26416276881798811 0.03078044149770047 0 0.27821920692308971 0.035227004376671499 0 0.24690351390836071 0.03465151637890812 0 0.25856415010120698 0.017492018162320051 0 0.24690351390836071 0.03465151637890812 0 0.25856415010120698 0.017492018162320051 0 0.2514278043575876 0.013096146282630261 0 0.24690351390836071 0.03465151637890812 0 0.26416276881798811 0.03078044149770047 0 0.25856415010120698 0.017492018162320051 0 0.27011968396887542 0.020694740476186978 0 0.26416276881798811 0.03078044149770047 0 0.25856415010120698 0.017492018162320051 0 0.27022478629405028 0.00033251994572997679 0 0.25856415010120698 0.017492018162320051 0 0.25663693095762091 0.0022784280376400498 0 0.27022478629405028 0.00033251994572997679 0 0.25856415010120698 0.017492018162320051 0 0.2514278043575876 0.013096146282630261 0 0.25663693095762091 0.0022784280376400498 0 0.24658817508467629 -0.0044264657669183492 0 0.25856415010120698 0.017492018162320051 0 0.2514278043575876 0.013096146282630261 0 0.25663693095762091 0.0022784280376400498 0 0.28153514842293992 0.047733821333239612 0 0.27380649228711851 0.057426450499420877 0 0.26240461436128631 0.043468736824246047 0 0.28735428736197333 0.058330326641594279 0 0.27380649228711851 0.057426450499420877 0 0.27877474857665768 0.071363835249789592 0 0.28153514842293992 0.047733821333239612 0 0.28735428736197333 0.058330326641594279 0 0.27380649228711851 0.057426450499420877 0 0.26416276881798811 0.03078044149770047 0 0.27821920692308971 0.035227004376671499 0 0.26240461436128631 0.043468736824246047 0 0.28153514842293992 0.047733821333239612 0 0.27821920692308971 0.035227004376671499 0 0.26240461436128631 0.043468736824246047 0 0.24690351390836071 0.03465151637890812 0 0.26416276881798811 0.03078044149770047 0 0.26240461436128631 0.043468736824246047 0 0.24690351390836071 0.03465151637890812 0 0.26240461436128631 0.043468736824246047 0 0.25658949859462632 0.062019955848455592 0 0.24690351390836071 0.03465151637890812 0 0.25658949859462632 0.062019955848455592 0 0.27380649228711851 0.057426450499420877 0 0.26240461436128631 0.043468736824246047 0 0.25658949859462632 0.062019955848455592 0 0.24278017553260481 0.080200034452542368 0 0.25658949859462632 0.062019955848455592 0 0.26627548328089762 0.089388395318001107 0 0.25658949859462632 0.062019955848455592 0 0.26627548328089762 0.089388395318001107 0 0.24278017553260481 0.080200034452542368 0 0.26627548328089762 0.089388395318001107 0 0.25046480317450609 0.099576550146509457 0 0.26627548328089762 0.089388395318001107 0 0.29016876784760592 0.081803375084606639 0 0.28547335194628343 0.099316939557467412 0 0.26627548328089762 0.089388395318001107 0 0.27877474857665768 0.071363835249789592 0 0.29016876784760592 0.081803375084606639 0 0.27380649228711851 0.057426450499420877 0 0.25658949859462632 0.062019955848455592 0 0.27877474857665768 0.071363835249789592 0 0.25658949859462632 0.062019955848455592 0 0.26627548328089762 0.089388395318001107 0 0.27877474857665768 0.071363835249789592 0 0.28735428736197333 0.058330326641594279 0 0.27877474857665768 0.071363835249789592 0 0.29338716920499208 0.067392230599858438 0 0.29338716920499208 0.067392230599858438 0 0.29016876784760592 0.081803375084606639 0 0.30205737731517868 0.074604932749378891 0 0.27877474857665768 0.071363835249789592 0 0.29338716920499208 0.067392230599858438 0 0.29016876784760592 0.081803375084606639 0 0.29016876784760592 0.081803375084606639 0 0.30956566698827459 0.093714742915960714 0 0.28547335194628343 0.099316939557467412 0 0.31295713744829701 0.067430129264832009 0 0.30956566698827459 0.093714742915960714 0 0.30205737731517868 0.074604932749378891 0 0.29016876784760592 0.081803375084606639 0 0.30956566698827459 0.093714742915960714 0 0.30205737731517868 0.074604932749378891 0 0.31295713744829701 0.067430129264832009 0 0.30956566698827459 0.093714742915960714 0 0.3181161479422453 0.062995043821679364 0 0.31295713744829701 0.067430129264832009 0 0.30420814508672411 0.062684185881636698 0 0.31295713744829701 0.067430129264832009 0 0.30420814508672411 0.062684185881636698 0 0.30205737731517868 0.074604932749378891 0 0.29338716920499208 0.067392230599858438 0 0.30420814508672411 0.062684185881636698 0 0.30205737731517868 0.074604932749378891 0 0.29614319521668597 0.057899373716453859 0 0.29338716920499208 0.067392230599858438 0 0.30420814508672411 0.062684185881636698 0 0.30617419652825228 0.11999935656708929 0 0.29921134493793289 0.1061260247273874 0 0.29106783224771232 0.1183780956773144 0 0.30617419652825228 0.11999935656708929 0 0.29106783224771232 0.1183780956773144 0 0.30617419652825228 0.11999935656708929 0 0.29106783224771232 0.1183780956773144 0 0.29774942506372148 0.1273099026202866 0 0.30956566698827459 0.093714742915960714 0 0.30617419652825228 0.11999935656708929 0 0.30956566698827459 0.093714742915960714 0 0.30617419652825228 0.11999935656708929 0 0.29921134493793289 0.1061260247273874 0 0.31863466888307179 0.10982505124397141 0 0.30956566698827459 0.093714742915960714 0 0.30617419652825228 0.11999935656708929 0 0.30956566698827459 0.093714742915960714 0 0.29921134493793289 0.1061260247273874 0 0.28547335194628343 0.099316939557467412 0 0.29921134493793289 0.1061260247273874 0 0.28547335194628343 0.099316939557467412 0 0.29106783224771232 0.1183780956773144 0 0.29106783224771232 0.1183780956773144 0 0.27596146796717169 0.11675683478754539 0 0.28360824649164429 0.13836335203516911 0 0.28547335194628343 0.099316939557467412 0 0.29106783224771232 0.1183780956773144 0 0.27596146796717169 0.11675683478754539 0 0.29106783224771232 0.1183780956773144 0 0.27596146796717169 0.11675683478754539 0 0.27596146796717169 0.11675683478754539 0 0.26623931548108021 0.1157134238583815 0 0.27596146796717169 0.11675683478754539 0 0.26623931548108021 0.1157134238583815 0 0.26900013518978511 0.12784910767911339 0 0.26627548328089762 0.089388395318001107 0 0.27596146796717169 0.11675683478754539 0 0.26627548328089762 0.089388395318001107 0 0.27596146796717169 0.11675683478754539 0 0.26623931548108021 0.1157134238583815 0 0.26627548328089762 0.089388395318001107 0 0.28547335194628343 0.099316939557467412 0 0.27596146796717169 0.11675683478754539 0 0.26627548328089762 0.089388395318001107 0 0.26623931548108021 0.1157134238583815 0 0.25046480317450609 0.099576550146509457 0 0.2469437854187965 0.1182968448211616 0 0.26623931548108021 0.1157134238583815 0 0.25046480317450609 0.099576550146509457 0 0.2469437854187965 0.1182968448211616 0 0.26623931548108021 0.1157134238583815 0 0.26900013518978511 0.12784910767911339 0 0.2469437854187965 0.1182968448211616 0 0.261308773507689 0.13900998603117909 0 0.2469437854187965 0.1182968448211616 0 0.261308773507689 0.13900998603117909 0 0.26900013518978511 0.12784910767911339 0 0.27596146796717169 0.11675683478754539 0 0.26900013518978511 0.12784910767911339 0 0.28360824649164429 0.13836335203516911 0 0.27596146796717169 0.11675683478754539 0 0.28360824649164429 0.13836335203516911 0 0.261308773507689 0.13900998603117909 0 0.26900013518978511 0.12784910767911339 0 0.28360824649164429 0.13836335203516911 0 0.26761846278292961 0.14957165619529539 0 0.29125502501612072 0.15996986928279139 0 0.28360824649164429 0.13836335203516911 0 0.26761846278292961 0.14957165619529539 0 0.29125502501612072 0.15996986928279139 0 0.261308773507689 0.13900998603117909 0 0.26761846278292961 0.14957165619529539 0 0.28360824649164429 0.13836335203516911 0 0.2496601512483185 0.1601743804363345 0 0.24398190054973831 0.1391734431077998 0 0.26761846278292961 0.14957165619529539 0 0.24398190054973831 0.1391734431077998 0 0.261308773507689 0.13900998603117909 0 0.26761846278292961 0.14957165619529539 0 0.24398190054973831 0.1391734431077998 0 0.26761846278292961 0.14957165619529539 0 0.2496601512483185 0.1601743804363345 0 0.26761846278292961 0.14957165619529539 0 0.27153749023164481 0.16468553668445679 0 0.2496601512483185 0.1601743804363345 0 0.26561905106339978 0.18031868513825761 0 0.27153749023164481 0.16468553668445679 0 0.24232717449122229 0.1754176844194309 0 0.2496601512483185 0.1601743804363345 0 0.26561905106339978 0.18031868513825761 0 0.24232717449122229 0.1754176844194309 0 0.26561905106339978 0.18031868513825761 0 0.25498475944591098 0.19595034648853779 0 0.26561905106339978 0.18031868513825761 0 0.27153749023164481 0.16468553668445679 0 0.28290872012197987 0.1766608699765134 0 0.26561905106339978 0.18031868513825761 0 0.28290872012197987 0.1766608699765134 0 0.28213234647267321 0.1990855666895609 0 0.26761846278292961 0.14957165619529539 0 0.27153749023164481 0.16468553668445679 0 0.29125502501612072 0.15996986928279139 0 0.29610760005021858 0.16210461750589569 0 0.29125502501612072 0.15996986928279139 0 0.29891499984271908 0.18161367362177269 0 0.27153749023164481 0.16468553668445679 0 0.29125502501612072 0.15996986928279139 0 0.28290872012197987 0.1766608699765134 0 0.29125502501612072 0.15996986928279139 0 0.29891499984271908 0.18161367362177269 0 0.29610760005021858 0.16210461750589569 0 0.29125502501612072 0.15996986928279139 0 0.3019110527126897 0.15303962315709241 0 0.29610760005021858 0.16210461750589569 0 0.29125502501612072 0.15996986928279139 0 0.29125502501612072 0.15996986928279139 0 0.28290872012197987 0.1766608699765134 0 0.29891499984271908 0.18161367362177269 0 0.28290872012197987 0.1766608699765134 0 0.29891499984271908 0.18161367362177269 0 0.28213234647267321 0.1990855666895609 0 0.29891499984271908 0.18161367362177269 0 0.317385576540683 0.17105984049381551 0 0.31802701393168459 0.18711683544866131 0 0.29891499984271908 0.18161367362177269 0 0.3074098664273846 0.16295018617686219 0 0.317385576540683 0.17105984049381551 0 0.29610760005021858 0.16210461750589569 0 0.29891499984271908 0.18161367362177269 0 0.3074098664273846 0.16295018617686219 0 0.29610760005021858 0.16210461750589569 0 0.3074098664273846 0.16295018617686219 0 0.3019110527126897 0.15303962315709241 0 0.30404262462047099 0.13651948986209089 0 0.31840750924161698 0.13568310263290431 0 0.31479636845985631 0.15215962389594881 0 0.3074098664273846 0.16295018617686219 0 0.3019110527126897 0.15303962315709241 0 0.31479636845985631 0.15215962389594881 0 0.3019110527126897 0.15303962315709241 0 0.30404262462047099 0.13651948986209089 0 0.31479636845985631 0.15215962389594881 0 0.3019110527126897 0.15303962315709241 0 0.30404262462047099 0.13651948986209089 0 0.30617419652825228 0.11999935656708929 0 0.30404262462047099 0.13651948986209089 0 0.31840750924161698 0.13568310263290431 0 0.30617419652825228 0.11999935656708929 0 0.30404262462047099 0.13651948986209089 0 0.30617419652825228 0.11999935656708929 0 0.30404262462047099 0.13651948986209089 0 0.29774942506372148 0.1273099026202866 0 0.29106783224771232 0.1183780956773144 0 0.29774942506372148 0.1273099026202866 0 0.28360824649164429 0.13836335203516911 0 0.30404262462047099 0.13651948986209089 0 0.29774942506372148 0.1273099026202866 0 0.28360824649164429 0.13836335203516911 0 0.3019110527126897 0.15303962315709241 0 0.30404262462047099 0.13651948986209089 0 0.28360824649164429 0.13836335203516911 0 0.29125502501612072 0.15996986928279139 0 0.3019110527126897 0.15303962315709241 0 0.28360824649164429 0.13836335203516911 0 0.29125502501612072 0.15996986928279139 0 0.28360824649164429 0.13836335203516911 0 0.27015936728998008 0.24937023260028501 0 0.25941888381920158 0.23540832826924099 0 0.27614585688132659 0.22422789964492301 0 0.27015936728998008 0.24937023260028501 0 0.27614585688132659 0.22422789964492301 0 0.28677752459831068 0.24004321204513401 0 0.27015936728998008 0.24937023260028501 0 0.27614585688132659 0.22422789964492301 0 0.24267178507654771 0.24534256314771391 0 0.25592753825363612 0.26144580776214171 0 0.25941888381920158 0.23540832826924099 0 0.25592753825363612 0.26144580776214171 0 0.27015936728998008 0.24937023260028501 0 0.25941888381920158 0.23540832826924099 0 0.24605056247769441 0.22571276935411971 0 0.25941888381920158 0.23540832826924099 0 0.2636457617205169 0.21510687605373599 0 0.25941888381920158 0.23540832826924099 0 0.27614585688132659 0.22422789964492301 0 0.2636457617205169 0.21510687605373599 0 0.2636457617205169 0.21510687605373599 0 0.26706066248632698 0.19923891791844131 0 0.28213234647267321 0.1990855666895609 0 0.27614585688132659 0.22422789964492301 0 0.28213234647267321 0.1990855666895609 0 0.27614585688132659 0.22422789964492301 0 0.2636457617205169 0.21510687605373599 0 0.28213234647267321 0.1990855666895609 0 0.2636457617205169 0.21510687605373599 0 0.25498475944591098 0.19595034648853779 0 0.26706066248632698 0.19923891791844131 0 0.23578658204027469 0.20797837169832531 0 0.2636457617205169 0.21510687605373599 0 0.25498475944591098 0.19595034648853779 0 0.26561905106339978 0.18031868513825761 0 0.25498475944591098 0.19595034648853779 0 0.26706066248632698 0.19923891791844131 0 0.26561905106339978 0.18031868513825761 0 0.26706066248632698 0.19923891791844131 0 0.28213234647267321 0.1990855666895609 0 0.29891499984271908 0.18161367362177269 0 0.28213234647267321 0.1990855666895609 0 0.30657497466931838 0.20325747796075391 0 0.29891499984271908 0.18161367362177269 0 0.30657497466931838 0.20325747796075391 0 0.29891499984271908 0.18161367362177269 0 0.30657497466931838 0.20325747796075391 0 0.31802701393168459 0.18711683544866131 0 0.30657497466931838 0.20325747796075391 0 0.29355037182139798 0.21692042320800131 0 0.30604873670566701 0.22878891677972499 0 0.28213234647267321 0.1990855666895609 0 0.30657497466931838 0.20325747796075391 0 0.29355037182139798 0.21692042320800131 0 0.27614585688132659 0.22422789964492301 0 0.28213234647267321 0.1990855666895609 0 0.29355037182139798 0.21692042320800131 0 0.29355037182139798 0.21692042320800131 0 0.30604873670566701 0.22878891677972499 0 0.28677752459831068 0.24004321204513401 0 0.27614585688132659 0.22422789964492301 0 0.29355037182139798 0.21692042320800131 0 0.28677752459831068 0.24004321204513401 0 0.30604873670566701 0.22878891677972499 0 0.30141958038718097 0.2498623262112846 0 0.32460622040201781 0.24146419014174819 0 0.30604873670566701 0.22878891677972499 0 0.30141958038718097 0.2498623262112846 0 0.28677752459831068 0.24004321204513401 0 0.34255136898080701 0.25141816667302591 0 0.32460622040201781 0.24146419014174819 0 0.34578957887928907 0.23645753475347969 0 0.30604873670566701 0.22878891677972499 0 0.32460622040201781 0.24146419014174819 0 0.32842462141529599 0.22169135091397879 0 0.32460622040201781 0.24146419014174819 0 0.32842462141529599 0.22169135091397879 0 0.34578957887928907 0.23645753475347969 0 0.32842462141529599 0.22169135091397879 0 0.3507316892092267 0.2210928405563056 0 0.34578957887928907 0.23645753475347969 0 0.32842462141529599 0.22169135091397879 0 0.33278584567692271 0.19846564740046271 0 0.3507316892092267 0.2210928405563056 0 0.33278584567692271 0.19846564740046271 0 0.3465339543187676 0.19629810241635531 0 0.3507316892092267 0.2210928405563056 0 0.33278584567692271 0.19846564740046271 0 0.3507316892092267 0.2210928405563056 0 0.30657497466931838 0.20325747796075391 0 0.30604873670566701 0.22878891677972499 0 0.32842462141529599 0.22169135091397879 0 0.30657497466931838 0.20325747796075391 0 0.32842462141529599 0.22169135091397879 0 0.33278584567692271 0.19846564740046271 0 0.30657497466931838 0.20325747796075391 0 0.33278584567692271 0.19846564740046271 0 0.31802701393168459 0.18711683544866131 0 0.33278584567692271 0.19846564740046271 0 0.31802701393168459 0.18711683544866131 0 0.33761606096116897 0.18025487896735701 0 0.33278584567692271 0.19846564740046271 0 0.3465339543187676 0.19629810241635531 0 0.33761606096116897 0.18025487896735701 0 0.3465339543187676 0.19629810241635531 0 0.35648504620229893 0.204528950413565 0 0.35748060738235959 0.18702259638746149 0 0.3465339543187676 0.19629810241635531 0 0.33761606096116897 0.18025487896735701 0 0.35748060738235959 0.18702259638746149 0 0.37162589412378788 0.1955220697390643 0 0.35748060738235959 0.18702259638746149 0 0.36353803772050519 0.18673070788269411 0 0.37197260650003139 0.21275081451938749 0 0.35748060738235959 0.18702259638746149 0 0.37197260650003139 0.21275081451938749 0 0.35648504620229893 0.204528950413565 0 0.35748060738235959 0.18702259638746149 0 0.37162589412378788 0.1955220697390643 0 0.37197260650003139 0.21275081451938749 0 0.35748060738235959 0.18702259638746149 0 0.37162589412378788 0.1955220697390643 0 0.36353803772050519 0.18673070788269411 0 0.3794255738021633 0.1848091316752451 0 0.37197260650003139 0.21275081451938749 0 0.35648504620229893 0.204528950413565 0 0.3507316892092267 0.2210928405563056 0 0.3465339543187676 0.19629810241635531 0 0.35648504620229893 0.204528950413565 0 0.3507316892092267 0.2210928405563056 0 0.3507316892092267 0.2210928405563056 0 0.36867753274152998 0.2437200337121492 0 0.34578957887928907 0.23645753475347969 0 0.3507316892092267 0.2210928405563056 0 0.36867753274152998 0.2437200337121492 0 0.37197260650003139 0.21275081451938749 0 0.3507316892092267 0.2210928405563056 0 0.36867753274152998 0.2437200337121492 0 0.34255136898080701 0.25141816667302591 0 0.36867753274152998 0.2437200337121492 0 0.34255136898080701 0.25141816667302591 0 0.36867753274152998 0.2437200337121492 0 0.34578957887928907 0.23645753475347969 0 0.33509264124789412 0.14949881678801619 0 0.3429886082646878 0.1612943782555353 0 0.34535748838186853 0.1420243461637814 0 0.33509264124789412 0.14949881678801619 0 0.33267322152308371 0.1364479754365745 0 0.32576738647532277 0.14689163513879819 0 0.33509264124789412 0.14949881678801619 0 0.32576738647532277 0.14689163513879819 0 0.32867650159450801 0.1608357489453916 0 0.33509264124789412 0.14949881678801619 0 0.33267322152308371 0.1364479754365745 0 0.34535748838186853 0.1420243461637814 0 0.3272902338154613 0.12226559381418931 0 0.34840627110267042 0.12453183106128821 0 0.33267322152308371 0.1364479754365745 0 0.34840627110267042 0.12453183106128821 0 0.33267322152308371 0.1364479754365745 0 0.34535748838186853 0.1420243461637814 0 0.33267322152308371 0.1364479754365745 0 0.31840750924161698 0.13568310263290431 0 0.32576738647532277 0.14689163513879819 0 0.3272902338154613 0.12226559381418931 0 0.30617419652825228 0.11999935656708929 0 0.31840750924161698 0.13568310263290431 0 0.3272902338154613 0.12226559381418931 0 0.33267322152308371 0.1364479754365745 0 0.31840750924161698 0.13568310263290431 0 0.31840750924161698 0.13568310263290431 0 0.32576738647532277 0.14689163513879819 0 0.31479636845985631 0.15215962389594881 0 0.32576738647532277 0.14689163513879819 0 0.31479636845985631 0.15215962389594881 0 0.32867650159450801 0.1608357489453916 0 0.31479636845985631 0.15215962389594881 0 0.317385576540683 0.17105984049381551 0 0.32867650159450801 0.1608357489453916 0 0.3074098664273846 0.16295018617686219 0 0.31479636845985631 0.15215962389594881 0 0.317385576540683 0.17105984049381551 0 0.317385576540683 0.17105984049381551 0 0.33761606096116897 0.18025487896735701 0 0.32867650159450801 0.1608357489453916 0 0.317385576540683 0.17105984049381551 0 0.31802701393168459 0.18711683544866131 0 0.33761606096116897 0.18025487896735701 0 0.33761606096116897 0.18025487896735701 0 0.32867650159450801 0.1608357489453916 0 0.3429886082646878 0.1612943782555353 0 0.33509264124789412 0.14949881678801619 0 0.32867650159450801 0.1608357489453916 0 0.3429886082646878 0.1612943782555353 0 0.3429886082646878 0.1612943782555353 0 0.35876621756828603 0.16614104753777881 0 0.36033570781915042 0.15577756405565341 0 0.3429886082646878 0.1612943782555353 0 0.35876621756828603 0.16614104753777881 0 0.35968186484320641 0.17530226704555321 0 0.3429886082646878 0.1612943782555353 0 0.35748060738235959 0.18702259638746149 0 0.33761606096116897 0.18025487896735701 0 0.3429886082646878 0.1612943782555353 0 0.35748060738235959 0.18702259638746149 0 0.3429886082646878 0.1612943782555353 0 0.35748060738235959 0.18702259638746149 0 0.35968186484320641 0.17530226704555321 0 0.36353803772050519 0.18673070788269411 0 0.35968186484320641 0.17530226704555321 0 0.37469017008498212 0.1668922110212373 0 0.36353803772050519 0.18673070788269411 0 0.37469017008498212 0.1668922110212373 0 0.3794255738021633 0.1848091316752451 0 0.36353803772050519 0.18673070788269411 0 0.37469017008498212 0.1668922110212373 0 0.35748060738235959 0.18702259638746149 0 0.36353803772050519 0.18673070788269411 0 0.35968186484320641 0.17530226704555321 0 0.35876621756828603 0.16614104753777881 0 0.35968186484320641 0.17530226704555321 0 0.37469017008498212 0.1668922110212373 0 0.35876621756828603 0.16614104753777881 0 0.37469017008498212 0.1668922110212373 0 0.36033570781915042 0.15577756405565341 0 0.37469017008498212 0.1668922110212373 0 0.3744329764696217 0.15222713011972841 0 0.36033570781915042 0.15577756405565341 0 0.3744329764696217 0.15222713011972841 0 0.36555139679212822 0.14447883584191831 0 0.36033570781915042 0.15577756405565341 0 0.3429886082646878 0.1612943782555353 0 0.36033570781915042 0.15577756405565341 0 0.34535748838186853 0.1420243461637814 0 0.36555139679212822 0.14447883584191831 0 0.36033570781915042 0.15577756405565341 0 0.34535748838186853 0.1420243461637814 0 0.36555139679212822 0.14447883584191831 0 0.34535748838186853 0.1420243461637814 0 0.34840627110267042 0.12453183106128821 0 0.36952230838987887 0.12679806830839299 0 0.36555139679212822 0.14447883584191831 0 0.34535748838186853 0.1420243461637814 0 0.35646369780484127 0.1349481104002464 0 0.34840627110267042 0.12453183106128821 0 0.35646369780484127 0.1349481104002464 0 0.36952230838987887 0.12679806830839299 0 0.34840627110267042 0.12453183106128821 0 0.34535748838186853 0.1420243461637814 0 0.35646369780484127 0.1349481104002464 0 0.36555139679212822 0.14447883584191831 0 0.35646369780484127 0.1349481104002464 0 0.36952230838987887 0.12679806830839299 0 0.36555139679212822 0.14447883584191831 0 0.36952230838987887 0.12679806830839299 0 0.38589944649168489 0.1469520607839695 0 0.36952230838987887 0.12679806830839299 0 0.38589944649168489 0.1469520607839695 0 0.36952230838987887 0.12679806830839299 0 0.39565246900457679 0.12960243649794129 0 0.38589944649168489 0.1469520607839695 0 0.36952230838987887 0.12679806830839299 0 0.39565246900457679 0.12960243649794129 0 0.39565246900457679 0.12960243649794129 0 0.40557878553122179 0.1306677589319383 0 0.38589944649168489 0.1469520607839695 0 0.39565246900457679 0.12960243649794129 0 0.38589944649168489 0.1469520607839695 0 0.39565246900457679 0.12960243649794129 0 0.40557878553122179 0.1306677589319383 0 0.39565246900457679 0.12960243649794129 0 0.40557878553122179 0.1306677589319383 0 0.41112921050137152 0.1215368281175596 0 0.40408745757620651 0.15354396667418771 0 0.38589944649168489 0.1469520607839695 0 0.4007168895654345 0.16551538563508211 0 0.40408745757620651 0.15354396667418771 0 0.38589944649168489 0.1469520607839695 0 0.40968812335881272 0.1498434803467743 0 0.38589944649168489 0.1469520607839695 0 0.4007168895654345 0.16551538563508211 0 0.40557878553122179 0.1306677589319383 0 0.38589944649168489 0.1469520607839695 0 0.40968812335881272 0.1498434803467743 0 0.38589944649168489 0.1469520607839695 0 0.40968812335881272 0.1498434803467743 0 0.37469017008498212 0.1668922110212373 0 0.3744329764696217 0.15222713011972841 0 0.38589944649168489 0.1469520607839695 0 0.3744329764696217 0.15222713011972841 0 0.36555139679212822 0.14447883584191831 0 0.38589944649168489 0.1469520607839695 0 0.36555139679212822 0.14447883584191831 0 0.38589944649168489 0.1469520607839695 0 0.37469017008498212 0.1668922110212373 0 0.38589944649168489 0.1469520607839695 0 0.38627540884315092 0.163585040223963 0 0.37469017008498212 0.1668922110212373 0 0.38627540884315092 0.163585040223963 0 0.3794255738021633 0.1848091316752451 0 0.38627540884315092 0.163585040223963 0 0.3794255738021633 0.1848091316752451 0 0.4007168895654345 0.16551538563508211 0 0.37469017008498212 0.1668922110212373 0 0.38589944649168489 0.1469520607839695 0 0.3794255738021633 0.1848091316752451 0 0.4007168895654345 0.16551538563508211 0 0.39951434489356069 0.18358385750802689 0 0.4007168895654345 0.16551538563508211 0 0.41225503088609661 0.17983600998832461 0 0.3794255738021633 0.1848091316752451 0 0.39951434489356069 0.18358385750802689 0 0.4007168895654345 0.16551538563508211 0 0.39951434489356069 0.18358385750802689 0 0.41225503088609661 0.17983600998832461 0 0.40701962503485822 0.19015860112854599 0 0.38589944649168489 0.1469520607839695 0 0.38627540884315092 0.163585040223963 0 0.4007168895654345 0.16551538563508211 0 0.4007168895654345 0.16551538563508211 0 0.40865225181873721 0.15832452595528529 0 0.40408745757620651 0.15354396667418771 0 0.4007168895654345 0.16551538563508211 0 0.40865225181873721 0.15832452595528529 0 0.4007168895654345 0.16551538563508211 0 0.41254482147892751 0.1624010864808271 0 0.41225503088609661 0.17983600998832461 0 0.4007168895654345 0.16551538563508211 0 0.40865225181873721 0.15832452595528529 0 0.41254482147892751 0.1624010864808271 0 0.41254482147892751 0.1624010864808271 0 0.42766940498199663 0.178240566684472 0 0.40865225181873721 0.15832452595528529 0 0.41111066657294221 0.1560967618069177 0 0.41254482147892751 0.1624010864808271 0 0.41806800327243859 0.15782934332024609 0 0.41111066657294221 0.1560967618069177 0 0.40865225181873721 0.15832452595528529 0 0.41254482147892751 0.1624010864808271 0 0.41111066657294221 0.1560967618069177 0 0.41254482147892751 0.1624010864808271 0 0.41111066657294221 0.1560967618069177 0 0.40865225181873721 0.15832452595528529 0 0.41254482147892751 0.1624010864808271 0 0.41806800327243859 0.15782934332024609 0 0.42606297550892153 0.16090119628894151 0 0.41702701181973723 0.15073549320582169 0 0.41254482147892751 0.1624010864808271 0 0.41806800327243859 0.15782934332024609 0 0.42606297550892153 0.16090119628894151 0 0.41254482147892751 0.1624010864808271 0 0.41225503088609661 0.17983600998832461 0 0.41809320929504001 0.18679094706258009 0 0.41254482147892751 0.1624010864808271 0 0.41809320929504001 0.18679094706258009 0 0.41254482147892751 0.1624010864808271 0 0.41809320929504001 0.18679094706258009 0 0.42766940498199663 0.178240566684472 0 0.41225503088609661 0.17983600998832461 0 0.41809320929504001 0.18679094706258009 0 0.40701962503485822 0.19015860112854599 0 0.4007168895654345 0.16551538563508211 0 0.41225503088609661 0.17983600998832461 0 0.42766940498199663 0.178240566684472 0 0.44279398848506502 0.19408004688811761 0 0.44139161670076782 0.17910654547062199 0 0.42766940498199663 0.178240566684472 0 0.44279398848506502 0.19408004688811761 0 0.41809320929504001 0.18679094706258009 0 0.42766940498199663 0.178240566684472 0 0.43032165181667892 0.1908487424795102 0 0.42766940498199663 0.178240566684472 0 0.43502378429937388 0.1685492373306649 0 0.44139161670076782 0.17910654547062199 0 0.42766940498199663 0.178240566684472 0 0.42606297550892153 0.16090119628894151 0 0.43502378429937388 0.1685492373306649 0 0.41254482147892751 0.1624010864808271 0 0.42766940498199663 0.178240566684472 0 0.42606297550892153 0.16090119628894151 0 0.42606297550892153 0.16090119628894151 0 0.43502378429937388 0.1685492373306649 0 0.43727106683643391 0.15319607800558449 0 0.42606297550892153 0.16090119628894151 0 0.43727106683643391 0.15319607800558449 0 0.41702701181973723 0.15073549320582169 0 0.43727106683643391 0.15319607800558449 0 0.43635102059386183 0.13322447970570819 0 0.41702701181973723 0.15073549320582169 0 0.43727106683643391 0.15319607800558449 0 0.41702701181973723 0.15073549320582169 0 0.43635102059386183 0.13322447970570819 0 0.41702701181973723 0.15073549320582169 0 0.424541945075742 0.13270294280180731 0 0.43635102059386183 0.13322447970570819 0 0.42930227882074162 0.11666279637260479 0 0.424541945075742 0.13270294280180731 0 0.43635102059386183 0.13322447970570819 0 0.41702701181973723 0.15073549320582169 0 0.40557878553122179 0.1306677589319383 0 0.424541945075742 0.13270294280180731 0 0.41470709036441622 0.13918651104923799 0 0.40557878553122179 0.1306677589319383 0 0.41470709036441622 0.13918651104923799 0 0.40968812335881272 0.1498434803467743 0 0.40557878553122179 0.1306677589319383 0 0.40968812335881272 0.1498434803467743 0 0.40557878553122179 0.1306677589319383 0 0.424541945075742 0.13270294280180731 0 0.40557878553122179 0.1306677589319383 0 0.424541945075742 0.13270294280180731 0 0.41112921050137152 0.1215368281175596 0 0.424541945075742 0.13270294280180731 0 0.41470709036441622 0.13918651104923799 0 0.41702701181973723 0.15073549320582169 0 0.41470709036441622 0.13918651104923799 0 0.40968812335881272 0.1498434803467743 0 0.41702701181973723 0.15073549320582169 0 0.40408745757620651 0.15354396667418771 0 0.40865225181873721 0.15832452595528529 0 0.40408745757620651 0.15354396667418771 0 0.40865225181873721 0.15832452595528529 0 0.41111066657294221 0.1560967618069177 0 0.40408745757620651 0.15354396667418771 0 0.40968812335881272 0.1498434803467743 0 0.41111066657294221 0.1560967618069177 0 0.40968812335881272 0.1498434803467743 0 0.41111066657294221 0.1560967618069177 0 0.41111066657294221 0.1560967618069177 0 0.41702701181973723 0.15073549320582169 0 0.40968812335881272 0.1498434803467743 0 0.41702701181973723 0.15073549320582169 0 0.40968812335881272 0.1498434803467743 0 0.41111066657294221 0.1560967618069177 0 0.41702701181973723 0.15073549320582169 0 0.41806800327243859 0.15782934332024609 0 0.41111066657294221 0.1560967618069177 0 0.41702701181973723 0.15073549320582169 0 0.39638521663416892 0.25609148502321438 0 0.38646460561770302 0.23847903265131409 0 0.39638521663416892 0.25609148502321438 0 0.40242704521440198 0.24330877769807219 0 0.38646460561770302 0.23847903265131409 0 0.39638521663416892 0.25609148502321438 0 0.40242704521440198 0.24330877769807219 0 0.41240040989541538 0.2484338620203948 0 0.40242704521440198 0.24330877769807219 0 0.38646460561770302 0.23847903265131409 0 0.41445794871032082 0.23023073109736539 0 0.36867753274152998 0.2437200337121492 0 0.38646460561770302 0.23847903265131409 0 0.38294953736987891 0.26171503098633109 0 0.36867753274152998 0.2437200337121492 0 0.38646460561770302 0.23847903265131409 0 0.37197260650003139 0.21275081451938749 0 0.38646460561770302 0.23847903265131409 0 0.37197260650003139 0.21275081451938749 0 0.36867753274152998 0.2437200337121492 0 0.38646460561770302 0.23847903265131409 0 0.37197260650003139 0.21275081451938749 0 0.38646460561770302 0.23847903265131409 0 0.39561847005712381 0.21799375785273761 0 0.38646460561770302 0.23847903265131409 0 0.41445794871032082 0.23023073109736539 0 0.38646460561770302 0.23847903265131409 0 0.39561847005712381 0.21799375785273761 0 0.41445794871032082 0.23023073109736539 0 0.39561847005712381 0.21799375785273761 0 0.398154605179251 0.1976001591129366 0 0.41028098722501283 0.20485490451691829 0 0.39561847005712381 0.21799375785273761 0 0.38335942993247141 0.20173518657987419 0 0.398154605179251 0.1976001591129366 0 0.37197260650003139 0.21275081451938749 0 0.39561847005712381 0.21799375785273761 0 0.38335942993247141 0.20173518657987419 0 0.37162589412378788 0.1955220697390643 0 0.37197260650003139 0.21275081451938749 0 0.38335942993247141 0.20173518657987419 0 0.37162589412378788 0.1955220697390643 0 0.3794255738021633 0.1848091316752451 0 0.38335942993247141 0.20173518657987419 0 0.3794255738021633 0.1848091316752451 0 0.38335942993247141 0.20173518657987419 0 0.398154605179251 0.1976001591129366 0 0.3794255738021633 0.1848091316752451 0 0.39951434489356069 0.18358385750802689 0 0.398154605179251 0.1976001591129366 0 0.398154605179251 0.1976001591129366 0 0.40701962503485822 0.19015860112854599 0 0.41028098722501283 0.20485490451691829 0 0.39951434489356069 0.18358385750802689 0 0.398154605179251 0.1976001591129366 0 0.40701962503485822 0.19015860112854599 0 0.41809320929504001 0.18679094706258009 0 0.42364159711115329 0.21118080764433289 0 0.41028098722501283 0.20485490451691829 0 0.41809320929504001 0.18679094706258009 0 0.42364159711115329 0.21118080764433289 0 0.41809320929504001 0.18679094706258009 0 0.40701962503485822 0.19015860112854599 0 0.41028098722501283 0.20485490451691829 0 0.43032165181667892 0.1908487424795102 0 0.43439381360418572 0.201922657305935 0 0.42364159711115329 0.21118080764433289 0 0.41809320929504001 0.18679094706258009 0 0.43032165181667892 0.1908487424795102 0 0.42364159711115329 0.21118080764433289 0 0.42766940498199663 0.178240566684472 0 0.43032165181667892 0.1908487424795102 0 0.44279398848506502 0.19408004688811761 0 0.43032165181667892 0.1908487424795102 0 0.43439381360418572 0.201922657305935 0 0.44279398848506502 0.19408004688811761 0 0.42364159711115329 0.21118080764433289 0 0.43281079006050782 0.22524054838772889 0 0.44081801700384571 0.2115810322117794 0 0.43439381360418572 0.201922657305935 0 0.42364159711115329 0.21118080764433289 0 0.44081801700384571 0.2115810322117794 0 0.42364159711115329 0.21118080764433289 0 0.41028098722501283 0.20485490451691829 0 0.41445794871032082 0.23023073109736539 0 0.39561847005712381 0.21799375785273761 0 0.41028098722501283 0.20485490451691829 0 0.41445794871032082 0.23023073109736539 0 0.41445794871032082 0.23023073109736539 0 0.43281079006050782 0.22524054838772889 0 0.43597362254584099 0.24453521661724409 0 0.42364159711115329 0.21118080764433289 0 0.41445794871032082 0.23023073109736539 0 0.43281079006050782 0.22524054838772889 0 0.41445794871032082 0.23023073109736539 0 0.43597362254584099 0.24453521661724409 0 0.41240040989541538 0.2484338620203948 0 0.40242704521440198 0.24330877769807219 0 0.41445794871032082 0.23023073109736539 0 0.41240040989541538 0.2484338620203948 0 0.46097385642212951 0.2609683157800467 0 0.45805191493046538 0.24216762228305941 0 0.47866945967535812 0.24456551590498901 0 0.43597362254584099 0.24453521661724409 0 0.45805191493046538 0.24216762228305941 0 0.45104726872779138 0.22538508919523989 0 0.43597362254584099 0.24453521661724409 0 0.45104726872779138 0.22538508919523989 0 0.4487665110108715 0.25226136978137409 0 0.43597362254584099 0.24453521661724409 0 0.45805191493046538 0.24216762228305941 0 0.43281079006050782 0.22524054838772889 0 0.43597362254584099 0.24453521661724409 0 0.45104726872779138 0.22538508919523989 0 0.43281079006050782 0.22524054838772889 0 0.45104726872779138 0.22538508919523989 0 0.44081801700384571 0.2115810322117794 0 0.45805191493046538 0.24216762228305941 0 0.45104726872779138 0.22538508919523989 0 0.47239518729254981 0.22540023883911231 0 0.45104726872779138 0.22538508919523989 0 0.46612091490974161 0.20623496177323561 0 0.47239518729254981 0.22540023883911231 0 0.45104726872779138 0.22538508919523989 0 0.46612091490974161 0.20623496177323561 0 0.45104726872779138 0.22538508919523989 0 0.46612091490974161 0.20623496177323561 0 0.45791857198813352 0.2099195270917632 0 0.46612091490974161 0.20623496177323561 0 0.45791857198813352 0.2099195270917632 0 0.45714296453564213 0.19834785473848621 0 0.45791857198813352 0.2099195270917632 0 0.44081801700384571 0.2115810322117794 0 0.44279398848506502 0.19408004688811761 0 0.45104726872779138 0.22538508919523989 0 0.45791857198813352 0.2099195270917632 0 0.44081801700384571 0.2115810322117794 0 0.45791857198813352 0.2099195270917632 0 0.44279398848506502 0.19408004688811761 0 0.45714296453564213 0.19834785473848621 0 0.44279398848506502 0.19408004688811761 0 0.45714296453564213 0.19834785473848621 0 0.45953009637221209 0.18610276864295791 0 0.43439381360418572 0.201922657305935 0 0.44081801700384571 0.2115810322117794 0 0.44279398848506502 0.19408004688811761 0 0.45791857198813352 0.2099195270917632 0 0.44279398848506502 0.19408004688811761 0 0.46612091490974161 0.20623496177323561 0 0.47685185021770982 0.19260197768800849 0 0.45953009637221209 0.18610276864295791 0 0.46612091490974161 0.20623496177323561 0 0.45953009637221209 0.18610276864295791 0 0.46612091490974161 0.20623496177323561 0 0.45714296453564213 0.19834785473848621 0 0.45953009637221209 0.18610276864295791 0 0.47980902655363172 0.20222571893831029 0 0.47685185021770982 0.19260197768800849 0 0.49379139276283979 0.19857426303248771 0 0.46612091490974161 0.20623496177323561 0 0.47685185021770982 0.19260197768800849 0 0.46612091490974161 0.20623496177323561 0 0.47980902655363172 0.20222571893831029 0 0.47685185021770982 0.19260197768800849 0 0.5 0.18838379832279789 0 0.49379139276283979 0.19857426303248771 0 0.48758278552567852 0.17896899360278171 0 0.5 0.18838379832279789 0 0.49379139276283979 0.19857426303248771 0 0.5 0.21817953246219399 0 0.49379139276283979 0.19857426303248771 0 0.48758278552567852 0.17896899360278171 0 0.47685185021770982 0.19260197768800849 0 0.49379139276283979 0.19857426303248771 0 0.48758278552567852 0.17896899360278171 0 0.5 0.21817953246219399 0 0.4824719483242354 0.21149167325950921 0 0.47239518729254981 0.22540023883911231 0 0.47980902655363172 0.20222571893831029 0 0.49379139276283979 0.19857426303248771 0 0.4824719483242354 0.21149167325950921 0 0.49379139276283979 0.19857426303248771 0 0.5 0.21817953246219399 0 0.49379139276283979 0.19857426303248771 0 0.5 0.21817953246219399 0 0.4824719483242354 0.21149167325950921 0 0.46612091490974161 0.20623496177323561 0 0.47980902655363172 0.20222571893831029 0 0.4824719483242354 0.21149167325950921 0 0.46612091490974161 0.20623496177323561 0 0.47239518729254981 0.22540023883911231 0 0.46612091490974161 0.20623496177323561 0 0.4824719483242354 0.21149167325950921 0 0.47239518729254981 0.22540023883911231 0 0.48494373205816649 0.26373079297086571 0 0.5 0.21817953246219399 0 0.47866945967535812 0.24456551590498901 0 0.5 0.21817953246219399 0 0.47239518729254981 0.22540023883911231 0 0.47866945967535812 0.24456551590498901 0 0.47239518729254981 0.22540023883911231 0 0.47866945967535812 0.24456551590498901 0 0.45805191493046538 0.24216762228305941 0 0.47239518729254981 0.22540023883911231 0 0.47866945967535812 0.24456551590498901 0 0.45751512185313048 0.15565666280534879 0 0.45279255135731811 0.13891232505996051 0 0.46976243951217472 0.13507847391115049 0 0.45279255135731811 0.13891232505996051 0 0.46976243951217472 0.13507847391115049 0 0.4556750293679856 0.1157134662055941 0 0.43635102059386183 0.13322447970570819 0 0.45279255135731811 0.13891232505996051 0 0.4556750293679856 0.1157134662055941 0 0.43727106683643391 0.15319607800558449 0 0.45751512185313048 0.15565666280534879 0 0.43727106683643391 0.15319607800558449 0 0.45751512185313048 0.15565666280534879 0 0.45279255135731811 0.13891232505996051 0 0.43727106683643391 0.15319607800558449 0 0.43635102059386183 0.13322447970570819 0 0.45279255135731811 0.13891232505996051 0 0.43727106683643391 0.15319607800558449 0 0.45751512185313048 0.15565666280534879 0 0.44809363760860838 0.1689817270029797 0 0.43502378429937388 0.1685492373306649 0 0.43727106683643391 0.15319607800558449 0 0.44809363760860838 0.1689817270029797 0 0.44809363760860838 0.1689817270029797 0 0.44139161670076782 0.17910654547062199 0 0.45953009637221209 0.18610276864295791 0 0.44279398848506502 0.19408004688811761 0 0.44139161670076782 0.17910654547062199 0 0.45953009637221209 0.18610276864295791 0 0.43502378429937388 0.1685492373306649 0 0.44809363760860838 0.1689817270029797 0 0.44139161670076782 0.17910654547062199 0 0.44809363760860838 0.1689817270029797 0 0.45953009637221209 0.18610276864295791 0 0.4615114360487701 0.1711177359335401 0 0.45953009637221209 0.18610276864295791 0 0.4615114360487701 0.1711177359335401 0 0.47253760300638381 0.17815261350540479 0 0.45751512185313048 0.15565666280534879 0 0.44809363760860838 0.1689817270029797 0 0.4615114360487701 0.1711177359335401 0 0.45751512185313048 0.15565666280534879 0 0.4615114360487701 0.1711177359335401 0 0.47286192936687421 0.16598069982458291 0 0.45751512185313048 0.15565666280534879 0 0.47286192936687421 0.16598069982458291 0 0.47930492274766762 0.1536674346770093 0 0.4615114360487701 0.1711177359335401 0 0.47286192936687421 0.16598069982458291 0 0.47253760300638381 0.17815261350540479 0 0.4796306338216737 0.17284654164185809 0 0.48630208712315259 0.17492485998623469 0 0.48570983417759528 0.1657708303059118 0 0.47286192936687421 0.16598069982458291 0 0.4796306338216737 0.17284654164185809 0 0.48570983417759528 0.1657708303059118 0 0.47286192936687421 0.16598069982458291 0 0.48570983417759528 0.1657708303059118 0 0.47930492274766762 0.1536674346770093 0 0.47685185021770982 0.19260197768800849 0 0.45953009637221209 0.18610276864295791 0 0.47253760300638381 0.17815261350540479 0 0.47286192936687421 0.16598069982458291 0 0.47253760300638381 0.17815261350540479 0 0.4796306338216737 0.17284654164185809 0 0.47253760300638381 0.17815261350540479 0 0.4796306338216737 0.17284654164185809 0 0.48074171543436278 0.17940370458715599 0 0.4796306338216737 0.17284654164185809 0 0.48074171543436278 0.17940370458715599 0 0.48630208712315259 0.17492485998623469 0 0.47685185021770982 0.19260197768800849 0 0.48074171543436278 0.17940370458715599 0 0.48758278552567852 0.17896899360278171 0 0.47685185021770982 0.19260197768800849 0 0.47253760300638381 0.17815261350540479 0 0.48074171543436278 0.17940370458715599 0 0.47685185021770982 0.19260197768800849 0 0.48758278552567852 0.17896899360278171 0 0.5 0.18838379832279789 0 0.49535581452898803 0.16909384501089211 0 0.5 0.15858806418340179 0 0.5 0.18838379832279789 0 0.48758278552567852 0.17896899360278171 0 0.49535581452898803 0.16909384501089211 0 0.48758278552567852 0.17896899360278171 0 0.49535581452898803 0.16909384501089211 0 0.48758278552567852 0.17896899360278171 0 0.48630208712315259 0.17492485998623469 0 0.49535581452898803 0.16909384501089211 0 0.48074171543436278 0.17940370458715599 0 0.48758278552567852 0.17896899360278171 0 0.48630208712315259 0.17492485998623469 0 0.48758278552567852 0.17896899360278171 0 0.48630208712315259 0.17492485998623469 0 0.48570983417759528 0.1657708303059118 0 0.5 0.15858806418340179 0 0.47930492274766762 0.1536674346770093 0 0.48630208712315259 0.17492485998623469 0 0.48570983417759528 0.1657708303059118 0 0.49535581452898803 0.16909384501089211 0 0.48570983417759528 0.1657708303059118 0 0.49535581452898803 0.16909384501089211 0 0.5 0.15858806418340179 0 0.5 0.15858806418340179 0 0.48653571636300103 0.1398938487274094 0 0.5 0.1287923300440057 0 0.5 0.15858806418340179 0 0.47930492274766762 0.1536674346770093 0 0.48653571636300103 0.1398938487274094 0 0.47930492274766762 0.1536674346770093 0 0.46976243951217472 0.13507847391115049 0 0.48653571636300103 0.1398938487274094 0 0.45751512185313048 0.15565666280534879 0 0.47930492274766762 0.1536674346770093 0 0.46976243951217472 0.13507847391115049 0 0.46976243951217472 0.13507847391115049 0 0.48653571636300103 0.1398938487274094 0 0.48122377097678448 0.1191492607007075 0 0.48653571636300103 0.1398938487274094 0 0.5 0.1287923300440057 0 0.48122377097678448 0.1191492607007075 0 0.5 0.1287923300440057 0 0.5 0.098996595904609519 0 0.48122377097678448 0.1191492607007075 0 0.5 0.098996595904609519 0 0.48200588511136683 0.101712478616122 0 0.48122377097678448 0.1191492607007075 0 0.48200588511136683 0.101712478616122 0 0.47221861033163282 0.086888524812663473 0 0.46429451020590279 0.1002751643059426 0 0.48200588511136683 0.101712478616122 0 0.48122377097678448 0.1191492607007075 0 0.46429451020590279 0.1002751643059426 0 0.46976243951217472 0.13507847391115049 0 0.48122377097678448 0.1191492607007075 0 0.4556750293679856 0.1157134662055941 0 0.48534786079479042 0.076518377552022468 0 0.5 0.069200861765213451 0 0.48868983647821412 0.051324276487922788 0 0.48534786079479042 0.076518377552022468 0 0.48868983647821412 0.051324276487922788 0 0.5 0.098996595904609519 0 0.48200588511136683 0.101712478616122 0 0.48534786079479042 0.076518377552022468 0 0.5 0.098996595904609519 0 0.48534786079479042 0.076518377552022468 0 0.5 0.069200861765213451 0 0.48200588511136683 0.101712478616122 0 0.48534786079479042 0.076518377552022468 0 0.47221861033163282 0.086888524812663473 0 0.48200588511136683 0.101712478616122 0 0.48534786079479042 0.076518377552022468 0 0.48534786079479042 0.076518377552022468 0 0.47221861033163282 0.086888524812663473 0 0.47015967352507809 0.066657448245484682 0 0.48534786079479042 0.076518377552022468 0 0.47015967352507809 0.066657448245484682 0 0.48868983647821412 0.051324276487922788 0 0.47015967352507809 0.066657448245484682 0 0.45650312266765569 0.085510853646180551 0 0.44749533446233958 0.069928978567267736 0 0.47221861033163282 0.086888524812663473 0 0.47015967352507809 0.066657448245484682 0 0.45650312266765569 0.085510853646180551 0 0.47221861033163282 0.086888524812663473 0 0.45650312266765569 0.085510853646180551 0 0.46429451020590279 0.1002751643059426 0 0.44749533446233958 0.069928978567267736 0 0.4410778971909346 0.095836685893051998 0 0.42429918020641938 0.07864288260320236 0 0.45650312266765569 0.085510853646180551 0 0.44749533446233958 0.069928978567267736 0 0.4410778971909346 0.095836685893051998 0 0.48122377097678448 0.1191492607007075 0 0.4556750293679856 0.1157134662055941 0 0.46429451020590279 0.1002751643059426 0 0.4556750293679856 0.1157134662055941 0 0.46429451020590279 0.1002751643059426 0 0.4410778971909346 0.095836685893051998 0 0.45650312266765569 0.085510853646180551 0 0.46429451020590279 0.1002751643059426 0 0.4410778971909346 0.095836685893051998 0 0.4556750293679856 0.1157134662055941 0 0.4410778971909346 0.095836685893051998 0 0.42930227882074162 0.11666279637260479 0 0.43635102059386183 0.13322447970570819 0 0.4556750293679856 0.1157134662055941 0 0.42930227882074162 0.11666279637260479 0 0.43635102059386183 0.13322447970570819 0 0.4556750293679856 0.1157134662055941 0 0.42930227882074162 0.11666279637260479 0 0.41112921050137152 0.1215368281175596 0 0.40997582460549797 0.1041226595505718 0 0.424541945075742 0.13270294280180731 0 0.42930227882074162 0.11666279637260479 0 0.41112921050137152 0.1215368281175596 0 0.4410778971909346 0.095836685893051998 0 0.42930227882074162 0.11666279637260479 0 0.40997582460549797 0.1041226595505718 0 0.4410778971909346 0.095836685893051998 0 0.40997582460549797 0.1041226595505718 0 0.42429918020641938 0.07864288260320236 0 0.44749533446233958 0.069928978567267736 0 0.42429918020641938 0.07864288260320236 0 0.43321612733280862 0.050105068308551909 0 0.42429918020641938 0.07864288260320236 0 0.39748197715984851 0.084374381404962201 0 0.40150053922287238 0.067273107804348739 0 0.42429918020641938 0.07864288260320236 0 0.40150053922287238 0.067273107804348739 0 0.41231613079407459 0.053758239026273358 0 0.40997582460549797 0.1041226595505718 0 0.42429918020641938 0.07864288260320236 0 0.40997582460549797 0.1041226595505718 0 0.42429918020641938 0.07864288260320236 0 0.39748197715984851 0.084374381404962201 0 0.39748197715984851 0.084374381404962201 0 0.40150053922287238 0.067273107804348739 0 0.38332427111600043 0.069488932592974201 0 0.40150053922287238 0.067273107804348739 0 0.38332427111600043 0.069488932592974201 0 0.39413472814238221 0.050912644909704777 0 0.37454800916352271 0.082202256814306984 0 0.39748197715984851 0.084374381404962201 0 0.38332427111600043 0.069488932592974201 0 0.37454800916352271 0.082202256814306984 0 0.39748197715984851 0.084374381404962201 0 0.3809692204871386 0.096147588394266459 0 0.3700888224484169 0.10736588045092819 0 0.3809692204871386 0.096147588394266459 0 0.38403052040310648 0.1147536360125621 0 0.36952230838987887 0.12679806830839299 0 0.39565246900457679 0.12960243649794129 0 0.38403052040310648 0.1147536360125621 0 0.39565246900457679 0.12960243649794129 0 0.40997582460549797 0.1041226595505718 0 0.38403052040310648 0.1147536360125621 0 0.39565246900457679 0.12960243649794129 0 0.40997582460549797 0.1041226595505718 0 0.39565246900457679 0.12960243649794129 0 0.41112921050137152 0.1215368281175596 0 0.40997582460549797 0.1041226595505718 0 0.40997582460549797 0.1041226595505718 0 0.3809692204871386 0.096147588394266459 0 0.38403052040310648 0.1147536360125621 0 0.40997582460549797 0.1041226595505718 0 0.39748197715984851 0.084374381404962201 0 0.3809692204871386 0.096147588394266459 0 0.39595379470335729 0.019506251533308469 0 0.39541704470989081 0.028814630499676482 0 0.40244120223341628 0.037800733833462767 0 0.39595379470335729 0.019506251533308469 0 0.40244120223341628 0.037800733833462767 0 0.39595379470335729 0.019506251533308469 0 0.40244120223341628 0.037800733833462767 0 0.40838313332658421 0.02676228513857945 0 0.39595379470335729 0.019506251533308469 0 0.39541704470989081 0.028814630499676482 0 0.3870958447530603 0.022859927549556441 0 0.39595379470335729 0.019506251533308469 0 0.40838313332658421 0.02676228513857945 0 0.40857332745359298 0.015275148960136859 0 0.40037243622934993 0.0082129381019194481 0 0.40765749909241461 0.0048911859495083731 0 0.40857332745359298 0.015275148960136859 0 0.39595379470335729 0.019506251533308469 0 0.40037243622934993 0.0082129381019194481 0 0.38946638717329862 0.0012117692331540439 0 0.39595379470335729 0.019506251533308469 0 0.38946638717329862 0.0012117692331540439 0 0.3870958447530603 0.022859927549556441 0 0.39595379470335729 0.019506251533308469 0 0.38946638717329862 0.0012117692331540439 0 0.39595379470335729 0.019506251533308469 0 0.40037243622934993 0.0082129381019194481 0 0.40857332745359298 0.015275148960136859 0 0.40037243622934993 0.0082129381019194481 0 0.40021117272408618 0.00018033483348949239 0 0.40765749909241461 0.0048911859495083731 0 0.40037243622934993 0.0082129381019194481 0 0.40021117272408618 0.00018033483348949239 0 0.38946638717329862 0.0012117692331540439 0 0.38946638717329862 0.0012117692331540439 0 0.37731727676510057 0.020682409778219588 0 0.37012071982999178 -0.0010064330768083591 0 0.38946638717329862 0.0012117692331540439 0 0.37731727676510057 0.020682409778219588 0 0.38946638717329862 0.0012117692331540439 0 0.37731727676510057 0.020682409778219588 0 0.3870958447530603 0.022859927549556441 0 0.39541704470989081 0.028814630499676482 0 0.3870958447530603 0.022859927549556441 0 0.38067513689279259 0.032837320839533023 0 0.37731727676510057 0.020682409778219588 0 0.3870958447530603 0.022859927549556441 0 0.38067513689279259 0.032837320839533023 0 0.39541704470989081 0.028814630499676482 0 0.37861316384966948 0.050884971754705632 0 0.39413472814238221 0.050912644909704777 0 0.39541704470989081 0.028814630499676482 0 0.37861316384966948 0.050884971754705632 0 0.39541704470989081 0.028814630499676482 0 0.38067513689279259 0.032837320839533023 0 0.37861316384966948 0.050884971754705632 0 0.38332427111600043 0.069488932592974201 0 0.37861316384966948 0.050884971754705632 0 0.39413472814238221 0.050912644909704777 0 0.39413472814238221 0.050912644909704777 0 0.40244120223341628 0.037800733833462767 0 0.41231613079407459 0.053758239026273358 0 0.40150053922287238 0.067273107804348739 0 0.39413472814238221 0.050912644909704777 0 0.41231613079407459 0.053758239026273358 0 0.39541704470989081 0.028814630499676482 0 0.39413472814238221 0.050912644909704777 0 0.40244120223341628 0.037800733833462767 0 0.40244120223341628 0.037800733833462767 0 0.4183050076265486 0.03781499669836965 0 0.41231613079407459 0.053758239026273358 0 0.40244120223341628 0.037800733833462767 0 0.4183050076265486 0.03781499669836965 0 0.40838313332658421 0.02676228513857945 0 0.4183050076265486 0.03781499669836965 0 0.41231613079407459 0.053758239026273358 0 0.43321612733280862 0.050105068308551909 0 0.42429918020641938 0.07864288260320236 0 0.41231613079407459 0.053758239026273358 0 0.43321612733280862 0.050105068308551909 0 0.4183050076265486 0.03781499669836965 0 0.43321612733280862 0.050105068308551909 0 0.43911866928710419 0.025454112689289331 0 0.4183050076265486 0.03781499669836965 0 0.41934817445015049 0.022369699742707711 0 0.43911866928710419 0.025454112689289331 0 0.41934817445015049 0.022369699742707711 0 0.42276523260424548 0.0076180974016386224 0 0.43911866928710419 0.025454112689289331 0 0.4183050076265486 0.03781499669836965 0 0.41934817445015049 0.022369699742707711 0 0.40838313332658421 0.02676228513857945 0 0.41934817445015049 0.022369699742707711 0 0.40838313332658421 0.02676228513857945 0 0.40857332745359298 0.015275148960136859 0 0.40765749909241461 0.0048911859495083731 0 0.42276523260424548 0.0076180974016386224 0 0.41254717650953349 -0.0095662671368835703 0 0.40765749909241461 0.0048911859495083731 0 0.40857332745359298 0.015275148960136859 0 0.42276523260424548 0.0076180974016386224 0 0.41934817445015049 0.022369699742707711 0 0.40857332745359298 0.015275148960136859 0 0.42276523260424548 0.0076180974016386224 0 0.42276523260424548 0.0076180974016386224 0 0.43911866928710419 0.025454112689289331 0 0.44171659341768932 -0.0031743802624496671 0 0.43911866928710419 0.025454112689289331 0 0.45914577540815338 0.019854752180147019 0 0.44171659341768932 -0.0031743802624496671 0 0.45914577540815338 0.019854752180147019 0 0.46265326026208431 0.045981216745799011 0 0.4813543437480442 0.027795305116112189 0 0.43911866928710419 0.025454112689289331 0 0.45914577540815338 0.019854752180147019 0 0.46265326026208431 0.045981216745799011 0 0.45914577540815338 0.019854752180147019 0 0.47088601032584509 0.0032175066119842222 0 0.44171659341768932 -0.0031743802624496671 0 0.44749533446233958 0.069928978567267736 0 0.43321612733280862 0.050105068308551909 0 0.46265326026208431 0.045981216745799011 0 0.43321612733280862 0.050105068308551909 0 0.43911866928710419 0.025454112689289331 0 0.46265326026208431 0.045981216745799011 0 0.47015967352507809 0.066657448245484682 0 0.44749533446233958 0.069928978567267736 0 0.46265326026208431 0.045981216745799011 0 0.47015967352507809 0.066657448245484682 0 0.46265326026208431 0.045981216745799011 0 0.48868983647821412 0.051324276487922788 0 0.46265326026208431 0.045981216745799011 0 0.4813543437480442 0.027795305116112189 0 0.46265326026208431 0.045981216745799011 0 0.48868983647821412 0.051324276487922788 0 0.4813543437480442 0.027795305116112189 0 0.48868983647821412 0.051324276487922788 0 0.49203181216163772 0.026130175423823149 0 0.48868983647821412 0.051324276487922788 0 0.4813543437480442 0.027795305116112189 0 0.49203181216163772 0.026130175423823149 0 0.5 0.039405127625817271 0 0.48868983647821412 0.051324276487922788 0 0.49203181216163772 0.026130175423823149 0 0.5 0.069200861765213451 0 0.5 0.039405127625817271 0 0.48868983647821412 0.051324276487922788 0 0.47088601032584509 0.0032175066119842222 0 0.4813543437480442 0.027795305116112189 0 0.50005542723400032 0.0096093934864212339 0 0.45914577540815338 0.019854752180147019 0 0.47088601032584509 0.0032175066119842222 0 0.4813543437480442 0.027795305116112189 0 0.4813543437480442 0.027795305116112189 0 0.49203181216163772 0.026130175423823149 0 0.50005542723400032 0.0096093934864212339 0 0.5 0.039405127625817271 0 0.49203181216163772 0.026130175423823149 0 0.50005542723400032 0.0096093934864212339 0 0.4813543437480442 0.027795305116112189 0 0.50005542723400032 0.0096093934864212339 0 0.47088601032584509 0.0032175066119842222 0 0.50005542723400032 0.0096093934864212339 0 0.47088601032584509 0.0032175066119842222 0 0.50005542723400032 0.0096093934864212339 0 0.48614925552028498 -0.0033742789444562772 0 0.48614925552028498 -0.0033742789444562772 0 0.5 -0.011181839993842599 0 0.47365558452129408 -0.015142175882384879 0 0.5 -0.011181839993842599 0 0.47365558452129408 -0.015142175882384879 0 0.50005542723400032 0.0096093934864212339 0 0.48614925552028498 -0.0033742789444562772 0 0.5 -0.011181839993842599 0 0.47088601032584509 0.0032175066119842222 0 0.48614925552028498 -0.0033742789444562772 0 0.47365558452129408 -0.015142175882384879 0 0.47365558452129408 -0.015142175882384879 0 0.48425508907769732 -0.030148357699775571 0 0.46556885046796798 -0.034444204470604298 0 0.5 -0.011181839993842599 0 0.47365558452129408 -0.015142175882384879 0 0.48425508907769732 -0.030148357699775571 0 0.5 -0.011181839993842599 0 0.48425508907769732 -0.030148357699775571 0 0.5 -0.040137668456861897 0 0.48425508907769732 -0.030148357699775571 0 0.5 -0.040137668456861897 0 0.48205101039922388 -0.049835899695184212 0 0.5 -0.040137668456861897 0 0.48205101039922388 -0.049835899695184212 0 0.5 -0.069093496919881092 0 0.48205101039922388 -0.049835899695184212 0 0.46084046923450123 -0.056135374793482573 0 0.47719017376370543 -0.073544899304923209 0 0.48205101039922388 -0.049835899695184212 0 0.46556885046796798 -0.034444204470604298 0 0.46084046923450123 -0.056135374793482573 0 0.48425508907769732 -0.030148357699775571 0 0.48205101039922388 -0.049835899695184212 0 0.46556885046796798 -0.034444204470604298 0 0.46556885046796798 -0.034444204470604298 0 0.44919542969599058 -0.041381138318419899 0 0.44731116904258822 -0.019102511770927151 0 0.46556885046796798 -0.034444204470604298 0 0.46084046923450123 -0.056135374793482573 0 0.44919542969599058 -0.041381138318419899 0 0.46084046923450123 -0.056135374793482573 0 0.4397562424239958 -0.059001060423278733 0 0.44919542969599058 -0.041381138318419899 0 0.44919542969599058 -0.041381138318419899 0 0.44731116904258822 -0.019102511770927151 0 0.43250041731090011 -0.038222540133806757 0 0.4397562424239958 -0.059001060423278733 0 0.44919542969599058 -0.041381138318419899 0 0.43250041731090011 -0.038222540133806757 0 0.44731116904258822 -0.019102511770927151 0 0.44171659341768932 -0.0031743802624496671 0 0.430717442249964 -0.019212633231749529 0 0.44731116904258822 -0.019102511770927151 0 0.44171659341768932 -0.0031743802624496671 0 0.45839233932685419 -0.0085503903259443684 0 0.47088601032584509 0.0032175066119842222 0 0.44171659341768932 -0.0031743802624496671 0 0.45839233932685419 -0.0085503903259443684 0 0.47088601032584509 0.0032175066119842222 0 0.47365558452129408 -0.015142175882384879 0 0.45839233932685419 -0.0085503903259443684 0 0.47365558452129408 -0.015142175882384879 0 0.44731116904258822 -0.019102511770927151 0 0.45839233932685419 -0.0085503903259443684 0 0.47088601032584509 0.0032175066119842222 0 0.44171659341768932 -0.0031743802624496671 0 0.47365558452129408 -0.015142175882384879 0 0.46556885046796798 -0.034444204470604298 0 0.44731116904258822 -0.019102511770927151 0 0.47365558452129408 -0.015142175882384879 0 0.44731116904258822 -0.019102511770927151 0 0.47780806550729049 -0.1149278551071293 0 0.5 -0.098049325382900177 0 0.46771945383779068 -0.095204003761562933 0 0.47780806550729049 -0.1149278551071293 0 0.5 -0.098049325382900177 0 0.5 -0.12700515384591929 0 0.5 -0.098049325382900177 0 0.47719017376370543 -0.073544899304923209 0 0.46771945383779068 -0.095204003761562933 0 0.5 -0.098049325382900177 0 0.5 -0.069093496919881092 0 0.47719017376370543 -0.073544899304923209 0 0.48205101039922388 -0.049835899695184212 0 0.5 -0.069093496919881092 0 0.47719017376370543 -0.073544899304923209 0 0.46084046923450123 -0.056135374793482573 0 0.47719017376370543 -0.073544899304923209 0 0.45192568676133299 -0.076537261151850139 0 0.46084046923450123 -0.056135374793482573 0 0.4397562424239958 -0.059001060423278733 0 0.45192568676133299 -0.076537261151850139 0 0.4397562424239958 -0.059001060423278733 0 0.45192568676133299 -0.076537261151850139 0 0.4278506725615252 -0.077511903454909506 0 0.45192568676133299 -0.076537261151850139 0 0.43819710874648032 -0.097826325172943915 0 0.4278506725615252 -0.077511903454909506 0 0.45192568676133299 -0.076537261151850139 0 0.46771945383779068 -0.095204003761562933 0 0.43819710874648032 -0.097826325172943915 0 0.47719017376370543 -0.073544899304923209 0 0.45192568676133299 -0.076537261151850139 0 0.46771945383779068 -0.095204003761562933 0 0.47780806550729049 -0.1149278551071293 0 0.46771945383779068 -0.095204003761562933 0 0.45971592700731911 -0.10950605737699461 0 0.46771945383779068 -0.095204003761562933 0 0.43819710874648032 -0.097826325172943915 0 0.45971592700731911 -0.10950605737699461 0 0.43819710874648032 -0.097826325172943915 0 0.44854354493143539 -0.11814074689097839 0 0.43337739047118151 -0.1104784623632054 0 0.43819710874648032 -0.097826325172943915 0 0.44854354493143539 -0.11814074689097839 0 0.43819710874648032 -0.097826325172943915 0 0.44854354493143539 -0.11814074689097839 0 0.45971592700731911 -0.10950605737699461 0 0.44854354493143539 -0.11814074689097839 0 0.43337739047118151 -0.1104784623632054 0 0.44070534322187649 -0.12625365038326691 0 0.44854354493143539 -0.11814074689097839 0 0.45902668169623378 -0.12443422778596409 0 0.44920783017565868 -0.1280930932865168 0 0.44854354493143539 -0.11814074689097839 0 0.44920783017565868 -0.1280930932865168 0 0.44070534322187649 -0.12625365038326691 0 0.44854354493143539 -0.11814074689097839 0 0.45902668169623378 -0.12443422778596409 0 0.45971592700731911 -0.10950605737699461 0 0.47780806550729049 -0.1149278551071293 0 0.45902668169623378 -0.12443422778596409 0 0.45971592700731911 -0.10950605737699461 0 0.41515903694325551 -0.1128608103710726 0 0.42612684253330219 -0.12915510074228281 0 0.41267106670054921 -0.12848772643407899 0 0.41515903694325551 -0.1128608103710726 0 0.39765691840115419 -0.12224754054313711 0 0.41267106670054921 -0.12848772643407899 0 0.41515903694325551 -0.1128608103710726 0 0.42612684253330219 -0.12915510074228281 0 0.44070534322187649 -0.12625365038326691 0 0.41515903694325551 -0.1128608103710726 0 0.43337739047118151 -0.1104784623632054 0 0.44070534322187649 -0.12625365038326691 0 0.41515903694325551 -0.1128608103710726 0 0.44070534322187649 -0.12625365038326691 0 0.41515903694325551 -0.1128608103710726 0 0.43337739047118151 -0.1104784623632054 0 0.42314140243860432 -0.095110105469710007 0 0.43819710874648032 -0.097826325172943915 0 0.43337739047118151 -0.1104784623632054 0 0.42314140243860432 -0.095110105469710007 0 0.41515903694325551 -0.1128608103710726 0 0.42314140243860432 -0.095110105469710007 0 0.40698336064639817 -0.085445085541103763 0 0.42314140243860432 -0.095110105469710007 0 0.40698336064639817 -0.085445085541103763 0 0.4278506725615252 -0.077511903454909506 0 0.43819710874648032 -0.097826325172943915 0 0.4278506725615252 -0.077511903454909506 0 0.43819710874648032 -0.097826325172943915 0 0.42314140243860432 -0.095110105469710007 0 0.4278506725615252 -0.077511903454909506 0 0.4278506725615252 -0.077511903454909506 0 0.41750423637657019 -0.057197481736875069 0 0.4397562424239958 -0.059001060423278733 0 0.4278506725615252 -0.077511903454909506 0 0.41750423637657019 -0.057197481736875069 0 0.4278506725615252 -0.077511903454909506 0 0.40924243372053792 -0.06876582702307131 0 0.41750423637657019 -0.057197481736875069 0 0.40698336064639817 -0.085445085541103763 0 0.4278506725615252 -0.077511903454909506 0 0.40924243372053792 -0.06876582702307131 0 0.40698336064639817 -0.085445085541103763 0 0.40924243372053792 -0.06876582702307131 0 0.39210308191346588 -0.068803048724471239 0 0.40924243372053792 -0.06876582702307131 0 0.39210308191346588 -0.068803048724471239 0 0.40177081710472978 -0.054871615657996933 0 0.39210308191346588 -0.068803048724471239 0 0.37774735302625978 -0.076891409648543185 0 0.37946840966451278 -0.057129495650098429 0 0.38961273066463459 -0.099467970358878402 0 0.36406642438601278 -0.086075130346685194 0 0.37774735302625978 -0.076891409648543185 0 0.38961273066463459 -0.099467970358878402 0 0.36406642438601278 -0.086075130346685194 0 0.39210308191346588 -0.068803048724471239 0 0.37774735302625978 -0.076891409648543185 0 0.38961273066463459 -0.099467970358878402 0 0.40698336064639817 -0.085445085541103763 0 0.39210308191346588 -0.068803048724471239 0 0.38961273066463459 -0.099467970358878402 0 0.41515903694325551 -0.1128608103710726 0 0.38961273066463459 -0.099467970358878402 0 0.41515903694325551 -0.1128608103710726 0 0.40698336064639817 -0.085445085541103763 0 0.38961273066463459 -0.099467970358878402 0 0.38961273066463459 -0.099467970358878402 0 0.37986784028732212 -0.1169607173404761 0 0.36391842194861701 -0.1056904329445002 0 0.38961273066463459 -0.099467970358878402 0 0.37986784028732212 -0.1169607173404761 0 0.39765691840115419 -0.12224754054313711 0 0.37986784028732212 -0.1169607173404761 0 0.39765691840115419 -0.12224754054313711 0 0.38413375177412817 -0.1336712514322109 0 0.41515903694325551 -0.1128608103710726 0 0.38961273066463459 -0.099467970358878402 0 0.39765691840115419 -0.12224754054313711 0 0.4195118549691087 -0.025997466854680479 0 0.41254717650953349 -0.0095662671368835703 0 0.430717442249964 -0.019212633231749529 0 0.4195118549691087 -0.025997466854680479 0 0.41254717650953349 -0.0095662671368835703 0 0.40503241565186637 -0.021729588446829599 0 0.4195118549691087 -0.025997466854680479 0 0.40869537401452422 -0.033950097610766117 0 0.40503241565186637 -0.021729588446829599 0 0.40021117272408618 0.00018033483348949239 0 0.40765749909241461 0.0048911859495083731 0 0.41254717650953349 -0.0095662671368835703 0 0.44171659341768932 -0.0031743802624496671 0 0.41254717650953349 -0.0095662671368835703 0 0.430717442249964 -0.019212633231749529 0 0.42276523260424548 0.0076180974016386224 0 0.44171659341768932 -0.0031743802624496671 0 0.41254717650953349 -0.0095662671368835703 0 0.44171659341768932 -0.0031743802624496671 0 0.41254717650953349 -0.0095662671368835703 0 0.4195118549691087 -0.025997466854680479 0 0.430717442249964 -0.019212633231749529 0 0.43250041731090011 -0.038222540133806757 0 0.44731116904258822 -0.019102511770927151 0 0.430717442249964 -0.019212633231749529 0 0.43250041731090011 -0.038222540133806757 0 0.43250041731090011 -0.038222540133806757 0 0.41750423637657019 -0.057197481736875069 0 0.41765889890846841 -0.038418859918063403 0 0.4195118549691087 -0.025997466854680479 0 0.43250041731090011 -0.038222540133806757 0 0.41765889890846841 -0.038418859918063403 0 0.4397562424239958 -0.059001060423278733 0 0.43250041731090011 -0.038222540133806757 0 0.41750423637657019 -0.057197481736875069 0 0.41750423637657019 -0.057197481736875069 0 0.40715780019161502 -0.036883060018840508 0 0.40598613063409661 -0.047789527512732917 0 0.40924243372053792 -0.06876582702307131 0 0.41750423637657019 -0.057197481736875069 0 0.40177081710472978 -0.054871615657996933 0 0.41750423637657019 -0.057197481736875069 0 0.40177081710472978 -0.054871615657996933 0 0.40598613063409661 -0.047789527512732917 0 0.41750423637657019 -0.057197481736875069 0 0.40715780019161502 -0.036883060018840508 0 0.41750423637657019 -0.057197481736875069 0 0.41765889890846841 -0.038418859918063403 0 0.40715780019161502 -0.036883060018840508 0 0.4195118549691087 -0.025997466854680479 0 0.41765889890846841 -0.038418859918063403 0 0.40869537401452422 -0.033950097610766117 0 0.41765889890846841 -0.038418859918063403 0 0.40869537401452422 -0.033950097610766117 0 0.40715780019161502 -0.036883060018840508 0 0.40869537401452422 -0.033950097610766117 0 0.38652103596397253 -0.041439777790977163 0 0.40869537401452422 -0.033950097610766117 0 0.40715780019161502 -0.036883060018840508 0 0.39751166886347128 -0.042205952637219199 0 0.40869537401452422 -0.033950097610766117 0 0.39795334156953521 -0.03152840128420837 0 0.38652103596397253 -0.041439777790977163 0 0.40869537401452422 -0.033950097610766117 0 0.39751166886347128 -0.042205952637219199 0 0.38652103596397253 -0.041439777790977163 0 0.40715780019161502 -0.036883060018840508 0 0.39751166886347128 -0.042205952637219199 0 0.40598613063409661 -0.047789527512732917 0 0.39751166886347128 -0.042205952637219199 0 0.39147500270203051 -0.052889978092152602 0 0.38652103596397253 -0.041439777790977163 0 0.39795334156953521 -0.03152840128420837 0 0.38652103596397253 -0.041439777790977163 0 0.39156454064777768 -0.02899414128826059 0 0.39210308191346588 -0.068803048724471239 0 0.40177081710472978 -0.054871615657996933 0 0.39147500270203051 -0.052889978092152602 0 0.39751166886347128 -0.042205952637219199 0 0.40177081710472978 -0.054871615657996933 0 0.40598613063409661 -0.047789527512732917 0 0.39751166886347128 -0.042205952637219199 0 0.40177081710472978 -0.054871615657996933 0 0.39147500270203051 -0.052889978092152602 0 0.39210308191346588 -0.068803048724471239 0 0.39147500270203051 -0.052889978092152602 0 0.37946840966451278 -0.057129495650098429 0 0.39147500270203051 -0.052889978092152602 0 0.37946840966451278 -0.057129495650098429 0 0.38652103596397253 -0.041439777790977163 0 0.37946840966451278 -0.057129495650098429 0 0.38652103596397253 -0.041439777790977163 0 0.36434669791342073 -0.048929457971188008 0 0.38652103596397253 -0.041439777790977163 0 0.36434669791342073 -0.048929457971188008 0 0.38652103596397253 -0.041439777790977163 0 0.37453720248385441 -0.040888515632760802 0 0.36434669791342073 -0.048929457971188008 0 0.38652103596397253 -0.041439777790977163 0 0.39156454064777768 -0.02899414128826059 0 0.37453720248385441 -0.040888515632760802 0 0.38337775960137788 -0.015958154011318001 0 0.39156454064777768 -0.02899414128826059 0 0.37453720248385441 -0.040888515632760802 0 0.38337775960137788 -0.015958154011318001 0 0.37453720248385441 -0.040888515632760802 0 0.38337775960137788 -0.015958154011318001 0 0.39156454064777768 -0.02899414128826059 0 0.40503241565186637 -0.021729588446829599 0 0.41254717650953349 -0.0095662671368835703 0 0.38337775960137788 -0.015958154011318001 0 0.40503241565186637 -0.021729588446829599 0 0.39795334156953521 -0.03152840128420837 0 0.39156454064777768 -0.02899414128826059 0 0.40503241565186637 -0.021729588446829599 0 0.40869537401452422 -0.033950097610766117 0 0.39795334156953521 -0.03152840128420837 0 0.40503241565186637 -0.021729588446829599 0 0.40021117272408618 0.00018033483348949239 0 0.41254717650953349 -0.0095662671368835703 0 0.39405267030037788 -0.0061383878734099437 0 0.41254717650953349 -0.0095662671368835703 0 0.38337775960137788 -0.015958154011318001 0 0.39405267030037788 -0.0061383878734099437 0 0.41254717650953349 -0.0095662671368835703 0 0.38337775960137788 -0.015958154011318001 0 0.40021117272408618 0.00018033483348949239 0 0.38946638717329862 0.0012117692331540439 0 0.39405267030037788 -0.0061383878734099437 0 0.38946638717329862 0.0012117692331540439 0 0.39405267030037788 -0.0061383878734099437 0 0.38946638717329862 0.0012117692331540439 0 0.38337775960137788 -0.015958154011318001 0 0.37012071982999178 -0.0010064330768083591 0 0.38946638717329862 0.0012117692331540439 0 0.38337775960137788 -0.015958154011318001 0 0.39405267030037788 -0.0061383878734099437 0 0.38946638717329862 0.0012117692331540439 0 0.38337775960137788 -0.015958154011318001 0 0.38337775960137788 -0.015958154011318001 0 0.37012071982999178 -0.0010064330768083591 0 0.36213107423207058 -0.020613934747864479 0 0.37012071982999178 -0.0010064330768083591 0 0.36213107423207058 -0.020613934747864479 0 0.35618713663360291 -0.0073172624232477352 0 0.36213107423207058 -0.020613934747864479 0 0.36452060763684152 -0.02588056830659672 0 0.35306716684862161 -0.036373548255202913 0 0.38337775960137788 -0.015958154011318001 0 0.36213107423207058 -0.020613934747864479 0 0.36452060763684152 -0.02588056830659672 0 0.38337775960137788 -0.015958154011318001 0 0.36213107423207058 -0.020613934747864479 0 0.38337775960137788 -0.015958154011318001 0 0.36452060763684152 -0.02588056830659672 0 0.37453720248385441 -0.040888515632760802 0 0.36213107423207058 -0.020613934747864479 0 0.35618713663360291 -0.0073172624232477352 0 0.34088438886276362 -0.025269715484411499 0 0.36213107423207058 -0.020613934747864479 0 0.34088438886276362 -0.025269715484411499 0 0.35306716684862161 -0.036373548255202913 0 0.36213107423207058 -0.020613934747864479 0 0.34088438886276362 -0.025269715484411499 0 0.35336585276688132 0.01206692397073225 0 0.35618713663360291 -0.0073172624232477352 0 0.34222420328263592 -0.0047007069337207351 0 0.35618713663360291 -0.0073172624232477352 0 0.34222420328263592 -0.0047007069337207351 0 0.34088438886276362 -0.025269715484411499 0 0.34222420328263592 -0.0047007069337207351 0 0.3316333458465428 -0.01206853037195431 0 0.34088438886276362 -0.025269715484411499 0 0.34222420328263592 -0.0047007069337207351 0 0.33299156353108411 -0.001861611209280044 0 0.3316333458465428 -0.01206853037195431 0 0.33299156353108411 -0.001861611209280044 0 0.3316333458465428 -0.01206853037195431 0 0.32271284280328111 -0.002473047446176603 0 0.34088438886276362 -0.025269715484411499 0 0.31963770349345633 -0.0299254962209573 0 0.34088438886276362 -0.025269715484411499 0 0.32414120488459158 -0.022816390202171469 0 0.31963770349345633 -0.0299254962209573 0 0.3316333458465428 -0.01206853037195431 0 0.34088438886276362 -0.025269715484411499 0 0.32414120488459158 -0.022816390202171469 0 0.32414120488459158 -0.022816390202171469 0 0.31963770349345633 -0.0299254962209573 0 0.31148870107994919 -0.0067535916651963891 0 0.31963770349345633 -0.0299254962209573 0 0.31148870107994919 -0.0067535916651963891 0 0.30726749572833872 -0.02125694473778468 0 0.31963770349345633 -0.0299254962209573 0 0.31148870107994919 -0.0067535916651963891 0 0.3316333458465428 -0.01206853037195431 0 0.32414120488459158 -0.022816390202171469 0 0.32271284280328111 -0.002473047446176603 0 0.32414120488459158 -0.022816390202171469 0 0.32271284280328111 -0.002473047446176603 0 0.31148870107994919 -0.0067535916651963891 0 0.32414120488459158 -0.022816390202171469 0 0.32271284280328111 -0.002473047446176603 0 0.31424911811307599 0.0081748539557583971 0 0.32271284280328111 -0.002473047446176603 0 0.31148870107994919 -0.0067535916651963891 0 0.32108485632847689 -0.063541725392183376 0 0.31893654532244048 -0.064267346257443625 0 0.30125121606470529 -0.053143792790305067 0 0.3142413676027504 -0.052480502443213672 0 0.33035820524904042 -0.060409527377694158 0 0.32108485632847689 -0.063541725392183376 0 0.3142413676027504 -0.052480502443213672 0 0.32499795437125267 -0.045167511799324177 0 0.33035820524904042 -0.060409527377694158 0 0.32499795437125267 -0.045167511799324177 0 0.33035820524904042 -0.060409527377694158 0 0.33035820524904042 -0.060409527377694158 0 0.32108485632847689 -0.063541725392183376 0 0.31963770349345633 -0.0299254962209573 0 0.32499795437125267 -0.045167511799324177 0 0.31163948596535662 -0.042104120333996367 0 0.3142413676027504 -0.052480502443213672 0 0.32499795437125267 -0.045167511799324177 0 0.31163948596535662 -0.042104120333996367 0 0.31963770349345633 -0.0299254962209573 0 0.32499795437125267 -0.045167511799324177 0 0.33916778086540272 -0.042878120346715412 0 0.31963770349345633 -0.0299254962209573 0 0.32499795437125267 -0.045167511799324177 0 0.34088438886276362 -0.025269715484411499 0 0.31963770349345633 -0.0299254962209573 0 0.33916778086540272 -0.042878120346715412 0 0.33035820524904042 -0.060409527377694158 0 0.34735245158123063 -0.054669492674441177 0 0.34534500168161242 -0.066594894456436446 0 0.33035820524904042 -0.060409527377694158 0 0.34735245158123063 -0.054669492674441177 0 0.32499795437125267 -0.045167511799324177 0 0.33916778086540272 -0.042878120346715412 0 0.33035820524904042 -0.060409527377694158 0 0.33916778086540272 -0.042878120346715412 0 0.33035820524904042 -0.060409527377694158 0 0.34735245158123063 -0.054669492674441177 0 0.34735245158123063 -0.054669492674441177 0 0.36434669791342073 -0.048929457971188008 0 0.36420656114971622 -0.067502294158936618 0 0.34735245158123063 -0.054669492674441177 0 0.36434669791342073 -0.048929457971188008 0 0.33916778086540272 -0.042878120346715412 0 0.34735245158123063 -0.054669492674441177 0 0.35306716684862161 -0.036373548255202913 0 0.34735245158123063 -0.054669492674441177 0 0.35306716684862161 -0.036373548255202913 0 0.36434669791342073 -0.048929457971188008 0 0.34088438886276362 -0.025269715484411499 0 0.33916778086540272 -0.042878120346715412 0 0.35306716684862161 -0.036373548255202913 0 0.36452060763684152 -0.02588056830659672 0 0.36434669791342073 -0.048929457971188008 0 0.36452060763684152 -0.02588056830659672 0 0.37453720248385441 -0.040888515632760802 0 0.36434669791342073 -0.048929457971188008 0 0.36452060763684152 -0.02588056830659672 0 0.35306716684862161 -0.036373548255202913 0 0.36434669791342073 -0.048929457971188008 0 0.37946840966451278 -0.057129495650098429 0 0.36434669791342073 -0.048929457971188008 0 0.36420656114971622 -0.067502294158936618 0 0.36434669791342073 -0.048929457971188008 0 0.36420656114971622 -0.067502294158936618 0 0.37774735302625978 -0.076891409648543185 0 0.37946840966451278 -0.057129495650098429 0 0.36420656114971622 -0.067502294158936618 0 0.37774735302625978 -0.076891409648543185 0 0.36420656114971622 -0.067502294158936618 0 0.36406642438601278 -0.086075130346685194 0 0.36420656114971622 -0.067502294158936618 0 0.36406642438601278 -0.086075130346685194 0 0.36406642438601278 -0.086075130346685194 0 0.34893566370731482 -0.078142717150722435 0 0.36406642438601278 -0.086075130346685194 0 0.35155928161879663 -0.092927933044567812 0 0.34893566370731482 -0.078142717150722435 0 0.35155928161879663 -0.092927933044567812 0 0.34068849649886113 -0.096921548376201955 0 0.33918930010897119 -0.086133016741932855 0 0.35155928161879663 -0.092927933044567812 0 0.34893566370731482 -0.078142717150722435 0 0.33918930010897119 -0.086133016741932855 0 0.36420656114971622 -0.067502294158936618 0 0.34893566370731482 -0.078142717150722435 0 0.34534500168161242 -0.066594894456436446 0 0.34735245158123063 -0.054669492674441177 0 0.36420656114971622 -0.067502294158936618 0 0.34534500168161242 -0.066594894456436446 0 0.36420656114971622 -0.067502294158936618 0 0.36406642438601278 -0.086075130346685194 0 0.34893566370731482 -0.078142717150722435 0 0.37986784028732212 -0.1169607173404761 0 0.36391842194861701 -0.1056904329445002 0 0.36377041951122058 -0.12530573554231531 0 0.36391842194861701 -0.1056904329445002 0 0.3552168073898776 -0.1136078810881342 0 0.36377041951122058 -0.12530573554231531 0 0.36391842194861701 -0.1056904329445002 0 0.36377041951122058 -0.12530573554231531 0 0.36406642438601278 -0.086075130346685194 0 0.35155928161879663 -0.092927933044567812 0 0.36391842194861701 -0.1056904329445002 0 0.38961273066463459 -0.099467970358878402 0 0.36406642438601278 -0.086075130346685194 0 0.36391842194861701 -0.1056904329445002 0 0.36406642438601278 -0.086075130346685194 0 0.36391842194861701 -0.1056904329445002 0 0.35155928161879663 -0.092927933044567812 0 0.36391842194861701 -0.1056904329445002 0 0.34906963005352531 -0.1056725435205615 0 0.35155928161879663 -0.092927933044567812 0 0.34906963005352531 -0.1056725435205615 0 0.34068849649886113 -0.096921548376201955 0 0.36391842194861701 -0.1056904329445002 0 0.34906963005352531 -0.1056725435205615 0 0.3552168073898776 -0.1136078810881342 0 0.3443613765444048 -0.1173322538326296 0 0.36377041951122058 -0.12530573554231531 0 0.3552168073898776 -0.1136078810881342 0 0.3443613765444048 -0.1173322538326296 0 0.36377041951122058 -0.12530573554231531 0 0.3443613765444048 -0.1173322538326296 0 0.35192335451790818 -0.1260853699505016 0 0.36377041951122058 -0.12530573554231531 0 0.34906963005352531 -0.1056725435205615 0 0.3443613765444048 -0.1173322538326296 0 0.33797902830399501 -0.1057787755460091 0 0.34906963005352531 -0.1056725435205615 0 0.3552168073898776 -0.1136078810881342 0 0.3443613765444048 -0.1173322538326296 0 0.3443613765444048 -0.1173322538326296 0 0.33737728465763123 -0.12988404772892839 0 0.35192335451790818 -0.1260853699505016 0 0.3443613765444048 -0.1173322538326296 0 0.32495233357758901 -0.10935877212294361 0 0.32644342784507119 -0.12418707544094409 0 0.3443613765444048 -0.1173322538326296 0 0.33797902830399501 -0.1057787755460091 0 0.32495233357758901 -0.10935877212294361 0 0.3443613765444048 -0.1173322538326296 0 0.32495233357758901 -0.10935877212294361 0 0.3443613765444048 -0.1173322538326296 0 0.32644342784507119 -0.12418707544094409 0 0.33737728465763123 -0.12988404772892839 0 0.33797902830399501 -0.1057787755460091 0 0.32934212449552408 -0.10044350914475909 0 0.32495233357758901 -0.10935877212294361 0 0.34906963005352531 -0.1056725435205615 0 0.33797902830399501 -0.1057787755460091 0 0.34068849649886113 -0.096921548376201955 0 0.33797902830399501 -0.1057787755460091 0 0.34068849649886113 -0.096921548376201955 0 0.32934212449552408 -0.10044350914475909 0 0.34068849649886113 -0.096921548376201955 0 0.32934212449552408 -0.10044350914475909 0 0.32761780243628269 -0.090779207379224125 0 0.31547296166089278 -0.099379242299416665 0 0.32495233357758901 -0.10935877212294361 0 0.30269279160029322 -0.11652022513808261 0 0.32934212449552408 -0.10044350914475909 0 0.31547296166089278 -0.099379242299416665 0 0.32761780243628269 -0.090779207379224125 0 0.32934212449552408 -0.10044350914475909 0 0.31547296166089278 -0.099379242299416665 0 0.32495233357758901 -0.10935877212294361 0 0.32495233357758901 -0.10935877212294361 0 0.32644342784507119 -0.12418707544094409 0 0.30269279160029322 -0.11652022513808261 0 0.32644342784507119 -0.12418707544094409 0 0.30269279160029322 -0.11652022513808261 0 0.32644342784507119 -0.12418707544094409 0 0.30269279160029322 -0.11652022513808261 0 0.31865930707051188 -0.133225244255891 0 0.33380490302861571 -0.070210303954761744 0 0.33623076023078119 -0.077108293267080449 0 0.32820546253042832 -0.079768228594799206 0 0.33380490302861571 -0.070210303954761744 0 0.33623076023078119 -0.077108293267080449 0 0.33035820524904042 -0.060409527377694158 0 0.33380490302861571 -0.070210303954761744 0 0.32108485632847689 -0.063541725392183376 0 0.33035820524904042 -0.060409527377694158 0 0.33380490302861571 -0.070210303954761744 0 0.33035820524904042 -0.060409527377694158 0 0.34534500168161242 -0.066594894456436446 0 0.33380490302861571 -0.070210303954761744 0 0.34893566370731482 -0.078142717150722435 0 0.34534500168161242 -0.066594894456436446 0 0.33380490302861571 -0.070210303954761744 0 0.34893566370731482 -0.078142717150722435 0 0.33380490302861571 -0.070210303954761744 0 0.33623076023078119 -0.077108293267080449 0 0.34893566370731482 -0.078142717150722435 0 0.33380490302861571 -0.070210303954761744 0 0.34893566370731482 -0.078142717150722435 0 0.33623076023078119 -0.077108293267080449 0 0.33918930010897119 -0.086133016741932855 0 0.34068849649886113 -0.096921548376201955 0 0.33918930010897119 -0.086133016741932855 0 0.32761780243628269 -0.090779207379224125 0 0.33623076023078119 -0.077108293267080449 0 0.33918930010897119 -0.086133016741932855 0 0.32820546253042832 -0.079768228594799206 0 0.33918930010897119 -0.086133016741932855 0 0.32820546253042832 -0.079768228594799206 0 0.32761780243628269 -0.090779207379224125 0 0.32820546253042832 -0.079768228594799206 0 0.32761780243628269 -0.090779207379224125 0 0.31077777926189332 -0.082198241601700001 0 0.31547296166089278 -0.099379242299416665 0 0.32761780243628269 -0.090779207379224125 0 0.31077777926189332 -0.082198241601700001 0 0.32820546253042832 -0.079768228594799206 0 0.32161223011602519 -0.072180308624096967 0 0.31077777926189332 -0.082198241601700001 0 0.31458414247100752 -0.071158268500317604 0 0.32161223011602519 -0.072180308624096967 0 0.31077777926189332 -0.082198241601700001 0 0.33380490302861571 -0.070210303954761744 0 0.32820546253042832 -0.079768228594799206 0 0.32161223011602519 -0.072180308624096967 0 0.33380490302861571 -0.070210303954761744 0 0.32161223011602519 -0.072180308624096967 0 0.32108485632847689 -0.063541725392183376 0 0.32161223011602519 -0.072180308624096967 0 0.32108485632847689 -0.063541725392183376 0 0.31893654532244048 -0.064267346257443625 0 0.33380490302861571 -0.070210303954761744 0 0.32108485632847689 -0.063541725392183376 0 0.31893654532244048 -0.064267346257443625 0 0.31227773668063491 -0.067651018801334256 0 0.30723924128700719 -0.064373617222627064 0 0.31458414247100752 -0.071158268500317604 0 0.32161223011602519 -0.072180308624096967 0 0.31893654532244048 -0.064267346257443625 0 0.32108485632847689 -0.063541725392183376 0 0.31893654532244048 -0.064267346257443625 0 0.31458414247100752 -0.071158268500317604 0 0.31893654532244048 -0.064267346257443625 0 0.31227773668063491 -0.067651018801334256 0 0.29749356939213278 -0.069148420565714186 0 0.31077777926189332 -0.082198241601700001 0 0.28708913679536652 -0.079330540123577487 0 0.31458414247100752 -0.071158268500317604 0 0.31227773668063491 -0.067651018801334256 0 0.30835101764208428 -0.070804843224948719 0 0.31227773668063491 -0.067651018801334256 0 0.30723924128700719 -0.064373617222627064 0 0.30835101764208428 -0.070804843224948719 0 0.30723924128700719 -0.064373617222627064 0 0.29749356939213278 -0.069148420565714186 0 0.30208748475031461 -0.060716400148214118 0 0.30723924128700719 -0.064373617222627064 0 0.29749356939213278 -0.069148420565714186 0 0.30835101764208428 -0.070804843224948719 0 0.31458414247100752 -0.071158268500317604 0 0.30835101764208428 -0.070804843224948719 0 0.31077777926189332 -0.082198241601700001 0 0.29749356939213278 -0.069148420565714186 0 0.30835101764208428 -0.070804843224948719 0 0.31077777926189332 -0.082198241601700001 0 0.31547296166089278 -0.099379242299416665 0 0.31077777926189332 -0.082198241601700001 0 0.29597375824370409 -0.097810247676841086 0 0.31077777926189332 -0.082198241601700001 0 0.28708913679536652 -0.079330540123577487 0 0.29597375824370409 -0.097810247676841086 0 0.31077777926189332 -0.082198241601700001 0 0.28708913679536652 -0.079330540123577487 0 0.28708913679536652 -0.079330540123577487 0 0.29597375824370409 -0.097810247676841086 0 0.28034818765346847 -0.090822449304013772 0 0.28708913679536652 -0.079330540123577487 0 0.28674940582026892 -0.06740800879769579 0 0.27663238800134188 -0.069061504288998793 0 0.28674940582026892 -0.06740800879769579 0 0.27663238800134188 -0.069061504288998793 0 0.28137076115308313 -0.060180118831123987 0 0.29749356939213278 -0.069148420565714186 0 0.28674940582026892 -0.06740800879769579 0 0.29116117375942019 -0.059319460179064511 0 0.29749356939213278 -0.069148420565714186 0 0.30208748475031461 -0.060716400148214118 0 0.29116117375942019 -0.059319460179064511 0 0.29749356939213278 -0.069148420565714186 0 0.28708913679536652 -0.079330540123577487 0 0.28674940582026892 -0.06740800879769579 0 0.31547296166089278 -0.099379242299416665 0 0.30269279160029322 -0.11652022513808261 0 0.29597375824370409 -0.097810247676841086 0 0.29597375824370409 -0.097810247676841086 0 0.27558263867722071 -0.099498386104598296 0 0.28034818765346847 -0.090822449304013772 0 0.29597375824370409 -0.097810247676841086 0 0.27558263867722071 -0.099498386104598296 0 0.30269279160029322 -0.11652022513808261 0 0.29597375824370409 -0.097810247676841086 0 0.27894215535551498 -0.1088533748352211 0 0.29597375824370409 -0.097810247676841086 0 0.27894215535551498 -0.1088533748352211 0 0.27558263867722071 -0.099498386104598296 0 0.30269279160029322 -0.11652022513808261 0 0.28792264062809669 -0.1216545141442566 0 0.29256471602532058 -0.13658667471621669 0 0.30269279160029322 -0.11652022513808261 0 0.27894215535551498 -0.1088533748352211 0 0.30269279160029322 -0.11652022513808261 0 0.28792264062809669 -0.1216545141442566 0 0.27894215535551498 -0.1088533748352211 0 0.28792264062809669 -0.1216545141442566 0 0.27535624966864791 -0.1196139081371477 0 0.27117179939470532 -0.13151730989287849 0 0.27535624966864791 -0.1196139081371477 0 0.26338840329627439 -0.1164304336762348 0 0.27117179939470532 -0.13151730989287849 0 0.28792264062809669 -0.1216545141442566 0 0.27535624966864791 -0.1196139081371477 0 0.27894215535551498 -0.1088533748352211 0 0.27535624966864791 -0.1196139081371477 0 0.27894215535551498 -0.1088533748352211 0 0.26338840329627439 -0.1164304336762348 0 0.27894215535551498 -0.1088533748352211 0 0.27558263867722071 -0.099498386104598296 0 0.25519151911073762 -0.10118652453235751 0 0.27894215535551498 -0.1088533748352211 0 0.25519151911073762 -0.10118652453235751 0 0.26338840329627439 -0.1164304336762348 0 0.27558263867722071 -0.099498386104598296 0 0.25519151911073762 -0.10118652453235751 0 0.26859760575317432 -0.091959990817325088 0 0.27894215535551498 -0.1088533748352211 0 0.25519151911073762 -0.10118652453235751 0 0.27558263867722071 -0.099498386104598296 0 0.28034818765346847 -0.090822449304013772 0 0.26859760575317432 -0.091959990817325088 0 0.27558263867722071 -0.099498386104598296 0 0.25519151911073762 -0.10118652453235751 0 0.25519151911073762 -0.10118652453235751 0 0.26859760575317432 -0.091959990817325088 0 0.26121733559567312 -0.089368098962218742 0 0.26338840329627439 -0.1164304336762348 0 0.27117179939470532 -0.13151730989287849 0 0.2497788827640908 -0.1264479450695371 0 0.25519151911073762 -0.10118652453235751 0 0.26338840329627439 -0.1164304336762348 0 0.25118621647523448 -0.1143086662573647 0 0.26338840329627439 -0.1164304336762348 0 0.25118621647523448 -0.1143086662573647 0 0.2497788827640908 -0.1264479450695371 0 0.26340049432883977 -0.076462838645454209 0 0.26963554343463919 -0.058150325916480512 0 0.28708913679536652 -0.079330540123577487 0 0.26340049432883977 -0.076462838645454209 0 0.27663238800134188 -0.069061504288998793 0 0.26340049432883977 -0.076462838645454209 0 0.26963554343463919 -0.058150325916480512 0 0.28708913679536652 -0.079330540123577487 0 0.27663238800134188 -0.069061504288998793 0 0.26340049432883977 -0.076462838645454209 0 0.28708913679536652 -0.079330540123577487 0 0.27449779879787711 -0.085513081797726889 0 0.28034818765346847 -0.090822449304013772 0 0.28708913679536652 -0.079330540123577487 0 0.27449779879787711 -0.085513081797726889 0 0.26340049432883977 -0.076462838645454209 0 0.27449779879787711 -0.085513081797726889 0 0.28034818765346847 -0.090822449304013772 0 0.26859760575317432 -0.091959990817325088 0 0.27449779879787711 -0.085513081797726889 0 0.26859760575317432 -0.091959990817325088 0 0.26700267665460592 -0.083924975397070126 0 0.27449779879787711 -0.085513081797726889 0 0.26700267665460592 -0.083924975397070126 0 0.26340049432883977 -0.076462838645454209 0 0.26118837033780662 -0.083969509258299463 0 0.25342773340560182 -0.085256409719527318 0 0.26340049432883977 -0.076462838645454209 0 0.25519151911073762 -0.10118652453235751 0 0.26121733559567312 -0.089368098962218742 0 0.25342773340560182 -0.085256409719527318 0 0.25342773340560182 -0.085256409719527318 0 0.26340049432883977 -0.076462838645454209 0 0.24095333360466439 -0.073745428558349688 0 0.25519151911073762 -0.10118652453235751 0 0.25342773340560182 -0.085256409719527318 0 0.24172236734125041 -0.086945508578197175 0 0.26700267665460592 -0.083924975397070126 0 0.26118837033780662 -0.083969509258299463 0 0.26340049432883977 -0.076462838645454209 0 0.26700267665460592 -0.083924975397070126 0 0.26118837033780662 -0.083969509258299463 0 0.26121733559567312 -0.089368098962218742 0 0.26859760575317432 -0.091959990817325088 0 0.26700267665460592 -0.083924975397070126 0 0.26121733559567312 -0.089368098962218742 0 0.26118837033780662 -0.083969509258299463 0 0.26121733559567312 -0.089368098962218742 0 0.25342773340560182 -0.085256409719527318 0 0.26340049432883977 -0.076462838645454209 0 0.2536512130525353 -0.062925688879433062 0 0.26963554343463919 -0.058150325916480512 0 0.26340049432883977 -0.076462838645454209 0 0.24095333360466439 -0.073745428558349688 0 0.26340049432883977 -0.076462838645454209 0 0.2536512130525353 -0.062925688879433062 0 0.24095333360466439 -0.073745428558349688 0 0.2536512130525353 -0.062925688879433062 0 0.26963554343463919 -0.058150325916480512 0 0.24981487347716699 -0.045225755123019462 0 0.26963554343463919 -0.058150325916480512 0 0.27543792279397761 -0.039610982872801737 0 0.24981487347716699 -0.045225755123019462 0 0.26963554343463919 -0.058150325916480512 0 0.27543792279397761 -0.039610982872801737 0 0.28410690460225202 -0.048368220042450359 0 0.26963554343463919 -0.058150325916480512 0 0.27543792279397761 -0.039610982872801737 0 0.26963554343463919 -0.058150325916480512 0 0.28137076115308313 -0.060180118831123987 0 0.28410690460225202 -0.048368220042450359 0 0.27663238800134188 -0.069061504288998793 0 0.26963554343463919 -0.058150325916480512 0 0.28137076115308313 -0.060180118831123987 0 0.27809656229929558 -0.033300078062792067 0 0.27543792279397761 -0.039610982872801737 0 0.28336773830425588 -0.037873324426061387 0 0.27543792279397761 -0.039610982872801737 0 0.28336773830425588 -0.037873324426061387 0 0.27485905086434309 -0.03565165306146429 0 0.27809656229929558 -0.033300078062792067 0 0.27543792279397761 -0.039610982872801737 0 0.27809656229929558 -0.033300078062792067 0 0.27543792279397761 -0.039610982872801737 0 0.27485905086434309 -0.03565165306146429 0 0.27809656229929558 -0.033300078062792067 0 0.27290647651797267 -0.031769382317940853 0 0.27809656229929558 -0.033300078062792067 0 0.27290647651797267 -0.031769382317940853 0 0.27809656229929558 -0.033300078062792067 0 0.28315062281610498 -0.034790656302395667 0 0.27809656229929558 -0.033300078062792067 0 0.28003139696809931 -0.027617414799099491 0 0.28315062281610498 -0.034790656302395667 0 0.27543792279397761 -0.039610982872801737 0 0.28379884185087922 -0.043994256527429283 0 0.28336773830425588 -0.037873324426061387 0 0.27543792279397761 -0.039610982872801737 0 0.28379884185087922 -0.043994256527429283 0 0.27543792279397761 -0.039610982872801737 0 0.28410690460225202 -0.048368220042450359 0 0.28379884185087922 -0.043994256527429283 0 0.27485905086434309 -0.03565165306146429 0 0.26702165848032872 -0.035198694057997151 0 0.27290647651797267 -0.031769382317940853 0 0.27485905086434309 -0.03565165306146429 0 0.27543792279397761 -0.039610982872801737 0 0.26702165848032872 -0.035198694057997151 0 0.27543792279397761 -0.039610982872801737 0 0.26702165848032872 -0.035198694057997151 0 0.26702165848032872 -0.035198694057997151 0 0.27290647651797267 -0.031769382317940853 0 0.27543792279397761 -0.039610982872801737 0 0.26702165848032872 -0.035198694057997151 0 0.24981487347716699 -0.045225755123019462 0 0.26702165848032872 -0.035198694057997151 0 0.24981487347716699 -0.045225755123019462 0 0.24755297663032391 -0.033829018950415138 0 0.27543792279397761 -0.039610982872801737 0 0.24981487347716699 -0.045225755123019462 0 0.26702165848032872 -0.035198694057997151 0 0.24981487347716699 -0.045225755123019462 0 0.27290647651797267 -0.031769382317940853 0 0.25637973895058302 -0.01510207843556168 0 0.24450000496530869 -0.023391550628056531 0 0.26702165848032872 -0.035198694057997151 0 0.27290647651797267 -0.031769382317940853 0 0.24450000496530869 -0.023391550628056531 0 0.27290647651797267 -0.031769382317940853 0 0.24450000496530869 -0.023391550628056531 0 0.26702165848032872 -0.035198694057997151 0 0.24450000496530869 -0.023391550628056531 0 0.26702165848032872 -0.035198694057997151 0 0.24755297663032391 -0.033829018950415138 0 0.24450000496530869 -0.023391550628056531 0 0.25663693095762091 0.0022784280376400498 0 0.25637973895058302 -0.01510207843556168 0 0.24658817508467629 -0.0044264657669183492 0 0.27022478629405028 0.00033251994572997679 0 0.25663693095762091 0.0022784280376400498 0 0.25637973895058302 -0.01510207843556168 0 0.27022478629405028 0.00033251994572997679 0 0.28188542248689352 -0.016826978270860271 0 0.27022478629405028 0.00033251994572997679 0 0.28075668783632107 -0.00080087917984299206 0 0.28188542248689352 -0.016826978270860271 0 0.27022478629405028 0.00033251994572997679 0 0.25637973895058302 -0.01510207843556168 0 0.27282767808952479 -0.019043475074726021 0 0.27022478629405028 0.00033251994572997679 0 0.27282767808952479 -0.019043475074726021 0 0.28188542248689352 -0.016826978270860271 0 0.27290647651797267 -0.031769382317940853 0 0.25637973895058302 -0.01510207843556168 0 0.27282767808952479 -0.019043475074726021 0 0.27282767808952479 -0.019043475074726021 0 0.28219735791858142 -0.021255927214462591 0 0.28188542248689352 -0.016826978270860271 0 0.27282767808952479 -0.019043475074726021 0 0.28003139696809931 -0.027617414799099491 0 0.28219735791858142 -0.021255927214462591 0 0.28003139696809931 -0.027617414799099491 0 0.28219735791858142 -0.021255927214462591 0 0.27290647651797267 -0.031769382317940853 0 0.27282767808952479 -0.019043475074726021 0 0.28003139696809931 -0.027617414799099491 0 0.28003139696809931 -0.027617414799099491 0 0.28254234736781503 -0.026154186602518292 0 0.27809656229929558 -0.033300078062792067 0 0.27290647651797267 -0.031769382317940853 0 0.28003139696809931 -0.027617414799099491 0 0.27290647651797267 -0.031769382317940853 0 0.28003139696809931 -0.027617414799099491 0 0.27809656229929558 -0.033300078062792067 0 0.28003139696809931 -0.027617414799099491 0 0.28254234736781503 -0.026154186602518292 0 0.28315062281610498 -0.034790656302395667 0 0.28590673025729452 -0.030569820915041231 0 0.28254234736781503 -0.026154186602518292 0 0.28315062281610498 -0.034790656302395667 0 0.29090419393251898 -0.019692500840589568 0 0.29655392147865089 -0.010608698320414009 0 0.29918214976912338 -0.03440791648227369 0 0.28628004211709568 -0.02734041015529886 0 0.28590673025729452 -0.030569820915041231 0 0.28254234736781503 -0.026154186602518292 0 0.28003139696809931 -0.027617414799099491 0 0.28254234736781503 -0.026154186602518292 0 0.28315062281610498 -0.034790656302395667 0 0.28628004211709568 -0.02734041015529886 0 0.28590673025729452 -0.030569820915041231 0 0.29005901705325521 -0.02885503395024841 0 0.28628004211709568 -0.02734041015529886 0 0.2866120737900183 -0.023782599153388099 0 0.29005901705325521 -0.02885503395024841 0 0.2866120737900183 -0.023782599153388099 0 0.29005901705325521 -0.02885503395024841 0 0.28628004211709568 -0.02734041015529886 0 0.2866120737900183 -0.023782599153388099 0 0.28254234736781503 -0.026154186602518292 0 0.2866120737900183 -0.023782599153388099 0 0.28254234736781503 -0.026154186602518292 0 0.28219735791858142 -0.021255927214462591 0 0.28254234736781503 -0.026154186602518292 0 0.28219735791858142 -0.021255927214462591 0 0.2866120737900183 -0.023782599153388099 0 0.28254234736781503 -0.026154186602518292 0 0.28003139696809931 -0.027617414799099491 0 0.28254234736781503 -0.026154186602518292 0 0.28219735791858142 -0.021255927214462591 0 0.2866120737900183 -0.023782599153388099 0 0.28309785020036121 -0.018611156324526479 0 0.2866120737900183 -0.023782599153388099 0 0.28219735791858142 -0.021255927214462591 0 0.28309785020036121 -0.018611156324526479 0 0.28219735791858142 -0.021255927214462591 0 0.28309785020036121 -0.018611156324526479 0 0.28219735791858142 -0.021255927214462591 0 0.28188542248689352 -0.016826978270860271 0 0.28219735791858142 -0.021255927214462591 0 0.28188542248689352 -0.016826978270860271 0 0.28309785020036121 -0.018611156324526479 0 0.28188542248689352 -0.016826978270860271 0 0.28309785020036121 -0.018611156324526479 0 0.2866120737900183 -0.023782599153388099 0 0.28309785020036121 -0.018611156324526479 0 0.29090419393251898 -0.019692500840589568 0 0.29090419393251898 -0.019692500840589568 0 0.29005901705325521 -0.02885503395024841 0 0.29918214976912338 -0.03440791648227369 0 0.2866120737900183 -0.023782599153388099 0 0.29090419393251898 -0.019692500840589568 0 0.29005901705325521 -0.02885503395024841 0 0.28075668783632107 -0.00080087917984299206 0 0.28188542248689352 -0.016826978270860271 0 0.29392569318817041 0.013190519841444859 0 0.28851177169426301 -0.0027103182415398122 0 0.29655392147865089 -0.010608698320414009 0 0.28309785020036121 -0.018611156324526479 0 0.29090419393251898 -0.019692500840589568 0 0.28851177169426301 -0.0027103182415398122 0 0.28188542248689352 -0.016826978270860271 0 0.28309785020036121 -0.018611156324526479 0 0.28851177169426301 -0.0027103182415398122 0 0.28309785020036121 -0.018611156324526479 0 0.28851177169426301 -0.0027103182415398122 0 0.29090419393251898 -0.019692500840589568 0 0.28851177169426301 -0.0027103182415398122 0 0.29655392147865089 -0.010608698320414009 0 0.28075668783632107 -0.00080087917984299206 0 0.28188542248689352 -0.016826978270860271 0 0.28851177169426301 -0.0027103182415398122 0 0.30132700360330089 0.0030616356865989119 0 0.29655392147865089 -0.010608698320414009 0 0.31148870107994919 -0.0067535916651963891 0 0.29655392147865089 -0.010608698320414009 0 0.31148870107994919 -0.0067535916651963891 0 0.30726749572833872 -0.02125694473778468 0 0.29655392147865089 -0.010608698320414009 0 0.30726749572833872 -0.02125694473778468 0 0.29918214976912338 -0.03440791648227369 0 0.29655392147865089 -0.010608698320414009 0 0.29918214976912338 -0.03440791648227369 0 0.31963770349345633 -0.0299254962209573 0 0.30726749572833872 -0.02125694473778468 0 0.29918214976912338 -0.03440791648227369 0 0.29918214976912338 -0.03440791648227369 0 0.30125121606470529 -0.053143792790305067 0 0.29390260883124758 -0.03796170586410598 0 0.31963770349345633 -0.0299254962209573 0 0.29918214976912338 -0.03440791648227369 0 0.31163948596535662 -0.042104120333996367 0 0.31963770349345633 -0.0299254962209573 0 0.29918214976912338 -0.03440791648227369 0 0.29918214976912338 -0.03440791648227369 0 0.31163948596535662 -0.042104120333996367 0 0.30125121606470529 -0.053143792790305067 0 0.29918214976912338 -0.03440791648227369 0 0.30125121606470529 -0.053143792790305067 0 0.32108485632847689 -0.063541725392183376 0 0.30125121606470529 -0.053143792790305067 0 0.3142413676027504 -0.052480502443213672 0 0.31163948596535662 -0.042104120333996367 0 0.30125121606470529 -0.053143792790305067 0 0.3142413676027504 -0.052480502443213672 0 0.32108485632847689 -0.063541725392183376 0 0.30125121606470529 -0.053143792790305067 0 0.31893654532244048 -0.064267346257443625 0 0.30723924128700719 -0.064373617222627064 0 0.30125121606470529 -0.053143792790305067 0 0.30723924128700719 -0.064373617222627064 0 0.30208748475031461 -0.060716400148214118 0 0.30125121606470529 -0.053143792790305067 0 0.30208748475031461 -0.060716400148214118 0 0.30125121606470529 -0.053143792790305067 0 0.29116117375942019 -0.059319460179064511 0 0.30208748475031461 -0.060716400148214118 0 0.30125121606470529 -0.053143792790305067 0 0.30125121606470529 -0.053143792790305067 0 0.28410690460225202 -0.048368220042450359 0 0.28379884185087922 -0.043994256527429283 0 0.30125121606470529 -0.053143792790305067 0 0.29116117375942019 -0.059319460179064511 0 0.28410690460225202 -0.048368220042450359 0 0.30125121606470529 -0.053143792790305067 0 0.28379884185087922 -0.043994256527429283 0 0.28674940582026892 -0.06740800879769579 0 0.29116117375942019 -0.059319460179064511 0 0.28137076115308313 -0.060180118831123987 0 0.29116117375942019 -0.059319460179064511 0 0.28137076115308313 -0.060180118831123987 0 0.28410690460225202 -0.048368220042450359 0 0.28410690460225202 -0.048368220042450359 0 0.28379884185087922 -0.043994256527429283 0 0.28379884185087922 -0.043994256527429283 0 0.28923992214252953 -0.036586554281894203 0 0.29390260883124758 -0.03796170586410598 0 0.30125121606470529 -0.053143792790305067 0 0.28379884185087922 -0.043994256527429283 0 0.29390260883124758 -0.03796170586410598 0 0.28379884185087922 -0.043994256527429283 0 0.28336773830425588 -0.037873324426061387 0 0.28923992214252953 -0.036586554281894203 0 0.28379884185087922 -0.043994256527429283 0 0.28336773830425588 -0.037873324426061387 0 0.27809656229929558 -0.033300078062792067 0 0.28336773830425588 -0.037873324426061387 0 0.28315062281610498 -0.034790656302395667 0 0.28336773830425588 -0.037873324426061387 0 0.28315062281610498 -0.034790656302395667 0 0.28590673025729452 -0.030569820915041231 0 0.29005901705325521 -0.02885503395024841 0 0.28923992214252953 -0.036586554281894203 0 0.28590673025729452 -0.030569820915041231 0 0.28315062281610498 -0.034790656302395667 0 0.28923992214252953 -0.036586554281894203 0 0.28336773830425588 -0.037873324426061387 0 0.28315062281610498 -0.034790656302395667 0 0.28923992214252953 -0.036586554281894203 0 0.28336773830425588 -0.037873324426061387 0 0.28923992214252953 -0.036586554281894203 0 0.28315062281610498 -0.034790656302395667 0 0.28923992214252953 -0.036586554281894203 0 0.29918214976912338 -0.03440791648227369 0 0.28923992214252953 -0.036586554281894203 0 0.29918214976912338 -0.03440791648227369 0 0.28923992214252953 -0.036586554281894203 0 0.29390260883124758 -0.03796170586410598 0 0.29005901705325521 -0.02885503395024841 0 0.29918214976912338 -0.03440791648227369 0 0.28923992214252953 -0.036586554281894203 0 0.28923992214252953 -0.036586554281894203 0 0.29390260883124758 -0.03796170586410598 0 0.29098833126180468 -0.20387168800470479 0 0.29219799760707732 -0.21107780775768081 0 0.27130633578112529 -0.1991831542733532 0 0.29219799760707732 -0.21107780775768081 0 0.27130633578112529 -0.1991831542733532 0 0.29219799760707732 -0.21107780775768081 0 0.2745332733617642 -0.22162393193876331 0 0.2940417934719658 -0.2186458497120827 0 0.29219799760707732 -0.21107780775768081 0 0.2745332733617642 -0.22162393193876331 0 0.29098833126180468 -0.20387168800470479 0 0.29219799760707732 -0.21107780775768081 0 0.29768240635980692 -0.20780352761818549 0 0.29219799760707732 -0.21107780775768081 0 0.29768240635980692 -0.20780352761818549 0 0.2940417934719658 -0.2186458497120827 0 0.29219799760707732 -0.21107780775768081 0 0.30149092548557399 -0.2163687299394817 0 0.29219799760707732 -0.21107780775768081 0 0.30149092548557399 -0.2163687299394817 0 0.29098833126180468 -0.20387168800470479 0 0.28844261095766782 -0.1984332052516582 0 0.27130633578112529 -0.1991831542733532 0 0.29280598153027781 -0.19683664944578161 0 0.28070915741420838 -0.1899260818750261 0 0.28440978205493422 -0.17795394336986861 0 0.28844261095766782 -0.1984332052516582 0 0.29280598153027781 -0.19683664944578161 0 0.28070915741420838 -0.1899260818750261 0 0.29280598153027781 -0.19683664944578161 0 0.29768240635980692 -0.20780352761818549 0 0.29098833126180468 -0.20387168800470479 0 0.29280598153027781 -0.19683664944578161 0 0.29768240635980692 -0.20780352761818549 0 0.29098833126180468 -0.20387168800470479 0 0.28844261095766782 -0.1984332052516582 0 0.29280598153027781 -0.19683664944578161 0 0.28844261095766782 -0.1984332052516582 0 0.29280598153027781 -0.19683664944578161 0 0.29768240635980692 -0.20780352761818549 0 0.31994674220567382 -0.19451136141286729 0 0.29768240635980692 -0.20780352761818549 0 0.31346062516906997 -0.18927912237557951 0 0.31994674220567382 -0.19451136141286729 0 0.29280598153027781 -0.19683664944578161 0 0.29768240635980692 -0.20780352761818549 0 0.31346062516906997 -0.18927912237557951 0 0.29280598153027781 -0.19683664944578161 0 0.31346062516906997 -0.18927912237557951 0 0.3120010195373677 -0.20656608367049731 0 0.29768240635980692 -0.20780352761818549 0 0.31994674220567382 -0.19451136141286729 0 0.3120010195373677 -0.20656608367049731 0 0.29768240635980692 -0.20780352761818549 0 0.30587854480534171 -0.21152144888119401 0 0.29768240635980692 -0.20780352761818549 0 0.30149092548557399 -0.2163687299394817 0 0.30587854480534171 -0.21152144888119401 0 0.29219799760707732 -0.21107780775768081 0 0.29768240635980692 -0.20780352761818549 0 0.30149092548557399 -0.2163687299394817 0 0.29768240635980692 -0.20780352761818549 0 0.30149092548557399 -0.2163687299394817 0 0.30149092548557399 -0.2163687299394817 0 0.30587854480534171 -0.21152144888119401 0 0.31233982783861691 -0.21534745429661409 0 0.30149092548557399 -0.2163687299394817 0 0.31233982783861691 -0.21534745429661409 0 0.3155086551200984 -0.22434971479500171 0 0.3120010195373677 -0.20656608367049731 0 0.30587854480534171 -0.21152144888119401 0 0.31233982783861691 -0.21534745429661409 0 0.30149092548557399 -0.2163687299394817 0 0.31022818544545011 -0.23601846696820519 0 0.29177302299990449 -0.22737465766068071 0 0.30149092548557399 -0.2163687299394817 0 0.31022818544545011 -0.23601846696820519 0 0.30149092548557399 -0.2163687299394817 0 0.3155086551200984 -0.22434971479500171 0 0.30149092548557399 -0.2163687299394817 0 0.31022818544545011 -0.23601846696820519 0 0.3155086551200984 -0.22434971479500171 0 0.31022818544545011 -0.23601846696820519 0 0.28996458303351491 -0.2398907168872749 0 0.31022818544545011 -0.23601846696820519 0 0.28996458303351491 -0.2398907168872749 0 0.3017115066742565 -0.25177967556345182 0 0.31022818544545011 -0.23601846696820519 0 0.28996458303351491 -0.2398907168872749 0 0.29177302299990449 -0.22737465766068071 0 0.31022818544545011 -0.23601846696820519 0 0.32138474907902348 -0.26110911810491377 0 0.3017115066742565 -0.25177967556345182 0 0.28996458303351491 -0.2398907168872749 0 0.26970098062157999 -0.2437629668063459 0 0.28445501384134109 -0.25875299136163882 0 0.2940417934719658 -0.2186458497120827 0 0.29177302299990449 -0.22737465766068071 0 0.2745332733617642 -0.22162393193876331 0 0.29177302299990449 -0.22737465766068071 0 0.2745332733617642 -0.22162393193876331 0 0.28037937720115952 -0.23170025051827781 0 0.2940417934719658 -0.2186458497120827 0 0.30149092548557399 -0.2163687299394817 0 0.29177302299990449 -0.22737465766068071 0 0.28996458303351491 -0.2398907168872749 0 0.29177302299990449 -0.22737465766068071 0 0.28037937720115952 -0.23170025051827781 0 0.28037937720115952 -0.23170025051827781 0 0.27270701692094412 -0.22981149309770391 0 0.27052373433903981 -0.23791116268890219 0 0.2745332733617642 -0.22162393193876331 0 0.28037937720115952 -0.23170025051827781 0 0.27270701692094412 -0.22981149309770391 0 0.27270701692094412 -0.22981149309770391 0 0.27052373433903981 -0.23791116268890219 0 0.26539168278181308 -0.2280106272448722 0 0.2745332733617642 -0.22162393193876331 0 0.26539168278181308 -0.2280106272448722 0 0.26266328423113849 -0.21548187279569919 0 0.2745332733617642 -0.22162393193876331 0 0.27270701692094412 -0.22981149309770391 0 0.26539168278181308 -0.2280106272448722 0 0.28996458303351491 -0.2398907168872749 0 0.26970098062157999 -0.2437629668063459 0 0.28996458303351491 -0.2398907168872749 0 0.28037937720115952 -0.23170025051827781 0 0.27052373433903981 -0.23791116268890219 0 0.28996458303351491 -0.2398907168872749 0 0.27052373433903981 -0.23791116268890219 0 0.26970098062157999 -0.2437629668063459 0 0.27052373433903981 -0.23791116268890219 0 0.26970098062157999 -0.2437629668063459 0 0.26970098062157999 -0.2437629668063459 0 0.2564817476433674 -0.23802328440166701 0 0.2404358338234682 -0.24935535655111379 0 0.26970098062157999 -0.2437629668063459 0 0.2404358338234682 -0.24935535655111379 0 0.27052373433903981 -0.23791116268890219 0 0.2564817476433674 -0.23802328440166701 0 0.26539168278181308 -0.2280106272448722 0 0.27052373433903981 -0.23791116268890219 0 0.26970098062157999 -0.2437629668063459 0 0.2564817476433674 -0.23802328440166701 0 0.26539168278181308 -0.2280106272448722 0 0.25316959386933102 -0.22326036357781831 0 0.26266328423113849 -0.21548187279569919 0 0.2564817476433674 -0.23802328440166701 0 0.26539168278181308 -0.2280106272448722 0 0.25316959386933102 -0.22326036357781831 0 0.25316959386933102 -0.22326036357781831 0 0.26266328423113849 -0.21548187279569919 0 0.24891553536165911 -0.2053312869436888 0 0.26266328423113849 -0.21548187279569919 0 0.27130633578112529 -0.1991831542733532 0 0.24891553536165911 -0.2053312869436888 0 0.29219799760707732 -0.21107780775768081 0 0.2745332733617642 -0.22162393193876331 0 0.27130633578112529 -0.1991831542733532 0 0.2745332733617642 -0.22162393193876331 0 0.26266328423113849 -0.21548187279569919 0 0.27130633578112529 -0.1991831542733532 0 0.28844261095766782 -0.1984332052516582 0 0.27130633578112529 -0.1991831542733532 0 0.28070915741420838 -0.1899260818750261 0 0.27130633578112529 -0.1991831542733532 0 0.28070915741420838 -0.1899260818750261 0 0.26747057527332613 -0.17842700852676929 0 0.27130633578112529 -0.1991831542733532 0 0.25041467395517297 -0.1872885007890264 0 0.24891553536165911 -0.2053312869436888 0 0.27130633578112529 -0.1991831542733532 0 0.25041467395517297 -0.1872885007890264 0 0.27130633578112529 -0.1991831542733532 0 0.25041467395517297 -0.1872885007890264 0 0.26747057527332613 -0.17842700852676929 0 0.25041467395517297 -0.1872885007890264 0 0.25392346609877092 -0.17356593308272719 0 0.26747057527332613 -0.17842700852676929 0 0.25392346609877092 -0.17356593308272719 0 0.25680869245699112 -0.16168048277894281 0 0.26747057527332613 -0.17842700852676929 0 0.25392346609877092 -0.17356593308272719 0 0.25680869245699112 -0.16168048277894281 0 0.24099992270959361 -0.16686774023617029 0 0.25680869245699112 -0.16168048277894281 0 0.27601358257959269 -0.1590712372939547 0 0.26747057527332613 -0.17842700852676929 0 0.27601358257959269 -0.1590712372939547 0 0.28440978205493422 -0.17795394336986861 0 0.27601358257959269 -0.1590712372939547 0 0.26747057527332613 -0.17842700852676929 0 0.28440978205493422 -0.17795394336986861 0 0.28070915741420838 -0.1899260818750261 0 0.26747057527332613 -0.17842700852676929 0 0.28440978205493422 -0.17795394336986861 0 0.26361958032103538 -0.13119763776362239 0 0.27117179939470532 -0.13151730989287849 0 0.2497788827640908 -0.1264479450695371 0 0.27117179939470532 -0.13151730989287849 0 0.2497788827640908 -0.1264479450695371 0 0.25607974302211878 -0.1343775769577705 0 0.2497788827640908 -0.1264479450695371 0 0.24693131303015389 -0.13561107073037831 0 0.26361958032103538 -0.13119763776362239 0 0.25607974302211878 -0.1343775769577705 0 0.2497788827640908 -0.1264479450695371 0 0.25607974302211878 -0.1343775769577705 0 0.25425784292570502 -0.14152125636394669 0 0.24693131303015389 -0.13561107073037831 0 0.25425784292570502 -0.14152125636394669 0 0.24693131303015389 -0.13561107073037831 0 0.26361958032103538 -0.13119763776362239 0 0.25607974302211878 -0.1343775769577705 0 0.26745411601393071 -0.13982135027059051 0 0.26361958032103538 -0.13119763776362239 0 0.26745411601393071 -0.13982135027059051 0 0.25607974302211878 -0.1343775769577705 0 0.25425784292570502 -0.14152125636394669 0 0.26745411601393071 -0.13982135027059051 0 0.27601358257959269 -0.1590712372939547 0 0.25425784292570502 -0.14152125636394669 0 0.25680869245699112 -0.16168048277894281 0 0.25425784292570502 -0.14152125636394669 0 0.2424930941679386 -0.15264858353790259 0 0.25680869245699112 -0.16168048277894281 0 0.27601358257959269 -0.1590712372939547 0 0.25425784292570502 -0.14152125636394669 0 0.25425784292570502 -0.14152125636394669 0 0.26745411601393071 -0.13982135027059051 0 0.27601358257959269 -0.1590712372939547 0 0.25425784292570502 -0.14152125636394669 0 0.26745411601393071 -0.13982135027059051 0 0.27601358257959269 -0.1590712372939547 0 0.26745411601393071 -0.13982135027059051 0 0.27601358257959269 -0.1590712372939547 0 0.26745411601393071 -0.13982135027059051 0 0.28966048589635129 -0.15257659193799561 0 0.26745411601393071 -0.13982135027059051 0 0.29256471602532058 -0.13658667471621669 0 0.26745411601393071 -0.13982135027059051 0 0.27117179939470532 -0.13151730989287849 0 0.29256471602532058 -0.13658667471621669 0 0.26361958032103538 -0.13119763776362239 0 0.26745411601393071 -0.13982135027059051 0 0.27117179939470532 -0.13151730989287849 0 0.27117179939470532 -0.13151730989287849 0 0.29256471602532058 -0.13658667471621669 0 0.28792264062809669 -0.1216545141442566 0 0.27117179939470532 -0.13151730989287849 0 0.29256471602532058 -0.13658667471621669 0 0.26745411601393071 -0.13982135027059051 0 0.29256471602532058 -0.13658667471621669 0 0.28966048589635129 -0.15257659193799561 0 0.29256471602532058 -0.13658667471621669 0 0.28966048589635129 -0.15257659193799561 0 0.30641802830376652 -0.15632413253806279 0 0.29256471602532058 -0.13658667471621669 0 0.30641802830376652 -0.15632413253806279 0 0.31692130808720181 -0.1423583258261151 0 0.29256471602532058 -0.13658667471621669 0 0.31692130808720181 -0.1423583258261151 0 0.29256471602532058 -0.13658667471621669 0 0.31865930707051188 -0.133225244255891 0 0.30269279160029322 -0.11652022513808261 0 0.29256471602532058 -0.13658667471621669 0 0.31865930707051188 -0.133225244255891 0 0.29256471602532058 -0.13658667471621669 0 0.31865930707051188 -0.133225244255891 0 0.31692130808720181 -0.1423583258261151 0 0.29280598153027781 -0.19683664944578161 0 0.29473710387433188 -0.17417517983476649 0 0.28440978205493422 -0.17795394336986861 0 0.29280598153027781 -0.19683664944578161 0 0.28440978205493422 -0.17795394336986861 0 0.27601358257959269 -0.1590712372939547 0 0.28966048589635129 -0.15257659193799561 0 0.29473710387433188 -0.17417517983476649 0 0.27601358257959269 -0.1590712372939547 0 0.29473710387433188 -0.17417517983476649 0 0.28440978205493422 -0.17795394336986861 0 0.27601358257959269 -0.1590712372939547 0 0.29473710387433188 -0.17417517983476649 0 0.28966048589635129 -0.15257659193799561 0 0.29473710387433188 -0.17417517983476649 0 0.30641802830376652 -0.15632413253806279 0 0.29473710387433188 -0.17417517983476649 0 0.30641802830376652 -0.15632413253806279 0 0.31162888373856601 -0.1730300635980124 0 0.29280598153027781 -0.19683664944578161 0 0.29473710387433188 -0.17417517983476649 0 0.31346062516906997 -0.18927912237557951 0 0.29473710387433188 -0.17417517983476649 0 0.31162888373856601 -0.1730300635980124 0 0.31346062516906997 -0.18927912237557951 0 0.29473710387433188 -0.17417517983476649 0 0.31346062516906997 -0.18927912237557951 0 0.31162888373856601 -0.1730300635980124 0 0.32371164430602212 -0.162802647817893 0 0.33315752863449699 -0.18207203210850029 0 0.33315752863449699 -0.18207203210850029 0 0.31346062516906997 -0.18927912237557951 0 0.31162888373856601 -0.1730300635980124 0 0.33315752863449699 -0.18207203210850029 0 0.31346062516906997 -0.18927912237557951 0 0.30641802830376652 -0.15632413253806279 0 0.31162888373856601 -0.1730300635980124 0 0.32371164430602212 -0.162802647817893 0 0.30641802830376652 -0.15632413253806279 0 0.32371164430602212 -0.162802647817893 0 0.3181355434861915 -0.15260384319546849 0 0.32371164430602212 -0.162802647817893 0 0.33466161608225081 -0.15666940210096719 0 0.34096213644828238 -0.16659670951839339 0 0.32371164430602212 -0.162802647817893 0 0.34096213644828238 -0.16659670951839339 0 0.33315752863449699 -0.18207203210850029 0 0.33466161608225081 -0.15666940210096719 0 0.34096213644828238 -0.16659670951839339 0 0.34681319466041077 -0.15789044927448839 0 0.33315752863449699 -0.18207203210850029 0 0.35285443209992418 -0.17486494184142129 0 0.33315752863449699 -0.18207203210850029 0 0.33640058715279891 -0.18468815162714411 0 0.31994674220567382 -0.19451136141286729 0 0.33315752863449699 -0.18207203210850029 0 0.33640058715279891 -0.18468815162714411 0 0.35285443209992418 -0.17486494184142129 0 0.34096213644828238 -0.16659670951839339 0 0.33315752863449699 -0.18207203210850029 0 0.35285443209992418 -0.17486494184142129 0 0.32644342784507119 -0.12418707544094409 0 0.31865930707051188 -0.133225244255891 0 0.32738460886848109 -0.13288605980687529 0 0.31865930707051188 -0.133225244255891 0 0.32386653854362529 -0.13919833087826081 0 0.31692130808720181 -0.1423583258261151 0 0.32738460886848109 -0.13288605980687529 0 0.32386653854362529 -0.13919833087826081 0 0.33207701867192568 -0.13932076921249251 0 0.31865930707051188 -0.133225244255891 0 0.32738460886848109 -0.13288605980687529 0 0.32386653854362529 -0.13919833087826081 0 0.32386653854362529 -0.13919833087826081 0 0.32549119324777548 -0.14893026659980321 0 0.33207701867192568 -0.13932076921249251 0 0.32386653854362529 -0.13919833087826081 0 0.31692130808720181 -0.1423583258261151 0 0.32549119324777548 -0.14893026659980321 0 0.31692130808720181 -0.1423583258261151 0 0.3181355434861915 -0.15260384319546849 0 0.32549119324777548 -0.14893026659980321 0 0.30641802830376652 -0.15632413253806279 0 0.31692130808720181 -0.1423583258261151 0 0.3181355434861915 -0.15260384319546849 0 0.32371164430602212 -0.162802647817893 0 0.3181355434861915 -0.15260384319546849 0 0.32549119324777548 -0.14893026659980321 0 0.32371164430602212 -0.162802647817893 0 0.33466161608225081 -0.15666940210096719 0 0.32549119324777548 -0.14893026659980321 0 0.33466161608225081 -0.15666940210096719 0 0.32549119324777548 -0.14893026659980321 0 0.33493288832578583 -0.1473420899136067 0 0.33466161608225081 -0.15666940210096719 0 0.34263220621679019 -0.14960963575961889 0 0.34681319466041077 -0.15789044927448839 0 0.33466161608225081 -0.15666940210096719 0 0.34263220621679019 -0.14960963575961889 0 0.33493288832578583 -0.1473420899136067 0 0.34263220621679019 -0.14960963575961889 0 0.33493288832578583 -0.1473420899136067 0 0.3421372774124441 -0.1395645953223574 0 0.33493288832578583 -0.1473420899136067 0 0.33207701867192568 -0.13932076921249251 0 0.3421372774124441 -0.1395645953223574 0 0.32549119324777548 -0.14893026659980321 0 0.33493288832578583 -0.1473420899136067 0 0.33207701867192568 -0.13932076921249251 0 0.32738460886848109 -0.13288605980687529 0 0.33207701867192568 -0.13932076921249251 0 0.33737728465763123 -0.12988404772892839 0 0.33207701867192568 -0.13932076921249251 0 0.3421372774124441 -0.1395645953223574 0 0.33737728465763123 -0.12988404772892839 0 0.32644342784507119 -0.12418707544094409 0 0.32738460886848109 -0.13288605980687529 0 0.33737728465763123 -0.12988404772892839 0 0.3421372774124441 -0.1395645953223574 0 0.35192335451790818 -0.1260853699505016 0 0.35310448266778621 -0.14824744673929141 0 0.3421372774124441 -0.1395645953223574 0 0.33737728465763123 -0.12988404772892839 0 0.35192335451790818 -0.1260853699505016 0 0.35192335451790818 -0.1260853699505016 0 0.35310448266778621 -0.14824744673929141 0 0.36871907849445901 -0.14836716189033919 0 0.34263220621679019 -0.14960963575961889 0 0.3421372774124441 -0.1395645953223574 0 0.35310448266778621 -0.14824744673929141 0 0.34263220621679019 -0.14960963575961889 0 0.35310448266778621 -0.14824744673929141 0 0.34681319466041077 -0.15789044927448839 0 0.35310448266778621 -0.14824744673929141 0 0.35547991808718682 -0.15909300685888081 0 0.36299899246019413 -0.15695745667428079 0 0.35310448266778621 -0.14824744673929141 0 0.34681319466041077 -0.15789044927448839 0 0.35547991808718682 -0.15909300685888081 0 0.35310448266778621 -0.14824744673929141 0 0.36871907849445901 -0.14836716189033919 0 0.36299899246019413 -0.15695745667428079 0 0.36871907849445901 -0.14836716189033919 0 0.37328793295116608 -0.1376634009245295 0 0.36372148088098871 -0.13179175062177331 0 0.35192335451790818 -0.1260853699505016 0 0.36871907849445901 -0.14836716189033919 0 0.36372148088098871 -0.13179175062177331 0 0.37328793295116608 -0.1376634009245295 0 0.36377041951122058 -0.12530573554231531 0 0.38413375177412817 -0.1336712514322109 0 0.35192335451790818 -0.1260853699505016 0 0.36871907849445901 -0.14836716189033919 0 0.36377041951122058 -0.12530573554231531 0 0.38413375177412817 -0.1336712514322109 0 0.37328793295116608 -0.1376634009245295 0 0.36377041951122058 -0.12530573554231531 0 0.36372148088098871 -0.13179175062177331 0 0.35192335451790818 -0.1260853699505016 0 0.36377041951122058 -0.12530573554231531 0 0.36372148088098871 -0.13179175062177331 0 0.36377041951122058 -0.12530573554231531 0 0.36372148088098871 -0.13179175062177331 0 0.35285443209992418 -0.17486494184142129 0 0.36508921332927308 -0.185122088022838 0 0.34824997108691169 -0.193726591910202 0 0.33640058715279891 -0.18468815162714411 0 0.35285443209992418 -0.17486494184142129 0 0.33640058715279891 -0.18468815162714411 0 0.35285443209992418 -0.17486494184142129 0 0.34824997108691169 -0.193726591910202 0 0.35285443209992418 -0.17486494184142129 0 0.36475699458890359 -0.17050979828201879 0 0.34096213644828238 -0.16659670951839339 0 0.35285443209992418 -0.17486494184142129 0 0.35116818051513909 -0.1646082061898414 0 0.35116818051513909 -0.1646082061898414 0 0.34681319466041077 -0.15789044927448839 0 0.35547991808718682 -0.15909300685888081 0 0.34096213644828238 -0.16659670951839339 0 0.35116818051513909 -0.1646082061898414 0 0.34681319466041077 -0.15789044927448839 0 0.35116818051513909 -0.1646082061898414 0 0.35547991808718682 -0.15909300685888081 0 0.3597312212798916 -0.16459592345602339 0 0.35547991808718682 -0.15909300685888081 0 0.3597312212798916 -0.16459592345602339 0 0.36299899246019413 -0.15695745667428079 0 0.35285443209992418 -0.17486494184142129 0 0.35116818051513909 -0.1646082061898414 0 0.3597312212798916 -0.16459592345602339 0 0.36871907849445901 -0.14836716189033919 0 0.36299899246019413 -0.15695745667428079 0 0.36979065975287623 -0.1647537418302184 0 0.35285443209992418 -0.17486494184142129 0 0.36475699458890359 -0.17050979828201879 0 0.36979065975287623 -0.1647537418302184 0 0.35285443209992418 -0.17486494184142129 0 0.3597312212798916 -0.16459592345602339 0 0.36979065975287623 -0.1647537418302184 0 0.36871907849445901 -0.14836716189033919 0 0.36979065975287623 -0.1647537418302184 0 0.38551480247100978 -0.17064895383017689 0 0.35285443209992418 -0.17486494184142129 0 0.36979065975287623 -0.1647537418302184 0 0.3597312212798916 -0.16459592345602339 0 0.36299899246019413 -0.15695745667428079 0 0.36979065975287623 -0.1647537418302184 0 0.36475699458890359 -0.17050979828201879 0 0.36979065975287623 -0.1647537418302184 0 0.37465390164172291 -0.17513940167458819 0 0.36475699458890359 -0.17050979828201879 0 0.37465390164172291 -0.17513940167458819 0 0.36508921332927308 -0.185122088022838 0 0.37465390164172291 -0.17513940167458819 0 0.36508921332927308 -0.185122088022838 0 0.38302337401240372 -0.18859952502011551 0 0.35285443209992418 -0.17486494184142129 0 0.36475699458890359 -0.17050979828201879 0 0.36508921332927308 -0.185122088022838 0 0.36508921332927308 -0.185122088022838 0 0.37061536609700718 -0.20112808414995381 0 0.38302337401240372 -0.18859952502011551 0 0.36508921332927308 -0.185122088022838 0 0.37061536609700718 -0.20112808414995381 0 0.34824997108691169 -0.193726591910202 0 0.37061536609700718 -0.20112808414995381 0 0.34824997108691169 -0.193726591910202 0 0.37061536609700718 -0.20112808414995381 0 0.36712924698293847 -0.21493341462452439 0 0.38673956566300538 -0.22139761230314831 0 0.37061536609700718 -0.20112808414995381 0 0.36712924698293847 -0.21493341462452439 0 0.35302908096292818 -0.2103438060681577 0 0.36712924698293847 -0.21493341462452439 0 0.35302908096292818 -0.2103438060681577 0 0.35813297520881299 -0.22686415597683779 0 0.35302908096292818 -0.2103438060681577 0 0.34367109612251368 -0.20378480515219061 0 0.33577835698408182 -0.21152033476906729 0 0.35302908096292818 -0.2103438060681577 0 0.34824997108691169 -0.193726591910202 0 0.34367109612251368 -0.20378480515219061 0 0.37061536609700718 -0.20112808414995381 0 0.35302908096292818 -0.2103438060681577 0 0.34824997108691169 -0.193726591910202 0 0.33640058715279891 -0.18468815162714411 0 0.34824997108691169 -0.193726591910202 0 0.33411659342935451 -0.19717547015006459 0 0.33640058715279891 -0.18468815162714411 0 0.31994674220567382 -0.19451136141286729 0 0.33640058715279891 -0.18468815162714411 0 0.33411659342935451 -0.19717547015006459 0 0.31994674220567382 -0.19451136141286729 0 0.33411659342935451 -0.19717547015006459 0 0.33142363760010901 -0.2044324990001819 0 0.32513754300119391 -0.20117580117013931 0 0.33411659342935451 -0.19717547015006459 0 0.34367109612251368 -0.20378480515219061 0 0.33142363760010901 -0.2044324990001819 0 0.34824997108691169 -0.193726591910202 0 0.33411659342935451 -0.19717547015006459 0 0.34367109612251368 -0.20378480515219061 0 0.35302908096292818 -0.2103438060681577 0 0.33577835698408182 -0.21152033476906729 0 0.34053772054485221 -0.21989982678109379 0 0.34367109612251368 -0.20378480515219061 0 0.33577835698408182 -0.21152033476906729 0 0.33142363760010901 -0.2044324990001819 0 0.33577835698408182 -0.21152033476906729 0 0.32564645549811649 -0.20793806892208949 0 0.32622180481381691 -0.2184401374408815 0 0.33577835698408182 -0.21152033476906729 0 0.32622180481381691 -0.2184401374408815 0 0.34053772054485221 -0.21989982678109379 0 0.33577835698408182 -0.21152033476906729 0 0.33142363760010901 -0.2044324990001819 0 0.32564645549811649 -0.20793806892208949 0 0.33142363760010901 -0.2044324990001819 0 0.32564645549811649 -0.20793806892208949 0 0.32513754300119391 -0.20117580117013931 0 0.32564645549811649 -0.20793806892208949 0 0.31840126794332491 -0.20252651678143671 0 0.32513754300119391 -0.20117580117013931 0 0.32564645549811649 -0.20793806892208949 0 0.31860718650888209 -0.21000783734611039 0 0.31840126794332491 -0.20252651678143671 0 0.32564645549811649 -0.20793806892208949 0 0.32622180481381691 -0.2184401374408815 0 0.31860718650888209 -0.21000783734611039 0 0.31233982783861691 -0.21534745429661409 0 0.32622180481381691 -0.2184401374408815 0 0.31860718650888209 -0.21000783734611039 0 0.3120010195373677 -0.20656608367049731 0 0.31233982783861691 -0.21534745429661409 0 0.31860718650888209 -0.21000783734611039 0 0.3120010195373677 -0.20656608367049731 0 0.31860718650888209 -0.21000783734611039 0 0.31840126794332491 -0.20252651678143671 0 0.3120010195373677 -0.20656608367049731 0 0.31840126794332491 -0.20252651678143671 0 0.31994674220567382 -0.19451136141286729 0 0.31840126794332491 -0.20252651678143671 0 0.31994674220567382 -0.19451136141286729 0 0.32115462022789859 -0.19842047906499949 0 0.33315752863449699 -0.18207203210850029 0 0.31346062516906997 -0.18927912237557951 0 0.31994674220567382 -0.19451136141286729 0 0.31346062516906997 -0.18927912237557951 0 0.31994674220567382 -0.19451136141286729 0 0.33411659342935451 -0.19717547015006459 0 0.31994674220567382 -0.19451136141286729 0 0.32513754300119391 -0.20117580117013931 0 0.31840126794332491 -0.20252651678143671 0 0.32513754300119391 -0.20117580117013931 0 0.32115462022789859 -0.19842047906499949 0 0.31994674220567382 -0.19451136141286729 0 0.32513754300119391 -0.20117580117013931 0 0.32115462022789859 -0.19842047906499949 0 0.31022818544545011 -0.23601846696820519 0 0.32138474907902348 -0.26110911810491377 0 0.31022818544545011 -0.23601846696820519 0 0.32952638475462043 -0.232330699650526 0 0.32931784948572668 -0.24598817742227319 0 0.31022818544545011 -0.23601846696820519 0 0.32931784948572668 -0.24598817742227319 0 0.32138474907902348 -0.26110911810491377 0 0.31022818544545011 -0.23601846696820519 0 0.32952638475462043 -0.232330699650526 0 0.31022818544545011 -0.23601846696820519 0 0.3155086551200984 -0.22434971479500171 0 0.32952638475462043 -0.232330699650526 0 0.31233982783861691 -0.21534745429661409 0 0.32622180481381691 -0.2184401374408815 0 0.3155086551200984 -0.22434971479500171 0 0.32622180481381691 -0.2184401374408815 0 0.3155086551200984 -0.22434971479500171 0 0.32952638475462043 -0.232330699650526 0 0.3155086551200984 -0.22434971479500171 0 0.32952638475462043 -0.232330699650526 0 0.32952638475462043 -0.232330699650526 0 0.34053772054485221 -0.21989982678109379 0 0.35813297520881299 -0.22686415597683779 0 0.32622180481381691 -0.2184401374408815 0 0.32952638475462043 -0.232330699650526 0 0.34053772054485221 -0.21989982678109379 0 0.32952638475462043 -0.232330699650526 0 0.345521907514862 -0.24143773968012019 0 0.32931784948572668 -0.24598817742227319 0 0.345521907514862 -0.24143773968012019 0 0.34145108967706322 -0.25582694890731378 0 0.32952638475462043 -0.232330699650526 0 0.32931784948572668 -0.24598817742227319 0 0.345521907514862 -0.24143773968012019 0 0.345521907514862 -0.24143773968012019 0 0.35813297520881299 -0.22686415597683779 0 0.36151743027510319 -0.25054477970971528 0 0.345521907514862 -0.24143773968012019 0 0.36151743027510319 -0.25054477970971528 0 0.345521907514862 -0.24143773968012019 0 0.34145108967706322 -0.25582694890731378 0 0.36151743027510319 -0.25054477970971528 0 0.32952638475462043 -0.232330699650526 0 0.345521907514862 -0.24143773968012019 0 0.35813297520881299 -0.22686415597683779 0 0.32952638475462043 -0.232330699650526 0 0.35813297520881299 -0.22686415597683779 0 0.35302908096292818 -0.2103438060681577 0 0.34053772054485221 -0.21989982678109379 0 0.35813297520881299 -0.22686415597683779 0 0.36712924698293847 -0.21493341462452439 0 0.35813297520881299 -0.22686415597683779 0 0.38673956566300538 -0.22139761230314831 0 0.35813297520881299 -0.22686415597683779 0 0.37496421303850191 -0.23427283910918639 0 0.38673956566300538 -0.22139761230314831 0 0.35813297520881299 -0.22686415597683779 0 0.38673956566300538 -0.22139761230314831 0 0.38449462084997782 -0.24449637204370309 0 0.36151743027510319 -0.25054477970971528 0 0.37496421303850191 -0.23427283910918639 0 0.38449462084997782 -0.24449637204370309 0 0.36151743027510319 -0.25054477970971528 0 0.35813297520881299 -0.22686415597683779 0 0.37496421303850191 -0.23427283910918639 0 0.36151743027510319 -0.25054477970971528 0 0.37496421303850191 -0.23427283910918639 0 0.38449462084997782 -0.24449637204370309 0 0.38605804777638902 -0.2329898480918097 0 0.38449462084997782 -0.24449637204370309 0 0.39766765808456811 -0.23274216744673909 0 0.38605804777638902 -0.2329898480918097 0 0.38817647924432808 -0.2458465013656391 0 0.38449462084997782 -0.24449637204370309 0 0.38547493587352238 -0.25605516512456872 0 0.38817647924432808 -0.2458465013656391 0 0.40747181142485261 -0.23844796437769181 0 0.40279724914119369 -0.25102992907362032 0 0.38449462084997782 -0.24449637204370309 0 0.39766765808456811 -0.23274216744673909 0 0.40747181142485261 -0.23844796437769181 0 0.38449462084997782 -0.24449637204370309 0 0.40747181142485261 -0.23844796437769181 0 0.38817647924432808 -0.2458465013656391 0 0.38449462084997782 -0.24449637204370309 0 0.40747181142485261 -0.23844796437769181 0 0.40376996101261692 -0.2265019727116761 0 0.39766765808456811 -0.23274216744673909 0 0.38673956566300538 -0.22139761230314831 0 0.40376996101261692 -0.2265019727116761 0 0.39766765808456811 -0.23274216744673909 0 0.41405833004214782 -0.23257086207921049 0 0.40599212467983159 -0.22169768010724469 0 0.40376996101261692 -0.2265019727116761 0 0.38673956566300538 -0.22139761230314831 0 0.39766765808456811 -0.23274216744673909 0 0.41405833004214782 -0.23257086207921049 0 0.40599212467983159 -0.22169768010724469 0 0.38673956566300538 -0.22139761230314831 0 0.41534615611719772 -0.21593106862945799 0 0.39766765808456811 -0.23274216744673909 0 0.38673956566300538 -0.22139761230314831 0 0.38605804777638902 -0.2329898480918097 0 0.37496421303850191 -0.23427283910918639 0 0.38673956566300538 -0.22139761230314831 0 0.38605804777638902 -0.2329898480918097 0 0.37061536609700718 -0.20112808414995381 0 0.38673956566300538 -0.22139761230314831 0 0.39298076110710262 -0.20852957638970551 0 0.37061536609700718 -0.20112808414995381 0 0.39298076110710262 -0.20852957638970551 0 0.37061536609700718 -0.20112808414995381 0 0.38302337401240372 -0.18859952502011551 0 0.39298076110710262 -0.20852957638970551 0 0.38302337401240372 -0.18859952502011551 0 0.4023105264475606 -0.19293074577001459 0 0.39298076110710262 -0.20852957638970551 0 0.38673956566300538 -0.22139761230314831 0 0.41534615611719772 -0.21593106862945799 0 0.39298076110710262 -0.20852957638970551 0 0.41534615611719772 -0.21593106862945799 0 0.39298076110710262 -0.20852957638970551 0 0.4074359235239931 -0.2081509821247578 0 0.41534615611719772 -0.21593106862945799 0 0.38673956566300538 -0.22139761230314831 0 0.39298076110710262 -0.20852957638970551 0 0.41534615611719772 -0.21593106862945799 0 0.4023105264475606 -0.19293074577001459 0 0.39298076110710262 -0.20852957638970551 0 0.4074359235239931 -0.2081509821247578 0 0.4023105264475606 -0.19293074577001459 0 0.4074359235239931 -0.2081509821247578 0 0.41910625042411231 -0.2152125377098518 0 0.4023105264475606 -0.19293074577001459 0 0.41910625042411231 -0.2152125377098518 0 0.4074359235239931 -0.2081509821247578 0 0.41910625042411231 -0.2152125377098518 0 0.41534615611719772 -0.21593106862945799 0 0.4218517779465546 -0.2062126180559968 0 0.41910625042411231 -0.2152125377098518 0 0.41556299740428521 -0.20041230085441081 0 0.42107760543352202 -0.2178278058709946 0 0.41910625042411231 -0.2152125377098518 0 0.41534615611719772 -0.21593106862945799 0 0.42107760543352202 -0.2178278058709946 0 0.41534615611719772 -0.21593106862945799 0 0.42107760543352202 -0.2178278058709946 0 0.41910625042411231 -0.2152125377098518 0 0.42107760543352202 -0.2178278058709946 0 0.41534615611719772 -0.21593106862945799 0 0.41722914407949407 -0.2197083346794739 0 0.41910625042411231 -0.2152125377098518 0 0.41534615611719772 -0.21593106862945799 0 0.4023105264475606 -0.19293074577001459 0 0.41910625042411231 -0.2152125377098518 0 0.41556299740428521 -0.20041230085441081 0 0.4023105264475606 -0.19293074577001459 0 0.41556299740428521 -0.20041230085441081 0 0.41446661693444181 -0.1860248211577101 0 0.4218517779465546 -0.2062126180559968 0 0.41556299740428521 -0.20041230085441081 0 0.424516174934501 -0.20181679425476101 0 0.41556299740428521 -0.20041230085441081 0 0.42383405741691282 -0.1938435431684091 0 0.424516174934501 -0.20181679425476101 0 0.41556299740428521 -0.20041230085441081 0 0.42383405741691282 -0.1938435431684091 0 0.41446661693444181 -0.1860248211577101 0 0.42383405741691282 -0.1938435431684091 0 0.41446661693444181 -0.1860248211577101 0 0.43397696937341962 -0.18733159978815589 0 0.42383405741691282 -0.1938435431684091 0 0.43089048281439002 -0.19755432123147329 0 0.43397696937341962 -0.18733159978815589 0 0.42383405741691282 -0.1938435431684091 0 0.424516174934501 -0.20181679425476101 0 0.43089048281439002 -0.19755432123147329 0 0.424516174934501 -0.20181679425476101 0 0.43089048281439002 -0.19755432123147329 0 0.43325394197310668 -0.2035814318451569 0 0.43089048281439002 -0.19755432123147329 0 0.43325394197310668 -0.2035814318451569 0 0.43932246708499711 -0.200499338515674 0 0.43089048281439002 -0.19755432123147329 0 0.43397696937341962 -0.18733159978815589 0 0.43932246708499711 -0.200499338515674 0 0.42107760543352202 -0.2178278058709946 0 0.41910625042411231 -0.2152125377098518 0 0.44543482943732199 -0.2101813080261733 0 0.42107760543352202 -0.2178278058709946 0 0.43514739738405078 -0.22248399262243429 0 0.44543482943732199 -0.2101813080261733 0 0.41910625042411231 -0.2152125377098518 0 0.44543482943732199 -0.2101813080261733 0 0.42822168902332081 -0.20740883940496299 0 0.43325394197310668 -0.2035814318451569 0 0.44543482943732199 -0.2101813080261733 0 0.41910625042411231 -0.2152125377098518 0 0.42822168902332081 -0.20740883940496299 0 0.44543482943732199 -0.2101813080261733 0 0.424516174934501 -0.20181679425476101 0 0.42822168902332081 -0.20740883940496299 0 0.43325394197310668 -0.2035814318451569 0 0.4218517779465546 -0.2062126180559968 0 0.41910625042411231 -0.2152125377098518 0 0.42822168902332081 -0.20740883940496299 0 0.4218517779465546 -0.2062126180559968 0 0.424516174934501 -0.20181679425476101 0 0.42822168902332081 -0.20740883940496299 0 0.43044900199972752 -0.23239955671168119 0 0.41405833004214782 -0.23257086207921049 0 0.42823168863525612 -0.22731866161760711 0 0.43044900199972752 -0.23239955671168119 0 0.41405833004214782 -0.23257086207921049 0 0.42107760543352202 -0.2178278058709946 0 0.42823168863525612 -0.22731866161760711 0 0.42107760543352202 -0.2178278058709946 0 0.43514739738405078 -0.22248399262243429 0 0.42107760543352202 -0.2178278058709946 0 0.42235126304389131 -0.2243094945361109 0 0.42823168863525612 -0.22731866161760711 0 0.42107760543352202 -0.2178278058709946 0 0.43514739738405078 -0.22248399262243429 0 0.42823168863525612 -0.22731866161760711 0 0.43514739738405078 -0.22248399262243429 0 0.42823168863525612 -0.22731866161760711 0 0.43044900199972752 -0.23239955671168119 0 0.43044900199972752 -0.23239955671168119 0 0.44225053930339531 -0.24551828170273701 0 0.42529147061323852 -0.25077918228271201 0 0.40747181142485261 -0.23844796437769181 0 0.4122689803179409 -0.25426306200341142 0 0.42529147061323852 -0.25077918228271201 0 0.39766765808456811 -0.23274216744673909 0 0.40747181142485261 -0.23844796437769181 0 0.41405833004214782 -0.23257086207921049 0 0.40747181142485261 -0.23844796437769181 0 0.40279724914119369 -0.25102992907362032 0 0.4122689803179409 -0.25426306200341142 0 0.43044900199972752 -0.23239955671168119 0 0.40747181142485261 -0.23844796437769181 0 0.41405833004214782 -0.23257086207921049 0 0.43044900199972752 -0.23239955671168119 0 0.40747181142485261 -0.23844796437769181 0 0.43044900199972752 -0.23239955671168119 0 0.40747181142485261 -0.23844796437769181 0 0.42529147061323852 -0.25077918228271201 0 0.40376996101261692 -0.2265019727116761 0 0.41405833004214782 -0.23257086207921049 0 0.41075604753644712 -0.22538640368744381 0 0.41405833004214782 -0.23257086207921049 0 0.41075604753644712 -0.22538640368744381 0 0.41590487620659949 -0.2241979172987108 0 0.40599212467983159 -0.22169768010724469 0 0.40376996101261692 -0.2265019727116761 0 0.41075604753644712 -0.22538640368744381 0 0.40599212467983159 -0.22169768010724469 0 0.41304566972391399 -0.22138428088046641 0 0.41075604753644712 -0.22538640368744381 0 0.40599212467983159 -0.22169768010724469 0 0.41534615611719772 -0.21593106862945799 0 0.41304566972391399 -0.22138428088046641 0 0.41304566972391399 -0.22138428088046641 0 0.41075604753644712 -0.22538640368744381 0 0.41590487620659949 -0.2241979172987108 0 0.41534615611719772 -0.21593106862945799 0 0.41304566972391399 -0.22138428088046641 0 0.41722914407949407 -0.2197083346794739 0 0.41590487620659949 -0.2241979172987108 0 0.41722914407949407 -0.2197083346794739 0 0.41914072219087639 -0.22151088809632269 0 0.41304566972391399 -0.22138428088046641 0 0.41590487620659949 -0.2241979172987108 0 0.41722914407949407 -0.2197083346794739 0 0.42107760543352202 -0.2178278058709946 0 0.42235126304389131 -0.2243094945361109 0 0.41914072219087639 -0.22151088809632269 0 0.42107760543352202 -0.2178278058709946 0 0.41722914407949407 -0.2197083346794739 0 0.41914072219087639 -0.22151088809632269 0 0.42235126304389131 -0.2243094945361109 0 0.41590487620659949 -0.2241979172987108 0 0.41914072219087639 -0.22151088809632269 0 0.42235126304389131 -0.2243094945361109 0 0.41405833004214782 -0.23257086207921049 0 0.41590487620659949 -0.2241979172987108 0 0.42235126304389131 -0.2243094945361109 0 0.42823168863525612 -0.22731866161760711 0 0.41405833004214782 -0.23257086207921049 0 0.39765691840115419 -0.12224754054313711 0 0.40449708403703588 -0.14203676732210599 0 0.41267106670054921 -0.12848772643407899 0 0.39765691840115419 -0.12224754054313711 0 0.38413375177412817 -0.1336712514322109 0 0.40449708403703588 -0.14203676732210599 0 0.38413375177412817 -0.1336712514322109 0 0.40449708403703588 -0.14203676732210599 0 0.37986784028732212 -0.1169607173404761 0 0.36377041951122058 -0.12530573554231531 0 0.38413375177412817 -0.1336712514322109 0 0.37328793295116608 -0.1376634009245295 0 0.38413375177412817 -0.1336712514322109 0 0.38609493409503398 -0.1491811051360088 0 0.36871907849445901 -0.14836716189033919 0 0.38609493409503398 -0.1491811051360088 0 0.38551480247100978 -0.17064895383017689 0 0.36871907849445901 -0.14836716189033919 0 0.37328793295116608 -0.1376634009245295 0 0.38609493409503398 -0.1491811051360088 0 0.38609493409503398 -0.1491811051360088 0 0.40449708403703588 -0.14203676732210599 0 0.40059263955450641 -0.16079637806257929 0 0.40449708403703588 -0.14203676732210599 0 0.40059263955450641 -0.16079637806257929 0 0.41236339196801092 -0.15432532785653369 0 0.38413375177412817 -0.1336712514322109 0 0.38609493409503398 -0.1491811051360088 0 0.40449708403703588 -0.14203676732210599 0 0.38609493409503398 -0.1491811051360088 0 0.40059263955450641 -0.16079637806257929 0 0.38551480247100978 -0.17064895383017689 0 0.40059263955450641 -0.16079637806257929 0 0.38551480247100978 -0.17064895383017689 0 0.40355648246552223 -0.1762432133418764 0 0.36871907849445901 -0.14836716189033919 0 0.38551480247100978 -0.17064895383017689 0 0.36979065975287623 -0.1647537418302184 0 0.37465390164172291 -0.17513940167458819 0 0.38551480247100978 -0.17064895383017689 0 0.37465390164172291 -0.17513940167458819 0 0.38302337401240372 -0.18859952502011551 0 0.38551480247100978 -0.17064895383017689 0 0.38302337401240372 -0.18859952502011551 0 0.4023105264475606 -0.19293074577001459 0 0.38551480247100978 -0.17064895383017689 0 0.4023105264475606 -0.19293074577001459 0 0.38551480247100978 -0.17064895383017689 0 0.4023105264475606 -0.19293074577001459 0 0.38551480247100978 -0.17064895383017689 0 0.40355648246552223 -0.1762432133418764 0 0.41446661693444181 -0.1860248211577101 0 0.43397696937341962 -0.18733159978815589 0 0.41489782692009208 -0.17081516788890111 0 0.4023105264475606 -0.19293074577001459 0 0.40355648246552223 -0.1762432133418764 0 0.41446661693444181 -0.1860248211577101 0 0.40355648246552223 -0.1762432133418764 0 0.41446661693444181 -0.1860248211577101 0 0.41489782692009208 -0.17081516788890111 0 0.43397696937341962 -0.18733159978815589 0 0.41489782692009208 -0.17081516788890111 0 0.43877324723434941 -0.17727088893904919 0 0.43397696937341962 -0.18733159978815589 0 0.41489782692009208 -0.17081516788890111 0 0.41489782692009208 -0.17081516788890111 0 0.43784204235544483 -0.16597907089014161 0 0.43877324723434941 -0.17727088893904919 0 0.41489782692009208 -0.17081516788890111 0 0.42819944517869279 -0.15314288485288499 0 0.43784204235544483 -0.16597907089014161 0 0.41489782692009208 -0.17081516788890111 0 0.41236339196801092 -0.15432532785653369 0 0.42819944517869279 -0.15314288485288499 0 0.40059263955450641 -0.16079637806257929 0 0.41489782692009208 -0.17081516788890111 0 0.41236339196801092 -0.15432532785653369 0 0.40059263955450641 -0.16079637806257929 0 0.40355648246552223 -0.1762432133418764 0 0.41489782692009208 -0.17081516788890111 0 0.40449708403703588 -0.14203676732210599 0 0.41236339196801092 -0.15432532785653369 0 0.42288845735602881 -0.14014593403444631 0 0.41236339196801092 -0.15432532785653369 0 0.42819944517869279 -0.15314288485288499 0 0.42288845735602881 -0.14014593403444631 0 0.42819944517869279 -0.15314288485288499 0 0.42288845735602881 -0.14014593403444631 0 0.43921030844480119 -0.13802738248854959 0 0.42819944517869279 -0.15314288485288499 0 0.44199464402777899 -0.14956442595873801 0 0.43784204235544483 -0.16597907089014161 0 0.42819944517869279 -0.15314288485288499 0 0.43921030844480119 -0.13802738248854959 0 0.44199464402777899 -0.14956442595873801 0 0.42288845735602881 -0.14014593403444631 0 0.42612684253330219 -0.12915510074228281 0 0.43921030844480119 -0.13802738248854959 0 0.42612684253330219 -0.12915510074228281 0 0.44070534322187649 -0.12625365038326691 0 0.43921030844480119 -0.13802738248854959 0 0.42288845735602881 -0.14014593403444631 0 0.42612684253330219 -0.12915510074228281 0 0.41267106670054921 -0.12848772643407899 0 0.40449708403703588 -0.14203676732210599 0 0.42288845735602881 -0.14014593403444631 0 0.41267106670054921 -0.12848772643407899 0 0.45902668169623378 -0.12443422778596409 0 0.4509773906207587 -0.13908845113702001 0 0.46285538913366248 -0.15245320582001609 0 0.45902668169623378 -0.12443422778596409 0 0.46285538913366248 -0.15245320582001609 0 0.45902668169623378 -0.12443422778596409 0 0.46285538913366248 -0.15245320582001609 0 0.47886866793628158 -0.13599396078810269 0 0.45902668169623378 -0.12443422778596409 0 0.44920783017565868 -0.1280930932865168 0 0.4509773906207587 -0.13908845113702001 0 0.44920783017565868 -0.1280930932865168 0 0.44070534322187649 -0.12625365038326691 0 0.43921030844480119 -0.13802738248854959 0 0.44920783017565868 -0.1280930932865168 0 0.43921030844480119 -0.13802738248854959 0 0.4509773906207587 -0.13908845113702001 0 0.4509773906207587 -0.13908845113702001 0 0.44199464402777899 -0.14956442595873801 0 0.45169634650805551 -0.15142149642002861 0 0.43921030844480119 -0.13802738248854959 0 0.4509773906207587 -0.13908845113702001 0 0.44199464402777899 -0.14956442595873801 0 0.44199464402777899 -0.14956442595873801 0 0.45011665735059281 -0.16289639447227719 0 0.44199464402777899 -0.14956442595873801 0 0.45169634650805551 -0.15142149642002861 0 0.45011665735059281 -0.16289639447227719 0 0.45169634650805551 -0.15142149642002861 0 0.46285538913366248 -0.15245320582001609 0 0.45011665735059281 -0.16289639447227719 0 0.4509773906207587 -0.13908845113702001 0 0.45169634650805551 -0.15142149642002861 0 0.46285538913366248 -0.15245320582001609 0 0.46285538913366248 -0.15245320582001609 0 0.45011665735059281 -0.16289639447227719 0 0.45823867067340718 -0.17622836298581609 0 0.46285538913366248 -0.15245320582001609 0 0.45823867067340718 -0.17622836298581609 0 0.46668409657109261 -0.18047218385406791 0 0.46285538913366248 -0.15245320582001609 0 0.46668409657109261 -0.18047218385406791 0 0.46285538913366248 -0.15245320582001609 0 0.46668409657109261 -0.18047218385406791 0 0.47484814004303849 -0.165385814394408 0 0.45011665735059281 -0.16289639447227719 0 0.45823867067340718 -0.17622836298581609 0 0.43784204235544483 -0.16597907089014161 0 0.45823867067340718 -0.17622836298581609 0 0.45011665735059281 -0.16289639447227719 0 0.43784204235544483 -0.16597907089014161 0 0.45823867067340718 -0.17622836298581609 0 0.44199464402777899 -0.14956442595873801 0 0.45011665735059281 -0.16289639447227719 0 0.43784204235544483 -0.16597907089014161 0 0.43784204235544483 -0.16597907089014161 0 0.43877324723434941 -0.17727088893904919 0 0.45823867067340718 -0.17622836298581609 0 0.43877324723434941 -0.17727088893904919 0 0.44991778380751551 -0.18516061771590081 0 0.46212803675490538 -0.18261260591613979 0 0.43877324723434941 -0.17727088893904919 0 0.45823867067340718 -0.17622836298581609 0 0.46212803675490538 -0.18261260591613979 0 0.43877324723434941 -0.17727088893904919 0 0.46212803675490538 -0.18261260591613979 0 0.43877324723434941 -0.17727088893904919 0 0.44189475475360213 -0.18493264471532739 0 0.44991778380751551 -0.18516061771590081 0 0.43397696937341962 -0.18733159978815589 0 0.44189475475360213 -0.18493264471532739 0 0.44832093192487782 -0.18911303720870071 0 0.43397696937341962 -0.18733159978815589 0 0.43877324723434941 -0.17727088893904919 0 0.44189475475360213 -0.18493264471532739 0 0.44189475475360213 -0.18493264471532739 0 0.44991778380751551 -0.18516061771590081 0 0.44832093192487782 -0.18911303720870071 0 0.44991778380751551 -0.18516061771590081 0 0.46212803675490538 -0.18261260591613979 0 0.45847194836984312 -0.19187391180028671 0 0.45823867067340718 -0.17622836298581609 0 0.46212803675490538 -0.18261260591613979 0 0.45823867067340718 -0.17622836298581609 0 0.46668409657109261 -0.18047218385406791 0 0.46668409657109261 -0.18047218385406791 0 0.46713300362935911 -0.1837573439793759 0 0.46212803675490538 -0.18261260591613979 0 0.46713300362935911 -0.1837573439793759 0 0.46212803675490538 -0.18261260591613979 0 0.46837857923244658 -0.19287262793174501 0 0.45823867067340718 -0.17622836298581609 0 0.46668409657109261 -0.18047218385406791 0 0.46212803675490538 -0.18261260591613979 0 0.46668409657109261 -0.18047218385406791 0 0.46713300362935911 -0.1837573439793759 0 0.46713300362935911 -0.1837573439793759 0 0.46212803675490538 -0.18261260591613979 0 0.46668409657109261 -0.18047218385406791 0 0.47685947286968372 -0.1763022033586934 0 0.47830838770839978 -0.18631338238032011 0 0.46668409657109261 -0.18047218385406791 0 0.46713300362935911 -0.1837573439793759 0 0.47830838770839978 -0.18631338238032011 0 0.46713300362935911 -0.1837573439793759 0 0.47830838770839978 -0.18631338238032011 0 0.46668409657109261 -0.18047218385406791 0 0.47830838770839978 -0.18631338238032011 0 0.46668409657109261 -0.18047218385406791 0 0.47685947286968372 -0.1763022033586934 0 0.47484814004303849 -0.165385814394408 0 0.47685947286968372 -0.1763022033586934 0 0.48840496476570838 -0.17397803707425821 0 0.47484814004303849 -0.165385814394408 0 0.47685947286968372 -0.1763022033586934 0 0.47830838770839978 -0.18631338238032011 0 0.48840496476570838 -0.17397803707425821 0 0.47830838770839978 -0.18631338238032011 0 0.48840496476570838 -0.17397803707425821 0 0.49213551268008848 -0.18947592803891611 0 0.5 -0.18491681077195751 0 0.48840496476570838 -0.17397803707425821 0 0.49213551268008848 -0.18947592803891611 0 0.5 -0.18491681077195751 0 0.49213551268008848 -0.18947592803891611 0 0.48840496476570838 -0.17397803707425821 0 0.48541512465253389 -0.1617476498902736 0 0.5 -0.1559609823089384 0 0.48541512465253389 -0.1617476498902736 0 0.4784073938013888 -0.1516657657834897 0 0.5 -0.1559609823089384 0 0.5 -0.18491681077195751 0 0.48840496476570838 -0.17397803707425821 0 0.5 -0.1559609823089384 0 0.48541512465253389 -0.1617476498902736 0 0.47484814004303849 -0.165385814394408 0 0.4784073938013888 -0.1516657657834897 0 0.48840496476570838 -0.17397803707425821 0 0.48541512465253389 -0.1617476498902736 0 0.47484814004303849 -0.165385814394408 0 0.46285538913366248 -0.15245320582001609 0 0.47484814004303849 -0.165385814394408 0 0.4784073938013888 -0.1516657657834897 0 0.46285538913366248 -0.15245320582001609 0 0.4784073938013888 -0.1516657657834897 0 0.47886866793628158 -0.13599396078810269 0 0.4784073938013888 -0.1516657657834897 0 0.5 -0.1559609823089384 0 0.47886866793628158 -0.13599396078810269 0 0.47780806550729049 -0.1149278551071293 0 0.5 -0.12700515384591929 0 0.47886866793628158 -0.13599396078810269 0 0.5 -0.1559609823089384 0 0.5 -0.12700515384591929 0 0.47886866793628158 -0.13599396078810269 0 0.47780806550729049 -0.1149278551071293 0 0.45902668169623378 -0.12443422778596409 0 0.47886866793628158 -0.13599396078810269 0 0.46175981273079542 -0.2246282272902751 0 0.45208351008424819 -0.23217344594768691 0 0.47371801816876902 -0.2319473351836922 0 0.45208351008424819 -0.23217344594768691 0 0.47371801816876902 -0.2319473351836922 0 0.45446485245981599 -0.2239575561334427 0 0.46175981273079542 -0.2246282272902751 0 0.45208351008424819 -0.23217344594768691 0 0.46175981273079542 -0.2246282272902751 0 0.4609057778750239 -0.21634161317283671 0 0.45667193266247808 -0.21652573012699641 0 0.45446485245981599 -0.2239575561334427 0 0.46175981273079542 -0.2246282272902751 0 0.45667193266247808 -0.21652573012699641 0 0.45446485245981599 -0.2239575561334427 0 0.45069506378897117 -0.21816849959023471 0 0.45667193266247808 -0.21652573012699641 0 0.46175981273079542 -0.2246282272902751 0 0.4609057778750239 -0.21634161317283671 0 0.47213525428007469 -0.220364463586665 0 0.45955424003311968 -0.2489090257506216 0 0.45208351008424819 -0.23217344594768691 0 0.47371801816876902 -0.2319473351836922 0 0.45955424003311968 -0.2489090257506216 0 0.44225053930339531 -0.24551828170273701 0 0.45208351008424819 -0.23217344594768691 0 0.43044900199972752 -0.23239955671168119 0 0.44225053930339531 -0.24551828170273701 0 0.45208351008424819 -0.23217344594768691 0 0.43044900199972752 -0.23239955671168119 0 0.45009377605903889 -0.22722835870859101 0 0.43044900199972752 -0.23239955671168119 0 0.45009377605903889 -0.22722835870859101 0 0.45208351008424819 -0.23217344594768691 0 0.43514739738405078 -0.22248399262243429 0 0.43044900199972752 -0.23239955671168119 0 0.45009377605903889 -0.22722835870859101 0 0.43044900199972752 -0.23239955671168119 0 0.45208351008424819 -0.23217344594768691 0 0.45446485245981599 -0.2239575561334427 0 0.45009377605903889 -0.22722835870859101 0 0.45208351008424819 -0.23217344594768691 0 0.45446485245981599 -0.2239575561334427 0 0.45009377605903889 -0.22722835870859101 0 0.45069506378897117 -0.21816849959023471 0 0.45009377605903889 -0.22722835870859101 0 0.4445842664951356 -0.21976273893921111 0 0.45069506378897117 -0.21816849959023471 0 0.43514739738405078 -0.22248399262243429 0 0.45009377605903889 -0.22722835870859101 0 0.4445842664951356 -0.21976273893921111 0 0.43514739738405078 -0.22248399262243429 0 0.4445842664951356 -0.21976273893921111 0 0.44543482943732199 -0.2101813080261733 0 0.43325394197310668 -0.2035814318451569 0 0.44543482943732199 -0.2101813080261733 0 0.43932246708499711 -0.200499338515674 0 0.45305611182674688 -0.20384803168741061 0 0.44543482943732199 -0.2101813080261733 0 0.45146448442887949 -0.21218089235770379 0 0.45305611182674688 -0.20384803168741061 0 0.44543482943732199 -0.2101813080261733 0 0.43932246708499711 -0.200499338515674 0 0.44543482943732199 -0.2101813080261733 0 0.45146448442887949 -0.21218089235770379 0 0.45069506378897117 -0.21816849959023471 0 0.4445842664951356 -0.21976273893921111 0 0.44543482943732199 -0.2101813080261733 0 0.45069506378897117 -0.21816849959023471 0 0.45146448442887949 -0.21218089235770379 0 0.45069506378897117 -0.21816849959023471 0 0.45667193266247808 -0.21652573012699641 0 0.43397696937341962 -0.18733159978815589 0 0.45305611182674688 -0.20384803168741061 0 0.45163125857789721 -0.1952464445933822 0 0.43397696937341962 -0.18733159978815589 0 0.45305611182674688 -0.20384803168741061 0 0.43932246708499711 -0.200499338515674 0 0.43397696937341962 -0.18733159978815589 0 0.45163125857789721 -0.1952464445933822 0 0.44832093192487782 -0.18911303720870071 0 0.43397696937341962 -0.18733159978815589 0 0.45305611182674688 -0.20384803168741061 0 0.45163125857789721 -0.1952464445933822 0 0.44832093192487782 -0.18911303720870071 0 0.45847194836984312 -0.19187391180028671 0 0.44991778380751551 -0.18516061771590081 0 0.44832093192487782 -0.18911303720870071 0 0.45847194836984312 -0.19187391180028671 0 0.45305611182674688 -0.20384803168741061 0 0.45163125857789721 -0.1952464445933822 0 0.46135034616766141 -0.19914039563681499 0 0.45163125857789721 -0.1952464445933822 0 0.45847194836984312 -0.19187391180028671 0 0.46135034616766141 -0.19914039563681499 0 0.46135034616766141 -0.19914039563681499 0 0.46135542161354159 -0.20731943632518529 0 0.46969228258642259 -0.2024864796087982 0 0.46135034616766141 -0.19914039563681499 0 0.46837857923244658 -0.19287262793174501 0 0.46969228258642259 -0.2024864796087982 0 0.46713300362935911 -0.1837573439793759 0 0.46837857923244658 -0.19287262793174501 0 0.46212803675490538 -0.18261260591613979 0 0.45847194836984312 -0.19187391180028671 0 0.46837857923244658 -0.19287262793174501 0 0.46212803675490538 -0.18261260591613979 0 0.46837857923244658 -0.19287262793174501 0 0.45847194836984312 -0.19187391180028671 0 0.46135034616766141 -0.19914039563681499 0 0.46837857923244658 -0.19287262793174501 0 0.45305611182674688 -0.20384803168741061 0 0.4609057778750239 -0.21634161317283671 0 0.47213525428007469 -0.220364463586665 0 0.45305611182674688 -0.20384803168741061 0 0.46135542161354159 -0.20731943632518529 0 0.47213525428007469 -0.220364463586665 0 0.45305611182674688 -0.20384803168741061 0 0.47213525428007469 -0.220364463586665 0 0.46135542161354159 -0.20731943632518529 0 0.46969228258642259 -0.2024864796087982 0 0.47213525428007469 -0.220364463586665 0 0.45305611182674688 -0.20384803168741061 0 0.4609057778750239 -0.21634161317283671 0 0.45667193266247808 -0.21652573012699641 0 0.45305611182674688 -0.20384803168741061 0 0.46135034616766141 -0.19914039563681499 0 0.46135542161354159 -0.20731943632518529 0 0.45305611182674688 -0.20384803168741061 0 0.45146448442887949 -0.21218089235770379 0 0.45667193266247808 -0.21652573012699641 0 0.46135542161354159 -0.20731943632518529 0 0.46969228258642259 -0.2024864796087982 0 0.48255815665703 -0.2161478519736526 0 0.46969228258642259 -0.2024864796087982 0 0.47213525428007469 -0.220364463586665 0 0.46969228258642259 -0.2024864796087982 0 0.47213525428007469 -0.220364463586665 0 0.48255815665703 -0.2161478519736526 0 0.47304972810553542 -0.20054013686369429 0 0.48912433465154298 -0.20469574261994031 0 0.48255815665703 -0.2161478519736526 0 0.46969228258642259 -0.2024864796087982 0 0.47304972810553542 -0.20054013686369429 0 0.48255815665703 -0.2161478519736526 0 0.47304972810553542 -0.20054013686369429 0 0.47304972810553542 -0.20054013686369429 0 0.48863750414610291 -0.19150375648577669 0 0.48912433465154298 -0.20469574261994031 0 0.47830838770839978 -0.18631338238032011 0 0.46837857923244658 -0.19287262793174501 0 0.4770935497981208 -0.1928074759153838 0 0.46713300362935911 -0.1837573439793759 0 0.47830838770839978 -0.18631338238032011 0 0.46837857923244658 -0.19287262793174501 0 0.46837857923244658 -0.19287262793174501 0 0.46969228258642259 -0.2024864796087982 0 0.46837857923244658 -0.19287262793174501 0 0.46969228258642259 -0.2024864796087982 0 0.47304972810553542 -0.20054013686369429 0 0.46837857923244658 -0.19287262793174501 0 0.47304972810553542 -0.20054013686369429 0 0.4770935497981208 -0.1928074759153838 0 0.46837857923244658 -0.19287262793174501 0 0.47304972810553542 -0.20054013686369429 0 0.46969228258642259 -0.2024864796087982 0 0.47304972810553542 -0.20054013686369429 0 0.47304972810553542 -0.20054013686369429 0 0.48863750414610291 -0.19150375648577669 0 0.47830838770839978 -0.18631338238032011 0 0.48863750414610291 -0.19150375648577669 0 0.47304972810553542 -0.20054013686369429 0 0.4770935497981208 -0.1928074759153838 0 0.48863750414610291 -0.19150375648577669 0 0.47830838770839978 -0.18631338238032011 0 0.4770935497981208 -0.1928074759153838 0 0.48863750414610291 -0.19150375648577669 0 0.47830838770839978 -0.18631338238032011 0 0.49213551268008848 -0.18947592803891611 0 0.47830838770839978 -0.18631338238032011 0 0.49213551268008848 -0.18947592803891611 0 0.48863750414610291 -0.19150375648577669 0 0.49213551268008848 -0.18947592803891611 0 0.48863750414610291 -0.19150375648577669 0 0.48863750414610291 -0.19150375648577669 0 0.49999999999999911 -0.19721340305711529 0 0.48912433465154298 -0.20469574261994031 0 0.5 -0.18491681077195751 0 0.49213551268008848 -0.18947592803891611 0 0.49999999999999761 -0.1912746967837958 0 0.49213551268008848 -0.18947592803891611 0 0.49999999999999761 -0.1912746967837958 0 0.49213551268008848 -0.18947592803891611 0 0.48863750414610291 -0.19150375648577669 0 0.49999999999999911 -0.19721340305711529 0 0.49213551268008848 -0.18947592803891611 0 0.49999999999999911 -0.19721340305711529 0 0.49999999999999761 -0.1912746967837958 0 0.48863750414610291 -0.19150375648577669 0 0.49999999999999911 -0.19721340305711529 0 0.48255815665703 -0.2161478519736526 0 0.5 -0.2144430274492192 0 0.48912433465154298 -0.20469574261994031 0 0.49999999999999911 -0.19721340305711529 0 0.5 -0.2144430274492192 0 0.48912433465154298 -0.20469574261994031 0 0.48255815665703 -0.2161478519736526 0 0.5 -0.2144430274492192 0 0.49206658520852498 -0.23175556708361089 0 0.5 -0.2144430274492192 0 0.50000000000000078 -0.2316726518413231 0 0.49206658520852498 -0.23175556708361089 0 0.48255815665703 -0.2161478519736526 0 0.49206658520852498 -0.23175556708361089 0 0.48537460840503027 -0.23182550756858769 0 0.50000000000000078 -0.2316726518413231 0 0.49206658520852498 -0.23175556708361089 0 0.50000000000000078 -0.2316726518413231 0 0.49206658520852498 -0.23175556708361089 0 0.49421434221916621 -0.23528102656053351 0 0.49206658520852498 -0.23175556708361089 0 0.49421434221916621 -0.23528102656053351 0 0.4917740197674299 -0.23435075272881889 0 0.49206658520852498 -0.23175556708361089 0 0.49421434221916621 -0.23528102656053351 0 0.4917740197674299 -0.23435075272881889 0 0.49206658520852498 -0.23175556708361089 0 0.48537460840503027 -0.23182550756858769 0 0.49206658520852498 -0.23175556708361089 0 0.48537460840503027 -0.23182550756858769 0 0.48255815665703 -0.2161478519736526 0 0.49206658520852498 -0.23175556708361089 0 0.48537460840503027 -0.23182550756858769 0 0.47213525428007469 -0.220364463586665 0 0.48255815665703 -0.2161478519736526 0 0.48537460840503027 -0.23182550756858769 0 0.47213525428007469 -0.220364463586665 0 0.48537460840503027 -0.23182550756858769 0 0.47371801816876902 -0.2319473351836922 0 0.47213525428007469 -0.220364463586665 0 0.48537460840503027 -0.23182550756858769 0 0.47371801816876902 -0.2319473351836922 0 0.47371801816876902 -0.2319473351836922 0 0.47213525428007469 -0.220364463586665 0 0.46175981273079542 -0.2246282272902751 0 0.47371801816876902 -0.2319473351836922 0 0.47213525428007469 -0.220364463586665 0 0.47371801816876902 -0.2319473351836922 0 0.47740501233235022 -0.25892923708385812 0 0.47371801816876902 -0.2319473351836922 0 0.48844428217862401 -0.24938811333293209 0 0.47740501233235022 -0.25892923708385812 0 0.48537460840503027 -0.23182550756858769 0 0.47371801816876902 -0.2319473351836922 0 0.48844428217862401 -0.24938811333293209 0 0.45955424003311968 -0.2489090257506216 0 0.47371801816876902 -0.2319473351836922 0 0.47740501233235022 -0.25892923708385812 0 0.50000000000000078 -0.2316726518413231 0 0.49421434221916621 -0.23528102656053351 0 0.5 -0.26021242444416121 0 0.48844428217862401 -0.24938811333293209 0 0.49421434221916621 -0.23528102656053351 0 0.5 -0.26021242444416121 0 0.48537460840503027 -0.23182550756858769 0 0.48844428217862401 -0.24938811333293209 0 0.49124628657749242 -0.236908501885919 0 0.48844428217862401 -0.24938811333293209 0 0.49124628657749242 -0.236908501885919 0 0.49421434221916621 -0.23528102656053351 0 0.48537460840503027 -0.23182550756858769 0 0.49124628657749242 -0.236908501885919 0 0.4917740197674299 -0.23435075272881889 0 0.48537460840503027 -0.23182550756858769 0 0.49124628657749242 -0.236908501885919 0 0.4917740197674299 -0.23435075272881889 0 0.49124628657749242 -0.236908501885919 0 0.49421434221916621 -0.23528102656053351 0 0.48844428217862401 -0.24938811333293209 0 0.48804101328938782 -0.27121871933869213 0 0.47740501233235022 -0.25892923708385812 0 0.48844428217862401 -0.24938811333293209 0 0.5 -0.26021242444416121 0 0.48804101328938782 -0.27121871933869213 0 0.5 -0.26021242444416121 0 0.48804101328938782 -0.27121871933869213 0 0.5 -0.28875219704699923 0 0.47740501233235022 -0.25892923708385812 0 0.48109200649593409 -0.28591113898402359 0 0.47740501233235022 -0.25892923708385812 0 0.46248459491251442 -0.26503434493823119 0 0.48109200649593409 -0.28591113898402359 0 0.48804101328938782 -0.27121871933869213 0 0.47740501233235022 -0.25892923708385812 0 0.48109200649593409 -0.28591113898402359 0 0.45955424003311968 -0.2489090257506216 0 0.47740501233235022 -0.25892923708385812 0 0.46248459491251442 -0.26503434493823119 0 0.45955424003311968 -0.2489090257506216 0 0.46248459491251442 -0.26503434493823119 0 0.44387447378664269 -0.26333019782098238 0 0.46248459491251442 -0.26503434493823119 0 0.4597964573572223 -0.28046784660369278 0 0.44387447378664269 -0.26333019782098238 0 0.46248459491251442 -0.26503434493823119 0 0.4597964573572223 -0.28046784660369278 0 0.48109200649593409 -0.28591113898402359 0 0.4597964573572223 -0.28046784660369278 0 0.44387447378664269 -0.26333019782098238 0 0.43993353571004151 -0.28279592285683047 0 0.45955424003311968 -0.2489090257506216 0 0.44225053930339531 -0.24551828170273701 0 0.44387447378664269 -0.26333019782098238 0 0.46470219606989538 -0.30189361549864768 0 0.4497031992280085 -0.31918799421194821 0 0.43432151923208839 -0.30085262100037091 0 0.4497031992280085 -0.31918799421194821 0 0.43432151923208839 -0.30085262100037091 0 0.43993353571004151 -0.28279592285683047 0 0.46470219606989538 -0.30189361549864768 0 0.43432151923208839 -0.30085262100037091 0 0.4597964573572223 -0.28046784660369278 0 0.43993353571004151 -0.28279592285683047 0 0.46470219606989538 -0.30189361549864768 0 0.4597964573572223 -0.28046784660369278 0 0.46470219606989538 -0.30189361549864768 0 0.48109200649593409 -0.28591113898402359 0 0.46470219606989538 -0.30189361549864768 0 0.46818460558005459 -0.31542246555507741 0 0.4497031992280085 -0.31918799421194821 0 0.46470219606989538 -0.30189361549864768 0 0.48477900065951812 -0.31289304088418929 0 0.46818460558005459 -0.31542246555507741 0 0.48109200649593409 -0.28591113898402359 0 0.48477900065951812 -0.31289304088418929 0 0.46470219606989538 -0.30189361549864768 0 0.48109200649593409 -0.28591113898402359 0 0.48477900065951812 -0.31289304088418929 0 0.48109200649593409 -0.28591113898402359 0 0.5 -0.28875219704699923 0 0.48477900065951812 -0.31289304088418929 0 0.48804101328938782 -0.27121871933869213 0 0.48109200649593409 -0.28591113898402359 0 0.5 -0.28875219704699923 0 0.5 -0.28875219704699923 0 0.5 -0.31729196964983719 0 0.48477900065951812 -0.31289304088418929 0 0.48477900065951812 -0.31289304088418929 0 0.48846599482310199 -0.33987494278435493 0 0.5 -0.31729196964983719 0 0.48477900065951812 -0.31289304088418929 0 0.48846599482310199 -0.33987494278435493 0 0.5 -0.31729196964983719 0 0.48846599482310199 -0.33987494278435493 0 0.5 -0.34583174225267532 0 0.48846599482310199 -0.33987494278435493 0 0.46942700673767468 -0.3289484928358668 0 0.46980385311541001 -0.34990729178600671 0 0.48477900065951812 -0.31289304088418929 0 0.46942700673767468 -0.3289484928358668 0 0.46818460558005459 -0.31542246555507741 0 0.48477900065951812 -0.31289304088418929 0 0.48846599482310199 -0.33987494278435493 0 0.46942700673767468 -0.3289484928358668 0 0.5 -0.37437151485551351 0 0.48707655807849282 -0.35671018103634983 0 0.47661246565798898 -0.3699713480771456 0 0.5 -0.37437151485551351 0 0.48707655807849282 -0.35671018103634983 0 0.5 -0.34583174225267532 0 0.48846599482310199 -0.33987494278435493 0 0.48707655807849282 -0.35671018103634983 0 0.5 -0.34583174225267532 0 0.48707655807849282 -0.35671018103634983 0 0.46980385311541001 -0.34990729178600671 0 0.47661246565798898 -0.3699713480771456 0 0.48846599482310199 -0.33987494278435493 0 0.48707655807849282 -0.35671018103634983 0 0.46980385311541001 -0.34990729178600671 0 0.44810302857337858 -0.36336332580281522 0 0.45900269377490432 -0.37883882169205207 0 0.42748508604804919 -0.38244542655567187 0 0.47661246565798898 -0.3699713480771456 0 0.44810302857337858 -0.36336332580281522 0 0.45900269377490432 -0.37883882169205207 0 0.46980385311541001 -0.34990729178600671 0 0.47661246565798898 -0.3699713480771456 0 0.44810302857337858 -0.36336332580281522 0 0.47661246565798898 -0.3699713480771456 0 0.44810302857337858 -0.36336332580281522 0 0.46980385311541001 -0.34990729178600671 0 0.44810302857337858 -0.36336332580281522 0 0.45344851217582671 -0.34043938178434729 0 0.44810302857337858 -0.36336332580281522 0 0.45344851217582671 -0.34043938178434729 0 0.43395154858717699 -0.34114401987942572 0 0.46942700673767468 -0.3289484928358668 0 0.46818460558005459 -0.31542246555507741 0 0.4497031992280085 -0.31918799421194821 0 0.46942700673767468 -0.3289484928358668 0 0.45344851217582671 -0.34043938178434729 0 0.4497031992280085 -0.31918799421194821 0 0.46942700673767468 -0.3289484928358668 0 0.46980385311541001 -0.34990729178600671 0 0.45344851217582671 -0.34043938178434729 0 0.45344851217582671 -0.34043938178434729 0 0.4497031992280085 -0.31918799421194821 0 0.43395154858717699 -0.34114401987942572 0 0.4497031992280085 -0.31918799421194821 0 0.42769757217953258 -0.32292193775459699 0 0.43432151923208839 -0.30085262100037091 0 0.42769757217953258 -0.32292193775459699 0 0.4103462135887439 -0.31417627705247642 0 0.43432151923208839 -0.30085262100037091 0 0.4497031992280085 -0.31918799421194821 0 0.42769757217953258 -0.32292193775459699 0 0.43395154858717699 -0.34114401987942572 0 0.42769757217953258 -0.32292193775459699 0 0.43395154858717699 -0.34114401987942572 0 0.41126704699124123 -0.33601528027526789 0 0.42769757217953258 -0.32292193775459699 0 0.41126704699124123 -0.33601528027526789 0 0.4103462135887439 -0.31417627705247642 0 0.44810302857337858 -0.36336332580281522 0 0.41959359148876813 -0.35675530352848472 0 0.44810302857337858 -0.36336332580281522 0 0.41959359148876813 -0.35675530352848472 0 0.42748508604804919 -0.38244542655567187 0 0.44810302857337858 -0.36336332580281522 0 0.43395154858717699 -0.34114401987942572 0 0.41959359148876813 -0.35675530352848472 0 0.41126704699124123 -0.33601528027526789 0 0.41959359148876813 -0.35675530352848472 0 0.39108415440415789 -0.35014728125415417 0 0.43395154858717699 -0.34114401987942572 0 0.41126704699124123 -0.33601528027526789 0 0.41959359148876813 -0.35675530352848472 0 0.41959359148876813 -0.35675530352848472 0 0.40473947232465668 -0.36371593671707281 0 0.42748508604804919 -0.38244542655567187 0 0.40473947232465668 -0.36371593671707281 0 0.39108415440415789 -0.35014728125415417 0 0.39789226825813351 -0.37903023252485379 0 0.39108415440415789 -0.35014728125415417 0 0.38388443610296069 -0.36123163171955619 0 0.39789226825813351 -0.37903023252485379 0 0.39108415440415789 -0.35014728125415417 0 0.39789226825813351 -0.37903023252485379 0 0.41959359148876813 -0.35675530352848472 0 0.39108415440415789 -0.35014728125415417 0 0.41959359148876813 -0.35675530352848472 0 0.40473947232465668 -0.36371593671707281 0 0.39108415440415789 -0.35014728125415417 0 0.39108415440415789 -0.35014728125415417 0 0.38134537117505241 -0.34788999022761402 0 0.37998367606916039 -0.33821928990547839 0 0.39108415440415789 -0.35014728125415417 0 0.38134537117505241 -0.34788999022761402 0 0.38134537117505241 -0.34788999022761402 0 0.38388443610296069 -0.36123163171955619 0 0.37224304987361911 -0.35662160970378382 0 0.39108415440415789 -0.35014728125415417 0 0.38134537117505241 -0.34788999022761402 0 0.38388443610296069 -0.36123163171955619 0 0.37596950985588279 -0.3734506461324914 0 0.38388443610296069 -0.36123163171955619 0 0.37224304987361911 -0.35662160970378382 0 0.37596950985588279 -0.3734506461324914 0 0.38388443610296069 -0.36123163171955619 0 0.39789226825813351 -0.37903023252485379 0 0.41126704699124123 -0.33601528027526789 0 0.4103462135887439 -0.31417627705247642 0 0.38600986658415221 -0.32861996679052202 0 0.4103462135887439 -0.31417627705247642 0 0.38600986658415221 -0.32861996679052202 0 0.39608943423744758 -0.30187677292804049 0 0.41126704699124123 -0.33601528027526789 0 0.39108415440415789 -0.35014728125415417 0 0.38600986658415221 -0.32861996679052202 0 0.39108415440415789 -0.35014728125415417 0 0.38600986658415221 -0.32861996679052202 0 0.39108415440415789 -0.35014728125415417 0 0.38600986658415221 -0.32861996679052202 0 0.37998367606916039 -0.33821928990547839 0 0.38134537117505241 -0.34788999022761402 0 0.37998367606916039 -0.33821928990547839 0 0.36976251313838188 -0.33988471241005053 0 0.38600986658415221 -0.32861996679052202 0 0.37998367606916039 -0.33821928990547839 0 0.37171647504405742 -0.32455449884505178 0 0.38600986658415221 -0.32861996679052202 0 0.38093557876414619 -0.30709265232688993 0 0.37171647504405742 -0.32455449884505178 0 0.38600986658415221 -0.32861996679052202 0 0.38093557876414619 -0.30709265232688993 0 0.38600986658415221 -0.32861996679052202 0 0.38093557876414619 -0.30709265232688993 0 0.39608943423744758 -0.30187677292804049 0 0.38093557876414619 -0.30709265232688993 0 0.39608943423744758 -0.30187677292804049 0 0.37586129094414023 -0.28556533786325772 0 0.4103462135887439 -0.31417627705247642 0 0.39608943423744758 -0.30187677292804049 0 0.4110241951665578 -0.29654287896875969 0 0.39754833419472002 -0.28620584688704293 0 0.39920594190107322 -0.2751293869026849 0 0.41893983923616818 -0.28251724778879361 0 0.39608943423744758 -0.30187677292804049 0 0.39754833419472002 -0.28620584688704293 0 0.4110241951665578 -0.29654287896875969 0 0.39754833419472002 -0.28620584688704293 0 0.37586129094414023 -0.28556533786325772 0 0.38718337504463818 -0.27666387197178682 0 0.39608943423744758 -0.30187677292804049 0 0.39754833419472002 -0.28620584688704293 0 0.37586129094414023 -0.28556533786325772 0 0.38093557876414619 -0.30709265232688993 0 0.37586129094414023 -0.28556533786325772 0 0.37586129094414023 -0.28556533786325772 0 0.3764455655912835 -0.27191426944285768 0 0.38718337504463818 -0.27666387197178682 0 0.3764455655912835 -0.27191426944285768 0 0.38880000178959101 -0.26607809328858489 0 0.38718337504463818 -0.27666387197178682 0 0.38449462084997782 -0.24449637204370309 0 0.37515871603234702 -0.25831143649915039 0 0.38547493587352238 -0.25605516512456872 0 0.38880000178959101 -0.26607809328858489 0 0.37515871603234702 -0.25831143649915039 0 0.3764455655912835 -0.27191426944285768 0 0.38880000178959101 -0.26607809328858489 0 0.37515871603234702 -0.25831143649915039 0 0.38880000178959101 -0.26607809328858489 0 0.37515871603234702 -0.25831143649915039 0 0.38547493587352238 -0.25605516512456872 0 0.38880000178959101 -0.26607809328858489 0 0.38547493587352238 -0.25605516512456872 0 0.40355815924024813 -0.26418187457721631 0 0.38817647924432808 -0.2458465013656391 0 0.40355815924024813 -0.26418187457721631 0 0.38817647924432808 -0.2458465013656391 0 0.38547493587352238 -0.25605516512456872 0 0.40355815924024813 -0.26418187457721631 0 0.38817647924432808 -0.2458465013656391 0 0.40355815924024813 -0.26418187457721631 0 0.40279724914119369 -0.25102992907362032 0 0.40355815924024813 -0.26418187457721631 0 0.40279724914119369 -0.25102992907362032 0 0.4122689803179409 -0.25426306200341142 0 0.39754833419472002 -0.28620584688704293 0 0.38718337504463818 -0.27666387197178682 0 0.39920594190107322 -0.2751293869026849 0 0.38880000178959101 -0.26607809328858489 0 0.40355815924024813 -0.26418187457721631 0 0.39920594190107322 -0.2751293869026849 0 0.38880000178959101 -0.26607809328858489 0 0.38718337504463818 -0.27666387197178682 0 0.39920594190107322 -0.2751293869026849 0 0.40355815924024813 -0.26418187457721631 0 0.42222621117017167 -0.26687635970581669 0 0.41893983923616818 -0.28251724778879361 0 0.40355815924024813 -0.26418187457721631 0 0.41893983923616818 -0.28251724778879361 0 0.40355815924024813 -0.26418187457721631 0 0.39920594190107322 -0.2751293869026849 0 0.41893983923616818 -0.28251724778879361 0 0.4122689803179409 -0.25426306200341142 0 0.42529147061323852 -0.25077918228271201 0 0.42222621117017167 -0.26687635970581669 0 0.40355815924024813 -0.26418187457721631 0 0.4122689803179409 -0.25426306200341142 0 0.42222621117017167 -0.26687635970581669 0 0.44387447378664269 -0.26333019782098238 0 0.42529147061323852 -0.25077918228271201 0 0.42222621117017167 -0.26687635970581669 0 0.44225053930339531 -0.24551828170273701 0 0.44387447378664269 -0.26333019782098238 0 0.42529147061323852 -0.25077918228271201 0 0.43993353571004151 -0.28279592285683047 0 0.42222621117017167 -0.26687635970581669 0 0.41893983923616818 -0.28251724778879361 0 0.44387447378664269 -0.26333019782098238 0 0.43993353571004151 -0.28279592285683047 0 0.42222621117017167 -0.26687635970581669 0 0.43432151923208839 -0.30085262100037091 0 0.41893983923616818 -0.28251724778879361 0 0.43993353571004151 -0.28279592285683047 0 0.43432151923208839 -0.30085262100037091 0 0.41893983923616818 -0.28251724778879361 0 0.4103462135887439 -0.31417627705247642 0 0.43432151923208839 -0.30085262100037091 0 0.4110241951665578 -0.29654287896875969 0 0.39754833419472002 -0.28620584688704293 0 0.41893983923616818 -0.28251724778879361 0 0.4110241951665578 -0.29654287896875969 0 0.43432151923208839 -0.30085262100037091 0 0.41893983923616818 -0.28251724778879361 0 0.4110241951665578 -0.29654287896875969 0 0.44713779667292552 -0.48759378984147572 0 0.46484644994462188 -0.5 0 0.43594105982745862 -0.5 0 0.44713779667292552 -0.48759378984147572 0 0.43339984094007622 -0.48388706358828748 0 0.43594105982745862 -0.5 0 0.44713779667292552 -0.48759378984147572 0 0.44047901470590262 -0.47160040415535798 0 0.43339984094007622 -0.48388706358828748 0 0.44047901470590262 -0.47160040415535798 0 0.45896679455804817 -0.47887912816949579 0 0.453454994231687 -0.4589236079852973 0 0.44713779667292552 -0.48759378984147572 0 0.44047901470590262 -0.47160040415535798 0 0.45896679455804817 -0.47887912816949579 0 0.45896679455804817 -0.47887912816949579 0 0.4737711115697707 -0.481914969023513 0 0.47232828603504751 -0.46627447876427153 0 0.44713779667292552 -0.48759378984147572 0 0.45896679455804817 -0.47887912816949579 0 0.46484644994462188 -0.5 0 0.45896679455804817 -0.47887912816949579 0 0.46484644994462188 -0.5 0 0.4737711115697707 -0.481914969023513 0 0.46484644994462188 -0.5 0 0.48528414495987998 -0.487649292013628 0 0.4737711115697707 -0.481914969023513 0 0.46484644994462188 -0.5 0 0.48528414495987998 -0.487649292013628 0 0.4937518400617853 -0.49999999999999861 0 0.50000000000000067 -0.49322458214301701 0 0.4937518400617853 -0.49999999999999861 0 0.49537924426545199 -0.477363529730506 0 0.4937518400617853 -0.49999999999999861 0 0.49537924426545199 -0.477363529730506 0 0.48528414495987998 -0.487649292013628 0 0.4937518400617853 -0.49999999999999861 0 0.49537924426545199 -0.477363529730506 0 0.50000000000000067 -0.49322458214301701 0 0.49707709542829609 -0.50000000000000178 0 0.4937518400617853 -0.49999999999999861 0 0.50000000000000067 -0.49322458214301701 0 0.5 -0.5 0 0.49707709542829609 -0.50000000000000178 0 0.50000000000000067 -0.49322458214301701 0 0.49707709542829609 -0.50000000000000178 0 0.50000000000000067 -0.49322458214301701 0 0.5 -0.47064625847185071 0 0.49537924426545199 -0.477363529730506 0 0.48528414495987998 -0.487649292013628 0 0.49537924426545199 -0.477363529730506 0 0.48447140956006751 -0.47619404744807708 0 0.49537924426545199 -0.477363529730506 0 0.48447140956006751 -0.47619404744807708 0 0.49026066157172238 -0.46807355421400532 0 0.48447140956006751 -0.47619404744807708 0 0.48462334973985682 -0.46525791945514672 0 0.49026066157172238 -0.46807355421400532 0 0.48447140956006751 -0.47619404744807708 0 0.47232828603504751 -0.46627447876427153 0 0.48462334973985682 -0.46525791945514672 0 0.48447140956006751 -0.47619404744807708 0 0.4737711115697707 -0.481914969023513 0 0.47232828603504751 -0.46627447876427153 0 0.48528414495987998 -0.487649292013628 0 0.48447140956006751 -0.47619404744807708 0 0.4737711115697707 -0.481914969023513 0 0.47232828603504751 -0.46627447876427153 0 0.48476628396740801 -0.45360889881072652 0 0.46772455019685172 -0.44791472204849242 0 0.47232828603504751 -0.46627447876427153 0 0.48462334973985682 -0.46525791945514672 0 0.48476628396740801 -0.45360889881072652 0 0.5 -0.47064625847185071 0 0.49700664846911868 -0.45472705946101338 0 0.5 -0.4480679348006843 0 0.49537924426545199 -0.477363529730506 0 0.49026066157172238 -0.46807355421400532 0 0.49700664846911868 -0.45472705946101338 0 0.49026066157172238 -0.46807355421400532 0 0.48923739370225883 -0.46112889765078519 0 0.49700664846911868 -0.45472705946101338 0 0.5 -0.47064625847185071 0 0.49537924426545199 -0.477363529730506 0 0.49700664846911868 -0.45472705946101338 0 0.49537924426545199 -0.477363529730506 0 0.49700664846911868 -0.45472705946101338 0 0.48462334973985682 -0.46525791945514672 0 0.49026066157172238 -0.46807355421400532 0 0.48923739370225883 -0.46112889765078519 0 0.48923739370225883 -0.46112889765078519 0 0.48476628396740801 -0.45360889881072652 0 0.49700664846911868 -0.45472705946101338 0 0.48462334973985682 -0.46525791945514672 0 0.48923739370225883 -0.46112889765078519 0 0.48476628396740801 -0.45360889881072652 0 0.49700664846911868 -0.45472705946101338 0 0.5 -0.4480679348006843 0 0.49863405267278549 -0.43209058919152099 0 0.49700664846911868 -0.45472705946101338 0 0.49863405267278549 -0.43209058919152099 0 0.49700664846911868 -0.45472705946101338 0 0.49095397755216341 -0.44383815673035132 0 0.49863405267278549 -0.43209058919152099 0 0.48476628396740801 -0.45360889881072652 0 0.49095397755216341 -0.44383815673035132 0 0.48124513128744378 -0.44098048345932611 0 0.48476628396740801 -0.45360889881072652 0 0.49700664846911868 -0.45472705946101338 0 0.49095397755216341 -0.44383815673035132 0 0.49095397755216341 -0.44383815673035132 0 0.48124513128744378 -0.44098048345932611 0 0.49067095893807661 -0.43599378066862471 0 0.48476628396740801 -0.45360889881072652 0 0.48124513128744378 -0.44098048345932611 0 0.46772455019685172 -0.44791472204849242 0 0.48124513128744378 -0.44098048345932611 0 0.46772455019685172 -0.44791472204849242 0 0.46758082720749672 -0.42770148633717042 0 0.46772455019685172 -0.44791472204849242 0 0.453454994231687 -0.4589236079852973 0 0.45137124081124508 -0.4400965857765799 0 0.46772455019685172 -0.44791472204849242 0 0.45137124081124508 -0.4400965857765799 0 0.46758082720749672 -0.42770148633717042 0 0.45896679455804817 -0.47887912816949579 0 0.47232828603504751 -0.46627447876427153 0 0.453454994231687 -0.4589236079852973 0 0.47232828603504751 -0.46627447876427153 0 0.46772455019685172 -0.44791472204849242 0 0.453454994231687 -0.4589236079852973 0 0.44047901470590262 -0.47160040415535798 0 0.453454994231687 -0.4589236079852973 0 0.43523154566410871 -0.45094214046092312 0 0.453454994231687 -0.4589236079852973 0 0.45137124081124508 -0.4400965857765799 0 0.43523154566410871 -0.45094214046092312 0 0.45137124081124508 -0.4400965857765799 0 0.43625891844967418 -0.43255702344509872 0 0.43523154566410871 -0.45094214046092312 0 0.45137124081124508 -0.4400965857765799 0 0.45220699823746341 -0.4184971496191775 0 0.43625891844967418 -0.43255702344509872 0 0.45220699823746341 -0.4184971496191775 0 0.43198477206131952 -0.41369076279207623 0 0.43625891844967418 -0.43255702344509872 0 0.45220699823746341 -0.4184971496191775 0 0.45463823615652638 -0.39829273730812348 0 0.43198477206131952 -0.41369076279207623 0 0.45220699823746341 -0.4184971496191775 0 0.46720262889156827 -0.41039321342623819 0 0.46758082720749672 -0.42770148633717042 0 0.45220699823746341 -0.4184971496191775 0 0.46720262889156827 -0.41039321342623819 0 0.45463823615652638 -0.39829273730812348 0 0.45137124081124508 -0.4400965857765799 0 0.46758082720749672 -0.42770148633717042 0 0.45137124081124508 -0.4400965857765799 0 0.45220699823746341 -0.4184971496191775 0 0.46758082720749672 -0.42770148633717042 0 0.46758082720749672 -0.42770148633717042 0 0.48698689728492522 -0.42959372294732018 0 0.4837904136037483 -0.415306386897761 0 0.48124513128744378 -0.44098048345932611 0 0.46758082720749672 -0.42770148633717042 0 0.48698689728492522 -0.42959372294732018 0 0.48698689728492522 -0.42959372294732018 0 0.5 -0.42548961112951789 0 0.4837904136037483 -0.415306386897761 0 0.5 -0.4480679348006843 0 0.5 -0.42548961112951789 0 0.49863405267278549 -0.43209058919152099 0 0.49067095893807661 -0.43599378066862471 0 0.48698689728492522 -0.42959372294732018 0 0.49863405267278549 -0.43209058919152099 0 0.48124513128744378 -0.44098048345932611 0 0.49067095893807661 -0.43599378066862471 0 0.48698689728492522 -0.42959372294732018 0 0.48698689728492522 -0.42959372294732018 0 0.5 -0.42548961112951789 0 0.49863405267278549 -0.43209058919152099 0 0.49095397755216341 -0.44383815673035132 0 0.49067095893807661 -0.43599378066862471 0 0.49863405267278549 -0.43209058919152099 0 0.5 -0.42548961112951789 0 0.4837904136037483 -0.415306386897761 0 0.5 -0.40291128745835159 0 0.4837904136037483 -0.415306386897761 0 0.5 -0.40291128745835159 0 0.46758082720749672 -0.42770148633717042 0 0.4837904136037483 -0.415306386897761 0 0.46720262889156827 -0.41039321342623819 0 0.46758082720749672 -0.42770148633717042 0 0.4837904136037483 -0.415306386897761 0 0.46720262889156827 -0.41039321342623819 0 0.4837904136037483 -0.415306386897761 0 0.47779666925260622 -0.3921683069689586 0 0.4837904136037483 -0.415306386897761 0 0.47779666925260622 -0.3921683069689586 0 0.5 -0.40291128745835159 0 0.5 -0.37437151485551351 0 0.47661246565798898 -0.3699713480771456 0 0.47779666925260622 -0.3921683069689586 0 0.5 -0.37437151485551351 0 0.47779666925260622 -0.3921683069689586 0 0.5 -0.40291128745835159 0 0.47661246565798898 -0.3699713480771456 0 0.47779666925260622 -0.3921683069689586 0 0.45900269377490432 -0.37883882169205207 0 0.45900269377490432 -0.37883882169205207 0 0.45463823615652638 -0.39829273730812348 0 0.42748508604804919 -0.38244542655567187 0 0.47779666925260622 -0.3921683069689586 0 0.45900269377490432 -0.37883882169205207 0 0.45463823615652638 -0.39829273730812348 0 0.46720262889156827 -0.41039321342623819 0 0.47779666925260622 -0.3921683069689586 0 0.45463823615652638 -0.39829273730812348 0 0.45463823615652638 -0.39829273730812348 0 0.42748508604804919 -0.38244542655567187 0 0.43198477206131952 -0.41369076279207623 0 0.42748508604804919 -0.38244542655567187 0 0.40470038211210879 -0.4079131837955533 0 0.43198477206131952 -0.41369076279207623 0 0.42748508604804919 -0.38244542655567187 0 0.39789226825813351 -0.37903023252485379 0 0.40470038211210879 -0.4079131837955533 0 0.40473947232465668 -0.36371593671707281 0 0.42748508604804919 -0.38244542655567187 0 0.39789226825813351 -0.37903023252485379 0 0.37596950985588279 -0.3734506461324914 0 0.39789226825813351 -0.37903023252485379 0 0.38217269989920122 -0.39512878691635711 0 0.39789226825813351 -0.37903023252485379 0 0.38217269989920122 -0.39512878691635711 0 0.40470038211210879 -0.4079131837955533 0 0.39789226825813351 -0.37903023252485379 0 0.40470038211210879 -0.4079131837955533 0 0.38217269989920122 -0.39512878691635711 0 0.40470038211210879 -0.4079131837955533 0 0.39064907057376042 -0.42510461825435197 0 0.38217269989920122 -0.39512878691635711 0 0.39064907057376042 -0.42510461825435197 0 0.36840131384077829 -0.42020679598623312 0 0.39064907057376042 -0.42510461825435197 0 0.37752292889732769 -0.44209821336428989 0 0.36840131384077829 -0.42020679598623312 0 0.40470038211210879 -0.4079131837955533 0 0.39064907057376042 -0.42510461825435197 0 0.41150849596608408 -0.4367961350662527 0 0.40470038211210879 -0.4079131837955533 0 0.41150849596608408 -0.4367961350662527 0 0.40470038211210879 -0.4079131837955533 0 0.41150849596608408 -0.4367961350662527 0 0.43198477206131952 -0.41369076279207623 0 0.41150849596608408 -0.4367961350662527 0 0.43198477206131952 -0.41369076279207623 0 0.43625891844967418 -0.43255702344509872 0 0.41150849596608408 -0.4367961350662527 0 0.43625891844967418 -0.43255702344509872 0 0.43523154566410871 -0.45094214046092312 0 0.44047901470590262 -0.47160040415535798 0 0.43523154566410871 -0.45094214046092312 0 0.41831660982005942 -0.46567908633695232 0 0.41150849596608408 -0.4367961350662527 0 0.41831660982005942 -0.46567908633695232 0 0.39682407771153339 -0.45424346703233942 0 0.41150849596608408 -0.4367961350662527 0 0.41831660982005942 -0.46567908633695232 0 0.41150849596608408 -0.4367961350662527 0 0.43523154566410871 -0.45094214046092312 0 0.41831660982005942 -0.46567908633695232 0 0.39064907057376042 -0.42510461825435197 0 0.41150849596608408 -0.4367961350662527 0 0.39682407771153339 -0.45424346703233942 0 0.39064907057376042 -0.42510461825435197 0 0.37752292889732769 -0.44209821336428989 0 0.39682407771153339 -0.45424346703233942 0 0.37752292889732769 -0.44209821336428989 0 0.39682407771153339 -0.45424346703233942 0 0.36992137754988408 -0.46897713426606757 0 0.39682407771153339 -0.45424346703233942 0 0.39477509308673231 -0.47695564865843398 0 0.36992137754988408 -0.46897713426606757 0 0.41831660982005942 -0.46567908633695232 0 0.39682407771153339 -0.45424346703233942 0 0.39477509308673231 -0.47695564865843398 0 0.39477509308673231 -0.47695564865843398 0 0.37813027959313139 -0.5 0 0.36992137754988408 -0.46897713426606757 0 0.39477509308673231 -0.47695564865843398 0 0.37813027959313139 -0.5 0 0.40703566971029498 -0.5 0 0.39477509308673231 -0.47695564865843398 0 0.40703566971029498 -0.5 0 0.41170623787216631 -0.4827313085591477 0 0.40703566971029498 -0.5 0 0.41170623787216631 -0.4827313085591477 0 0.4251247236740347 -0.49456203760765183 0 0.41831660982005942 -0.46567908633695232 0 0.39477509308673231 -0.47695564865843398 0 0.41170623787216631 -0.4827313085591477 0 0.41831660982005942 -0.46567908633695232 0 0.4251247236740347 -0.49456203760765183 0 0.41831660982005942 -0.46567908633695232 0 0.41170623787216631 -0.4827313085591477 0 0.4251247236740347 -0.49456203760765183 0 0.44047901470590262 -0.47160040415535798 0 0.41831660982005942 -0.46567908633695232 0 0.43339984094007622 -0.48388706358828748 0 0.41831660982005942 -0.46567908633695232 0 0.43339984094007622 -0.48388706358828748 0 0.4251247236740347 -0.49456203760765183 0 0.40703566971029498 -0.5 0 0.43594105982745862 -0.5 0 0.4251247236740347 -0.49456203760765183 0 0.43339984094007622 -0.48388706358828748 0 0.43594105982745862 -0.5 0 0.4251247236740347 -0.49456203760765183 0 0.32031949935880422 -0.5 0 0.317583198677722 -0.48965904475535671 0 0.3329835519491347 -0.49165630890421391 0 0.317583198677722 -0.48965904475535671 0 0.32082507984697278 -0.4732255976335652 0 0.31111180050841658 -0.47926500578834319 0 0.317583198677722 -0.48965904475535671 0 0.32082507984697278 -0.4732255976335652 0 0.34375228811380298 -0.47931808951071209 0 0.32082507984697278 -0.4732255976335652 0 0.34375228811380298 -0.47931808951071209 0 0.33187523840533201 -0.46270145935894219 0 0.317583198677722 -0.48965904475535671 0 0.34375228811380298 -0.47931808951071209 0 0.3329835519491347 -0.49165630890421391 0 0.34375228811380298 -0.47931808951071209 0 0.3329835519491347 -0.49165630890421391 0 0.34922488947596791 -0.5 0 0.317583198677722 -0.48965904475535671 0 0.34375228811380298 -0.47931808951071209 0 0.32031949935880422 -0.5 0 0.3329835519491347 -0.49165630890421391 0 0.34922488947596791 -0.5 0 0.34375228811380298 -0.47931808951071209 0 0.34922488947596791 -0.5 0 0.36058556886976129 -0.48668461924475548 0 0.37813027959313139 -0.5 0 0.36058556886976129 -0.48668461924475548 0 0.36992137754988408 -0.46897713426606757 0 0.37813027959313139 -0.5 0 0.34922488947596791 -0.5 0 0.36058556886976129 -0.48668461924475548 0 0.34375228811380298 -0.47931808951071209 0 0.36992137754988408 -0.46897713426606757 0 0.34985917763664232 -0.45806939879935749 0 0.34375228811380298 -0.47931808951071209 0 0.36058556886976129 -0.48668461924475548 0 0.36992137754988408 -0.46897713426606757 0 0.34375228811380298 -0.47931808951071209 0 0.36992137754988408 -0.46897713426606757 0 0.37752292889732769 -0.44209821336428989 0 0.36992137754988408 -0.46897713426606757 0 0.34985917763664232 -0.45806939879935749 0 0.37752292889732769 -0.44209821336428989 0 0.34985917763664232 -0.45806939879935749 0 0.35515018981151192 -0.43632503453443511 0 0.34985917763664232 -0.45806939879935749 0 0.33210974642301899 -0.44360168238747721 0 0.35515018981151192 -0.43632503453443511 0 0.34985917763664232 -0.45806939879935749 0 0.33210974642301899 -0.44360168238747721 0 0.33187523840533201 -0.46270145935894219 0 0.34375228811380298 -0.47931808951071209 0 0.34985917763664232 -0.45806939879935749 0 0.33187523840533201 -0.46270145935894219 0 0.32082507984697278 -0.4732255976335652 0 0.33187523840533201 -0.46270145935894219 0 0.31699382240940749 -0.45735548303565821 0 0.33210974642301899 -0.44360168238747721 0 0.33187523840533201 -0.46270145935894219 0 0.31699382240940749 -0.45735548303565821 0 0.32082507984697278 -0.4732255976335652 0 0.31699382240940749 -0.45735548303565821 0 0.30569015163525609 -0.46984765758110542 0 0.33210974642301899 -0.44360168238747721 0 0.31699382240940749 -0.45735548303565821 0 0.31393491667549878 -0.44291067450374072 0 0.33210974642301899 -0.44360168238747721 0 0.31393491667549878 -0.44291067450374072 0 0.32817079431056551 -0.42467845559117301 0 0.31393491667549878 -0.44291067450374072 0 0.32817079431056551 -0.42467845559117301 0 0.3134500558601569 -0.42778795969216649 0 0.3134500558601569 -0.42778795969216649 0 0.31833558964845221 -0.40724816915010248 0 0.30608695473883579 -0.41480071649037997 0 0.32817079431056551 -0.42467845559117301 0 0.3134500558601569 -0.42778795969216649 0 0.31833558964845221 -0.40724816915010248 0 0.32817079431056551 -0.42467845559117301 0 0.34597676897055291 -0.42152907063696071 0 0.34058675600021909 -0.40433089296782238 0 0.32817079431056551 -0.42467845559117301 0 0.31833558964845221 -0.40724816915010248 0 0.34058675600021909 -0.40433089296782238 0 0.33210974642301899 -0.44360168238747721 0 0.32817079431056551 -0.42467845559117301 0 0.34597676897055291 -0.42152907063696071 0 0.33210974642301899 -0.44360168238747721 0 0.35515018981151192 -0.43632503453443511 0 0.34597676897055291 -0.42152907063696071 0 0.35515018981151192 -0.43632503453443511 0 0.36840131384077829 -0.42020679598623312 0 0.34597676897055291 -0.42152907063696071 0 0.37752292889732769 -0.44209821336428989 0 0.35515018981151192 -0.43632503453443511 0 0.36840131384077829 -0.42020679598623312 0 0.34597676897055291 -0.42152907063696071 0 0.35877407885865359 -0.40139282392617132 0 0.34058675600021909 -0.40433089296782238 0 0.36840131384077829 -0.42020679598623312 0 0.34597676897055291 -0.42152907063696071 0 0.35877407885865359 -0.40139282392617132 0 0.35877407885865359 -0.40139282392617132 0 0.34331862362355292 -0.38273344375548879 0 0.34058675600021909 -0.40433089296782238 0 0.38217269989920122 -0.39512878691635711 0 0.35877407885865359 -0.40139282392617132 0 0.36294216151418579 -0.38344740530672711 0 0.38217269989920122 -0.39512878691635711 0 0.36840131384077829 -0.42020679598623312 0 0.35877407885865359 -0.40139282392617132 0 0.37596950985588279 -0.3734506461324914 0 0.38217269989920122 -0.39512878691635711 0 0.36294216151418579 -0.38344740530672711 0 0.36294216151418579 -0.38344740530672711 0 0.34331862362355292 -0.38273344375548879 0 0.35818184823044269 -0.36676393992596462 0 0.35877407885865359 -0.40139282392617132 0 0.36294216151418579 -0.38344740530672711 0 0.34331862362355292 -0.38273344375548879 0 0.34331862362355292 -0.38273344375548879 0 0.32548871792130563 -0.39096068163285108 0 0.32660497509851227 -0.37146528982346022 0 0.34331862362355292 -0.38273344375548879 0 0.34058675600021909 -0.40433089296782238 0 0.32548871792130563 -0.39096068163285108 0 0.34058675600021909 -0.40433089296782238 0 0.32548871792130563 -0.39096068163285108 0 0.31833558964845221 -0.40724816915010248 0 0.34058675600021909 -0.40433089296782238 0 0.32548871792130563 -0.39096068163285108 0 0.31833558964845221 -0.40724816915010248 0 0.32548871792130563 -0.39096068163285108 0 0.31176744057109551 -0.39195327318797551 0 0.32548871792130563 -0.39096068163285108 0 0.31039067984239199 -0.37759047029788001 0 0.32660497509851227 -0.37146528982346022 0 0.32548871792130563 -0.39096068163285108 0 0.31039067984239199 -0.37759047029788001 0 0.32548871792130563 -0.39096068163285108 0 0.31039067984239199 -0.37759047029788001 0 0.31176744057109551 -0.39195327318797551 0 0.30176622768887951 -0.38597305803574522 0 0.29837648048886611 -0.37729713203192539 0 0.31039067984239199 -0.37759047029788001 0 0.30176622768887951 -0.38597305803574522 0 0.31039067984239199 -0.37759047029788001 0 0.31176744057109551 -0.39195327318797551 0 0.30176622768887951 -0.38597305803574522 0 0.31176744057109551 -0.39195327318797551 0 0.30110838640975879 -0.39884142759351121 0 0.31833558964845221 -0.40724816915010248 0 0.31176744057109551 -0.39195327318797551 0 0.30110838640975879 -0.39884142759351121 0 0.28718815113228507 -0.38418298706743381 0 0.27908366050109329 -0.4041457151719578 0 0.30110838640975879 -0.39884142759351121 0 0.27908366050109329 -0.4041457151719578 0 0.29034884967322838 -0.41553195901251788 0 0.30110838640975879 -0.39884142759351121 0 0.28718815113228507 -0.38418298706743381 0 0.27908366050109329 -0.4041457151719578 0 0.29837648048886611 -0.37729713203192539 0 0.28718815113228507 -0.38418298706743381 0 0.29529264176347741 -0.36422025896290988 0 0.30176622768887951 -0.38597305803574522 0 0.30110838640975879 -0.39884142759351121 0 0.28718815113228507 -0.38418298706743381 0 0.30176622768887951 -0.38597305803574522 0 0.29837648048886611 -0.37729713203192539 0 0.28718815113228507 -0.38418298706743381 0 0.28718815113228507 -0.38418298706743381 0 0.26817278318538579 -0.38180033319142592 0 0.27908366050109329 -0.4041457151719578 0 0.28718815113228507 -0.38418298706743381 0 0.26817278318538579 -0.38180033319142592 0 0.2777613033941207 -0.36712544313111428 0 0.26817278318538579 -0.38180033319142592 0 0.25211068065032372 -0.39342534352467468 0 0.24900525261987111 -0.37373651464937951 0 0.25211068065032372 -0.39342534352467468 0 0.27908366050109329 -0.4041457151719578 0 0.25425260572772362 -0.41471264228753502 0 0.26817278318538579 -0.38180033319142592 0 0.25211068065032372 -0.39342534352467468 0 0.27908366050109329 -0.4041457151719578 0 0.27908366050109329 -0.4041457151719578 0 0.27097916986990161 -0.42410844327648178 0 0.29034884967322838 -0.41553195901251788 0 0.27908366050109329 -0.4041457151719578 0 0.27097916986990161 -0.42410844327648178 0 0.27908366050109329 -0.4041457151719578 0 0.25425260572772362 -0.41471264228753502 0 0.27097916986990161 -0.42410844327648178 0 0.25425260572772362 -0.41471264228753502 0 0.25374722146303907 -0.43603168585164193 0 0.27097916986990161 -0.42410844327648178 0 0.27097916986990161 -0.42410844327648178 0 0.29384500683474452 -0.43216488487035482 0 0.27664656685481909 -0.44177277084396632 0 0.25374722146303907 -0.43603168585164193 0 0.27097916986990161 -0.42410844327648178 0 0.27664656685481909 -0.44177277084396632 0 0.27097916986990161 -0.42410844327648178 0 0.29384500683474452 -0.43216488487035482 0 0.29034884967322838 -0.41553195901251788 0 0.29384500683474452 -0.43216488487035482 0 0.29034884967322838 -0.41553195901251788 0 0.30608695473883579 -0.41480071649037997 0 0.31833558964845221 -0.40724816915010248 0 0.30110838640975879 -0.39884142759351121 0 0.30608695473883579 -0.41480071649037997 0 0.30110838640975879 -0.39884142759351121 0 0.29034884967322838 -0.41553195901251788 0 0.30608695473883579 -0.41480071649037997 0 0.3134500558601569 -0.42778795969216649 0 0.29384500683474452 -0.43216488487035482 0 0.30608695473883579 -0.41480071649037997 0 0.31393491667549878 -0.44291067450374072 0 0.3134500558601569 -0.42778795969216649 0 0.29384500683474452 -0.43216488487035482 0 0.31699382240940749 -0.45735548303565821 0 0.31393491667549878 -0.44291067450374072 0 0.29752780147036673 -0.45184582674911872 0 0.31393491667549878 -0.44291067450374072 0 0.29384500683474452 -0.43216488487035482 0 0.29752780147036673 -0.45184582674911872 0 0.31699382240940749 -0.45735548303565821 0 0.29752780147036673 -0.45184582674911872 0 0.30569015163525609 -0.46984765758110542 0 0.29752780147036673 -0.45184582674911872 0 0.29075089395090181 -0.47114970118881272 0 0.30569015163525609 -0.46984765758110542 0 0.29752780147036673 -0.45184582674911872 0 0.28046971308307578 -0.45926421865949429 0 0.29075089395090181 -0.47114970118881272 0 0.29384500683474452 -0.43216488487035482 0 0.29752780147036673 -0.45184582674911872 0 0.27664656685481909 -0.44177277084396632 0 0.29752780147036673 -0.45184582674911872 0 0.27664656685481909 -0.44177277084396632 0 0.28046971308307578 -0.45926421865949429 0 0.27664656685481909 -0.44177277084396632 0 0.26033012843435199 -0.45644445275285123 0 0.28046971308307578 -0.45926421865949429 0 0.25374722146303907 -0.43603168585164193 0 0.26033012843435199 -0.45644445275285123 0 0.24430631989322471 -0.4472557256421259 0 0.25374722146303907 -0.43603168585164193 0 0.27664656685481909 -0.44177277084396632 0 0.26033012843435199 -0.45644445275285123 0 0.26033012843435199 -0.45644445275285123 0 0.25859028418496921 -0.47731689648453218 0 0.23915824839187469 -0.46679343831294468 0 0.26033012843435199 -0.45644445275285123 0 0.28046971308307578 -0.45926421865949429 0 0.25859028418496921 -0.47731689648453218 0 0.28046971308307578 -0.45926421865949429 0 0.27777358109564898 -0.48139926918190329 0 0.25859028418496921 -0.47731689648453218 0 0.25859028418496921 -0.47731689648453218 0 0.26174138111550149 -0.5 0 0.2320686529893623 -0.5 0 0.27777358109564898 -0.48139926918190329 0 0.26174138111550149 -0.5 0 0.29141410924164068 -0.50000000000000067 0 0.27777358109564898 -0.48139926918190329 0 0.25859028418496921 -0.47731689648453218 0 0.26174138111550149 -0.5 0 0.27777358109564898 -0.48139926918190329 0 0.29141410924164068 -0.50000000000000067 0 0.30034877187371539 -0.48432772318334588 0 0.28046971308307578 -0.45926421865949429 0 0.27777358109564898 -0.48139926918190329 0 0.29075089395090181 -0.47114970118881272 0 0.27777358109564898 -0.48139926918190329 0 0.29075089395090181 -0.47114970118881272 0 0.30034877187371539 -0.48432772318334588 0 0.29075089395090181 -0.47114970118881272 0 0.30034877187371539 -0.48432772318334588 0 0.30569015163525609 -0.46984765758110542 0 0.32082507984697278 -0.4732255976335652 0 0.30569015163525609 -0.46984765758110542 0 0.31111180050841658 -0.47926500578834319 0 0.30034877187371539 -0.48432772318334588 0 0.30569015163525609 -0.46984765758110542 0 0.31111180050841658 -0.47926500578834319 0 0.317583198677722 -0.48965904475535671 0 0.29141410924164068 -0.50000000000000067 0 0.30034877187371539 -0.48432772318334588 0 0.32031949935880422 -0.5 0 0.317583198677722 -0.48965904475535671 0 0.29141410924164068 -0.50000000000000067 0 0.317583198677722 -0.48965904475535671 0 0.30034877187371539 -0.48432772318334588 0 0.31111180050841658 -0.47926500578834319 0 0.317583198677722 -0.48965904475535671 0 0.29141410924164068 -0.50000000000000067 0 0.33086476098348883 -0.28242927360072639 0 0.34034477288795428 -0.30374942909653918 0 0.32590216072305572 -0.29917565274058899 0 0.33086476098348883 -0.28242927360072639 0 0.34034477288795428 -0.30374942909653918 0 0.34653418782935941 -0.29061853569379459 0 0.33086476098348883 -0.28242927360072639 0 0.34788469822782259 -0.27628289662274391 0 0.34653418782935941 -0.29061853569379459 0 0.33086476098348883 -0.28242927360072639 0 0.34034477288795428 -0.30374942909653918 0 0.34034477288795428 -0.30374942909653918 0 0.32590216072305572 -0.29917565274058899 0 0.33951391031284778 -0.31762903674952281 0 0.32590216072305572 -0.29917565274058899 0 0.31391013703034071 -0.30959894022228568 0 0.33951391031284778 -0.31762903674952281 0 0.32590216072305572 -0.29917565274058899 0 0.31391013703034071 -0.30959894022228568 0 0.3083137882137359 -0.29567979053686028 0 0.32590216072305572 -0.29917565274058899 0 0.3186227833469969 -0.28736875746745633 0 0.3083137882137359 -0.29567979053686028 0 0.33086476098348883 -0.28242927360072639 0 0.3186227833469969 -0.28736875746745633 0 0.31267696182828292 -0.27610570788359851 0 0.33086476098348883 -0.28242927360072639 0 0.32590216072305572 -0.29917565274058899 0 0.3186227833469969 -0.28736875746745633 0 0.3186227833469969 -0.28736875746745633 0 0.31267696182828292 -0.27610570788359851 0 0.30779977140043002 -0.28571059901923529 0 0.33086476098348883 -0.28242927360072639 0 0.31267696182828292 -0.27610570788359851 0 0.32138474907902348 -0.26110911810491377 0 0.33086476098348883 -0.28242927360072639 0 0.32138474907902348 -0.26110911810491377 0 0.32138474907902348 -0.26110911810491377 0 0.34145108967706322 -0.25582694890731378 0 0.32931784948572668 -0.24598817742227319 0 0.32138474907902348 -0.26110911810491377 0 0.34145108967706322 -0.25582694890731378 0 0.33086476098348883 -0.28242927360072639 0 0.32138474907902348 -0.26110911810491377 0 0.34145108967706322 -0.25582694890731378 0 0.33086476098348883 -0.28242927360072639 0 0.34145108967706322 -0.25582694890731378 0 0.34788469822782259 -0.27628289662274391 0 0.34788469822782259 -0.27628289662274391 0 0.36039902113476258 -0.26715299213619809 0 0.36017443151443918 -0.28538673277568638 0 0.34145108967706322 -0.25582694890731378 0 0.34788469822782259 -0.27628289662274391 0 0.36039902113476258 -0.26715299213619809 0 0.34145108967706322 -0.25582694890731378 0 0.36151743027510319 -0.25054477970971528 0 0.34145108967706322 -0.25582694890731378 0 0.36151743027510319 -0.25054477970971528 0 0.36039902113476258 -0.26715299213619809 0 0.37515871603234702 -0.25831143649915039 0 0.36151743027510319 -0.25054477970971528 0 0.36039902113476258 -0.26715299213619809 0 0.38449462084997782 -0.24449637204370309 0 0.37515871603234702 -0.25831143649915039 0 0.36151743027510319 -0.25054477970971528 0 0.37515871603234702 -0.25831143649915039 0 0.36151743027510319 -0.25054477970971528 0 0.37586129094414023 -0.28556533786325772 0 0.3764455655912835 -0.27191426944285768 0 0.36017443151443918 -0.28538673277568638 0 0.3764455655912835 -0.27191426944285768 0 0.37515871603234702 -0.25831143649915039 0 0.36039902113476258 -0.26715299213619809 0 0.3764455655912835 -0.27191426944285768 0 0.36039902113476258 -0.26715299213619809 0 0.36017443151443918 -0.28538673277568638 0 0.36017443151443918 -0.28538673277568638 0 0.35499960815343112 -0.30522815868401898 0 0.36782828842531812 -0.29869938286239639 0 0.37586129094414023 -0.28556533786325772 0 0.36017443151443918 -0.28538673277568638 0 0.36782828842531812 -0.29869938286239639 0 0.36017443151443918 -0.28538673277568638 0 0.34653418782935941 -0.29061853569379459 0 0.35499960815343112 -0.30522815868401898 0 0.36017443151443918 -0.28538673277568638 0 0.35499960815343112 -0.30522815868401898 0 0.34788469822782259 -0.27628289662274391 0 0.36017443151443918 -0.28538673277568638 0 0.34653418782935941 -0.29061853569379459 0 0.34034477288795428 -0.30374942909653918 0 0.35499960815343112 -0.30522815868401898 0 0.34982478479242107 -0.32506958459235108 0 0.34034477288795428 -0.30374942909653918 0 0.34653418782935941 -0.29061853569379459 0 0.35499960815343112 -0.30522815868401898 0 0.35499960815343112 -0.30522815868401898 0 0.36679811427921027 -0.31080145729527742 0 0.36782828842531812 -0.29869938286239639 0 0.38093557876414619 -0.30709265232688993 0 0.37586129094414023 -0.28556533786325772 0 0.36782828842531812 -0.29869938286239639 0 0.35499960815343112 -0.30522815868401898 0 0.36679811427921027 -0.31080145729527742 0 0.36090054463030857 -0.31900707877531231 0 0.38093557876414619 -0.30709265232688993 0 0.36679811427921027 -0.31080145729527742 0 0.36782828842531812 -0.29869938286239639 0 0.38093557876414619 -0.30709265232688993 0 0.36679811427921027 -0.31080145729527742 0 0.37171647504405742 -0.32455449884505178 0 0.36679811427921027 -0.31080145729527742 0 0.36090054463030857 -0.31900707877531231 0 0.37171647504405742 -0.32455449884505178 0 0.36090054463030857 -0.31900707877531231 0 0.37171647504405742 -0.32455449884505178 0 0.36116374088242331 -0.32938169445986232 0 0.37998367606916039 -0.33821928990547839 0 0.37171647504405742 -0.32455449884505178 0 0.36976251313838188 -0.33988471241005053 0 0.37171647504405742 -0.32455449884505178 0 0.36976251313838188 -0.33988471241005053 0 0.36116374088242331 -0.32938169445986232 0 0.36976251313838188 -0.33988471241005053 0 0.36116374088242331 -0.32938169445986232 0 0.35600431042815711 -0.33896708269382841 0 0.36116374088242331 -0.32938169445986232 0 0.35600431042815711 -0.33896708269382841 0 0.34982478479242107 -0.32506958459235108 0 0.34982478479242107 -0.32506958459235108 0 0.34482499959484769 -0.34423987517710042 0 0.35600431042815711 -0.33896708269382841 0 0.34982478479242107 -0.32506958459235108 0 0.34482499959484769 -0.34423987517710042 0 0.35600431042815711 -0.33896708269382841 0 0.34982478479242107 -0.32506958459235108 0 0.34982478479242107 -0.32506958459235108 0 0.34482499959484769 -0.34423987517710042 0 0.34022869672603512 -0.33280397791510219 0 0.35499960815343112 -0.30522815868401898 0 0.34982478479242107 -0.32506958459235108 0 0.34034477288795428 -0.30374942909653918 0 0.34982478479242107 -0.32506958459235108 0 0.35499960815343112 -0.30522815868401898 0 0.36090054463030857 -0.31900707877531231 0 0.34982478479242107 -0.32506958459235108 0 0.36090054463030857 -0.31900707877531231 0 0.36116374088242331 -0.32938169445986232 0 0.34982478479242107 -0.32506958459235108 0 0.37596950985588279 -0.3734506461324914 0 0.36294216151418579 -0.38344740530672711 0 0.35818184823044269 -0.36676393992596462 0 0.37596950985588279 -0.3734506461324914 0 0.37224304987361911 -0.35662160970378382 0 0.35818184823044269 -0.36676393992596462 0 0.36976251313838188 -0.33988471241005053 0 0.36218383606389459 -0.35286458079530503 0 0.37224304987361911 -0.35662160970378382 0 0.38134537117505241 -0.34788999022761402 0 0.36976251313838188 -0.33988471241005053 0 0.37224304987361911 -0.35662160970378382 0 0.36218383606389459 -0.35286458079530503 0 0.37224304987361911 -0.35662160970378382 0 0.35818184823044269 -0.36676393992596462 0 0.36976251313838188 -0.33988471241005053 0 0.35600431042815711 -0.33896708269382841 0 0.36218383606389459 -0.35286458079530503 0 0.35600431042815711 -0.33896708269382841 0 0.34482499959484769 -0.34423987517710042 0 0.34990271533673362 -0.35580132927122371 0 0.35600431042815711 -0.33896708269382841 0 0.36218383606389459 -0.35286458079530503 0 0.34990271533673362 -0.35580132927122371 0 0.34482499959484769 -0.34423987517710042 0 0.34990271533673362 -0.35580132927122371 0 0.33982521439727231 -0.36341016576184931 0 0.35600431042815711 -0.33896708269382841 0 0.36218383606389459 -0.35286458079530503 0 0.36218383606389459 -0.35286458079530503 0 0.34990271533673362 -0.35580132927122371 0 0.35818184823044269 -0.36676393992596462 0 0.34331862362355292 -0.38273344375548879 0 0.35818184823044269 -0.36676393992596462 0 0.33982521439727231 -0.36341016576184931 0 0.34990271533673362 -0.35580132927122371 0 0.35818184823044269 -0.36676393992596462 0 0.33982521439727231 -0.36341016576184931 0 0.34331862362355292 -0.38273344375548879 0 0.33982521439727231 -0.36341016576184931 0 0.32660497509851227 -0.37146528982346022 0 0.33982521439727231 -0.36341016576184931 0 0.32703381914213808 -0.35924532232056688 0 0.32660497509851227 -0.37146528982346022 0 0.33982521439727231 -0.36341016576184931 0 0.33231219441555893 -0.34646309535059189 0 0.32703381914213808 -0.35924532232056688 0 0.34482499959484769 -0.34423987517710042 0 0.33982521439727231 -0.36341016576184931 0 0.34482499959484769 -0.34423987517710042 0 0.33982521439727231 -0.36341016576184931 0 0.33231219441555893 -0.34646309535059189 0 0.33231219441555893 -0.34646309535059189 0 0.3199552201840582 -0.35169550337009098 0 0.32285377808268167 -0.34224687521463959 0 0.31272848115769919 -0.3462774086731647 0 0.3199552201840582 -0.35169550337009098 0 0.32285377808268167 -0.34224687521463959 0 0.3199552201840582 -0.35169550337009098 0 0.31712576229904171 -0.36397052679870662 0 0.3109358108159937 -0.35670239506716023 0 0.31272848115769919 -0.3462774086731647 0 0.3199552201840582 -0.35169550337009098 0 0.3109358108159937 -0.35670239506716023 0 0.3199552201840582 -0.35169550337009098 0 0.32703381914213808 -0.35924532232056688 0 0.31712576229904171 -0.36397052679870662 0 0.33231219441555893 -0.34646309535059189 0 0.3199552201840582 -0.35169550337009098 0 0.32703381914213808 -0.35924532232056688 0 0.31039067984239199 -0.37759047029788001 0 0.31712576229904171 -0.36397052679870662 0 0.32660497509851227 -0.37146528982346022 0 0.32703381914213808 -0.35924532232056688 0 0.31712576229904171 -0.36397052679870662 0 0.32660497509851227 -0.37146528982346022 0 0.34034477288795428 -0.30374942909653918 0 0.34982478479242107 -0.32506958459235108 0 0.33951391031284778 -0.31762903674952281 0 0.33587288630130141 -0.32611618014450539 0 0.33951391031284778 -0.31762903674952281 0 0.32426112140716229 -0.32313195017138058 0 0.33587288630130141 -0.32611618014450539 0 0.32864852022992319 -0.33322240828706029 0 0.32426112140716229 -0.32313195017138058 0 0.34982478479242107 -0.32506958459235108 0 0.33587288630130141 -0.32611618014450539 0 0.33951391031284778 -0.31762903674952281 0 0.34982478479242107 -0.32506958459235108 0 0.33587288630130141 -0.32611618014450539 0 0.34022869672603512 -0.33280397791510219 0 0.34482499959484769 -0.34423987517710042 0 0.33231219441555893 -0.34646309535059189 0 0.34022869672603512 -0.33280397791510219 0 0.33231219441555893 -0.34646309535059189 0 0.34022869672603512 -0.33280397791510219 0 0.32864852022992319 -0.33322240828706029 0 0.33587288630130141 -0.32611618014450539 0 0.34022869672603512 -0.33280397791510219 0 0.32864852022992319 -0.33322240828706029 0 0.32864852022992319 -0.33322240828706029 0 0.31768292259795378 -0.33394502152763778 0 0.32426112140716229 -0.32313195017138058 0 0.33231219441555893 -0.34646309535059189 0 0.32864852022992319 -0.33322240828706029 0 0.32285377808268167 -0.34224687521463959 0 0.32864852022992319 -0.33322240828706029 0 0.32285377808268167 -0.34224687521463959 0 0.31768292259795378 -0.33394502152763778 0 0.31272848115769919 -0.3462774086731647 0 0.32285377808268167 -0.34224687521463959 0 0.31768292259795378 -0.33394502152763778 0 0.31768292259795378 -0.33394502152763778 0 0.31293813643219681 -0.32075642781406882 0 0.32426112140716229 -0.32313195017138058 0 0.31391013703034071 -0.30959894022228568 0 0.33951391031284778 -0.31762903674952281 0 0.32426112140716229 -0.32313195017138058 0 0.31391013703034071 -0.30959894022228568 0 0.33951391031284778 -0.31762903674952281 0 0.31391013703034071 -0.30959894022228568 0 0.31293813643219681 -0.32075642781406882 0 0.32426112140716229 -0.32313195017138058 0 0.31391013703034071 -0.30959894022228568 0 0.31293813643219681 -0.32075642781406882 0 0.29982464664820802 -0.31435995325396621 0 0.31293813643219681 -0.32075642781406882 0 0.29805276288827032 -0.32484646851891003 0 0.305960430565901 -0.33794369489117582 0 0.31293813643219681 -0.32075642781406882 0 0.29982464664820802 -0.31435995325396621 0 0.29805276288827032 -0.32484646851891003 0 0.31293813643219681 -0.32075642781406882 0 0.305960430565901 -0.33794369489117582 0 0.31768292259795378 -0.33394502152763778 0 0.31293813643219681 -0.32075642781406882 0 0.305960430565901 -0.33794369489117582 0 0.305960430565901 -0.33794369489117582 0 0.28639985953356317 -0.3380816817561918 0 0.29898272469960729 -0.35513096196828381 0 0.31272848115769919 -0.3462774086731647 0 0.31768292259795378 -0.33394502152763778 0 0.305960430565901 -0.33794369489117582 0 0.29805276288827032 -0.32484646851891003 0 0.305960430565901 -0.33794369489117582 0 0.28639985953356317 -0.3380816817561918 0 0.28639985953356317 -0.3380816817561918 0 0.28307243322231468 -0.35339853696838208 0 0.27875256084205619 -0.33930405419487658 0 0.28639985953356317 -0.3380816817561918 0 0.28679930156171651 -0.31781996478665292 0 0.27381699436751578 -0.32103240154410229 0 0.29805276288827032 -0.32484646851891003 0 0.28639985953356317 -0.3380816817561918 0 0.28679930156171651 -0.31781996478665292 0 0.29982464664820802 -0.31435995325396621 0 0.29805276288827032 -0.32484646851891003 0 0.28679930156171651 -0.31781996478665292 0 0.31039067984239199 -0.37759047029788001 0 0.29529264176347741 -0.36422025896290988 0 0.29837648048886611 -0.37729713203192539 0 0.31039067984239199 -0.37759047029788001 0 0.29529264176347741 -0.36422025896290988 0 0.31039067984239199 -0.37759047029788001 0 0.30783406871115637 -0.36712417991308172 0 0.29529264176347741 -0.36422025896290988 0 0.31039067984239199 -0.37759047029788001 0 0.31712576229904171 -0.36397052679870662 0 0.30783406871115637 -0.36712417991308172 0 0.30783406871115637 -0.36712417991308172 0 0.29898272469960729 -0.35513096196828381 0 0.3109358108159937 -0.35670239506716023 0 0.31712576229904171 -0.36397052679870662 0 0.30783406871115637 -0.36712417991308172 0 0.3109358108159937 -0.35670239506716023 0 0.30783406871115637 -0.36712417991308172 0 0.29898272469960729 -0.35513096196828381 0 0.29898272469960729 -0.35513096196828381 0 0.29529264176347741 -0.36422025896290988 0 0.30783406871115637 -0.36712417991308172 0 0.29898272469960729 -0.35513096196828381 0 0.29529264176347741 -0.36422025896290988 0 0.305960430565901 -0.33794369489117582 0 0.29898272469960729 -0.35513096196828381 0 0.31272848115769919 -0.3462774086731647 0 0.305960430565901 -0.33794369489117582 0 0.29898272469960729 -0.35513096196828381 0 0.31272848115769919 -0.3462774086731647 0 0.29898272469960729 -0.35513096196828381 0 0.3109358108159937 -0.35670239506716023 0 0.29898272469960729 -0.35513096196828381 0 0.28307243322231468 -0.35339853696838208 0 0.29529264176347741 -0.36422025896290988 0 0.28639985953356317 -0.3380816817561918 0 0.29898272469960729 -0.35513096196828381 0 0.28307243322231468 -0.35339853696838208 0 0.28639985953356317 -0.3380816817561918 0 0.29898272469960729 -0.35513096196828381 0 0.28307243322231468 -0.35339853696838208 0 0.29529264176347741 -0.36422025896290988 0 0.28307243322231468 -0.35339853696838208 0 0.29529264176347741 -0.36422025896290988 0 0.2777613033941207 -0.36712544313111428 0 0.28718815113228507 -0.38418298706743381 0 0.29529264176347741 -0.36422025896290988 0 0.28718815113228507 -0.38418298706743381 0 0.29529264176347741 -0.36422025896290988 0 0.2777613033941207 -0.36712544313111428 0 0.2777613033941207 -0.36712544313111428 0 0.27142039036494547 -0.35417339824079702 0 0.26142142069631591 -0.36497714435573742 0 0.26817278318538579 -0.38180033319142592 0 0.2777613033941207 -0.36712544313111428 0 0.26142142069631591 -0.36497714435573742 0 0.28307243322231468 -0.35339853696838208 0 0.2777613033941207 -0.36712544313111428 0 0.27142039036494547 -0.35417339824079702 0 0.28307243322231468 -0.35339853696838208 0 0.2708522246811515 -0.34257681497385473 0 0.27311853777149281 -0.3426635212494849 0 0.28307243322231468 -0.35339853696838208 0 0.2708522246811515 -0.34257681497385473 0 0.28307243322231468 -0.35339853696838208 0 0.27142039036494547 -0.35417339824079702 0 0.2708522246811515 -0.34257681497385473 0 0.28307243322231468 -0.35339853696838208 0 0.27875256084205619 -0.33930405419487658 0 0.27311853777149281 -0.3426635212494849 0 0.27142039036494547 -0.35417339824079702 0 0.26325574702121279 -0.34789615417665892 0 0.2708522246811515 -0.34257681497385473 0 0.26325574702121279 -0.34789615417665892 0 0.2708522246811515 -0.34257681497385473 0 0.25129396167919249 -0.34182854054083461 0 0.26325574702121279 -0.34789615417665892 0 0.25945641135956171 -0.35300586295114922 0 0.25129396167919249 -0.34182854054083461 0 0.25945641135956171 -0.35300586295114922 0 0.25129396167919249 -0.34182854054083461 0 0.24648534201680461 -0.35583459884502772 0 0.25945641135956171 -0.35300586295114922 0 0.26142142069631591 -0.36497714435573742 0 0.24648534201680461 -0.35583459884502772 0 0.27142039036494547 -0.35417339824079702 0 0.26325574702121279 -0.34789615417665892 0 0.25945641135956171 -0.35300586295114922 0 0.27142039036494547 -0.35417339824079702 0 0.25945641135956171 -0.35300586295114922 0 0.26142142069631591 -0.36497714435573742 0 0.26817278318538579 -0.38180033319142592 0 0.26142142069631591 -0.36497714435573742 0 0.24900525261987111 -0.37373651464937951 0 0.26142142069631591 -0.36497714435573742 0 0.24900525261987111 -0.37373651464937951 0 0.24648534201680461 -0.35583459884502772 0 0.27381699436751578 -0.32103240154410229 0 0.26123412920146971 -0.30398312133201177 0 0.27381699436751578 -0.32103240154410229 0 0.27220950415020961 -0.33174456915932521 0 0.26535022952231913 -0.32481474992494552 0 0.27381699436751578 -0.32103240154410229 0 0.26535022952231913 -0.32481474992494552 0 0.25975923832450321 -0.31447322587176368 0 0.28679930156171651 -0.31781996478665292 0 0.27381699436751578 -0.32103240154410229 0 0.27439518218490883 -0.30703043995169838 0 0.28639985953356317 -0.3380816817561918 0 0.27381699436751578 -0.32103240154410229 0 0.2708522246811515 -0.34257681497385473 0 0.27218983405888669 -0.33727621662224511 0 0.25650174492548011 -0.32986861102783982 0 0.28639985953356317 -0.3380816817561918 0 0.27381699436751578 -0.32103240154410229 0 0.27220950415020961 -0.33174456915932521 0 0.27218983405888669 -0.33727621662224511 0 0.27220950415020961 -0.33174456915932521 0 0.25650174492548011 -0.32986861102783982 0 0.28639985953356317 -0.3380816817561918 0 0.27875256084205619 -0.33930405419487658 0 0.27220950415020961 -0.33174456915932521 0 0.27875256084205619 -0.33930405419487658 0 0.27311853777149281 -0.3426635212494849 0 0.27218983405888669 -0.33727621662224511 0 0.27875256084205619 -0.33930405419487658 0 0.27218983405888669 -0.33727621662224511 0 0.27220950415020961 -0.33174456915932521 0 0.2708522246811515 -0.34257681497385473 0 0.27311853777149281 -0.3426635212494849 0 0.27218983405888669 -0.33727621662224511 0 0.2708522246811515 -0.34257681497385473 0 0.27311853777149281 -0.3426635212494849 0 0.2708522246811515 -0.34257681497385473 0 0.25129396167919249 -0.34182854054083461 0 0.25650174492548011 -0.32986861102783982 0 0.27220950415020961 -0.33174456915932521 0 0.25650174492548011 -0.32986861102783982 0 0.26535022952231913 -0.32481474992494552 0 0.2708522246811515 -0.34257681497385473 0 0.25129396167919249 -0.34182854054083461 0 0.2708522246811515 -0.34257681497385473 0 0.25650174492548011 -0.32986861102783982 0 0.25129396167919249 -0.34182854054083461 0 0.25650174492548011 -0.32986861102783982 0 0.24347963377028431 -0.33111620137736641 0 0.27381699436751578 -0.32103240154410229 0 0.25975923832450321 -0.31447322587176368 0 0.26123412920146971 -0.30398312133201177 0 0.25650174492548011 -0.32986861102783982 0 0.25975923832450321 -0.31447322587176368 0 0.24677410647695669 -0.31914895436280077 0 0.25650174492548011 -0.32986861102783982 0 0.26535022952231913 -0.32481474992494552 0 0.25975923832450321 -0.31447322587176368 0 0.25975923832450321 -0.31447322587176368 0 0.25112282365648408 -0.30864884902116629 0 0.24677410647695669 -0.31914895436280077 0 0.25975923832450321 -0.31447322587176368 0 0.25112282365648408 -0.30864884902116629 0 0.26123412920146971 -0.30398312133201177 0 0.25112282365648408 -0.30864884902116629 0 0.26123412920146971 -0.30398312133201177 0 0.2475844597447889 -0.29929143272616121 0 0.26123412920146971 -0.30398312133201177 0 0.26270259046532612 -0.29353874716781209 0 0.25975923832450321 -0.31447322587176368 0 0.26123412920146971 -0.30398312133201177 0 0.26123412920146971 -0.30398312133201177 0 0.25634195954082972 -0.29154386618936118 0 0.2474849193366466 -0.28535349059316528 0 0.26123412920146971 -0.30398312133201177 0 0.2474849193366466 -0.28535349059316528 0 0.2475844597447889 -0.29929143272616121 0 0.26123412920146971 -0.30398312133201177 0 0.2474849193366466 -0.28535349059316528 0 0.26287395459923307 -0.29194296793250452 0 0.2416543387558652 -0.27229118824279691 0 0.2474849193366466 -0.28535349059316528 0 0.26287395459923307 -0.29194296793250452 0 0.2416543387558652 -0.27229118824279691 0 0.25634195954082972 -0.29154386618936118 0 0.26287395459923307 -0.29194296793250452 0 0.2474849193366466 -0.28535349059316528 0 0.26123412920146971 -0.30398312133201177 0 0.25634195954082972 -0.29154386618936118 0 0.26270259046532612 -0.29353874716781209 0 0.26270259046532612 -0.29353874716781209 0 0.26287395459923307 -0.29194296793250452 0 0.25634195954082972 -0.29154386618936118 0 0.26270259046532612 -0.29353874716781209 0 0.26287395459923307 -0.29194296793250452 0 0.25634195954082972 -0.29154386618936118 0 0.26270259046532612 -0.29353874716781209 0 0.26287395459923307 -0.29194296793250452 0 0.27852015026985277 -0.28916690067417578 0 0.27478904950717847 -0.28057343392515283 0 0.26270259046532612 -0.29353874716781209 0 0.27852015026985277 -0.28916690067417578 0 0.28830636374783342 -0.30156884369504883 0 0.26270259046532612 -0.29353874716781209 0 0.26287395459923307 -0.29194296793250452 0 0.27852015026985277 -0.28916690067417578 0 0.27852015026985277 -0.28916690067417578 0 0.28758730432859397 -0.27655528321806161 0 0.27478904950717847 -0.28057343392515283 0 0.26270259046532612 -0.29353874716781209 0 0.27439518218490883 -0.30703043995169838 0 0.28830636374783342 -0.30156884369504883 0 0.26270259046532612 -0.29353874716781209 0 0.28830636374783342 -0.30156884369504883 0 0.27381699436751578 -0.32103240154410229 0 0.26123412920146971 -0.30398312133201177 0 0.27439518218490883 -0.30703043995169838 0 0.26123412920146971 -0.30398312133201177 0 0.26270259046532612 -0.29353874716781209 0 0.27439518218490883 -0.30703043995169838 0 0.28679930156171651 -0.31781996478665292 0 0.27439518218490883 -0.30703043995169838 0 0.28830636374783342 -0.30156884369504883 0 0.29982464664820802 -0.31435995325396621 0 0.28679930156171651 -0.31781996478665292 0 0.28830636374783342 -0.30156884369504883 0 0.27852015026985277 -0.28916690067417578 0 0.28830636374783342 -0.30156884369504883 0 0.29493079083530283 -0.28936561798031069 0 0.27852015026985277 -0.28916690067417578 0 0.29493079083530283 -0.28936561798031069 0 0.28758730432859397 -0.27655528321806161 0 0.29493079083530283 -0.28936561798031069 0 0.29975504242582712 -0.27916488200859491 0 0.28758730432859397 -0.27655528321806161 0 0.28830636374783342 -0.30156884369504883 0 0.29493079083530283 -0.28936561798031069 0 0.3083137882137359 -0.29567979053686028 0 0.29493079083530283 -0.28936561798031069 0 0.30779977140043002 -0.28571059901923529 0 0.3083137882137359 -0.29567979053686028 0 0.29493079083530283 -0.28936561798031069 0 0.30779977140043002 -0.28571059901923529 0 0.29975504242582712 -0.27916488200859491 0 0.3186227833469969 -0.28736875746745633 0 0.30779977140043002 -0.28571059901923529 0 0.3083137882137359 -0.29567979053686028 0 0.31391013703034071 -0.30959894022228568 0 0.28830636374783342 -0.30156884369504883 0 0.3083137882137359 -0.29567979053686028 0 0.31391013703034071 -0.30959894022228568 0 0.29982464664820802 -0.31435995325396621 0 0.28830636374783342 -0.30156884369504883 0 0.31391013703034071 -0.30959894022228568 0 0.28830636374783342 -0.30156884369504883 0 0.32138474907902348 -0.26110911810491377 0 0.2983686732622417 -0.26716776173926371 0 0.32138474907902348 -0.26110911810491377 0 0.3017115066742565 -0.25177967556345182 0 0.2983686732622417 -0.26716776173926371 0 0.31267696182828292 -0.27610570788359851 0 0.32138474907902348 -0.26110911810491377 0 0.2983686732622417 -0.26716776173926371 0 0.31267696182828292 -0.27610570788359851 0 0.30779977140043002 -0.28571059901923529 0 0.29975504242582712 -0.27916488200859491 0 0.31267696182828292 -0.27610570788359851 0 0.29975504242582712 -0.27916488200859491 0 0.2983686732622417 -0.26716776173926371 0 0.2983686732622417 -0.26716776173926371 0 0.28758730432859397 -0.27655528321806161 0 0.28445501384134109 -0.25875299136163882 0 0.29975504242582712 -0.27916488200859491 0 0.2983686732622417 -0.26716776173926371 0 0.28758730432859397 -0.27655528321806161 0 0.3017115066742565 -0.25177967556345182 0 0.2983686732622417 -0.26716776173926371 0 0.28445501384134109 -0.25875299136163882 0 0.28996458303351491 -0.2398907168872749 0 0.3017115066742565 -0.25177967556345182 0 0.28445501384134109 -0.25875299136163882 0 0.26970098062157999 -0.2437629668063459 0 0.26677817986568991 -0.26455127457674482 0 0.26970098062157999 -0.2437629668063459 0 0.28445501384134109 -0.25875299136163882 0 0.26677817986568991 -0.26455127457674482 0 0.26287395459923307 -0.29194296793250452 0 0.26677817986568991 -0.26455127457674482 0 0.27478904950717847 -0.28057343392515283 0 0.28758730432859397 -0.27655528321806161 0 0.26677817986568991 -0.26455127457674482 0 0.27478904950717847 -0.28057343392515283 0 0.28758730432859397 -0.27655528321806161 0 0.28445501384134109 -0.25875299136163882 0 0.26677817986568991 -0.26455127457674482 0 0.28758730432859397 -0.27655528321806161 0 0.26677817986568991 -0.26455127457674482 0 0.26287395459923307 -0.29194296793250452 0 0.26677817986568991 -0.26455127457674482 0 0.25475669761021091 -0.27017549980997069 0 0.26287395459923307 -0.29194296793250452 0 0.25475669761021091 -0.27017549980997069 0 0.2416543387558652 -0.27229118824279691 0 0.26287395459923307 -0.29194296793250452 0 0.26677817986568991 -0.26455127457674482 0 0.26970098062157999 -0.2437629668063459 0 0.26677817986568991 -0.26455127457674482 0 0.2536070068445791 -0.2569533155639292 0 0.26970098062157999 -0.2437629668063459 0 0.2536070068445791 -0.2569533155639292 0 0.2404358338234682 -0.24935535655111379 0 0.26677817986568991 -0.26455127457674482 0 0.2536070068445791 -0.2569533155639292 0 0.26677817986568991 -0.26455127457674482 0 0.25475669761021091 -0.27017549980997069 0 0.2536070068445791 -0.2569533155639292 0 0.2536070068445791 -0.2569533155639292 0 0.2404358338234682 -0.24935535655111379 0 0.2536070068445791 -0.2569533155639292 0 0.24173860564063801 -0.25849012230874308 0 0.2404358338234682 -0.24935535655111379 0 0.24173860564063801 -0.25849012230874308 0 0.2416543387558652 -0.27229118824279691 0 0.22043472291249741 -0.25263940855308931 0 0.25475669761021091 -0.27017549980997069 0 0.2536070068445791 -0.2569533155639292 0 0.24173860564063801 -0.25849012230874308 0 0.2337357094718249 -0.26672385985431779 0 0.2474849193366466 -0.28535349059316528 0 0.23308153144735649 -0.28116366107788338 0 0.2337357094718249 -0.26672385985431779 0 0.2474849193366466 -0.28535349059316528 0 0.2416543387558652 -0.27229118824279691 0 0.2337357094718249 -0.26672385985431779 0 0.2474849193366466 -0.28535349059316528 0 0.25475669761021091 -0.27017549980997069 0 0.24173860564063801 -0.25849012230874308 0 0.2416543387558652 -0.27229118824279691 0 0.23308153144735649 -0.28116366107788338 0 0.2337357094718249 -0.26672385985431779 0 0.22447821626587869 -0.27180453854974818 0 0.22447821626587869 -0.27180453854974818 0 0.21383987506910621 -0.27163211150975952 0 0.2212992424286086 -0.28686365175369111 0 0.23308153144735649 -0.28116366107788338 0 0.22447821626587869 -0.27180453854974818 0 0.2212992424286086 -0.28686365175369111 0 0.22447821626587869 -0.27180453854974818 0 0.22043472291249741 -0.25263940855308931 0 0.21383987506910621 -0.27163211150975952 0 0.2337357094718249 -0.26672385985431779 0 0.22447821626587869 -0.27180453854974818 0 0.22043472291249741 -0.25263940855308931 0 0.2416543387558652 -0.27229118824279691 0 0.2337357094718249 -0.26672385985431779 0 0.22043472291249741 -0.25263940855308931 0 0.24173860564063801 -0.25849012230874308 0 0.22043472291249741 -0.25263940855308931 0 0.2404358338234682 -0.24935535655111379 0 0.2416543387558652 -0.27229118824279691 0 0.22043472291249741 -0.25263940855308931 0 0.22043472291249741 -0.25263940855308931 0 0.20336960630150891 -0.25765746807165602 0 0.21383987506910621 -0.27163211150975952 0 0.20336960630150891 -0.25765746807165602 0 0.21383987506910621 -0.27163211150975952 0 0.19861883676571759 -0.28692825910667069 0 0.20336960630150891 -0.25765746807165602 0 0.19861883676571759 -0.28692825910667069 0 0.18593030462848001 -0.26194242715012389 0 0.20336960630150891 -0.25765746807165602 0 0.18593030462848001 -0.26194242715012389 0 0.18121560557362729 -0.24660835227936731 0 0.19861883676571759 -0.28692825910667069 0 0.20571057597637429 -0.30755623387041719 0 0.18530718706237539 -0.3081390304127084 0 0.19861883676571759 -0.28692825910667069 0 0.18530718706237539 -0.3081390304127084 0 0.21383987506910621 -0.27163211150975952 0 0.19861883676571759 -0.28692825910667069 0 0.2212992424286086 -0.28686365175369111 0 0.19861883676571759 -0.28692825910667069 0 0.21305725727753319 -0.29718866677061678 0 0.2212992424286086 -0.28686365175369111 0 0.21305725727753319 -0.29718866677061678 0 0.20571057597637429 -0.30755623387041719 0 0.22406379264085721 -0.30518211291036451 0 0.19861883676571759 -0.28692825910667069 0 0.21305725727753319 -0.29718866677061678 0 0.20571057597637429 -0.30755623387041719 0 0.22406379264085721 -0.30518211291036451 0 0.2365591652154391 -0.29337511300866409 0 0.2402621845347018 -0.30634751081309403 0 0.22406379264085721 -0.30518211291036451 0 0.2402621845347018 -0.30634751081309403 0 0.231092657092559 -0.32365463484754148 0 0.22406379264085721 -0.30518211291036451 0 0.2212992424286086 -0.28686365175369111 0 0.2365591652154391 -0.29337511300866409 0 0.21305725727753319 -0.29718866677061678 0 0.22406379264085721 -0.30518211291036451 0 0.2212992424286086 -0.28686365175369111 0 0.23308153144735649 -0.28116366107788338 0 0.2212992424286086 -0.28686365175369111 0 0.2365591652154391 -0.29337511300866409 0 0.23308153144735649 -0.28116366107788338 0 0.2365591652154391 -0.29337511300866409 0 0.2474849193366466 -0.28535349059316528 0 0.2365591652154391 -0.29337511300866409 0 0.2474849193366466 -0.28535349059316528 0 0.2475844597447889 -0.29929143272616121 0 0.2365591652154391 -0.29337511300866409 0 0.2402621845347018 -0.30634751081309403 0 0.2475844597447889 -0.29929143272616121 0 0.25112282365648408 -0.30864884902116629 0 0.2402621845347018 -0.30634751081309403 0 0.2475844597447889 -0.29929143272616121 0 0.25112282365648408 -0.30864884902116629 0 0.2402621845347018 -0.30634751081309403 0 0.24677410647695669 -0.31914895436280077 0 0.2402621845347018 -0.30634751081309403 0 0.24677410647695669 -0.31914895436280077 0 0.231092657092559 -0.32365463484754148 0 0.24677410647695669 -0.31914895436280077 0 0.24347963377028431 -0.33111620137736641 0 0.231092657092559 -0.32365463484754148 0 0.25650174492548011 -0.32986861102783982 0 0.24677410647695669 -0.31914895436280077 0 0.24347963377028431 -0.33111620137736641 0 0.24347963377028431 -0.33111620137736641 0 0.2317356986772334 -0.3410802661078155 0 0.231092657092559 -0.32365463484754148 0 0.25129396167919249 -0.34182854054083461 0 0.24347963377028431 -0.33111620137736641 0 0.2317356986772334 -0.3410802661078155 0 0.25129396167919249 -0.34182854054083461 0 0.2317356986772334 -0.3410802661078155 0 0.2317356986772334 -0.3410802661078155 0 0.21568573497587251 -0.32482786723601292 0 0.21015399988147229 -0.3402545775776854 0 0.2317356986772334 -0.3410802661078155 0 0.231092657092559 -0.32365463484754148 0 0.21568573497587251 -0.32482786723601292 0 0.2317356986772334 -0.3410802661078155 0 0.21015399988147229 -0.3402545775776854 0 0.2317356986772334 -0.3410802661078155 0 0.231092657092559 -0.32365463484754148 0 0.22406379264085721 -0.30518211291036451 0 0.231092657092559 -0.32365463484754148 0 0.21568573497587251 -0.32482786723601292 0 0.24900525261987111 -0.37373651464937951 0 0.23252566261587659 -0.3624873113624093 0 0.2333156265545199 -0.38389435661700289 0 0.24900525261987111 -0.37373651464937951 0 0.24648534201680461 -0.35583459884502772 0 0.23252566261587659 -0.3624873113624093 0 0.2317356986772334 -0.3410802661078155 0 0.24648534201680461 -0.35583459884502772 0 0.23252566261587659 -0.3624873113624093 0 0.25129396167919249 -0.34182854054083461 0 0.2317356986772334 -0.3410802661078155 0 0.24648534201680461 -0.35583459884502772 0 0.2317356986772334 -0.3410802661078155 0 0.22104185365336529 -0.35275188493605131 0 0.23252566261587659 -0.3624873113624093 0 0.2317356986772334 -0.3410802661078155 0 0.22104185365336529 -0.35275188493605131 0 0.21015399988147229 -0.3402545775776854 0 0.2317356986772334 -0.3410802661078155 0 0.23252566261587659 -0.3624873113624093 0 0.23252566261587659 -0.3624873113624093 0 0.2333156265545199 -0.38389435661700289 0 0.22104185365336529 -0.35275188493605131 0 0.23252566261587659 -0.3624873113624093 0 0.21681787281747369 -0.36874587189510621 0 0.23252566261587659 -0.3624873113624093 0 0.21681787281747369 -0.36874587189510621 0 0.2333156265545199 -0.38389435661700289 0 0.21681787281747369 -0.36874587189510621 0 0.20075378803913721 -0.36678008612374741 0 0.2056054578384485 -0.37853329764679078 0 0.21681787281747369 -0.36874587189510621 0 0.2090310512583422 -0.35624744835080258 0 0.20075378803913721 -0.36678008612374741 0 0.22104185365336529 -0.35275188493605131 0 0.21681787281747369 -0.36874587189510621 0 0.2090310512583422 -0.35624744835080258 0 0.22104185365336529 -0.35275188493605131 0 0.2090310512583422 -0.35624744835080258 0 0.21015399988147229 -0.3402545775776854 0 0.2090310512583422 -0.35624744835080258 0 0.1958206566919562 -0.35328464353949152 0 0.21015399988147229 -0.3402545775776854 0 0.1958206566919562 -0.35328464353949152 0 0.21015399988147229 -0.3402545775776854 0 0.1885723010857111 -0.33942888904755542 0 0.2090310512583422 -0.35624744835080258 0 0.1958206566919562 -0.35328464353949152 0 0.20075378803913721 -0.36678008612374741 0 0.1958206566919562 -0.35328464353949152 0 0.20075378803913721 -0.36678008612374741 0 0.1896293677129039 -0.36477836636560029 0 0.20075378803913721 -0.36678008612374741 0 0.1896293677129039 -0.36477836636560029 0 0.190699763622841 -0.3762781914872772 0 0.20075378803913721 -0.36678008612374741 0 0.2056054578384485 -0.37853329764679078 0 0.190699763622841 -0.3762781914872772 0 0.20571057597637429 -0.30755623387041719 0 0.21568573497587251 -0.32482786723601292 0 0.19827382625426229 -0.32464223764906519 0 0.20571057597637429 -0.30755623387041719 0 0.22406379264085721 -0.30518211291036451 0 0.21568573497587251 -0.32482786723601292 0 0.21568573497587251 -0.32482786723601292 0 0.21015399988147229 -0.3402545775776854 0 0.19827382625426229 -0.32464223764906519 0 0.21015399988147229 -0.3402545775776854 0 0.1885723010857111 -0.33942888904755542 0 0.21015399988147229 -0.3402545775776854 0 0.1885723010857111 -0.33942888904755542 0 0.19827382625426229 -0.32464223764906519 0 0.1885723010857111 -0.33942888904755542 0 0.19827382625426229 -0.32464223764906519 0 0.1860372129403457 -0.32538998970701882 0 0.20571057597637429 -0.30755623387041719 0 0.19827382625426229 -0.32464223764906519 0 0.18530718706237539 -0.3081390304127084 0 0.19827382625426229 -0.32464223764906519 0 0.1860372129403457 -0.32538998970701882 0 0.18530718706237539 -0.3081390304127084 0 0.1860372129403457 -0.32538998970701882 0 0.17199553735903389 -0.3293498017187465 0 0.18530718706237539 -0.3081390304127084 0 0.17199553735903389 -0.3293498017187465 0 0.18530718706237539 -0.3081390304127084 0 0.1668502781076962 -0.30802096219510278 0 0.17199553735903389 -0.3293498017187465 0 0.18530718706237539 -0.3081390304127084 0 0.1885723010857111 -0.33942888904755542 0 0.17199553735903389 -0.3293498017187465 0 0.1771170947266236 -0.35058038891918758 0 0.1885723010857111 -0.33942888904755542 0 0.1860372129403457 -0.32538998970701882 0 0.17199553735903389 -0.3293498017187465 0 0.17199553735903389 -0.3293498017187465 0 0.1771170947266236 -0.35058038891918758 0 0.17199553735903389 -0.3293498017187465 0 0.15884893043389009 -0.35029759400249072 0 0.17199553735903389 -0.3293498017187465 0 0.1771170947266236 -0.35058038891918758 0 0.15884893043389009 -0.35029759400249072 0 0.17199553735903389 -0.3293498017187465 0 0.15884893043389009 -0.35029759400249072 0 0.15419550992891451 -0.3327823907167245 0 0.17199553735903389 -0.3293498017187465 0 0.1668502781076962 -0.30802096219510278 0 0.17199553735903389 -0.3293498017187465 0 0.15321063529748261 -0.31706611340308488 0 0.1668502781076962 -0.30802096219510278 0 0.17199553735903389 -0.3293498017187465 0 0.15321063529748261 -0.31706611340308488 0 0.15419550992891451 -0.3327823907167245 0 0.1773773782240729 -0.3724594981014121 0 0.1771170947266236 -0.35058038891918758 0 0.16444051664213211 -0.36543696398218078 0 0.1896293677129039 -0.36477836636560029 0 0.1773773782240729 -0.3724594981014121 0 0.1771170947266236 -0.35058038891918758 0 0.1896293677129039 -0.36477836636560029 0 0.1773773782240729 -0.3724594981014121 0 0.190699763622841 -0.3762781914872772 0 0.1958206566919562 -0.35328464353949152 0 0.1885723010857111 -0.33942888904755542 0 0.1771170947266236 -0.35058038891918758 0 0.1958206566919562 -0.35328464353949152 0 0.1896293677129039 -0.36477836636560029 0 0.1771170947266236 -0.35058038891918758 0 0.1771170947266236 -0.35058038891918758 0 0.15884893043389009 -0.35029759400249072 0 0.16444051664213211 -0.36543696398218078 0 0.1773773782240729 -0.3724594981014121 0 0.16444051664213211 -0.36543696398218078 0 0.1631568563173269 -0.38260195260157831 0 0.16444051664213211 -0.36543696398218078 0 0.1452485388557983 -0.37203971871072372 0 0.1631568563173269 -0.38260195260157831 0 0.15884893043389009 -0.35029759400249072 0 0.1452485388557983 -0.37203971871072372 0 0.15884893043389009 -0.35029759400249072 0 0.1452485388557983 -0.37203971871072372 0 0.14670404825952549 -0.35727482785726927 0 0.15884893043389009 -0.35029759400249072 0 0.16444051664213211 -0.36543696398218078 0 0.1452485388557983 -0.37203971871072372 0 0.14156362491740601 -0.36985650586004709 0 0.1452485388557983 -0.37203971871072372 0 0.14214252303292629 -0.36381334778127827 0 0.14156362491740601 -0.36985650586004709 0 0.1452485388557983 -0.37203971871072372 0 0.14052212427806701 -0.37528361367223878 0 0.1452485388557983 -0.37203971871072372 0 0.14214252303292629 -0.36381334778127827 0 0.14670404825952549 -0.35727482785726927 0 0.14214252303292629 -0.36381334778127827 0 0.14670404825952549 -0.35727482785726927 0 0.13341107520377249 -0.35370801109433742 0 0.15884893043389009 -0.35029759400249072 0 0.14670404825952549 -0.35727482785726927 0 0.14422069395633261 -0.3429831636248577 0 0.14670404825952549 -0.35727482785726927 0 0.13341107520377249 -0.35370801109433742 0 0.14422069395633261 -0.3429831636248577 0 0.13341107520377249 -0.35370801109433742 0 0.14422069395633261 -0.3429831636248577 0 0.1325953537004409 -0.33670687172726721 0 0.13341107520377249 -0.35370801109433742 0 0.1325953537004409 -0.33670687172726721 0 0.1205194657107125 -0.34284153953963431 0 0.1356878618072018 -0.36592489094034047 0 0.121923568163862 -0.38785846599652229 0 0.1219884543921082 -0.36643154325775712 0 0.1356878618072018 -0.36592489094034047 0 0.14052212427806701 -0.37528361367223878 0 0.13561774922421749 -0.38294485694463809 0 0.14214252303292629 -0.36381334778127827 0 0.13341107520377249 -0.35370801109433742 0 0.1356878618072018 -0.36592489094034047 0 0.14156362491740601 -0.36985650586004709 0 0.14214252303292629 -0.36381334778127827 0 0.1356878618072018 -0.36592489094034047 0 0.13341107520377249 -0.35370801109433742 0 0.1356878618072018 -0.36592489094034047 0 0.1219884543921082 -0.36643154325775712 0 0.14156362491740601 -0.36985650586004709 0 0.1356878618072018 -0.36592489094034047 0 0.14052212427806701 -0.37528361367223878 0 0.15321063529748261 -0.31706611340308488 0 0.14156241652907781 -0.32721452044530158 0 0.15419550992891451 -0.3327823907167245 0 0.15321063529748261 -0.31706611340308488 0 0.14156241652907781 -0.32721452044530158 0 0.1366153984722798 -0.31147976641399938 0 0.14156241652907781 -0.32721452044530158 0 0.15419550992891451 -0.3327823907167245 0 0.14422069395633261 -0.3429831636248577 0 0.15884893043389009 -0.35029759400249072 0 0.15419550992891451 -0.3327823907167245 0 0.14422069395633261 -0.3429831636248577 0 0.14156241652907781 -0.32721452044530158 0 0.1325953537004409 -0.33670687172726721 0 0.12853690781901619 -0.3222688167858761 0 0.14156241652907781 -0.32721452044530158 0 0.14422069395633261 -0.3429831636248577 0 0.1325953537004409 -0.33670687172726721 0 0.1325953537004409 -0.33670687172726721 0 0.12853690781901619 -0.3222688167858761 0 0.1184401256762375 -0.32940784452286698 0 0.14156241652907781 -0.32721452044530158 0 0.12853690781901619 -0.3222688167858761 0 0.1366153984722798 -0.31147976641399938 0 0.12853690781901619 -0.3222688167858761 0 0.1366153984722798 -0.31147976641399938 0 0.124635818610316 -0.310855465604223 0 0.12931091595660199 -0.29804756303869218 0 0.1366153984722798 -0.31147976641399938 0 0.14810766461868641 -0.30053960738254581 0 0.12931091595660199 -0.29804756303869218 0 0.1366153984722798 -0.31147976641399938 0 0.124635818610316 -0.310855465604223 0 0.15321063529748261 -0.31706611340308488 0 0.1366153984722798 -0.31147976641399938 0 0.14810766461868641 -0.30053960738254581 0 0.15321063529748261 -0.31706611340308488 0 0.14810766461868641 -0.30053960738254581 0 0.1668502781076962 -0.30802096219510278 0 0.14810766461868641 -0.30053960738254581 0 0.14014950056885311 -0.28480825588946368 0 0.1617050188563573 -0.28669212267145949 0 0.14014950056885311 -0.28480825588946368 0 0.14698647693286621 -0.27339913202438881 0 0.1617050188563573 -0.28669212267145949 0 0.12931091595660199 -0.29804756303869218 0 0.14810766461868641 -0.30053960738254581 0 0.14014950056885311 -0.28480825588946368 0 0.12931091595660199 -0.29804756303869218 0 0.14014950056885311 -0.28480825588946368 0 0.12673565886293289 -0.28582870691242168 0 0.14014950056885311 -0.28480825588946368 0 0.1318112753283624 -0.26874923846897819 0 0.14698647693286621 -0.27339913202438881 0 0.14014950056885311 -0.28480825588946368 0 0.12673565886293289 -0.28582870691242168 0 0.1318112753283624 -0.26874923846897819 0 0.1318112753283624 -0.26874923846897819 0 0.13464294467171431 -0.25401175962258071 0 0.1235403929927127 -0.25080405413174311 0 0.13464294467171431 -0.25401175962258071 0 0.146584308024862 -0.26090669957680368 0 0.13663580234091999 -0.23558704631279759 0 0.1318112753283624 -0.26874923846897819 0 0.13464294467171431 -0.25401175962258071 0 0.146584308024862 -0.26090669957680368 0 0.146584308024862 -0.26090669957680368 0 0.15655975960501831 -0.26536328314781621 0 0.15626600212707509 -0.2482759233637909 0 0.14698647693286621 -0.27339913202438881 0 0.15655975960501831 -0.26536328314781621 0 0.1617050188563573 -0.28669212267145949 0 0.1318112753283624 -0.26874923846897819 0 0.146584308024862 -0.26090669957680368 0 0.14698647693286621 -0.27339913202438881 0 0.146584308024862 -0.26090669957680368 0 0.14698647693286621 -0.27339913202438881 0 0.15655975960501831 -0.26536328314781621 0 0.15655975960501831 -0.26536328314781621 0 0.17488550970430719 -0.27566272654697921 0 0.1617050188563573 -0.28669212267145949 0 0.15655975960501831 -0.26536328314781621 0 0.1617050188563573 -0.28669212267145949 0 0.15655975960501831 -0.26536328314781621 0 0.17033346295703031 -0.2585615310814508 0 0.17488550970430719 -0.27566272654697921 0 0.15655975960501831 -0.26536328314781621 0 0.17033346295703031 -0.2585615310814508 0 0.15626600212707509 -0.2482759233637909 0 0.17033346295703031 -0.2585615310814508 0 0.16768087065939491 -0.2481964713033542 0 0.15626600212707509 -0.2482759233637909 0 0.17033346295703031 -0.2585615310814508 0 0.18593030462848001 -0.26194242715012389 0 0.17488550970430719 -0.27566272654697921 0 0.17033346295703031 -0.2585615310814508 0 0.18121560557362729 -0.24660835227936731 0 0.16768087065939491 -0.2481964713033542 0 0.17033346295703031 -0.2585615310814508 0 0.18593030462848001 -0.26194242715012389 0 0.18121560557362729 -0.24660835227936731 0 0.19861883676571759 -0.28692825910667069 0 0.18593030462848001 -0.26194242715012389 0 0.17488550970430719 -0.27566272654697921 0 0.19861883676571759 -0.28692825910667069 0 0.17488550970430719 -0.27566272654697921 0 0.17747336609929071 -0.29308862018658421 0 0.19861883676571759 -0.28692825910667069 0 0.17747336609929071 -0.29308862018658421 0 0.18530718706237539 -0.3081390304127084 0 0.17747336609929071 -0.29308862018658421 0 0.18530718706237539 -0.3081390304127084 0 0.1668502781076962 -0.30802096219510278 0 0.1668502781076962 -0.30802096219510278 0 0.1617050188563573 -0.28669212267145949 0 0.14810766461868641 -0.30053960738254581 0 0.1668502781076962 -0.30802096219510278 0 0.1617050188563573 -0.28669212267145949 0 0.17488550970430719 -0.27566272654697921 0 0.17747336609929071 -0.29308862018658421 0 0.1617050188563573 -0.28669212267145949 0 0.17747336609929071 -0.29308862018658421 0 0.1668502781076962 -0.30802096219510278 0 0.1617050188563573 -0.28669212267145949 0 0.19805178397098999 -0.48848201957349918 0 0.2023959248632233 -0.5 0 0.18618930178551019 -0.49516573292607141 0 0.19805178397098999 -0.48848201957349918 0 0.1880866366592549 -0.4814461387436878 0 0.18618930178551019 -0.49516573292607141 0 0.1880866366592549 -0.4814461387436878 0 0.2018023337261278 -0.47781648817918893 0 0.1852043858071982 -0.46517844786199181 0 0.19805178397098999 -0.48848201957349918 0 0.1880866366592549 -0.4814461387436878 0 0.2018023337261278 -0.47781648817918893 0 0.2018023337261278 -0.47781648817918893 0 0.22200059065181721 -0.47665812584735828 0 0.20731592770471791 -0.46300002766773529 0 0.2018023337261278 -0.47781648817918893 0 0.21178472282083399 -0.48798173801854822 0 0.22200059065181721 -0.47665812584735828 0 0.2023959248632233 -0.5 0 0.21178472282083399 -0.48798173801854822 0 0.2320686529893623 -0.5 0 0.19805178397098999 -0.48848201957349918 0 0.2023959248632233 -0.5 0 0.21178472282083399 -0.48798173801854822 0 0.19805178397098999 -0.48848201957349918 0 0.2018023337261278 -0.47781648817918893 0 0.21178472282083399 -0.48798173801854822 0 0.2320686529893623 -0.5 0 0.22200059065181721 -0.47665812584735828 0 0.23915824839187469 -0.46679343831294468 0 0.21178472282083399 -0.48798173801854822 0 0.2320686529893623 -0.5 0 0.22200059065181721 -0.47665812584735828 0 0.25859028418496921 -0.47731689648453218 0 0.2320686529893623 -0.5 0 0.23915824839187469 -0.46679343831294468 0 0.2238110074422455 -0.46129076182646772 0 0.23915824839187469 -0.46679343831294468 0 0.22956420207491179 -0.44661466222163099 0 0.22200059065181721 -0.47665812584735828 0 0.2238110074422455 -0.46129076182646772 0 0.23915824839187469 -0.46679343831294468 0 0.23915824839187469 -0.46679343831294468 0 0.24430631989322471 -0.4472557256421259 0 0.22956420207491179 -0.44661466222163099 0 0.26033012843435199 -0.45644445275285123 0 0.23915824839187469 -0.46679343831294468 0 0.24430631989322471 -0.4472557256421259 0 0.24430631989322471 -0.4472557256421259 0 0.22956420207491179 -0.44661466222163099 0 0.23548931138882079 -0.42526326402885711 0 0.2238110074422455 -0.46129076182646772 0 0.22956420207491179 -0.44661466222163099 0 0.21344866800539131 -0.44687447062193281 0 0.22956420207491179 -0.44661466222163099 0 0.21344866800539131 -0.44687447062193281 0 0.21876057574984839 -0.43143890007032443 0 0.21344866800539131 -0.44687447062193281 0 0.20340771684792269 -0.43535014092060093 0 0.21876057574984839 -0.43143890007032443 0 0.21344866800539131 -0.44687447062193281 0 0.20731592770471791 -0.46300002766773529 0 0.19835897039970021 -0.4488393002999812 0 0.21344866800539131 -0.44687447062193281 0 0.19835897039970021 -0.4488393002999812 0 0.20340771684792269 -0.43535014092060093 0 0.2238110074422455 -0.46129076182646772 0 0.21344866800539131 -0.44687447062193281 0 0.20731592770471791 -0.46300002766773529 0 0.22200059065181721 -0.47665812584735828 0 0.2238110074422455 -0.46129076182646772 0 0.20731592770471791 -0.46300002766773529 0 0.2018023337261278 -0.47781648817918893 0 0.20731592770471791 -0.46300002766773529 0 0.1852043858071982 -0.46517844786199181 0 0.19835897039970021 -0.4488393002999812 0 0.18441334547765589 -0.44998484504860459 0 0.1852043858071982 -0.46517844786199181 0 0.20731592770471791 -0.46300002766773529 0 0.19835897039970021 -0.4488393002999812 0 0.1852043858071982 -0.46517844786199181 0 0.19835897039970021 -0.4488393002999812 0 0.20340771684792269 -0.43535014092060093 0 0.18575973327249251 -0.43435505309821337 0 0.19835897039970021 -0.4488393002999812 0 0.18575973327249251 -0.43435505309821337 0 0.18441334547765589 -0.44998484504860459 0 0.20195468100632269 -0.42001999233127052 0 0.18141484829558571 -0.41819036800621923 0 0.18575973327249251 -0.43435505309821337 0 0.20195468100632269 -0.42001999233127052 0 0.20340771684792269 -0.43535014092060093 0 0.18575973327249251 -0.43435505309821337 0 0.19897349124038449 -0.40372642038328671 0 0.18262059603816039 -0.40487551361342788 0 0.18141484829558571 -0.41819036800621923 0 0.20195468100632269 -0.42001999233127052 0 0.19897349124038449 -0.40372642038328671 0 0.18141484829558571 -0.41819036800621923 0 0.19897349124038449 -0.40372642038328671 0 0.18141484829558571 -0.41819036800621923 0 0.20195468100632269 -0.42001999233127052 0 0.2172314013146025 -0.41449484220607219 0 0.19897349124038449 -0.40372642038328671 0 0.2172314013146025 -0.41449484220607219 0 0.19897349124038449 -0.40372642038328671 0 0.20195468100632269 -0.42001999233127052 0 0.20340771684792269 -0.43535014092060093 0 0.21876057574984839 -0.43143890007032443 0 0.20195468100632269 -0.42001999233127052 0 0.2172314013146025 -0.41449484220607219 0 0.21876057574984839 -0.43143890007032443 0 0.2172314013146025 -0.41449484220607219 0 0.21876057574984839 -0.43143890007032443 0 0.23548931138882079 -0.42526326402885711 0 0.22956420207491179 -0.44661466222163099 0 0.21876057574984839 -0.43143890007032443 0 0.23548931138882079 -0.42526326402885711 0 0.25425260572772362 -0.41471264228753502 0 0.25374722146303907 -0.43603168585164193 0 0.23548931138882079 -0.42526326402885711 0 0.25374722146303907 -0.43603168585164193 0 0.23548931138882079 -0.42526326402885711 0 0.25374722146303907 -0.43603168585164193 0 0.24430631989322471 -0.4472557256421259 0 0.23548931138882079 -0.42526326402885711 0 0.25425260572772362 -0.41471264228753502 0 0.23548931138882079 -0.42526326402885711 0 0.23410559049316321 -0.40530140187159658 0 0.2172314013146025 -0.41449484220607219 0 0.23548931138882079 -0.42526326402885711 0 0.23410559049316321 -0.40530140187159658 0 0.2172314013146025 -0.41449484220607219 0 0.23548931138882079 -0.42526326402885711 0 0.2172314013146025 -0.41449484220607219 0 0.23410559049316321 -0.40530140187159658 0 0.2221881995487284 -0.39753304052402039 0 0.23410559049316321 -0.40530140187159658 0 0.2221881995487284 -0.39753304052402039 0 0.2333156265545199 -0.38389435661700289 0 0.23410559049316321 -0.40530140187159658 0 0.2333156265545199 -0.38389435661700289 0 0.25211068065032372 -0.39342534352467468 0 0.23410559049316321 -0.40530140187159658 0 0.2333156265545199 -0.38389435661700289 0 0.25211068065032372 -0.39342534352467468 0 0.25425260572772362 -0.41471264228753502 0 0.23410559049316321 -0.40530140187159658 0 0.25211068065032372 -0.39342534352467468 0 0.24900525261987111 -0.37373651464937951 0 0.2333156265545199 -0.38389435661700289 0 0.21681787281747369 -0.36874587189510621 0 0.2333156265545199 -0.38389435661700289 0 0.21538818034792079 -0.38628780434210691 0 0.2221881995487284 -0.39753304052402039 0 0.2333156265545199 -0.38389435661700289 0 0.21538818034792079 -0.38628780434210691 0 0.21681787281747369 -0.36874587189510621 0 0.2056054578384485 -0.37853329764679078 0 0.21538818034792079 -0.38628780434210691 0 0.2056054578384485 -0.37853329764679078 0 0.2063158362602357 -0.38841478336131108 0 0.21538818034792079 -0.38628780434210691 0 0.2056054578384485 -0.37853329764679078 0 0.2063158362602357 -0.38841478336131108 0 0.1983293976853085 -0.38534764755414658 0 0.2063158362602357 -0.38841478336131108 0 0.21538818034792079 -0.38628780434210691 0 0.2109540365078664 -0.39685948090538559 0 0.2172314013146025 -0.41449484220607219 0 0.2221881995487284 -0.39753304052402039 0 0.2109540365078664 -0.39685948090538559 0 0.2221881995487284 -0.39753304052402039 0 0.21538818034792079 -0.38628780434210691 0 0.2109540365078664 -0.39685948090538559 0 0.2172314013146025 -0.41449484220607219 0 0.20324465517964629 -0.40020804531861542 0 0.2109540365078664 -0.39685948090538559 0 0.2172314013146025 -0.41449484220607219 0 0.20324465517964629 -0.40020804531861542 0 0.19897349124038449 -0.40372642038328671 0 0.20324465517964629 -0.40020804531861542 0 0.2109540365078664 -0.39685948090538559 0 0.20187747797772099 -0.39381020004598022 0 0.2063158362602357 -0.38841478336131108 0 0.2109540365078664 -0.39685948090538559 0 0.20187747797772099 -0.39381020004598022 0 0.19509121964758949 -0.39466180388014921 0 0.1983293976853085 -0.38534764755414658 0 0.1810651737788555 -0.39316418649243279 0 0.20324465517964629 -0.40020804531861542 0 0.20187747797772099 -0.39381020004598022 0 0.19509121964758949 -0.39466180388014921 0 0.20187747797772099 -0.39381020004598022 0 0.19509121964758949 -0.39466180388014921 0 0.1983293976853085 -0.38534764755414658 0 0.19897349124038449 -0.40372642038328671 0 0.1810651737788555 -0.39316418649243279 0 0.19897349124038449 -0.40372642038328671 0 0.18262059603816039 -0.40487551361342788 0 0.1810651737788555 -0.39316418649243279 0 0.19897349124038449 -0.40372642038328671 0 0.19509121964758949 -0.39466180388014921 0 0.1810651737788555 -0.39316418649243279 0 0.20324465517964629 -0.40020804531861542 0 0.19897349124038449 -0.40372642038328671 0 0.19509121964758949 -0.39466180388014921 0 0.20324465517964629 -0.40020804531861542 0 0.19897349124038449 -0.40372642038328671 0 0.190699763622841 -0.3762781914872772 0 0.1983293976853085 -0.38534764755414658 0 0.1810651737788555 -0.39316418649243279 0 0.2056054578384485 -0.37853329764679078 0 0.190699763622841 -0.3762781914872772 0 0.1983293976853085 -0.38534764755414658 0 0.2063158362602357 -0.38841478336131108 0 0.20187747797772099 -0.39381020004598022 0 0.1983293976853085 -0.38534764755414658 0 0.1773773782240729 -0.3724594981014121 0 0.1810651737788555 -0.39316418649243279 0 0.1631568563173269 -0.38260195260157831 0 0.1773773782240729 -0.3724594981014121 0 0.190699763622841 -0.3762781914872772 0 0.1810651737788555 -0.39316418649243279 0 0.1810651737788555 -0.39316418649243279 0 0.1631568563173269 -0.38260195260157831 0 0.18262059603816039 -0.40487551361342788 0 0.1810651737788555 -0.39316418649243279 0 0.1639554899915818 -0.403240008819435 0 0.1810651737788555 -0.39316418649243279 0 0.1639554899915818 -0.403240008819435 0 0.1631568563173269 -0.38260195260157831 0 0.1639554899915818 -0.403240008819435 0 0.1631568563173269 -0.38260195260157831 0 0.14746334037713149 -0.38370095208660621 0 0.1452485388557983 -0.37203971871072372 0 0.1631568563173269 -0.38260195260157831 0 0.1452485388557983 -0.37203971871072372 0 0.1631568563173269 -0.38260195260157831 0 0.14746334037713149 -0.38370095208660621 0 0.14746334037713149 -0.38370095208660621 0 0.13561774922421749 -0.38294485694463809 0 0.1412398072862974 -0.39702942075956782 0 0.1452485388557983 -0.37203971871072372 0 0.14746334037713149 -0.38370095208660621 0 0.14052212427806701 -0.37528361367223878 0 0.14746334037713149 -0.38370095208660621 0 0.14052212427806701 -0.37528361367223878 0 0.13561774922421749 -0.38294485694463809 0 0.13561774922421749 -0.38294485694463809 0 0.1412398072862974 -0.39702942075956782 0 0.121923568163862 -0.38785846599652229 0 0.1356878618072018 -0.36592489094034047 0 0.121923568163862 -0.38785846599652229 0 0.1356878618072018 -0.36592489094034047 0 0.13561774922421749 -0.38294485694463809 0 0.121923568163862 -0.38785846599652229 0 0.1412398072862974 -0.39702942075956782 0 0.1289454477660969 -0.40954435153788632 0 0.121923568163862 -0.38785846599652229 0 0.1639554899915818 -0.403240008819435 0 0.1412398072862974 -0.39702942075956782 0 0.14851676711831491 -0.41639961211134852 0 0.1639554899915818 -0.403240008819435 0 0.14746334037713149 -0.38370095208660621 0 0.1412398072862974 -0.39702942075956782 0 0.1289454477660969 -0.40954435153788632 0 0.13215384699654009 -0.43008291338308069 0 0.11971779604060501 -0.41884385066997548 0 0.14851676711831491 -0.41639961211134852 0 0.1289454477660969 -0.40954435153788632 0 0.13215384699654009 -0.43008291338308069 0 0.1412398072862974 -0.39702942075956782 0 0.14851676711831491 -0.41639961211134852 0 0.1289454477660969 -0.40954435153788632 0 0.14851676711831491 -0.41639961211134852 0 0.14770609546790761 -0.43156377609391638 0 0.16385620535078699 -0.43265431562915191 0 0.14770609546790761 -0.43156377609391638 0 0.16385620535078699 -0.43265431562915191 0 0.14629756240598829 -0.44711826325208459 0 0.13215384699654009 -0.43008291338308069 0 0.14770609546790761 -0.43156377609391638 0 0.14629756240598829 -0.44711826325208459 0 0.14851676711831491 -0.41639961211134852 0 0.13215384699654009 -0.43008291338308069 0 0.14770609546790761 -0.43156377609391638 0 0.1639554899915818 -0.403240008819435 0 0.16385620535078699 -0.43265431562915191 0 0.18141484829558571 -0.41819036800621923 0 0.1639554899915818 -0.403240008819435 0 0.14851676711831491 -0.41639961211134852 0 0.16385620535078699 -0.43265431562915191 0 0.18262059603816039 -0.40487551361342788 0 0.1639554899915818 -0.403240008819435 0 0.18141484829558571 -0.41819036800621923 0 0.16385620535078699 -0.43265431562915191 0 0.18141484829558571 -0.41819036800621923 0 0.18575973327249251 -0.43435505309821337 0 0.16385620535078699 -0.43265431562915191 0 0.18141484829558571 -0.41819036800621923 0 0.18575973327249251 -0.43435505309821337 0 0.18441334547765589 -0.44998484504860459 0 0.16917153905717869 -0.44871431354704738 0 0.16385620535078699 -0.43265431562915191 0 0.18575973327249251 -0.43435505309821337 0 0.16917153905717869 -0.44871431354704738 0 0.18441334547765589 -0.44998484504860459 0 0.1852043858071982 -0.46517844786199181 0 0.16917153905717869 -0.44871431354704738 0 0.1852043858071982 -0.46517844786199181 0 0.15959480886583091 -0.46313408647674531 0 0.16917153905717869 -0.44871431354704738 0 0.15959480886583091 -0.46313408647674531 0 0.16917153905717869 -0.44871431354704738 0 0.14629756240598829 -0.44711826325208459 0 0.16385620535078699 -0.43265431562915191 0 0.16917153905717869 -0.44871431354704738 0 0.14629756240598829 -0.44711826325208459 0 0.16385620535078699 -0.43265431562915191 0 0.14629756240598829 -0.44711826325208459 0 0.13215384699654009 -0.43008291338308069 0 0.12997015988884589 -0.44628506752070263 0 0.1157550854200986 -0.44391760498494748 0 0.13215384699654009 -0.43008291338308069 0 0.14629756240598829 -0.44711826325208459 0 0.12997015988884589 -0.44628506752070263 0 0.14629756240598829 -0.44711826325208459 0 0.12997015988884589 -0.44628506752070263 0 0.12689780817802501 -0.46309882791947821 0 0.13215384699654009 -0.43008291338308069 0 0.14629756240598829 -0.44711826325208459 0 0.14629756240598829 -0.44711826325208459 0 0.12689780817802501 -0.46309882791947821 0 0.12689780817802501 -0.46309882791947821 0 0.1442485476011551 -0.46385231972660351 0 0.14094166257789531 -0.47724537767421238 0 0.14629756240598829 -0.44711826325208459 0 0.12689780817802501 -0.46309882791947821 0 0.1442485476011551 -0.46385231972660351 0 0.15959480886583091 -0.46313408647674531 0 0.14629756240598829 -0.44711826325208459 0 0.1442485476011551 -0.46385231972660351 0 0.15959480886583091 -0.46313408647674531 0 0.14629756240598829 -0.44711826325208459 0 0.15959480886583091 -0.46313408647674531 0 0.1442485476011551 -0.46385231972660351 0 0.15446187114990409 -0.47601642882520467 0 0.15446187114990409 -0.47601642882520467 0 0.14094166257789531 -0.47724537767421238 0 0.15682647306248079 -0.48882439873452199 0 0.1442485476011551 -0.46385231972660351 0 0.15446187114990409 -0.47601642882520467 0 0.14094166257789531 -0.47724537767421238 0 0.12689780817802501 -0.46309882791947821 0 0.14094166257789531 -0.47724537767421238 0 0.1258235913462622 -0.48124582702872559 0 0.14094166257789531 -0.47724537767421238 0 0.1258235913462622 -0.48124582702872559 0 0.13933384929543771 -0.48922792442635371 0 0.1258235913462622 -0.48124582702872559 0 0.1310729959893375 -0.49768336494839971 0 0.13933384929543771 -0.48922792442635371 0 0.1310729959893375 -0.49768336494839971 0 0.14305046861094561 -0.5 0 0.1133777404848068 -0.5 0 0.1310729959893375 -0.49768336494839971 0 0.13933384929543771 -0.48922792442635371 0 0.14305046861094561 -0.5 0 0.14094166257789531 -0.47724537767421238 0 0.13933384929543771 -0.48922792442635371 0 0.15682647306248079 -0.48882439873452199 0 0.13933384929543771 -0.48922792442635371 0 0.14305046861094561 -0.5 0 0.15682647306248079 -0.48882439873452199 0 0.14305046861094561 -0.5 0 0.15682647306248079 -0.48882439873452199 0 0.1727231967370845 -0.5 0 0.15682647306248079 -0.48882439873452199 0 0.17289205532567051 -0.47914990970140842 0 0.1727231967370845 -0.5 0 0.15959480886583091 -0.46313408647674531 0 0.17289205532567051 -0.47914990970140842 0 0.15959480886583091 -0.46313408647674531 0 0.15446187114990409 -0.47601642882520467 0 0.17289205532567051 -0.47914990970140842 0 0.15446187114990409 -0.47601642882520467 0 0.15682647306248079 -0.48882439873452199 0 0.17289205532567051 -0.47914990970140842 0 0.1880866366592549 -0.4814461387436878 0 0.1852043858071982 -0.46517844786199181 0 0.17289205532567051 -0.47914990970140842 0 0.1852043858071982 -0.46517844786199181 0 0.15959480886583091 -0.46313408647674531 0 0.17289205532567051 -0.47914990970140842 0 0.17289205532567051 -0.47914990970140842 0 0.1727231967370845 -0.5 0 0.18618930178551019 -0.49516573292607141 0 0.2023959248632233 -0.5 0 0.1727231967370845 -0.5 0 0.18618930178551019 -0.49516573292607141 0 0.1880866366592549 -0.4814461387436878 0 0.17289205532567051 -0.47914990970140842 0 0.18618930178551019 -0.49516573292607141 0 0.17289205532567051 -0.47914990970140842 0 0.18618930178551019 -0.49516573292607141 0 0.071669815662398245 -0.49051784547048211 0 0.083705012358667785 -0.5 0 0.054032284232528822 -0.5 0 0.071669815662398245 -0.49051784547048211 0 0.070881390641777661 -0.47521635534610451 0 0.087635422005996097 -0.49871150786104079 0 0.070881390641777661 -0.47521635534610451 0 0.083547438577898994 -0.47207687429711942 0 0.059604491685549738 -0.45940210413024729 0 0.071669815662398245 -0.49051784547048211 0 0.070881390641777661 -0.47521635534610451 0 0.059537914136947083 -0.48495506168494501 0 0.070881390641777661 -0.47521635534610451 0 0.083547438577898994 -0.47207687429711942 0 0.090475254463506571 -0.48488991748105159 0 0.083547438577898994 -0.47207687429711942 0 0.090475254463506571 -0.48488991748105159 0 0.10731021728361829 -0.48488011962275962 0 0.090475254463506571 -0.48488991748105159 0 0.087635422005996097 -0.49871150786104079 0 0.09969965855948193 -0.4921203862412129 0 0.070881390641777661 -0.47521635534610451 0 0.090475254463506571 -0.48488991748105159 0 0.087635422005996097 -0.49871150786104079 0 0.070881390641777661 -0.47521635534610451 0 0.087635422005996097 -0.49871150786104079 0 0.071669815662398245 -0.49051784547048211 0 0.083705012358667785 -0.5 0 0.087635422005996097 -0.49871150786104079 0 0.090475254463506571 -0.48488991748105159 0 0.09969965855948193 -0.4921203862412129 0 0.10731021728361829 -0.48488011962275962 0 0.087635422005996097 -0.49871150786104079 0 0.09969965855948193 -0.4921203862412129 0 0.1133777404848068 -0.5 0 0.083705012358667785 -0.5 0 0.087635422005996097 -0.49871150786104079 0 0.1133777404848068 -0.5 0 0.09969965855948193 -0.4921203862412129 0 0.10731021728361829 -0.48488011962275962 0 0.1133777404848068 -0.5 0 0.1310729959893375 -0.49768336494839971 0 0.10731021728361829 -0.48488011962275962 0 0.1133777404848068 -0.5 0 0.1258235913462622 -0.48124582702872559 0 0.1310729959893375 -0.49768336494839971 0 0.10731021728361829 -0.48488011962275962 0 0.1310729959893375 -0.49768336494839971 0 0.10731021728361829 -0.48488011962275962 0 0.12689780817802501 -0.46309882791947821 0 0.1258235913462622 -0.48124582702872559 0 0.1138494901230508 -0.47182275352529413 0 0.1258235913462622 -0.48124582702872559 0 0.10731021728361829 -0.48488011962275962 0 0.1138494901230508 -0.47182275352529413 0 0.10731021728361829 -0.48488011962275962 0 0.1138494901230508 -0.47182275352529413 0 0.1001401573356437 -0.46818013788011859 0 0.083547438577898994 -0.47207687429711942 0 0.10731021728361829 -0.48488011962275962 0 0.1001401573356437 -0.46818013788011859 0 0.083547438577898994 -0.47207687429711942 0 0.10731021728361829 -0.48488011962275962 0 0.1001401573356437 -0.46818013788011859 0 0.1086133880560399 -0.45735352182366013 0 0.093454605226225784 -0.45342406178833228 0 0.1138494901230508 -0.47182275352529413 0 0.1001401573356437 -0.46818013788011859 0 0.1086133880560399 -0.45735352182366013 0 0.12689780817802501 -0.46309882791947821 0 0.1086133880560399 -0.45735352182366013 0 0.1157550854200986 -0.44391760498494748 0 0.12689780817802501 -0.46309882791947821 0 0.1138494901230508 -0.47182275352529413 0 0.1086133880560399 -0.45735352182366013 0 0.12997015988884589 -0.44628506752070263 0 0.12689780817802501 -0.46309882791947821 0 0.1157550854200986 -0.44391760498494748 0 0.1157550854200986 -0.44391760498494748 0 0.1014868719665984 -0.44277038372884647 0 0.1113407274236685 -0.42917503576476512 0 0.1086133880560399 -0.45735352182366013 0 0.1157550854200986 -0.44391760498494748 0 0.1014868719665984 -0.44277038372884647 0 0.1014868719665984 -0.44277038372884647 0 0.087166601028312765 -0.44243933670269481 0 0.093454605226225784 -0.45342406178833228 0 0.1086133880560399 -0.45735352182366013 0 0.1014868719665984 -0.44277038372884647 0 0.093454605226225784 -0.45342406178833228 0 0.1014868719665984 -0.44277038372884647 0 0.087166601028312765 -0.44243933670269481 0 0.094394980877182372 -0.43172561610888588 0 0.087166601028312765 -0.44243933670269481 0 0.081826145175518519 -0.45088496035562597 0 0.074554781908643813 -0.44231469245077049 0 0.087166601028312765 -0.44243933670269481 0 0.074554781908643813 -0.44231469245077049 0 0.080663928513202032 -0.43477271475216728 0 0.087166601028312765 -0.44243933670269481 0 0.081826145175518519 -0.45088496035562597 0 0.093454605226225784 -0.45342406178833228 0 0.1001401573356437 -0.46818013788011859 0 0.093454605226225784 -0.45342406178833228 0 0.086797576124864467 -0.46098803091264462 0 0.083547438577898994 -0.47207687429711942 0 0.1001401573356437 -0.46818013788011859 0 0.086797576124864467 -0.46098803091264462 0 0.081826145175518519 -0.45088496035562597 0 0.093454605226225784 -0.45342406178833228 0 0.086797576124864467 -0.46098803091264462 0 0.083547438577898994 -0.47207687429711942 0 0.086797576124864467 -0.46098803091264462 0 0.078306794410688732 -0.45809887145877431 0 0.081826145175518519 -0.45088496035562597 0 0.086797576124864467 -0.46098803091264462 0 0.078306794410688732 -0.45809887145877431 0 0.070881390641777661 -0.47521635534610451 0 0.059604491685549738 -0.45940210413024729 0 0.083547438577898994 -0.47207687429711942 0 0.059604491685549738 -0.45940210413024729 0 0.081826145175518519 -0.45088496035562597 0 0.078306794410688732 -0.45809887145877431 0 0.073541761359493821 -0.45063687258733048 0 0.083547438577898994 -0.47207687429711942 0 0.070774146339208338 -0.45754444788222748 0 0.059604491685549738 -0.45940210413024729 0 0.078306794410688732 -0.45809887145877431 0 0.070774146339208338 -0.45754444788222748 0 0.073541761359493821 -0.45063687258733048 0 0.083547438577898994 -0.47207687429711942 0 0.078306794410688732 -0.45809887145877431 0 0.070774146339208338 -0.45754444788222748 0 0.070774146339208338 -0.45754444788222748 0 0.065350259949305795 -0.44920952949867282 0 0.059604491685549738 -0.45940210413024729 0 0.070774146339208338 -0.45754444788222748 0 0.065350259949305795 -0.44920952949867282 0 0.073541761359493821 -0.45063687258733048 0 0.064967528672535871 -0.43950681777027317 0 0.074554781908643813 -0.44231469245077049 0 0.06905179434284954 -0.43221159269374299 0 0.065350259949305795 -0.44920952949867282 0 0.064967528672535871 -0.43950681777027317 0 0.074554781908643813 -0.44231469245077049 0 0.081826145175518519 -0.45088496035562597 0 0.074554781908643813 -0.44231469245077049 0 0.073541761359493821 -0.45063687258733048 0 0.065350259949305795 -0.44920952949867282 0 0.074554781908643813 -0.44231469245077049 0 0.073541761359493821 -0.45063687258733048 0 0.074554781908643813 -0.44231469245077049 0 0.06905179434284954 -0.43221159269374299 0 0.080663928513202032 -0.43477271475216728 0 0.078151484409021615 -0.42517233580474229 0 0.06905179434284954 -0.43221159269374299 0 0.080663928513202032 -0.43477271475216728 0 0.064967528672535871 -0.43950681777027317 0 0.06905179434284954 -0.43221159269374299 0 0.057272764676029569 -0.43101696201894052 0 0.078151484409021615 -0.42517233580474229 0 0.06905179434284954 -0.43221159269374299 0 0.063261210825854772 -0.42389616190054658 0 0.06905179434284954 -0.43221159269374299 0 0.063261210825854772 -0.42389616190054658 0 0.057272764676029569 -0.43101696201894052 0 0.074318873278764047 -0.41563579979009557 0 0.083674568598572349 -0.41871579715645352 0 0.074293713283533208 -0.40167487643337801 0 0.063261210825854772 -0.42389616190054658 0 0.064765738765772268 -0.41387550112284671 0 0.074318873278764047 -0.41563579979009557 0 0.064765738765772268 -0.41387550112284671 0 0.074318873278764047 -0.41563579979009557 0 0.074293713283533208 -0.40167487643337801 0 0.078151484409021615 -0.42517233580474229 0 0.063261210825854772 -0.42389616190054658 0 0.074318873278764047 -0.41563579979009557 0 0.09721379114436049 -0.4193703576451655 0 0.074293713283533208 -0.40167487643337801 0 0.078151484409021615 -0.42517233580474229 0 0.074318873278764047 -0.41563579979009557 0 0.083674568598572349 -0.41871579715645352 0 0.09721379114436049 -0.4193703576451655 0 0.093738691701483093 -0.40402040153292651 0 0.074293713283533208 -0.40167487643337801 0 0.083674568598572349 -0.41871579715645352 0 0.09721379114436049 -0.4193703576451655 0 0.074293713283533208 -0.40167487643337801 0 0.083674568598572349 -0.41871579715645352 0 0.094394980877182372 -0.43172561610888588 0 0.09721379114436049 -0.4193703576451655 0 0.078151484409021615 -0.42517233580474229 0 0.080663928513202032 -0.43477271475216728 0 0.094394980877182372 -0.43172561610888588 0 0.078151484409021615 -0.42517233580474229 0 0.083674568598572349 -0.41871579715645352 0 0.094394980877182372 -0.43172561610888588 0 0.087166601028312765 -0.44243933670269481 0 0.080663928513202032 -0.43477271475216728 0 0.094394980877182372 -0.43172561610888588 0 0.1014868719665984 -0.44277038372884647 0 0.094394980877182372 -0.43172561610888588 0 0.1113407274236685 -0.42917503576476512 0 0.094394980877182372 -0.43172561610888588 0 0.1113407274236685 -0.42917503576476512 0 0.10815927452052219 -0.40979204105270411 0 0.13215384699654009 -0.43008291338308069 0 0.1157550854200986 -0.44391760498494748 0 0.1113407274236685 -0.42917503576476512 0 0.13215384699654009 -0.43008291338308069 0 0.1113407274236685 -0.42917503576476512 0 0.11971779604060501 -0.41884385066997548 0 0.1289454477660969 -0.40954435153788632 0 0.11971779604060501 -0.41884385066997548 0 0.10815927452052219 -0.40979204105270411 0 0.1113407274236685 -0.42917503576476512 0 0.11971779604060501 -0.41884385066997548 0 0.10815927452052219 -0.40979204105270411 0 0.094394980877182372 -0.43172561610888588 0 0.10815927452052219 -0.40979204105270411 0 0.094394980877182372 -0.43172561610888588 0 0.10815927452052219 -0.40979204105270411 0 0.09721379114436049 -0.4193703576451655 0 0.10815927452052219 -0.40979204105270411 0 0.09721379114436049 -0.4193703576451655 0 0.093738691701483093 -0.40402040153292651 0 0.095445278349556739 -0.39594853123083429 0 0.1045389015481567 -0.3966796660541263 0 0.093738691701483093 -0.40402040153292651 0 0.095445278349556739 -0.39594853123083429 0 0.1045389015481567 -0.3966796660541263 0 0.1034276950053595 -0.38577889045764419 0 0.10815927452052219 -0.40979204105270411 0 0.1045389015481567 -0.3966796660541263 0 0.093738691701483093 -0.40402040153292651 0 0.1289454477660969 -0.40954435153788632 0 0.10815927452052219 -0.40979204105270411 0 0.121923568163862 -0.38785846599652229 0 0.10815927452052219 -0.40979204105270411 0 0.121923568163862 -0.38785846599652229 0 0.10815927452052219 -0.40979204105270411 0 0.1045389015481567 -0.3966796660541263 0 0.121923568163862 -0.38785846599652229 0 0.1045389015481567 -0.3966796660541263 0 0.121923568163862 -0.38785846599652229 0 0.1034276950053595 -0.38577889045764419 0 0.121923568163862 -0.38785846599652229 0 0.1034276950053595 -0.38577889045764419 0 0.1077691244240731 -0.36863243914133831 0 0.1034276950053595 -0.38577889045764419 0 0.089740846075616082 -0.37806805751190431 0 0.1077691244240731 -0.36863243914133831 0 0.095445278349556739 -0.39594853123083429 0 0.1034276950053595 -0.38577889045764419 0 0.089428127046251082 -0.38848648541136299 0 0.1034276950053595 -0.38577889045764419 0 0.089740846075616082 -0.37806805751190431 0 0.089428127046251082 -0.38848648541136299 0 0.089740846075616082 -0.37806805751190431 0 0.079681772802734918 -0.38884997150827061 0 0.075877077536241067 -0.37758366821360212 0 0.089740846075616082 -0.37806805751190431 0 0.079681772802734918 -0.38884997150827061 0 0.089428127046251082 -0.38848648541136299 0 0.095445278349556739 -0.39594853123083429 0 0.089428127046251082 -0.38848648541136299 0 0.086517516636711811 -0.39579605322335448 0 0.086517516636711811 -0.39579605322335448 0 0.093738691701483093 -0.40402040153292651 0 0.074293713283533208 -0.40167487643337801 0 0.095445278349556739 -0.39594853123083429 0 0.086517516636711811 -0.39579605322335448 0 0.093738691701483093 -0.40402040153292651 0 0.079681772802734918 -0.38884997150827061 0 0.086517516636711811 -0.39579605322335448 0 0.074293713283533208 -0.40167487643337801 0 0.079681772802734918 -0.38884997150827061 0 0.089428127046251082 -0.38848648541136299 0 0.086517516636711811 -0.39579605322335448 0 0.074293713283533208 -0.40167487643337801 0 0.051373635422705982 -0.38397939522159052 0 0.079681772802734918 -0.38884997150827061 0 0.074293713283533208 -0.40167487643337801 0 0.066547669166157813 -0.39396984233137672 0 0.064765738765772268 -0.41387550112284671 0 0.074293713283533208 -0.40167487643337801 0 0.057822843217272407 -0.40025050128644118 0 0.074293713283533208 -0.40167487643337801 0 0.066547669166157813 -0.39396984233137672 0 0.051373635422705982 -0.38397939522159052 0 0.066547669166157813 -0.39396984233137672 0 0.062882393497746228 -0.36668345528486163 0 0.066547669166157813 -0.39396984233137672 0 0.075877077536241067 -0.37758366821360212 0 0.062882393497746228 -0.36668345528486163 0 0.079681772802734918 -0.38884997150827061 0 0.066547669166157813 -0.39396984233137672 0 0.075877077536241067 -0.37758366821360212 0 0.066547669166157813 -0.39396984233137672 0 0.051373635422705982 -0.38397939522159052 0 0.062882393497746228 -0.36668345528486163 0 0.074293713283533208 -0.40167487643337801 0 0.051373635422705982 -0.38397939522159052 0 0.057822843217272407 -0.40025050128644118 0 0.051373635422705982 -0.38397939522159052 0 0.057822843217272407 -0.40025050128644118 0 0.040858285397078177 -0.40147223236794982 0 0.064765738765772268 -0.41387550112284671 0 0.057822843217272407 -0.40025050128644118 0 0.040858285397078177 -0.40147223236794982 0 0.051373635422705982 -0.38397939522159052 0 0.040858285397078177 -0.40147223236794982 0 0.033304007121778952 -0.38489076455205778 0 0.051373635422705982 -0.38397939522159052 0 0.028453557561878642 -0.36628391400980298 0 0.051373635422705982 -0.38397939522159052 0 0.033304007121778952 -0.38489076455205778 0 0.028453557561878642 -0.36628391400980298 0 0.033304007121778952 -0.38489076455205778 0 0.019075463084374841 -0.37650112710475792 0 0.028453557561878642 -0.36628391400980298 0 0.033304007121778952 -0.38489076455205778 0 0.016950832028383989 -0.38906896361305288 0 0.019075463084374841 -0.37650112710475792 0 -0.0069566213403100194 -0.37666569485815599 0 0.016950832028383989 -0.38906896361305288 0 0.0055892424953708567 -0.37709244708659828 0 -0.0069566213403100194 -0.37666569485815599 0 0.016950832028383989 -0.38906896361305288 0 -0.0069566213403100194 -0.37666569485815599 0 0.016950832028383989 -0.38906896361305288 0 0.00068527185139777367 -0.39171991296266812 0 0.016950832028383989 -0.38906896361305288 0 0.019075463084374841 -0.37650112710475792 0 0.0055892424953708567 -0.37709244708659828 0 0.016950832028383989 -0.38906896361305288 0 0.00068527185139777367 -0.39171991296266812 0 0.008462641923771521 -0.40379872705322511 0 -0.0053933843029720964 -0.40289512607066869 0 0.00068527185139777367 -0.39171991296266812 0 0.008462641923771521 -0.40379872705322511 0 0.040858285397078177 -0.40147223236794982 0 0.016950832028383989 -0.38906896361305288 0 0.040858285397078177 -0.40147223236794982 0 0.033304007121778952 -0.38489076455205778 0 0.016950832028383989 -0.38906896361305288 0 0.040858285397078177 -0.40147223236794982 0 0.016950832028383989 -0.38906896361305288 0 0.023804002227708301 -0.40396845510387458 0 0.016950832028383989 -0.38906896361305288 0 0.008462641923771521 -0.40379872705322511 0 0.023804002227708301 -0.40396845510387458 0 0.023804002227708301 -0.40396845510387458 0 0.016670356967303609 -0.41847912306569202 0 0.037373327913340762 -0.42822605031623201 0 0.008462641923771521 -0.40379872705322511 0 0.023804002227708301 -0.40396845510387458 0 0.016670356967303609 -0.41847912306569202 0 -0.0053933843029720964 -0.40289512607066869 0 -0.0017926683884428381 -0.41909229766128209 0 0.008462641923771521 -0.40379872705322511 0 -0.0017926683884428381 -0.41909229766128209 0 0.008462641923771521 -0.40379872705322511 0 0.016670356967303609 -0.41847912306569202 0 -0.0017926683884428381 -0.41909229766128209 0 -0.0055040469024326194 -0.4413796618487173 0 0.015247290444742861 -0.43896656908443049 0 -0.0017926683884428381 -0.41909229766128209 0 0.016670356967303609 -0.41847912306569202 0 0.015247290444742861 -0.43896656908443049 0 0.016670356967303609 -0.41847912306569202 0 0.037373327913340762 -0.42822605031623201 0 0.015247290444742861 -0.43896656908443049 0 0.040858285397078177 -0.40147223236794982 0 0.037373327913340762 -0.42822605031623201 0 0.049789854609292333 -0.41860811759780908 0 0.040858285397078177 -0.40147223236794982 0 0.023804002227708301 -0.40396845510387458 0 0.037373327913340762 -0.42822605031623201 0 0.064765738765772268 -0.41387550112284671 0 0.040858285397078177 -0.40147223236794982 0 0.049789854609292333 -0.41860811759780908 0 0.064765738765772268 -0.41387550112284671 0 0.040858285397078177 -0.40147223236794982 0 0.063261210825854772 -0.42389616190054658 0 0.064765738765772268 -0.41387550112284671 0 0.049789854609292333 -0.41860811759780908 0 0.063261210825854772 -0.42389616190054658 0 0.049789854609292333 -0.41860811759780908 0 0.057272764676029569 -0.43101696201894052 0 0.037373327913340762 -0.42822605031623201 0 0.057272764676029569 -0.43101696201894052 0 0.056071865769399369 -0.44019476700543753 0 0.037373327913340762 -0.42822605031623201 0 0.049789854609292333 -0.41860811759780908 0 0.057272764676029569 -0.43101696201894052 0 0.064967528672535871 -0.43950681777027317 0 0.057272764676029569 -0.43101696201894052 0 0.056071865769399369 -0.44019476700543753 0 0.037373327913340762 -0.42822605031623201 0 0.054127359277559212 -0.45172120283116818 0 0.056071865769399369 -0.44019476700543753 0 0.065350259949305795 -0.44920952949867282 0 0.064967528672535871 -0.43950681777027317 0 0.056071865769399369 -0.44019476700543753 0 0.065350259949305795 -0.44920952949867282 0 0.054127359277559212 -0.45172120283116818 0 0.056071865769399369 -0.44019476700543753 0 0.070881390641777661 -0.47521635534610451 0 0.059604491685549738 -0.45940210413024729 0 0.053408813263056222 -0.4660136180719523 0 0.054127359277559212 -0.45172120283116818 0 0.059604491685549738 -0.45940210413024729 0 0.053408813263056222 -0.4660136180719523 0 0.065350259949305795 -0.44920952949867282 0 0.054127359277559212 -0.45172120283116818 0 0.059604491685549738 -0.45940210413024729 0 0.054127359277559212 -0.45172120283116818 0 0.059604491685549738 -0.45940210413024729 0 0.053408813263056222 -0.4660136180719523 0 0.043041072219009963 -0.45906704998252063 0 0.044608940975190199 -0.47077937514179619 0 0.054127359277559212 -0.45172120283116818 0 0.053408813263056222 -0.4660136180719523 0 0.043041072219009963 -0.45906704998252063 0 0.043041072219009963 -0.45906704998252063 0 0.034084988435470941 -0.46468711824016501 0 0.044608940975190199 -0.47077937514179619 0 0.043041072219009963 -0.45906704998252063 0 0.034084988435470941 -0.46468711824016501 0 0.031127838296546841 -0.45125169266239468 0 0.043041072219009963 -0.45906704998252063 0 0.041417399426614189 -0.44756649894807882 0 0.031127838296546841 -0.45125169266239468 0 0.037373327913340762 -0.42822605031623201 0 0.054127359277559212 -0.45172120283116818 0 0.041417399426614189 -0.44756649894807882 0 0.037373327913340762 -0.42822605031623201 0 0.041417399426614189 -0.44756649894807882 0 0.031127838296546841 -0.45125169266239468 0 0.037373327913340762 -0.42822605031623201 0 0.054127359277559212 -0.45172120283116818 0 0.054127359277559212 -0.45172120283116818 0 0.043041072219009963 -0.45906704998252063 0 0.041417399426614189 -0.44756649894807882 0 0.031127838296546841 -0.45125169266239468 0 0.015247290444742861 -0.43896656908443049 0 0.02064694960607983 -0.45367966369166002 0 0.037373327913340762 -0.42822605031623201 0 0.031127838296546841 -0.45125169266239468 0 0.015247290444742861 -0.43896656908443049 0 -0.0055040469024326194 -0.4413796618487173 0 0.015247290444742861 -0.43896656908443049 0 0.0108556224934841 -0.45939092393326791 0 -0.0055040469024326194 -0.4413796618487173 0 0.0108556224934841 -0.45939092393326791 0 0.015247290444742861 -0.43896656908443049 0 0.0108556224934841 -0.45939092393326791 0 0.02064694960607983 -0.45367966369166002 0 -0.0055040469024326194 -0.4413796618487173 0 -0.0024386041876752612 -0.45929620790011488 0 0.0108556224934841 -0.45939092393326791 0 -0.0024386041876752612 -0.45929620790011488 0 0.0108556224934841 -0.45939092393326791 0 0.0041221806730474906 -0.47146052586586129 0 0.0108556224934841 -0.45939092393326791 0 0.01541949717273214 -0.46820261201932811 0 0.0041221806730474906 -0.47146052586586129 0 0.01541949717273214 -0.46820261201932811 0 0.023759163710156059 -0.46304359202346118 0 0.02568241669382219 -0.4728244596895077 0 0.0108556224934841 -0.45939092393326791 0 0.01541949717273214 -0.46820261201932811 0 0.023759163710156059 -0.46304359202346118 0 0.0108556224934841 -0.45939092393326791 0 0.02064694960607983 -0.45367966369166002 0 0.023759163710156059 -0.46304359202346118 0 0.034084988435470941 -0.46468711824016501 0 0.031127838296546841 -0.45125169266239468 0 0.023759163710156059 -0.46304359202346118 0 0.031127838296546841 -0.45125169266239468 0 0.02064694960607983 -0.45367966369166002 0 0.023759163710156059 -0.46304359202346118 0 0.034084988435470941 -0.46468711824016501 0 0.023759163710156059 -0.46304359202346118 0 0.02568241669382219 -0.4728244596895077 0 0.02568241669382219 -0.4728244596895077 0 0.02789557158967142 -0.48387653597202362 0 0.036012691785573363 -0.47586735694800142 0 0.02568241669382219 -0.4728244596895077 0 0.02789557158967142 -0.48387653597202362 0 0.01665933355927933 -0.47804830167259632 0 0.02789557158967142 -0.48387653597202362 0 0.01665933355927933 -0.47804830167259632 0 0.017129619305640761 -0.4901151293287031 0 0.01541949717273214 -0.46820261201932811 0 0.02568241669382219 -0.4728244596895077 0 0.01665933355927933 -0.47804830167259632 0 -0.0019979191529869672 -0.48385241465166939 0 0.01665933355927933 -0.47804830167259632 0 0.0041221806730474906 -0.47146052586586129 0 0.01541949717273214 -0.46820261201932811 0 0.01665933355927933 -0.47804830167259632 0 0.0041221806730474906 -0.47146052586586129 0 -0.0019979191529869672 -0.48385241465166939 0 0.01665933355927933 -0.47804830167259632 0 0.017129619305640761 -0.4901151293287031 0 -0.0019979191529869672 -0.48385241465166939 0 0.0085266972884076378 -0.49858975210088741 0 0.017129619305640761 -0.4901151293287031 0 -0.0053131720197490684 -0.49999999999999262 0 0.0085266972884076378 -0.49858975210088741 0 0.024359556106389849 -0.5 0 -0.0053131720197490684 -0.49999999999999262 0 -0.0019979191529869672 -0.48385241465166939 0 0.0085266972884076378 -0.49858975210088741 0 -0.0019979191529869672 -0.48385241465166939 0 0.0085266972884076378 -0.49858975210088741 0 0.02789557158967142 -0.48387653597202362 0 0.024359556106389849 -0.5 0 0.017129619305640761 -0.4901151293287031 0 0.0085266972884076378 -0.49858975210088741 0 0.024359556106389849 -0.5 0 0.017129619305640761 -0.4901151293287031 0 0.02789557158967142 -0.48387653597202362 0 0.024359556106389849 -0.5 0 0.046264283415908228 -0.48467132678035901 0 0.024359556106389849 -0.5 0 0.046264283415908228 -0.48467132678035901 0 0.054032284232528822 -0.5 0 0.02789557158967142 -0.48387653597202362 0 0.046264283415908228 -0.48467132678035901 0 0.036012691785573363 -0.47586735694800142 0 0.034084988435470941 -0.46468711824016501 0 0.02568241669382219 -0.4728244596895077 0 0.036012691785573363 -0.47586735694800142 0 0.034084988435470941 -0.46468711824016501 0 0.036012691785573363 -0.47586735694800142 0 0.044608940975190199 -0.47077937514179619 0 0.046264283415908228 -0.48467132678035901 0 0.036012691785573363 -0.47586735694800142 0 0.044608940975190199 -0.47077937514179619 0 0.046264283415908228 -0.48467132678035901 0 0.044608940975190199 -0.47077937514179619 0 0.054841796732122507 -0.47436978082777942 0 0.046264283415908228 -0.48467132678035901 0 0.054841796732122507 -0.47436978082777942 0 0.059537914136947083 -0.48495506168494501 0 0.070881390641777661 -0.47521635534610451 0 0.054841796732122507 -0.47436978082777942 0 0.059537914136947083 -0.48495506168494501 0 0.070881390641777661 -0.47521635534610451 0 0.053408813263056222 -0.4660136180719523 0 0.054841796732122507 -0.47436978082777942 0 0.053408813263056222 -0.4660136180719523 0 0.044608940975190199 -0.47077937514179619 0 0.054841796732122507 -0.47436978082777942 0 0.071669815662398245 -0.49051784547048211 0 0.059537914136947083 -0.48495506168494501 0 0.054032284232528822 -0.5 0 0.046264283415908228 -0.48467132678035901 0 0.059537914136947083 -0.48495506168494501 0 0.054032284232528822 -0.5 0 0.089948016747539536 -0.28817053518349123 0 0.068728465420571927 -0.29736508013702051 0 0.07953785894793873 -0.27493690537604337 0 0.089948016747539536 -0.28817053518349123 0 0.085337674789693882 -0.30500443982655151 0 0.068728465420571927 -0.29736508013702051 0 0.089948016747539536 -0.28817053518349123 0 0.085337674789693882 -0.30500443982655151 0 0.10080272731823139 -0.29770989003160991 0 0.085337674789693882 -0.30500443982655151 0 0.068820673163102711 -0.3107169937977291 0 0.082246256383477989 -0.31885683386971858 0 0.085337674789693882 -0.30500443982655151 0 0.068820673163102711 -0.3107169937977291 0 0.068728465420571927 -0.29736508013702051 0 0.068820673163102711 -0.3107169937977291 0 0.068728465420571927 -0.29736508013702051 0 0.055551842160923043 -0.3121106811918315 0 0.068728465420571927 -0.29736508013702051 0 0.065568314197373911 -0.28157608381132909 0 0.07953785894793873 -0.27493690537604337 0 0.065568314197373911 -0.28157608381132909 0 0.07953785894793873 -0.27493690537604337 0 0.062084477725235267 -0.26472731431925428 0 0.062084477725235267 -0.26472731431925428 0 0.054241682640357031 -0.2500722429316084 0 0.072246500754720666 -0.24017959322551 0 0.086481071654017999 -0.25174024010377322 0 0.062084477725235267 -0.26472731431925428 0 0.072246500754720666 -0.24017959322551 0 0.086481071654017999 -0.25174024010377322 0 0.07953785894793873 -0.27493690537604337 0 0.062084477725235267 -0.26472731431925428 0 0.062084477725235267 -0.26472731431925428 0 0.072246500754720666 -0.24017959322551 0 0.086481071654017999 -0.25174024010377322 0 0.07953785894793873 -0.27493690537604337 0 0.086481071654017999 -0.25174024010377322 0 0.07953785894793873 -0.27493690537604337 0 0.096104025072878019 -0.26797497082507937 0 0.089948016747539536 -0.28817053518349123 0 0.07953785894793873 -0.27493690537604337 0 0.096104025072878019 -0.26797497082507937 0 0.089948016747539536 -0.28817053518349123 0 0.096104025072878019 -0.26797497082507937 0 0.10314610824211989 -0.28166896924414508 0 0.096104025072878019 -0.26797497082507937 0 0.1125924761664725 -0.26570131246610151 0 0.10314610824211989 -0.28166896924414508 0 0.086481071654017999 -0.25174024010377322 0 0.096104025072878019 -0.26797497082507937 0 0.1053073964830554 -0.24473787310189779 0 0.096104025072878019 -0.26797497082507937 0 0.1125924761664725 -0.26570131246610151 0 0.1053073964830554 -0.24473787310189779 0 0.1318112753283624 -0.26874923846897819 0 0.1235403929927127 -0.25080405413174311 0 0.1125924761664725 -0.26570131246610151 0 0.1235403929927127 -0.25080405413174311 0 0.1125924761664725 -0.26570131246610151 0 0.1053073964830554 -0.24473787310189779 0 0.12673565886293289 -0.28582870691242168 0 0.1318112753283624 -0.26874923846897819 0 0.1156456588797064 -0.28027276902476539 0 0.1125924761664725 -0.26570131246610151 0 0.1156456588797064 -0.28027276902476539 0 0.10314610824211989 -0.28166896924414508 0 0.1318112753283624 -0.26874923846897819 0 0.1125924761664725 -0.26570131246610151 0 0.1156456588797064 -0.28027276902476539 0 0.12673565886293289 -0.28582870691242168 0 0.1156456588797064 -0.28027276902476539 0 0.1149205088543844 -0.29197849342490312 0 0.12931091595660199 -0.29804756303869218 0 0.12673565886293289 -0.28582870691242168 0 0.1149205088543844 -0.29197849342490312 0 0.1156456588797064 -0.28027276902476539 0 0.1149205088543844 -0.29197849342490312 0 0.10314610824211989 -0.28166896924414508 0 0.1149205088543844 -0.29197849342490312 0 0.10314610824211989 -0.28166896924414508 0 0.10080272731823139 -0.29770989003160991 0 0.089948016747539536 -0.28817053518349123 0 0.10314610824211989 -0.28166896924414508 0 0.10080272731823139 -0.29770989003160991 0 0.10080272731823139 -0.29770989003160991 0 0.11396906838304401 -0.304977440816872 0 0.099537113492452881 -0.31383791571336311 0 0.085337674789693882 -0.30500443982655151 0 0.10080272731823139 -0.29770989003160991 0 0.099537113492452881 -0.31383791571336311 0 0.11396906838304401 -0.304977440816872 0 0.11460732606627751 -0.31743531708844103 0 0.099537113492452881 -0.31383791571336311 0 0.1149205088543844 -0.29197849342490312 0 0.10080272731823139 -0.29770989003160991 0 0.11396906838304401 -0.304977440816872 0 0.12931091595660199 -0.29804756303869218 0 0.11396906838304401 -0.304977440816872 0 0.124635818610316 -0.310855465604223 0 0.12931091595660199 -0.29804756303869218 0 0.1149205088543844 -0.29197849342490312 0 0.11396906838304401 -0.304977440816872 0 0.11396906838304401 -0.304977440816872 0 0.124635818610316 -0.310855465604223 0 0.11460732606627751 -0.31743531708844103 0 0.12853690781901619 -0.3222688167858761 0 0.124635818610316 -0.310855465604223 0 0.11460732606627751 -0.31743531708844103 0 0.11460732606627751 -0.31743531708844103 0 0.1184401256762375 -0.32940784452286698 0 0.1047835098324333 -0.32582351049165942 0 0.12853690781901619 -0.3222688167858761 0 0.11460732606627751 -0.31743531708844103 0 0.1184401256762375 -0.32940784452286698 0 0.1325953537004409 -0.33670687172726721 0 0.1184401256762375 -0.32940784452286698 0 0.1205194657107125 -0.34284153953963431 0 0.1184401256762375 -0.32940784452286698 0 0.1205194657107125 -0.34284153953963431 0 0.1103396665095915 -0.33613995935595548 0 0.1205194657107125 -0.34284153953963431 0 0.1103396665095915 -0.33613995935595548 0 0.1089348957086274 -0.34952341916519108 0 0.1184401256762375 -0.32940784452286698 0 0.1103396665095915 -0.33613995935595548 0 0.1047835098324333 -0.32582351049165942 0 0.1103396665095915 -0.33613995935595548 0 0.098181790464608842 -0.34007064579668073 0 0.1047835098324333 -0.32582351049165942 0 0.1103396665095915 -0.33613995935595548 0 0.098181790464608842 -0.34007064579668073 0 0.1089348957086274 -0.34952341916519108 0 0.098181790464608842 -0.34007064579668073 0 0.1047835098324333 -0.32582351049165942 0 0.091754068491744251 -0.32895056099348707 0 0.099537113492452881 -0.31383791571336311 0 0.1047835098324333 -0.32582351049165942 0 0.091754068491744251 -0.32895056099348707 0 0.11460732606627751 -0.31743531708844103 0 0.099537113492452881 -0.31383791571336311 0 0.1047835098324333 -0.32582351049165942 0 0.121923568163862 -0.38785846599652229 0 0.1219884543921082 -0.36643154325775712 0 0.1077691244240731 -0.36863243914133831 0 0.1219884543921082 -0.36643154325775712 0 0.1191614739021305 -0.35558907964278458 0 0.1077691244240731 -0.36863243914133831 0 0.1191614739021305 -0.35558907964278458 0 0.1089348957086274 -0.34952341916519108 0 0.1077691244240731 -0.36863243914133831 0 0.13341107520377249 -0.35370801109433742 0 0.1219884543921082 -0.36643154325775712 0 0.1191614739021305 -0.35558907964278458 0 0.13341107520377249 -0.35370801109433742 0 0.1205194657107125 -0.34284153953963431 0 0.1191614739021305 -0.35558907964278458 0 0.1205194657107125 -0.34284153953963431 0 0.1191614739021305 -0.35558907964278458 0 0.1089348957086274 -0.34952341916519108 0 0.1089348957086274 -0.34952341916519108 0 0.097637853240648026 -0.3538668515147535 0 0.1077691244240731 -0.36863243914133831 0 0.098181790464608842 -0.34007064579668073 0 0.1089348957086274 -0.34952341916519108 0 0.097637853240648026 -0.3538668515147535 0 0.089740846075616082 -0.37806805751190431 0 0.094059239791701527 -0.36537066416882918 0 0.1077691244240731 -0.36863243914133831 0 0.097637853240648026 -0.3538668515147535 0 0.094059239791701527 -0.36537066416882918 0 0.1077691244240731 -0.36863243914133831 0 0.097637853240648026 -0.3538668515147535 0 0.094059239791701527 -0.36537066416882918 0 0.080532706138950291 -0.36034701443159728 0 0.089740846075616082 -0.37806805751190431 0 0.075877077536241067 -0.37758366821360212 0 0.080532706138950291 -0.36034701443159728 0 0.089740846075616082 -0.37806805751190431 0 0.094059239791701527 -0.36537066416882918 0 0.080532706138950291 -0.36034701443159728 0 0.097637853240648026 -0.3538668515147535 0 0.080532706138950291 -0.36034701443159728 0 0.08447548160390507 -0.34418678202174519 0 0.098181790464608842 -0.34007064579668073 0 0.097637853240648026 -0.3538668515147535 0 0.08447548160390507 -0.34418678202174519 0 0.080532706138950291 -0.36034701443159728 0 0.062882393497746228 -0.36668345528486163 0 0.059217117829334628 -0.33939706823834659 0 0.080532706138950291 -0.36034701443159728 0 0.08447548160390507 -0.34418678202174519 0 0.059217117829334628 -0.33939706823834659 0 0.075877077536241067 -0.37758366821360212 0 0.080532706138950291 -0.36034701443159728 0 0.062882393497746228 -0.36668345528486163 0 0.085337674789693882 -0.30500443982655151 0 0.099537113492452881 -0.31383791571336311 0 0.082246256383477989 -0.31885683386971858 0 0.099537113492452881 -0.31383791571336311 0 0.082246256383477989 -0.31885683386971858 0 0.091754068491744251 -0.32895056099348707 0 0.082246256383477989 -0.31885683386971858 0 0.091754068491744251 -0.32895056099348707 0 0.078089763034606463 -0.33121817413815452 0 0.098181790464608842 -0.34007064579668073 0 0.08447548160390507 -0.34418678202174519 0 0.091754068491744251 -0.32895056099348707 0 0.08447548160390507 -0.34418678202174519 0 0.091754068491744251 -0.32895056099348707 0 0.078089763034606463 -0.33121817413815452 0 0.08447548160390507 -0.34418678202174519 0 0.078089763034606463 -0.33121817413815452 0 0.059217117829334628 -0.33939706823834659 0 0.078089763034606463 -0.33121817413815452 0 0.069558586807910064 -0.32243392457262599 0 0.059217117829334628 -0.33939706823834659 0 0.082246256383477989 -0.31885683386971858 0 0.078089763034606463 -0.33121817413815452 0 0.069558586807910064 -0.32243392457262599 0 0.068820673163102711 -0.3107169937977291 0 0.082246256383477989 -0.31885683386971858 0 0.069558586807910064 -0.32243392457262599 0 0.068820673163102711 -0.3107169937977291 0 0.069558586807910064 -0.32243392457262599 0 0.055551842160923043 -0.3121106811918315 0 0.069558586807910064 -0.32243392457262599 0 0.059217117829334628 -0.33939706823834659 0 0.055551842160923043 -0.3121106811918315 0 0.045743590045567793 -0.32984891254592158 0 0.041760431666264253 -0.31382275650674252 0 0.055551842160923043 -0.3121106811918315 0 0.059217117829334628 -0.33939706823834659 0 0.045743590045567793 -0.32984891254592158 0 0.055551842160923043 -0.3121106811918315 0 0.059217117829334628 -0.33939706823834659 0 0.055551842160923043 -0.3121106811918315 0 0.059217117829334628 -0.33939706823834659 0 0.045743590045567793 -0.32984891254592158 0 0.046544783832335332 -0.3540938704835016 0 0.031598408636778742 -0.33837047760048661 0 0.045743590045567793 -0.32984891254592158 0 0.046544783832335332 -0.3540938704835016 0 0.031598408636778742 -0.33837047760048661 0 0.041760431666264253 -0.31382275650674252 0 0.031598408636778742 -0.33837047760048661 0 0.041760431666264253 -0.31382275650674252 0 0.025776070591736901 -0.32164596577381949 0 0.041760431666264253 -0.31382275650674252 0 0.025776070591736901 -0.32164596577381949 0 0.027642883844356019 -0.30974087999050037 0 0.031598408636778742 -0.33837047760048661 0 0.045743590045567793 -0.32984891254592158 0 0.041760431666264253 -0.31382275650674252 0 0.051373635422705982 -0.38397939522159052 0 0.062882393497746228 -0.36668345528486163 0 0.046544783832335332 -0.3540938704835016 0 0.062882393497746228 -0.36668345528486163 0 0.059217117829334628 -0.33939706823834659 0 0.046544783832335332 -0.3540938704835016 0 0.062882393497746228 -0.36668345528486163 0 0.059217117829334628 -0.33939706823834659 0 0.031598408636778742 -0.33837047760048661 0 0.046544783832335332 -0.3540938704835016 0 0.028453557561878642 -0.36628391400980298 0 0.051373635422705982 -0.38397939522159052 0 0.046544783832335332 -0.3540938704835016 0 0.028453557561878642 -0.36628391400980298 0 0.019075463084374841 -0.37650112710475792 0 0.028453557561878642 -0.36628391400980298 0 0.011312890742283281 -0.36659847141733642 0 0.028453557561878642 -0.36628391400980298 0 0.0055334797010514053 -0.34858843279801549 0 0.031598408636778742 -0.33837047760048661 0 0.028453557561878642 -0.36628391400980298 0 0.0055334797010514053 -0.34858843279801549 0 -0.00027291223016019873 -0.36200599274618178 0 0.0055334797010514053 -0.34858843279801549 0 0.011312890742283281 -0.36659847141733642 0 0.028453557561878642 -0.36628391400980298 0 0.0055334797010514053 -0.34858843279801549 0 0.011312890742283281 -0.36659847141733642 0 -0.00027291223016019873 -0.36200599274618178 0 0.0055892424953708567 -0.37709244708659828 0 0.011312890742283281 -0.36659847141733642 0 0.019075463084374841 -0.37650112710475792 0 0.0055892424953708567 -0.37709244708659828 0 0.011312890742283281 -0.36659847141733642 0 0.025776070591736901 -0.32164596577381949 0 0.01239237603479452 -0.330586766104083 0 0.01548625277649098 -0.31570894866728549 0 0.025776070591736901 -0.32164596577381949 0 0.01548625277649098 -0.31570894866728549 0 0.027642883844356019 -0.30974087999050037 0 0.031598408636778742 -0.33837047760048661 0 0.0055334797010514053 -0.34858843279801549 0 0.01239237603479452 -0.330586766104083 0 0.031598408636778742 -0.33837047760048661 0 0.025776070591736901 -0.32164596577381949 0 0.01239237603479452 -0.330586766104083 0 -0.0051984166299227641 -0.33201951728844858 0 0.0055334797010514053 -0.34858843279801549 0 0.01239237603479452 -0.330586766104083 0 -0.0051984166299227641 -0.33201951728844858 0 0.01239237603479452 -0.330586766104083 0 0.0015534473510252071 -0.31897980324349212 0 0.01239237603479452 -0.330586766104083 0 0.01548625277649098 -0.31570894866728549 0 0.0015534473510252071 -0.31897980324349212 0 0.01548625277649098 -0.31570894866728549 0 0.0015534473510252071 -0.31897980324349212 0 0.0041645049102895801 -0.30504752886096342 0 0.01548625277649098 -0.31570894866728549 0 0.0041645049102895801 -0.30504752886096342 0 0.016494252388617101 -0.2998560433538473 0 0.0041645049102895801 -0.30504752886096342 0 0.0047068597912733644 -0.28758019441823612 0 0.016494252388617101 -0.2998560433538473 0 -0.008621258408915651 -0.29373514309621218 0 0.0041645049102895801 -0.30504752886096342 0 0.0047068597912733644 -0.28758019441823612 0 0.0047068597912733644 -0.28758019441823612 0 0.019478085554620779 -0.28418276294325101 0 0.016494252388617101 -0.2998560433538473 0 0.019478085554620779 -0.28418276294325101 0 0.016494252388617101 -0.2998560433538473 0 0.027486927454671899 -0.29687594524284749 0 0.019478085554620779 -0.28418276294325101 0 0.027486927454671899 -0.29687594524284749 0 0.034384767786879662 -0.28449487762532849 0 0.01548625277649098 -0.31570894866728549 0 0.016494252388617101 -0.2998560433538473 0 0.027642883844356019 -0.30974087999050037 0 0.027486927454671899 -0.29687594524284749 0 0.027642883844356019 -0.30974087999050037 0 0.036639493089584307 -0.29884189895568353 0 0.016494252388617101 -0.2998560433538473 0 0.027486927454671899 -0.29687594524284749 0 0.027642883844356019 -0.30974087999050037 0 0.041760431666264253 -0.31382275650674252 0 0.027642883844356019 -0.30974087999050037 0 0.036639493089584307 -0.29884189895568353 0 0.041760431666264253 -0.31382275650674252 0 0.036639493089584307 -0.29884189895568353 0 0.051922454695749763 -0.28927503541299843 0 0.041760431666264253 -0.31382275650674252 0 0.051922454695749763 -0.28927503541299843 0 0.027486927454671899 -0.29687594524284749 0 0.036639493089584307 -0.29884189895568353 0 0.034384767786879662 -0.28449487762532849 0 0.036639493089584307 -0.29884189895568353 0 0.034384767786879662 -0.28449487762532849 0 0.051922454695749763 -0.28927503541299843 0 0.068728465420571927 -0.29736508013702051 0 0.065568314197373911 -0.28157608381132909 0 0.051922454695749763 -0.28927503541299843 0 0.068728465420571927 -0.29736508013702051 0 0.051922454695749763 -0.28927503541299843 0 0.055551842160923043 -0.3121106811918315 0 0.041760431666264253 -0.31382275650674252 0 0.051922454695749763 -0.28927503541299843 0 0.055551842160923043 -0.3121106811918315 0 0.062084477725235267 -0.26472731431925428 0 0.054241682640357031 -0.2500722429316084 0 0.043901719389543778 -0.26661622400854568 0 0.051922454695749763 -0.28927503541299843 0 0.062084477725235267 -0.26472731431925428 0 0.043901719389543778 -0.26661622400854568 0 0.051922454695749763 -0.28927503541299843 0 0.062084477725235267 -0.26472731431925428 0 0.065568314197373911 -0.28157608381132909 0 0.051922454695749763 -0.28927503541299843 0 0.062084477725235267 -0.26472731431925428 0 0.034384767786879662 -0.28449487762532849 0 0.051922454695749763 -0.28927503541299843 0 0.043901719389543778 -0.26661622400854568 0 0.034384767786879662 -0.28449487762532849 0 0.043901719389543778 -0.26661622400854568 0 0.02638004448666249 -0.2668277825766473 0 0.043901719389543778 -0.26661622400854568 0 0.02638004448666249 -0.2668277825766473 0 0.032201673414595622 -0.24620467228155751 0 0.054241682640357031 -0.2500722429316084 0 0.043901719389543778 -0.26661622400854568 0 0.032201673414595622 -0.24620467228155751 0 0.02638004448666249 -0.2668277825766473 0 0.01417439784623907 -0.25311575030876338 0 0.032201673414595622 -0.24620467228155751 0 0.019478085554620779 -0.28418276294325101 0 0.02638004448666249 -0.2668277825766473 0 0.0041914794392815292 -0.26734073968512723 0 0.019478085554620779 -0.28418276294325101 0 0.034384767786879662 -0.28449487762532849 0 0.02638004448666249 -0.2668277825766473 0 0.0047068597912733644 -0.28758019441823612 0 0.019478085554620779 -0.28418276294325101 0 0.0041914794392815292 -0.26734073968512723 0 0.02638004448666249 -0.2668277825766473 0 0.0041914794392815292 -0.26734073968512723 0 0.01417439784623907 -0.25311575030876338 0 -0.01033888325303035 -0.24839992844066119 0 0.0041914794392815292 -0.26734073968512723 0 0.01417439784623907 -0.25311575030876338 0 -0.01033888325303035 -0.24839992844066119 0 0.01417439784623907 -0.25311575030876338 0 0.013609078491905419 -0.2337533461093966 0 -0.01033888325303035 -0.24839992844066119 0 0.013609078491905419 -0.2337533461093966 0 0.011016998157174621 -0.22790989670423789 0 -0.01033888325303035 -0.24839992844066119 0 0.011016998157174621 -0.22790989670423789 0 -0.01033888325303035 -0.24839992844066119 0 0.013609078491905419 -0.2337533461093966 0 0.013609078491905419 -0.2337533461093966 0 0.011016998157174621 -0.22790989670423789 0 0.037557040236841227 -0.21910676377813201 0 0.013609078491905419 -0.2337533461093966 0 0.032201673414595622 -0.24620467228155751 0 0.037557040236841227 -0.21910676377813201 0 0.013609078491905419 -0.2337533461093966 0 0.037557040236841227 -0.21910676377813201 0 0.01417439784623907 -0.25311575030876338 0 0.013609078491905419 -0.2337533461093966 0 0.032201673414595622 -0.24620467228155751 0 0.01225904351417335 -0.19182303390126429 0 0.002343267580486873 -0.21200518235404081 0 0.02302064195416598 -0.19628897076208859 0 0.01225904351417335 -0.19182303390126429 0 0.0001646438693213819 -0.19117858410377789 0 0.002343267580486873 -0.21200518235404081 0 0.002343267580486873 -0.21200518235404081 0 0.017174997478826941 -0.21089203430180911 0 0.02302064195416598 -0.19628897076208859 0 0.002343267580486873 -0.21200518235404081 0 0.02302064195416598 -0.19628897076208859 0 0.011016998157174621 -0.22790989670423789 0 0.002343267580486873 -0.21200518235404081 0 0.017174997478826941 -0.21089203430180911 0 0.011016998157174621 -0.22790989670423789 0 0.017174997478826941 -0.21089203430180911 0 0.032319082223480289 -0.20736408738686929 0 0.011016998157174621 -0.22790989670423789 0 0.032319082223480289 -0.20736408738686929 0 0.011016998157174621 -0.22790989670423789 0 0.032319082223480289 -0.20736408738686929 0 0.037557040236841227 -0.21910676377813201 0 0.017174997478826941 -0.21089203430180911 0 0.02302064195416598 -0.19628897076208859 0 0.032319082223480289 -0.20736408738686929 0 0.01225904351417335 -0.19182303390126429 0 0.02302064195416598 -0.19628897076208859 0 0.023617490938180968 -0.1806209803468373 0 0.02302064195416598 -0.19628897076208859 0 0.038164726698819353 -0.19276102384714869 0 0.032319082223480289 -0.20736408738686929 0 0.02302064195416598 -0.19628897076208859 0 0.043698016327845132 -0.1805727591701364 0 0.032319082223480289 -0.20736408738686929 0 0.053621166289785999 -0.1868182780695006 0 0.038164726698819353 -0.19276102384714869 0 0.032319082223480289 -0.20736408738686929 0 0.053621166289785999 -0.1868182780695006 0 0.02302064195416598 -0.19628897076208859 0 0.038164726698819353 -0.19276102384714869 0 0.043698016327845132 -0.1805727591701364 0 0.032319082223480289 -0.20736408738686929 0 0.061505001981776962 -0.20446018144686731 0 0.037557040236841227 -0.21910676377813201 0 0.061505001981776962 -0.20446018144686731 0 0.037557040236841227 -0.21910676377813201 0 0.061844126959413312 -0.22294644077487191 0 0.061505001981776962 -0.20446018144686731 0 0.037557040236841227 -0.21910676377813201 0 0.061505001981776962 -0.20446018144686731 0 0.068274617276244703 -0.19085986285981549 0 0.053621166289785999 -0.1868182780695006 0 0.032319082223480289 -0.20736408738686929 0 0.061505001981776962 -0.20446018144686731 0 0.053621166289785999 -0.1868182780695006 0 0.054241682640357031 -0.2500722429316084 0 0.032201673414595622 -0.24620467228155751 0 0.046450240031200761 -0.234861150215184 0 0.032201673414595622 -0.24620467228155751 0 0.046450240031200761 -0.234861150215184 0 0.037557040236841227 -0.21910676377813201 0 0.046450240031200761 -0.234861150215184 0 0.037557040236841227 -0.21910676377813201 0 0.061844126959413312 -0.22294644077487191 0 0.046450240031200761 -0.234861150215184 0 0.061844126959413312 -0.22294644077487191 0 0.058942928022831118 -0.2372977151254638 0 0.054241682640357031 -0.2500722429316084 0 0.058942928022831118 -0.2372977151254638 0 0.072246500754720666 -0.24017959322551 0 0.054241682640357031 -0.2500722429316084 0 0.046450240031200761 -0.234861150215184 0 0.058942928022831118 -0.2372977151254638 0 0.054241682640357031 -0.2500722429316084 0 0.072246500754720666 -0.24017959322551 0 0.072246500754720666 -0.24017959322551 0 0.093424284360094978 -0.22854357483150239 0 0.086481071654017999 -0.25174024010377322 0 0.093424284360094978 -0.22854357483150239 0 0.086481071654017999 -0.25174024010377322 0 0.072246500754720666 -0.24017959322551 0 0.093424284360094978 -0.22854357483150239 0 0.072246500754720666 -0.24017959322551 0 0.08083583633152297 -0.2194309082925861 0 0.093424284360094978 -0.22854357483150239 0 0.08083583633152297 -0.2194309082925861 0 0.093424284360094978 -0.22854357483150239 0 0.091274474378954029 -0.21212800057291781 0 0.061844126959413312 -0.22294644077487191 0 0.058942928022831118 -0.2372977151254638 0 0.072246500754720666 -0.24017959322551 0 0.061844126959413312 -0.22294644077487191 0 0.072246500754720666 -0.24017959322551 0 0.08083583633152297 -0.2194309082925861 0 0.072246500754720666 -0.24017959322551 0 0.08083583633152297 -0.2194309082925861 0 0.061505001981776962 -0.20446018144686731 0 0.061844126959413312 -0.22294644077487191 0 0.075812620181550203 -0.207066670597918 0 0.061844126959413312 -0.22294644077487191 0 0.08083583633152297 -0.2194309082925861 0 0.075812620181550203 -0.207066670597918 0 0.061505001981776962 -0.20446018144686731 0 0.085452963726712655 -0.1898135991156028 0 0.061505001981776962 -0.20446018144686731 0 0.075812620181550203 -0.207066670597918 0 0.085452963726712655 -0.1898135991156028 0 0.068274617276244703 -0.19085986285981549 0 0.085452963726712655 -0.1898135991156028 0 0.072519337106703177 -0.1823473928072912 0 0.061505001981776962 -0.20446018144686731 0 0.068274617276244703 -0.19085986285981549 0 0.085452963726712655 -0.1898135991156028 0 0.075812620181550203 -0.207066670597918 0 0.085452963726712655 -0.1898135991156028 0 0.089425171908325135 -0.1986822233596621 0 0.085452963726712655 -0.1898135991156028 0 0.089425171908325135 -0.1986822233596621 0 0.098300286926661234 -0.18938323073924271 0 0.08083583633152297 -0.2194309082925861 0 0.089425171908325135 -0.1986822233596621 0 0.08083583633152297 -0.2194309082925861 0 0.089425171908325135 -0.1986822233596621 0 0.091274474378954029 -0.21212800057291781 0 0.08083583633152297 -0.2194309082925861 0 0.075812620181550203 -0.207066670597918 0 0.089425171908325135 -0.1986822233596621 0 0.093424284360094978 -0.22854357483150239 0 0.10141260491587301 -0.20185529580792069 0 0.11005579050853651 -0.21940548394014611 0 0.093424284360094978 -0.22854357483150239 0 0.10141260491587301 -0.20185529580792069 0 0.093424284360094978 -0.22854357483150239 0 0.091274474378954029 -0.21212800057291781 0 0.10141260491587301 -0.20185529580792069 0 0.10141260491587301 -0.20185529580792069 0 0.11404096403828309 -0.206954698076633 0 0.11005579050853651 -0.21940548394014611 0 0.089425171908325135 -0.1986822233596621 0 0.091274474378954029 -0.21212800057291781 0 0.10141260491587301 -0.20185529580792069 0 0.10141260491587301 -0.20185529580792069 0 0.10940092547164861 -0.17516701678433819 0 0.098300286926661234 -0.18938323073924271 0 0.10141260491587301 -0.20185529580792069 0 0.10940092547164861 -0.17516701678433819 0 0.089425171908325135 -0.1986822233596621 0 0.098300286926661234 -0.18938323073924271 0 0.10141260491587301 -0.20185529580792069 0 0.10141260491587301 -0.20185529580792069 0 0.1210496646125339 -0.19591921924960681 0 0.11404096403828309 -0.206954698076633 0 0.1210496646125339 -0.19591921924960681 0 0.1202266225656085 -0.18001114107113489 0 0.1302666205825575 -0.19648169927245429 0 0.10141260491587301 -0.20185529580792069 0 0.1210496646125339 -0.19591921924960681 0 0.1154120325680897 -0.18157104545042221 0 0.1210496646125339 -0.19591921924960681 0 0.1266872966569787 -0.21026739304879119 0 0.1210496646125339 -0.19591921924960681 0 0.1154120325680897 -0.18157104545042221 0 0.11005579050853651 -0.21940548394014611 0 0.1266872966569787 -0.21026739304879119 0 0.11404096403828309 -0.206954698076633 0 0.11005579050853651 -0.21940548394014611 0 0.1266872966569787 -0.21026739304879119 0 0.1231550316035696 -0.224874595727343 0 0.11005579050853651 -0.21940548394014611 0 0.1266872966569787 -0.21026739304879119 0 0.1210496646125339 -0.19591921924960681 0 0.11404096403828309 -0.206954698076633 0 0.1266872966569787 -0.21026739304879119 0 0.1231550316035696 -0.224874595727343 0 0.11005579050853651 -0.21940548394014611 0 0.1192412369078434 -0.23423845960763709 0 0.11005579050853651 -0.21940548394014611 0 0.1192412369078434 -0.23423845960763709 0 0.10700717706488259 -0.2317313478702959 0 0.1235403929927127 -0.25080405413174311 0 0.1192412369078434 -0.23423845960763709 0 0.1053073964830554 -0.24473787310189779 0 0.1192412369078434 -0.23423845960763709 0 0.1053073964830554 -0.24473787310189779 0 0.10700717706488259 -0.2317313478702959 0 0.086481071654017999 -0.25174024010377322 0 0.093424284360094978 -0.22854357483150239 0 0.1053073964830554 -0.24473787310189779 0 0.093424284360094978 -0.22854357483150239 0 0.1053073964830554 -0.24473787310189779 0 0.10700717706488259 -0.2317313478702959 0 0.093424284360094978 -0.22854357483150239 0 0.11005579050853651 -0.21940548394014611 0 0.10700717706488259 -0.2317313478702959 0 0.093424284360094978 -0.22854357483150239 0 0.11005579050853651 -0.21940548394014611 0 0.1067449575917185 -0.15469897298948429 0 0.092750102970395779 -0.1484376919333269 0 0.09037391513895747 -0.1393989809509526 0 0.1067449575917185 -0.15469897298948429 0 0.095770409673550855 -0.14093069873648501 0 0.09037391513895747 -0.1393989809509526 0 0.095770409673550855 -0.14093069873648501 0 0.1148396993936069 -0.15699654966778509 0 0.1067449575917185 -0.15469897298948429 0 0.09037391513895747 -0.1393989809509526 0 0.1090807692054586 -0.14426082085945419 0 0.095770409673550855 -0.14093069873648501 0 0.1148396993936069 -0.15699654966778509 0 0.1067449575917185 -0.15469897298948429 0 0.095770409673550855 -0.14093069873648501 0 0.1148396993936069 -0.15699654966778509 0 0.1090807692054586 -0.14426082085945419 0 0.095770409673550855 -0.14093069873648501 0 0.1041480010420365 -0.13846411352857449 0 0.1067449575917185 -0.15469897298948429 0 0.093772123573964652 -0.15494154364815399 0 0.092750102970395779 -0.1484376919333269 0 0.095770409673550855 -0.14093069873648501 0 0.098028519818439394 -0.13627488735955151 0 0.1041480010420365 -0.13846411352857449 0 0.095770409673550855 -0.14093069873648501 0 0.098028519818439394 -0.13627488735955151 0 0.092626536602096216 -0.13324867386632039 0 0.098028519818439394 -0.13627488735955151 0 0.1000628620735375 -0.1322916009087616 0 0.092626536602096216 -0.13324867386632039 0 0.098028519818439394 -0.13627488735955151 0 0.1000628620735375 -0.1322916009087616 0 0.1041480010420365 -0.13846411352857449 0 0.095770217179535225 -0.12659321449591651 0 0.1000628620735375 -0.1322916009087616 0 0.092626536602096216 -0.13324867386632039 0 0.095770217179535225 -0.12659321449591651 0 0.1000628620735375 -0.1322916009087616 0 0.10248508626621911 -0.12631855692969959 0 0.10248508626621911 -0.12631855692969959 0 0.1075468035089544 -0.1315667879918242 0 0.1113180908815674 -0.12244927878767239 0 0.1000628620735375 -0.1322916009087616 0 0.10248508626621911 -0.12631855692969959 0 0.1075468035089544 -0.1315667879918242 0 0.1000628620735375 -0.1322916009087616 0 0.1075468035089544 -0.1315667879918242 0 0.1041480010420365 -0.13846411352857449 0 0.1075468035089544 -0.1315667879918242 0 0.1041480010420365 -0.13846411352857449 0 0.1112045350756317 -0.13839584566596089 0 0.1090807692054586 -0.14426082085945419 0 0.1041480010420365 -0.13846411352857449 0 0.1112045350756317 -0.13839584566596089 0 0.1112045350756317 -0.13839584566596089 0 0.1154038368498862 -0.1336132610476175 0 0.118894760335315 -0.14344894637438951 0 0.1075468035089544 -0.1315667879918242 0 0.1112045350756317 -0.13839584566596089 0 0.1154038368498862 -0.1336132610476175 0 0.1075468035089544 -0.1315667879918242 0 0.1154038368498862 -0.1336132610476175 0 0.1113180908815674 -0.12244927878767239 0 0.1154038368498862 -0.1336132610476175 0 0.12350217315272349 -0.12920401348410521 0 0.1113180908815674 -0.12244927878767239 0 0.12350217315272349 -0.12920401348410521 0 0.118894760335315 -0.14344894637438951 0 0.1314797621108208 -0.14195694301318171 0 0.1154038368498862 -0.1336132610476175 0 0.12350217315272349 -0.12920401348410521 0 0.118894760335315 -0.14344894637438951 0 0.118894760335315 -0.14344894637438951 0 0.1222450118071048 -0.15183242266510871 0 0.1314797621108208 -0.14195694301318171 0 0.1090807692054586 -0.14426082085945419 0 0.118894760335315 -0.14344894637438951 0 0.1148396993936069 -0.15699654966778509 0 0.1090807692054586 -0.14426082085945419 0 0.1112045350756317 -0.13839584566596089 0 0.118894760335315 -0.14344894637438951 0 0.118894760335315 -0.14344894637438951 0 0.1148396993936069 -0.15699654966778509 0 0.118894760335315 -0.14344894637438951 0 0.1222450118071048 -0.15183242266510871 0 0.1148396993936069 -0.15699654966778509 0 0.12269579635467059 -0.16703586879580859 0 0.1131672817698047 -0.16258395040816639 0 0.1359906672376926 -0.15890472080727919 0 0.11841267312954661 -0.16000677523285189 0 0.1131672817698047 -0.16258395040816639 0 0.1359906672376926 -0.15890472080727919 0 0.1131672817698047 -0.16258395040816639 0 0.1359906672376926 -0.15890472080727919 0 0.1222450118071048 -0.15183242266510871 0 0.11841267312954661 -0.16000677523285189 0 0.1148396993936069 -0.15699654966778509 0 0.12269579635467059 -0.16703586879580859 0 0.10940092547164861 -0.17516701678433819 0 0.1131672817698047 -0.16258395040816639 0 0.10940092547164861 -0.17516701678433819 0 0.12269579635467059 -0.16703586879580859 0 0.1131672817698047 -0.16258395040816639 0 0.10940092547164861 -0.17516701678433819 0 0.1067449575917185 -0.15469897298948429 0 0.1131672817698047 -0.16258395040816639 0 0.1148396993936069 -0.15699654966778509 0 0.11841267312954661 -0.16000677523285189 0 0.1131672817698047 -0.16258395040816639 0 0.1148396993936069 -0.15699654966778509 0 0.1131672817698047 -0.16258395040816639 0 0.1148396993936069 -0.15699654966778509 0 0.11841267312954661 -0.16000677523285189 0 0.1148396993936069 -0.15699654966778509 0 0.1210496646125339 -0.19591921924960681 0 0.1202266225656085 -0.18001114107113489 0 0.1154120325680897 -0.18157104545042221 0 0.12269579635467059 -0.16703586879580859 0 0.1202266225656085 -0.18001114107113489 0 0.1285317376946517 -0.17445877366848009 0 0.12269579635467059 -0.16703586879580859 0 0.1202266225656085 -0.18001114107113489 0 0.10940092547164861 -0.17516701678433819 0 0.1202266225656085 -0.18001114107113489 0 0.1154120325680897 -0.18157104545042221 0 0.10940092547164861 -0.17516701678433819 0 0.085452963726712655 -0.1898135991156028 0 0.098300286926661234 -0.18938323073924271 0 0.10940092547164861 -0.17516701678433819 0 0.10141260491587301 -0.20185529580792069 0 0.1154120325680897 -0.18157104545042221 0 0.10940092547164861 -0.17516701678433819 0 0.085452963726712655 -0.1898135991156028 0 0.10940092547164861 -0.17516701678433819 0 0.085452963726712655 -0.1898135991156028 0 0.10940092547164861 -0.17516701678433819 0 0.094275720387706388 -0.1713959250114942 0 0.1131672817698047 -0.16258395040816639 0 0.102779008957923 -0.1646614744987277 0 0.1067449575917185 -0.15469897298948429 0 0.102779008957923 -0.1646614744987277 0 0.096913993649553651 -0.16157532819604339 0 0.1067449575917185 -0.15469897298948429 0 0.1131672817698047 -0.16258395040816639 0 0.102779008957923 -0.1646614744987277 0 0.10940092547164861 -0.17516701678433819 0 0.102779008957923 -0.1646614744987277 0 0.094275720387706388 -0.1713959250114942 0 0.1131672817698047 -0.16258395040816639 0 0.10940092547164861 -0.17516701678433819 0 0.102779008957923 -0.1646614744987277 0 0.102779008957923 -0.1646614744987277 0 0.094275720387706388 -0.1713959250114942 0 0.096913993649553651 -0.16157532819604339 0 0.1067449575917185 -0.15469897298948429 0 0.096913993649553651 -0.16157532819604339 0 0.093772123573964652 -0.15494154364815399 0 0.096913993649553651 -0.16157532819604339 0 0.088700218939376199 -0.16285756907052959 0 0.093772123573964652 -0.15494154364815399 0 0.088700218939376199 -0.16285756907052959 0 0.074923250356091708 -0.166272468752132 0 0.085052765075203374 -0.14914033598623211 0 0.094275720387706388 -0.1713959250114942 0 0.088700218939376199 -0.16285756907052959 0 0.083258242182484649 -0.17463998452281021 0 0.094275720387706388 -0.1713959250114942 0 0.096913993649553651 -0.16157532819604339 0 0.088700218939376199 -0.16285756907052959 0 0.088700218939376199 -0.16285756907052959 0 0.083258242182484649 -0.17463998452281021 0 0.074923250356091708 -0.166272468752132 0 0.085452963726712655 -0.1898135991156028 0 0.094275720387706388 -0.1713959250114942 0 0.083258242182484649 -0.17463998452281021 0 0.085452963726712655 -0.1898135991156028 0 0.083258242182484649 -0.17463998452281021 0 0.072519337106703177 -0.1823473928072912 0 0.074923250356091708 -0.166272468752132 0 0.064375390701524246 -0.1648565475781843 0 0.053621166289785999 -0.1868182780695006 0 0.072519337106703177 -0.1823473928072912 0 0.074923250356091708 -0.166272468752132 0 0.053621166289785999 -0.1868182780695006 0 0.074923250356091708 -0.166272468752132 0 0.053621166289785999 -0.1868182780695006 0 0.083258242182484649 -0.17463998452281021 0 0.072519337106703177 -0.1823473928072912 0 0.074923250356091708 -0.166272468752132 0 0.068274617276244703 -0.19085986285981549 0 0.072519337106703177 -0.1823473928072912 0 0.053621166289785999 -0.1868182780695006 0 0.074923250356091708 -0.166272468752132 0 0.064375390701524246 -0.1648565475781843 0 0.085052765075203374 -0.14914033598623211 0 0.064375390701524246 -0.1648565475781843 0 0.085052765075203374 -0.14914033598623211 0 0.064375390701524246 -0.1648565475781843 0 0.073503912636088395 -0.14730220973917249 0 0.085052765075203374 -0.14914033598623211 0 0.064375390701524246 -0.1648565475781843 0 0.063956937022219343 -0.14860684421379439 0 0.073503912636088395 -0.14730220973917249 0 0.063956937022219343 -0.14860684421379439 0 0.068156532680856335 -0.14101316913517559 0 0.073503912636088395 -0.14730220973917249 0 0.063956937022219343 -0.14860684421379439 0 0.068156532680856335 -0.14101316913517559 0 0.058652627944754628 -0.13848568659584981 0 0.068156532680856335 -0.14101316913517559 0 0.073503912636088395 -0.14730220973917249 0 0.076430629666592559 -0.13847335462763591 0 0.073503912636088395 -0.14730220973917249 0 0.08263359519779534 -0.14366470147916091 0 0.076430629666592559 -0.13847335462763591 0 0.073503912636088395 -0.14730220973917249 0 0.085052765075203374 -0.14914033598623211 0 0.08263359519779534 -0.14366470147916091 0 0.085052765075203374 -0.14914033598623211 0 0.08263359519779534 -0.14366470147916091 0 0.08770259459558799 -0.14516042758741809 0 0.08770259459558799 -0.14516042758741809 0 0.092750102970395779 -0.1484376919333269 0 0.09037391513895747 -0.1393989809509526 0 0.085052765075203374 -0.14914033598623211 0 0.08770259459558799 -0.14516042758741809 0 0.092750102970395779 -0.1484376919333269 0 0.08263359519779534 -0.14366470147916091 0 0.08770259459558799 -0.14516042758741809 0 0.09037391513895747 -0.1393989809509526 0 0.085052765075203374 -0.14914033598623211 0 0.093772123573964652 -0.15494154364815399 0 0.092750102970395779 -0.1484376919333269 0 0.088700218939376199 -0.16285756907052959 0 0.085052765075203374 -0.14914033598623211 0 0.093772123573964652 -0.15494154364815399 0 0.095770409673550855 -0.14093069873648501 0 0.07670111995349313 -0.1248648478051871 0 0.088854190835867736 -0.12811052249704019 0 0.092626536602096216 -0.13324867386632039 0 0.07670111995349313 -0.1248648478051871 0 0.095770409673550855 -0.14093069873648501 0 0.092626536602096216 -0.13324867386632039 0 0.07670111995349313 -0.1248648478051871 0 0.09037391513895747 -0.1393989809509526 0 0.077226068161595232 -0.13114982955259269 0 0.074610726307568487 -0.13364441304963759 0 0.09037391513895747 -0.1393989809509526 0 0.076430629666592559 -0.13847335462763591 0 0.074610726307568487 -0.13364441304963759 0 0.09037391513895747 -0.1393989809509526 0 0.074002872686196444 -0.1240989889124209 0 0.09037391513895747 -0.1393989809509526 0 0.07670111995349313 -0.1248648478051871 0 0.074002872686196444 -0.1240989889124209 0 0.09037391513895747 -0.1393989809509526 0 0.077226068161595232 -0.13114982955259269 0 0.074002872686196444 -0.1240989889124209 0 0.095770409673550855 -0.14093069873648501 0 0.09037391513895747 -0.1393989809509526 0 0.07670111995349313 -0.1248648478051871 0 0.095770217179535225 -0.12659321449591651 0 0.088854190835867736 -0.12811052249704019 0 0.091628157067314378 -0.12173738473915161 0 0.095770217179535225 -0.12659321449591651 0 0.088854190835867736 -0.12811052249704019 0 0.092626536602096216 -0.13324867386632039 0 0.08263359519779534 -0.14366470147916091 0 0.09037391513895747 -0.1393989809509526 0 0.076430629666592559 -0.13847335462763591 0 0.088854190835867736 -0.12811052249704019 0 0.085672109885504569 -0.1229273757168111 0 0.07670111995349313 -0.1248648478051871 0 0.077226068161595232 -0.13114982955259269 0 0.074610726307568487 -0.13364441304963759 0 0.069916758513658542 -0.12745693529735999 0 0.077226068161595232 -0.13114982955259269 0 0.069916758513658542 -0.12745693529735999 0 0.074002872686196444 -0.1240989889124209 0 0.074610726307568487 -0.13364441304963759 0 0.071057161257459839 -0.1363031978012183 0 0.066341268773920589 -0.1325275741740751 0 0.068156532680856335 -0.14101316913517559 0 0.076430629666592559 -0.13847335462763591 0 0.071057161257459839 -0.1363031978012183 0 0.076430629666592559 -0.13847335462763591 0 0.074610726307568487 -0.13364441304963759 0 0.071057161257459839 -0.1363031978012183 0 0.068156532680856335 -0.14101316913517559 0 0.071057161257459839 -0.1363031978012183 0 0.066341268773920589 -0.1325275741740751 0 0.068156532680856335 -0.14101316913517559 0 0.066341268773920589 -0.1325275741740751 0 0.058652627944754628 -0.13848568659584981 0 0.069916758513658542 -0.12745693529735999 0 0.065817130284251665 -0.12517098826313899 0 0.074002872686196444 -0.1240989889124209 0 0.074610726307568487 -0.13364441304963759 0 0.069916758513658542 -0.12745693529735999 0 0.066341268773920589 -0.1325275741740751 0 0.066341268773920589 -0.1325275741740751 0 0.065817130284251665 -0.12517098826313899 0 0.058487546591621337 -0.12649527970177071 0 0.069916758513658542 -0.12745693529735999 0 0.066341268773920589 -0.1325275741740751 0 0.065817130284251665 -0.12517098826313899 0 0.066341268773920589 -0.1325275741740751 0 0.058487546591621337 -0.12649527970177071 0 0.058652627944754628 -0.13848568659584981 0 0.058487546591621337 -0.12649527970177071 0 0.048012534033235348 -0.13140381939691301 0 0.058652627944754628 -0.13848568659584981 0 0.058487546591621337 -0.12649527970177071 0 0.048012534033235348 -0.13140381939691301 0 0.052277989518930673 -0.11900033775938509 0 0.048012534033235348 -0.13140381939691301 0 0.058652627944754628 -0.13848568659584981 0 0.049322300361862373 -0.14150015118149339 0 0.063956937022219343 -0.14860684421379439 0 0.058652627944754628 -0.13848568659584981 0 0.054259155116593002 -0.14858196928438169 0 0.063956937022219343 -0.14860684421379439 0 0.054259155116593002 -0.14858196928438169 0 0.057182925042470113 -0.1565437693420349 0 0.054259155116593002 -0.14858196928438169 0 0.057182925042470113 -0.1565437693420349 0 0.049549047191455052 -0.15703940085891541 0 0.054259155116593002 -0.14858196928438169 0 0.044098600184052483 -0.149061118607028 0 0.049549047191455052 -0.15703940085891541 0 0.058652627944754628 -0.13848568659584981 0 0.054259155116593002 -0.14858196928438169 0 0.049322300361862373 -0.14150015118149339 0 0.054259155116593002 -0.14858196928438169 0 0.049322300361862373 -0.14150015118149339 0 0.044098600184052483 -0.149061118607028 0 0.039428247785871548 -0.14095130832829181 0 0.044098600184052483 -0.149061118607028 0 0.034285567880071088 -0.14935472915230369 0 0.049322300361862373 -0.14150015118149339 0 0.039428247785871548 -0.14095130832829181 0 0.044098600184052483 -0.149061118607028 0 0.044098600184052483 -0.149061118607028 0 0.049549047191455052 -0.15703940085891541 0 0.03817315860996004 -0.15698082529056201 0 0.044098600184052483 -0.149061118607028 0 0.034285567880071088 -0.14935472915230369 0 0.03817315860996004 -0.15698082529056201 0 0.034285567880071088 -0.14935472915230369 0 0.03817315860996004 -0.15698082529056201 0 0.02822954682725615 -0.15484618878838721 0 0.039428247785871548 -0.14095130832829181 0 0.034285567880071088 -0.14935472915230369 0 0.026140740219583871 -0.1434011550848861 0 0.039428247785871548 -0.14095130832829181 0 0.034709744036424149 -0.1309868765471269 0 0.026140740219583871 -0.1434011550848861 0 0.048012534033235348 -0.13140381939691301 0 0.034709744036424149 -0.1309868765471269 0 0.043635157834680957 -0.12244876811825341 0 0.048012534033235348 -0.13140381939691301 0 0.049322300361862373 -0.14150015118149339 0 0.039428247785871548 -0.14095130832829181 0 0.048012534033235348 -0.13140381939691301 0 0.039428247785871548 -0.14095130832829181 0 0.034709744036424149 -0.1309868765471269 0 0.064375390701524246 -0.1648565475781843 0 0.053621166289785999 -0.1868182780695006 0 0.043698016327845132 -0.1805727591701364 0 0.064375390701524246 -0.1648565475781843 0 0.043698016327845132 -0.1805727591701364 0 0.064375390701524246 -0.1648565475781843 0 0.050503300111494398 -0.17373777857213071 0 0.043698016327845132 -0.1805727591701364 0 0.064375390701524246 -0.1648565475781843 0 0.063956937022219343 -0.14860684421379439 0 0.057182925042470113 -0.1565437693420349 0 0.050503300111494398 -0.17373777857213071 0 0.053774095180558951 -0.16363408477489871 0 0.044566970806738812 -0.16362579329484281 0 0.064375390701524246 -0.1648565475781843 0 0.050503300111494398 -0.17373777857213071 0 0.053774095180558951 -0.16363408477489871 0 0.064375390701524246 -0.1648565475781843 0 0.057182925042470113 -0.1565437693420349 0 0.053774095180558951 -0.16363408477489871 0 0.053774095180558951 -0.16363408477489871 0 0.049549047191455052 -0.15703940085891541 0 0.044566970806738812 -0.16362579329484281 0 0.057182925042470113 -0.1565437693420349 0 0.053774095180558951 -0.16363408477489871 0 0.049549047191455052 -0.15703940085891541 0 0.050503300111494398 -0.17373777857213071 0 0.02965544428856012 -0.16654522990117479 0 0.050503300111494398 -0.17373777857213071 0 0.044566970806738812 -0.16362579329484281 0 0.02965544428856012 -0.16654522990117479 0 0.049549047191455052 -0.15703940085891541 0 0.044566970806738812 -0.16362579329484281 0 0.03817315860996004 -0.15698082529056201 0 0.03817315860996004 -0.15698082529056201 0 0.02965544428856012 -0.16654522990117479 0 0.02822954682725615 -0.15484618878838721 0 0.044566970806738812 -0.16362579329484281 0 0.03817315860996004 -0.15698082529056201 0 0.02965544428856012 -0.16654522990117479 0 0.050503300111494398 -0.17373777857213071 0 0.043698016327845132 -0.1805727591701364 0 0.02965544428856012 -0.16654522990117479 0 0.043698016327845132 -0.1805727591701364 0 0.023617490938180968 -0.1806209803468373 0 0.02965544428856012 -0.16654522990117479 0 0.038164726698819353 -0.19276102384714869 0 0.053621166289785999 -0.1868182780695006 0 0.043698016327845132 -0.1805727591701364 0 0.02302064195416598 -0.19628897076208859 0 0.043698016327845132 -0.1805727591701364 0 0.023617490938180968 -0.1806209803468373 0 0.01225904351417335 -0.19182303390126429 0 0.023617490938180968 -0.1806209803468373 0 0.012149173228711559 -0.17902145193957711 0 0.023617490938180968 -0.1806209803468373 0 0.01758252635547743 -0.17290563078801199 0 0.02965544428856012 -0.16654522990117479 0 0.023617490938180968 -0.1806209803468373 0 0.01758252635547743 -0.17290563078801199 0 0.012149173228711559 -0.17902145193957711 0 0.02965544428856012 -0.16654522990117479 0 0.0088075884656258398 -0.1593526812302189 0 0.01758252635547743 -0.17290563078801199 0 0.02965544428856012 -0.16654522990117479 0 0.01270124259076238 -0.16608485167833159 0 0.02965544428856012 -0.16654522990117479 0 0.0088075884656258398 -0.1593526812302189 0 0.01270124259076238 -0.16608485167833159 0 0.02965544428856012 -0.16654522990117479 0 0.0088075884656258398 -0.1593526812302189 0 0.01626691816067044 -0.1545430718955601 0 0.02965544428856012 -0.16654522990117479 0 0.02822954682725615 -0.15484618878838721 0 0.01626691816067044 -0.1545430718955601 0 0.0088075884656258398 -0.1593526812302189 0 0.0064251217407609237 -0.15853072582046221 0 0.01626691816067044 -0.1545430718955601 0 0.0088075884656258398 -0.1593526812302189 0 0.01626691816067044 -0.1545430718955601 0 0.0080594424587704938 -0.16343890713348941 0 0.0088075884656258398 -0.1593526812302189 0 0.01270124259076238 -0.16608485167833159 0 0.0088075884656258398 -0.1593526812302189 0 0.0064251217407609237 -0.15853072582046221 0 0.0059192720139073143 -0.16121500322637011 0 0.0088075884656258398 -0.1593526812302189 0 0.0064251217407609237 -0.15853072582046221 0 0.0064251217407609237 -0.15853072582046221 0 0.0059192720139073143 -0.16121500322637011 0 0.0080594424587704938 -0.16343890713348941 0 0.0088075884656258398 -0.1593526812302189 0 0.0059192720139073143 -0.16121500322637011 0 0.0080594424587704938 -0.16343890713348941 0 0.0059192720139073143 -0.16121500322637011 0 0.0048096667647859054 -0.1671030923990359 0 0.0088075884656258398 -0.1593526812302189 0 0.0059192720139073143 -0.16121500322637011 0 0.0059192720139073143 -0.16121500322637011 0 0.0048096667647859054 -0.1671030923990359 0 0.01758252635547743 -0.17290563078801199 0 0.01270124259076238 -0.16608485167833159 0 0.0097311668570218748 -0.17235759427371669 0 0.0048096667647859054 -0.1671030923990359 0 0.01270124259076238 -0.16608485167833159 0 0.0097311668570218748 -0.17235759427371669 0 0.0080594424587704938 -0.16343890713348941 0 0.0048096667647859054 -0.1671030923990359 0 0.01270124259076238 -0.16608485167833159 0 0.01758252635547743 -0.17290563078801199 0 0.0097311668570218748 -0.17235759427371669 0 0.012149173228711559 -0.17902145193957711 0 0.0048096667647859054 -0.1671030923990359 0 0.0097311668570218748 -0.17235759427371669 0 0.00058754342144544088 -0.1781215098312208 0 0.0097311668570218748 -0.17235759427371669 0 0.012149173228711559 -0.17902145193957711 0 0.00058754342144544088 -0.1781215098312208 0 0.0001646438693213819 -0.19117858410377789 0 0.012149173228711559 -0.17902145193957711 0 0.00058754342144544088 -0.1781215098312208 0 0.01225904351417335 -0.19182303390126429 0 0.0001646438693213819 -0.19117858410377789 0 0.012149173228711559 -0.17902145193957711 0 0.022841364899972769 -0.13079956790109309 0 0.026140740219583871 -0.1434011550848861 0 0.0098183882980523978 -0.14052445188493071 0 0.034709744036424149 -0.1309868765471269 0 0.022841364899972769 -0.13079956790109309 0 0.03032629709045934 -0.1165671780391225 0 0.034709744036424149 -0.1309868765471269 0 0.022841364899972769 -0.13079956790109309 0 0.026140740219583871 -0.1434011550848861 0 0.026140740219583871 -0.1434011550848861 0 0.01626691816067044 -0.1545430718955601 0 0.0098183882980523978 -0.14052445188493071 0 0.034285567880071088 -0.14935472915230369 0 0.026140740219583871 -0.1434011550848861 0 0.02822954682725615 -0.15484618878838721 0 0.026140740219583871 -0.1434011550848861 0 0.02822954682725615 -0.15484618878838721 0 0.01626691816067044 -0.1545430718955601 0 -0.0040234767693377452 -0.14533746150806531 0 0.0064251217407609237 -0.15853072582046221 0 0.0098183882980523978 -0.14052445188493071 0 0.0064251217407609237 -0.15853072582046221 0 0.01626691816067044 -0.1545430718955601 0 0.0098183882980523978 -0.14052445188493071 0 0.0064251217407609237 -0.15853072582046221 0 0.0098183882980523978 -0.14052445188493071 0 0.0098183882980523978 -0.14052445188493071 0 0.01321165485534428 -0.1225181779493993 0 0.022841364899972769 -0.13079956790109309 0 0.0098183882980523978 -0.14052445188493071 0 0.01321165485534428 -0.1225181779493993 0 -0.014472075279436241 -0.13214419719566819 0 0.0098183882980523978 -0.14052445188493071 0 0.01321165485534428 -0.1225181779493993 0 -0.0025958054970703919 -0.1108461986794468 0 0.01321165485534428 -0.1225181779493993 0 0.01610357320346003 -0.10717229424230661 0 0.01321165485534428 -0.1225181779493993 0 0.01610357320346003 -0.10717229424230661 0 0.01321165485534428 -0.1225181779493993 0 0.03032629709045934 -0.1165671780391225 0 0.022841364899972769 -0.13079956790109309 0 0.01321165485534428 -0.1225181779493993 0 0.03032629709045934 -0.1165671780391225 0 0.01321165485534428 -0.1225181779493993 0 0.03032629709045934 -0.1165671780391225 0 0.01610357320346003 -0.10717229424230661 0 0.0285389551820057 -0.1015702994941923 0 0.018995491551575969 -0.091826410535213829 0 0.0284524018910026 -0.092447385252640651 0 0.0285389551820057 -0.1015702994941923 0 0.0284524018910026 -0.092447385252640651 0 0.033945562293126251 -0.097843570573971445 0 0.03032629709045934 -0.1165671780391225 0 0.0285389551820057 -0.1015702994941923 0 0.01610357320346003 -0.10717229424230661 0 0.01610357320346003 -0.10717229424230661 0 0.018995491551575969 -0.091826410535213829 0 0.0285389551820057 -0.1015702994941923 0 0.01610357320346003 -0.10717229424230661 0 0.018995491551575969 -0.091826410535213829 0 0.01610357320346003 -0.10717229424230661 0 0.0052836198926441928 -0.095085612095652916 0 0.018995491551575969 -0.091826410535213829 0 -0.0025958054970703919 -0.1108461986794468 0 0.01610357320346003 -0.10717229424230661 0 0.0052836198926441928 -0.095085612095652916 0 -0.0038397302920209842 -0.081715654657055561 0 0.0052836198926441928 -0.095085612095652916 0 0.0091388692359685025 -0.082078693247085374 0 0.0052836198926441928 -0.095085612095652916 0 0.0091388692359685025 -0.082078693247085374 0 0.018995491551575969 -0.091826410535213829 0 -0.0038397302920209842 -0.081715654657055561 0 0.0091388692359685025 -0.082078693247085374 0 0.0036266129698982988 -0.063299673993725547 0 0.0091388692359685025 -0.082078693247085374 0 0.0036266129698982988 -0.063299673993725547 0 0.021628352057745031 -0.078466114953778948 0 0.0036266129698982988 -0.063299673993725547 0 0.021628352057745031 -0.078466114953778948 0 0.0036266129698982988 -0.063299673993725547 0 0.023931594745268101 -0.072930123395270441 0 0.021628352057745031 -0.078466114953778948 0 0.0036266129698982988 -0.063299673993725547 0 0.023931594745268101 -0.072930123395270441 0 0.029779939361912582 -0.065607251090831722 0 0.023931594745268101 -0.072930123395270441 0 0.02912112627138605 -0.078728248301942666 0 0.036812867313173923 -0.080677602752571131 0 0.023931594745268101 -0.072930123395270441 0 0.021628352057745031 -0.078466114953778948 0 0.02912112627138605 -0.078728248301942666 0 0.023931594745268101 -0.072930123395270441 0 0.029779939361912582 -0.065607251090831722 0 0.037672652346535947 -0.067477199613947395 0 0.021628352057745031 -0.078466114953778948 0 0.0284524018910026 -0.092447385252640651 0 0.03963009114559024 -0.093632555913834042 0 0.021628352057745031 -0.078466114953778948 0 0.03963009114559024 -0.093632555913834042 0 0.018995491551575969 -0.091826410535213829 0 0.021628352057745031 -0.078466114953778948 0 0.0284524018910026 -0.092447385252640651 0 0.0091388692359685025 -0.082078693247085374 0 0.018995491551575969 -0.091826410535213829 0 0.021628352057745031 -0.078466114953778948 0 0.021628352057745031 -0.078466114953778948 0 0.02912112627138605 -0.078728248301942666 0 0.034005711864890188 -0.083877738282988931 0 0.034005711864890188 -0.083877738282988931 0 0.03963009114559024 -0.093632555913834042 0 0.042836122536555693 -0.087884169492817812 0 0.021628352057745031 -0.078466114953778948 0 0.034005711864890188 -0.083877738282988931 0 0.03963009114559024 -0.093632555913834042 0 0.034005711864890188 -0.083877738282988931 0 0.036812867313173923 -0.080677602752571131 0 0.042836122536555693 -0.087884169492817812 0 0.02912112627138605 -0.078728248301942666 0 0.034005711864890188 -0.083877738282988931 0 0.036812867313173923 -0.080677602752571131 0 0.036812867313173923 -0.080677602752571131 0 0.042836122536555693 -0.087884169492817812 0 0.049288712014872373 -0.078938863602480924 0 0.042836122536555693 -0.087884169492817812 0 0.049782284406678652 -0.090687611063363718 0 0.042808831899931628 -0.094945770535725948 0 0.03963009114559024 -0.093632555913834042 0 0.042836122536555693 -0.087884169492817812 0 0.042808831899931628 -0.094945770535725948 0 0.023931594745268101 -0.072930123395270441 0 0.049288712014872373 -0.078938863602480924 0 0.023931594745268101 -0.072930123395270441 0 0.037672652346535947 -0.067477199613947395 0 0.049288712014872373 -0.078938863602480924 0 0.023931594745268101 -0.072930123395270441 0 0.036812867313173923 -0.080677602752571131 0 0.049288712014872373 -0.078938863602480924 0 0.037672652346535947 -0.067477199613947395 0 0.050093486580455662 -0.064477269428423231 0 0.032862653424531402 -0.056757139930496928 0 0.029779939361912582 -0.065607251090831722 0 0.037672652346535947 -0.067477199613947395 0 0.032862653424531402 -0.056757139930496928 0 0.037672652346535947 -0.067477199613947395 0 0.050093486580455662 -0.064477269428423231 0 0.049288712014872373 -0.078938863602480924 0 0.050093486580455662 -0.064477269428423231 0 0.049288712014872373 -0.078938863602480924 0 0.068556259861419722 -0.06862809147128654 0 0.049288712014872373 -0.078938863602480924 0 0.05922754278869994 -0.091484263112942832 0 0.074645829284476675 -0.084947603809691435 0 0.049288712014872373 -0.078938863602480924 0 0.074645829284476675 -0.084947603809691435 0 0.049782284406678652 -0.090687611063363718 0 0.049288712014872373 -0.078938863602480924 0 0.05922754278869994 -0.091484263112942832 0 0.042836122536555693 -0.087884169492817812 0 0.049782284406678652 -0.090687611063363718 0 0.049288712014872373 -0.078938863602480924 0 0.049782284406678652 -0.090687611063363718 0 0.05922754278869994 -0.091484263112942832 0 0.055231419763446983 -0.097446933607609879 0 0.05922754278869994 -0.091484263112942832 0 0.055231419763446983 -0.097446933607609879 0 0.066706609488489221 -0.1013180264521277 0 0.03963009114559024 -0.093632555913834042 0 0.057631830233435447 -0.10879899687388921 0 0.047440939325574243 -0.1106161781288454 0 0.03963009114559024 -0.093632555913834042 0 0.057631830233435447 -0.10879899687388921 0 0.049782284406678652 -0.090687611063363718 0 0.055231419763446983 -0.097446933607609879 0 0.042808831899931628 -0.094945770535725948 0 0.055231419763446983 -0.097446933607609879 0 0.057631830233435447 -0.10879899687388921 0 0.042808831899931628 -0.094945770535725948 0 0.057631830233435447 -0.10879899687388921 0 0.042808831899931628 -0.094945770535725948 0 0.055231419763446983 -0.097446933607609879 0 0.057631830233435447 -0.10879899687388921 0 0.066706609488489221 -0.1013180264521277 0 0.057631830233435447 -0.10879899687388921 0 0.061266905032574953 -0.11961955403288391 0 0.052277989518930673 -0.11900033775938509 0 0.058487546591621337 -0.12649527970177071 0 0.061266905032574953 -0.11961955403288391 0 0.052277989518930673 -0.11900033775938509 0 0.065817130284251665 -0.12517098826313899 0 0.058487546591621337 -0.12649527970177071 0 0.061266905032574953 -0.11961955403288391 0 0.048012534033235348 -0.13140381939691301 0 0.052277989518930673 -0.11900033775938509 0 0.043635157834680957 -0.12244876811825341 0 0.052277989518930673 -0.11900033775938509 0 0.047440939325574243 -0.1106161781288454 0 0.043635157834680957 -0.12244876811825341 0 0.057631830233435447 -0.10879899687388921 0 0.052277989518930673 -0.11900033775938509 0 0.047440939325574243 -0.1106161781288454 0 0.03032629709045934 -0.1165671780391225 0 0.047440939325574243 -0.1106161781288454 0 0.043635157834680957 -0.12244876811825341 0 0.03032629709045934 -0.1165671780391225 0 0.047440939325574243 -0.1106161781288454 0 0.035639093318871412 -0.1048778106088515 0 0.03032629709045934 -0.1165671780391225 0 0.047440939325574243 -0.1106161781288454 0 0.034709744036424149 -0.1309868765471269 0 0.03032629709045934 -0.1165671780391225 0 0.043635157834680957 -0.12244876811825341 0 0.03963009114559024 -0.093632555913834042 0 0.057631830233435447 -0.10879899687388921 0 0.042808831899931628 -0.094945770535725948 0 0.03032629709045934 -0.1165671780391225 0 0.0285389551820057 -0.1015702994941923 0 0.035639093318871412 -0.1048778106088515 0 0.03963009114559024 -0.093632555913834042 0 0.047440939325574243 -0.1106161781288454 0 0.03916392152079054 -0.1017425288063756 0 0.0285389551820057 -0.1015702994941923 0 0.035639093318871412 -0.1048778106088515 0 0.033945562293126251 -0.097843570573971445 0 0.03963009114559024 -0.093632555913834042 0 0.033945562293126251 -0.097843570573971445 0 0.03916392152079054 -0.1017425288063756 0 0.0284524018910026 -0.092447385252640651 0 0.03963009114559024 -0.093632555913834042 0 0.033945562293126251 -0.097843570573971445 0 0.035639093318871412 -0.1048778106088515 0 0.033945562293126251 -0.097843570573971445 0 0.03916392152079054 -0.1017425288063756 0 0.047440939325574243 -0.1106161781288454 0 0.035639093318871412 -0.1048778106088515 0 0.03916392152079054 -0.1017425288063756 0 0.028694772504043609 0.0047047656665304563 0 0.02096014549995915 -0.01456012771583929 0 0.036207265758053629 -0.013773542768296881 0 0.01092251487472262 0.001723413203535543 0 0.028694772504043609 0.0047047656665304563 0 0.02096014549995915 -0.01456012771583929 0 -0.0033274161263136641 -0.0028916397382215109 0 0.01092251487472262 0.001723413203535543 0 0.0043587515491873936 -0.014993830545658039 0 0.01092251487472262 0.001723413203535543 0 0.02096014549995915 -0.01456012771583929 0 0.0043587515491873936 -0.014993830545658039 0 -0.0052679241735068306 -0.028560888977273938 0 0.0043587515491873936 -0.014993830545658039 0 0.01200054292907708 -0.03078264968318245 0 0.02096014549995915 -0.01456012771583929 0 0.0043587515491873936 -0.014993830545658039 0 0.01200054292907708 -0.03078264968318245 0 0.02096014549995915 -0.01456012771583929 0 0.033577025384670563 -0.034238922167964363 0 0.036207265758053629 -0.013773542768296881 0 0.02096014549995915 -0.01456012771583929 0 0.01200054292907708 -0.03078264968318245 0 0.033577025384670563 -0.034238922167964363 0 0.01200054292907708 -0.03078264968318245 0 0.016357426942904249 -0.045643583279250027 0 0.033577025384670563 -0.034238922167964363 0 0.016357426942904249 -0.045643583279250027 0 0.032862653424531402 -0.056757139930496928 0 0.033577025384670563 -0.034238922167964363 0 -0.0052679241735068306 -0.028560888977273938 0 0.01200054292907708 -0.03078264968318245 0 0.00070039412316388828 -0.042988772572937373 0 0.01200054292907708 -0.03078264968318245 0 0.016357426942904249 -0.045643583279250027 0 0.00070039412316388828 -0.042988772572937373 0 0.0036266129698982988 -0.063299673993725547 0 0.016357426942904249 -0.045643583279250027 0 0.00070039412316388828 -0.042988772572937373 0 0.0036266129698982988 -0.063299673993725547 0 0.016357426942904249 -0.045643583279250027 0 0.032862653424531402 -0.056757139930496928 0 0.0036266129698982988 -0.063299673993725547 0 0.029779939361912582 -0.065607251090831722 0 0.032862653424531402 -0.056757139930496928 0 0.0036266129698982988 -0.063299673993725547 0 0.032862653424531402 -0.056757139930496928 0 0.032862653424531402 -0.056757139930496928 0 0.062098693879163537 -0.050214605867264658 0 0.033577025384670563 -0.034238922167964363 0 0.032862653424531402 -0.056757139930496928 0 0.062098693879163537 -0.050214605867264658 0 0.050093486580455662 -0.064477269428423231 0 0.032862653424531402 -0.056757139930496928 0 0.062098693879163537 -0.050214605867264658 0 0.050093486580455662 -0.064477269428423231 0 0.062098693879163537 -0.050214605867264658 0 0.068556259861419722 -0.06862809147128654 0 0.062098693879163537 -0.050214605867264658 0 0.033577025384670563 -0.034238922167964363 0 0.056643462290985443 -0.024439651731059841 0 0.033577025384670563 -0.034238922167964363 0 0.056643462290985443 -0.024439651731059841 0 0.036207265758053629 -0.013773542768296881 0 0.056643462290985443 -0.024439651731059841 0 0.046293469969232372 -0.00090224555574176465 0 0.063826800831932831 -0.0029737486069354238 0 0.056643462290985443 -0.024439651731059841 0 0.036207265758053629 -0.013773542768296881 0 0.046293469969232372 -0.00090224555574176465 0 0.028694772504043609 0.0047047656665304563 0 0.036207265758053629 -0.013773542768296881 0 0.046293469969232372 -0.00090224555574176465 0 0.088448283331516581 -0.00084696866821552059 0 0.063826800831932831 -0.0029737486069354238 0 0.081812104446180686 -0.023257612468491579 0 0.063826800831932831 -0.0029737486069354238 0 0.081812104446180686 -0.023257612468491579 0 0.056643462290985443 -0.024439651731059841 0 0.063826800831932831 -0.0029737486069354238 0 0.081812104446180686 -0.023257612468491579 0 0.056643462290985443 -0.024439651731059841 0 0.081812104446180686 -0.023257612468491579 0 0.072972248737531401 -0.035395985467712103 0 0.081812104446180686 -0.023257612468491579 0 0.099797408060428527 -0.043541476330047721 0 0.097749675273149553 -0.024752881492711369 0 0.088448283331516581 -0.00084696866821552059 0 0.081812104446180686 -0.023257612468491579 0 0.097749675273149553 -0.024752881492711369 0 0.081812104446180686 -0.023257612468491579 0 0.091334734333795964 -0.043672071804032327 0 0.072972248737531401 -0.035395985467712103 0 0.081812104446180686 -0.023257612468491579 0 0.091334734333795964 -0.043672071804032327 0 0.099797408060428527 -0.043541476330047721 0 0.081812104446180686 -0.023257612468491579 0 0.099797408060428527 -0.043541476330047721 0 0.062098693879163537 -0.050214605867264658 0 0.091334734333795964 -0.043672071804032327 0 0.072972248737531401 -0.035395985467712103 0 0.062098693879163537 -0.050214605867264658 0 0.056643462290985443 -0.024439651731059841 0 0.072972248737531401 -0.035395985467712103 0 0.062098693879163537 -0.050214605867264658 0 0.08218808378190845 -0.057469587367747169 0 0.068556259861419722 -0.06862809147128654 0 0.062098693879163537 -0.050214605867264658 0 0.091334734333795964 -0.043672071804032327 0 0.062098693879163537 -0.050214605867264658 0 0.091334734333795964 -0.043672071804032327 0 0.08218808378190845 -0.057469587367747169 0 0.091334734333795964 -0.043672071804032327 0 0.08218808378190845 -0.057469587367747169 0 0.095742786903844357 -0.055058069604445252 0 0.08218808378190845 -0.057469587367747169 0 0.095742786903844357 -0.055058069604445252 0 0.093219482555563365 -0.069404651435067369 0 0.105469154585701 -0.052010362728826441 0 0.1173210573044051 -0.046760500396996169 0 0.099797408060428527 -0.043541476330047721 0 0.095742786903844357 -0.055058069604445252 0 0.11038812280075461 -0.060937540176466437 0 0.093219482555563365 -0.069404651435067369 0 0.091334734333795964 -0.043672071804032327 0 0.095742786903844357 -0.055058069604445252 0 0.099797408060428527 -0.043541476330047721 0 0.095742786903844357 -0.055058069604445252 0 0.105469154585701 -0.052010362728826441 0 0.099797408060428527 -0.043541476330047721 0 0.095742786903844357 -0.055058069604445252 0 0.105469154585701 -0.052010362728826441 0 0.11038812280075461 -0.060937540176466437 0 0.11038812280075461 -0.060937540176466437 0 0.1173210573044051 -0.046760500396996169 0 0.13497711828997899 -0.061696475718861603 0 0.105469154585701 -0.052010362728826441 0 0.11038812280075461 -0.060937540176466437 0 0.1173210573044051 -0.046760500396996169 0 0.110961106968443 -0.032075720319207759 0 0.1173210573044051 -0.046760500396996169 0 0.13167193313885359 -0.027479988125759101 0 0.110961106968443 -0.032075720319207759 0 0.099797408060428527 -0.043541476330047721 0 0.097749675273149553 -0.024752881492711369 0 0.110961106968443 -0.032075720319207759 0 0.1173210573044051 -0.046760500396996169 0 0.099797408060428527 -0.043541476330047721 0 0.1102124079147387 0.01715756621682811 0 0.1111034777010447 -0.016073487200564139 0 0.1312801766641751 -0.0018119188418418051 0 0.110961106968443 -0.032075720319207759 0 0.097749675273149553 -0.024752881492711369 0 0.1111034777010447 -0.016073487200564139 0 0.1111034777010447 -0.016073487200564139 0 0.13167193313885359 -0.027479988125759101 0 0.110961106968443 -0.032075720319207759 0 0.1111034777010447 -0.016073487200564139 0 0.13167193313885359 -0.027479988125759101 0 0.1111034777010447 -0.016073487200564139 0 0.1312801766641751 -0.0018119188418418051 0 0.13167193313885359 -0.027479988125759101 0 0.088448283331516581 -0.00084696866821552059 0 0.097749675273149553 -0.024752881492711369 0 0.1111034777010447 -0.016073487200564139 0 0.081458851924728418 -0.1043578420677503 0 0.093561822647324669 -0.107712904162691 0 0.100002946554081 -0.090956344016901919 0 0.093561822647324669 -0.107712904162691 0 0.092715601331515907 -0.1158423581975534 0 0.086707955379248081 -0.11606659585384541 0 0.081458851924728418 -0.1043578420677503 0 0.093561822647324669 -0.107712904162691 0 0.086707955379248081 -0.11606659585384541 0 0.092715601331515907 -0.1158423581975534 0 0.086707955379248081 -0.11606659585384541 0 0.091628157067314378 -0.12173738473915161 0 0.086707955379248081 -0.11606659585384541 0 0.091628157067314378 -0.12173738473915161 0 0.085672109885504569 -0.1229273757168111 0 0.088854190835867736 -0.12811052249704019 0 0.091628157067314378 -0.12173738473915161 0 0.085672109885504569 -0.1229273757168111 0 0.085672109885504569 -0.1229273757168111 0 0.081878090025005998 -0.1209376845461487 0 0.07670111995349313 -0.1248648478051871 0 0.086707955379248081 -0.11606659585384541 0 0.081878090025005998 -0.1209376845461487 0 0.079496301138678033 -0.1155428289162935 0 0.086707955379248081 -0.11606659585384541 0 0.085672109885504569 -0.1229273757168111 0 0.081878090025005998 -0.1209376845461487 0 0.081878090025005998 -0.1209376845461487 0 0.079496301138678033 -0.1155428289162935 0 0.077537768638324234 -0.11847285654600789 0 0.081878090025005998 -0.1209376845461487 0 0.07670111995349313 -0.1248648478051871 0 0.077537768638324234 -0.11847285654600789 0 0.081458851924728418 -0.1043578420677503 0 0.086707955379248081 -0.11606659585384541 0 0.079496301138678033 -0.1155428289162935 0 0.057631830233435447 -0.10879899687388921 0 0.07670111995349313 -0.1248648478051871 0 0.074002872686196444 -0.1240989889124209 0 0.057631830233435447 -0.10879899687388921 0 0.07670111995349313 -0.1248648478051871 0 0.081458851924728418 -0.1043578420677503 0 0.079496301138678033 -0.1155428289162935 0 0.072075563436119774 -0.1125460649164023 0 0.057631830233435447 -0.10879899687388921 0 0.074002872686196444 -0.1240989889124209 0 0.057631830233435447 -0.10879899687388921 0 0.072075563436119774 -0.1125460649164023 0 0.07670111995349313 -0.1248648478051871 0 0.057631830233435447 -0.10879899687388921 0 0.061266905032574953 -0.11961955403288391 0 0.074002872686196444 -0.1240989889124209 0 0.079496301138678033 -0.1155428289162935 0 0.072075563436119774 -0.1125460649164023 0 0.077537768638324234 -0.11847285654600789 0 0.072075563436119774 -0.1125460649164023 0 0.07670111995349313 -0.1248648478051871 0 0.077537768638324234 -0.11847285654600789 0 0.065817130284251665 -0.12517098826313899 0 0.061266905032574953 -0.11961955403288391 0 0.074002872686196444 -0.1240989889124209 0 0.081458851924728418 -0.1043578420677503 0 0.066706609488489221 -0.1013180264521277 0 0.074645829284476675 -0.084947603809691435 0 0.057631830233435447 -0.10879899687388921 0 0.072075563436119774 -0.1125460649164023 0 0.066706609488489221 -0.1013180264521277 0 0.081458851924728418 -0.1043578420677503 0 0.072075563436119774 -0.1125460649164023 0 0.066706609488489221 -0.1013180264521277 0 0.05922754278869994 -0.091484263112942832 0 0.066706609488489221 -0.1013180264521277 0 0.074645829284476675 -0.084947603809691435 0 0.049288712014872373 -0.078938863602480924 0 0.074645829284476675 -0.084947603809691435 0 0.068556259861419722 -0.06862809147128654 0 0.08218808378190845 -0.057469587367747169 0 0.068556259861419722 -0.06862809147128654 0 0.093219482555563365 -0.069404651435067369 0 0.074645829284476675 -0.084947603809691435 0 0.068556259861419722 -0.06862809147128654 0 0.093219482555563365 -0.069404651435067369 0 0.074645829284476675 -0.084947603809691435 0 0.093219482555563365 -0.069404651435067369 0 0.100002946554081 -0.090956344016901919 0 0.081458851924728418 -0.1043578420677503 0 0.074645829284476675 -0.084947603809691435 0 0.100002946554081 -0.090956344016901919 0 0.074645829284476675 -0.084947603809691435 0 0.100002946554081 -0.090956344016901919 0 0.093219482555563365 -0.069404651435067369 0 0.100002946554081 -0.090956344016901919 0 0.1170625559092702 -0.075757022480246641 0 0.11038812280075461 -0.060937540176466437 0 0.093219482555563365 -0.069404651435067369 0 0.1170625559092702 -0.075757022480246641 0 0.11038812280075461 -0.060937540176466437 0 0.1170625559092702 -0.075757022480246641 0 0.13497711828997899 -0.061696475718861603 0 0.100002946554081 -0.090956344016901919 0 0.1170625559092702 -0.075757022480246641 0 0.1253600638236852 -0.096965084224112402 0 0.1170625559092702 -0.075757022480246641 0 0.1253600638236852 -0.096965084224112402 0 0.12882280988572481 -0.083728385530664931 0 0.100002946554081 -0.090956344016901919 0 0.1082683643831704 -0.10724470650463711 0 0.1253600638236852 -0.096965084224112402 0 0.100002946554081 -0.090956344016901919 0 0.1253600638236852 -0.096965084224112402 0 0.1082683643831704 -0.10724470650463711 0 0.1213416104052491 -0.11226768041008051 0 0.1253600638236852 -0.096965084224112402 0 0.093561822647324669 -0.107712904162691 0 0.100002946554081 -0.090956344016901919 0 0.1082683643831704 -0.10724470650463711 0 0.095770217179535225 -0.12659321449591651 0 0.10248508626621911 -0.12631855692969959 0 0.098964470232176541 -0.11785254803452549 0 0.095770217179535225 -0.12659321449591651 0 0.091628157067314378 -0.12173738473915161 0 0.098964470232176541 -0.11785254803452549 0 0.092715601331515907 -0.1158423581975534 0 0.091628157067314378 -0.12173738473915161 0 0.098964470232176541 -0.11785254803452549 0 0.093561822647324669 -0.107712904162691 0 0.092715601331515907 -0.1158423581975534 0 0.098964470232176541 -0.11785254803452549 0 0.093561822647324669 -0.107712904162691 0 0.1082683643831704 -0.10724470650463711 0 0.098964470232176541 -0.11785254803452549 0 0.1082683643831704 -0.10724470650463711 0 0.098964470232176541 -0.11785254803452549 0 0.1113180908815674 -0.12244927878767239 0 0.10248508626621911 -0.12631855692969959 0 0.098964470232176541 -0.11785254803452549 0 0.1113180908815674 -0.12244927878767239 0 0.12350217315272349 -0.12920401348410521 0 0.1113180908815674 -0.12244927878767239 0 0.1213416104052491 -0.11226768041008051 0 0.1082683643831704 -0.10724470650463711 0 0.1113180908815674 -0.12244927878767239 0 0.1213416104052491 -0.11226768041008051 0 0.1213416104052491 -0.11226768041008051 0 0.13955225765795801 -0.118690476340541 0 0.1467594324635659 -0.11016339172565399 0 0.1213416104052491 -0.11226768041008051 0 0.1467594324635659 -0.11016339172565399 0 0.1419885042235397 -0.1080603630248872 0 0.12350217315272349 -0.12920401348410521 0 0.1213416104052491 -0.11226768041008051 0 0.13192973104380229 -0.1228392870310011 0 0.1213416104052491 -0.11226768041008051 0 0.13192973104380229 -0.1228392870310011 0 0.13955225765795801 -0.118690476340541 0 0.1213416104052491 -0.11226768041008051 0 0.1467594324635659 -0.11016339172565399 0 0.13192973104380229 -0.1228392870310011 0 0.13955225765795801 -0.118690476340541 0 0.13934528667147289 -0.1261399147601574 0 0.13955225765795801 -0.118690476340541 0 0.14767688948398661 -0.1174021409382162 0 0.14866867971233999 -0.1240781067766436 0 0.13955225765795801 -0.118690476340541 0 0.14866867971233999 -0.1240781067766436 0 0.13934528667147289 -0.1261399147601574 0 0.13955225765795801 -0.118690476340541 0 0.14767688948398661 -0.1174021409382162 0 0.1467594324635659 -0.11016339172565399 0 0.14767688948398661 -0.1174021409382162 0 0.1467594324635659 -0.11016339172565399 0 0.15572718810208269 -0.1166765889100263 0 0.15572718810208269 -0.1166765889100263 0 0.14866867971233999 -0.1240781067766436 0 0.16252856920045081 -0.1246549556405938 0 0.14767688948398661 -0.1174021409382162 0 0.15572718810208269 -0.1166765889100263 0 0.14866867971233999 -0.1240781067766436 0 0.1507171810932898 -0.1029738244313211 0 0.1419885042235397 -0.1080603630248872 0 0.1467594324635659 -0.11016339172565399 0 0.1507171810932898 -0.1029738244313211 0 0.1419885042235397 -0.1080603630248872 0 0.1213416104052491 -0.11226768041008051 0 0.1419885042235397 -0.1080603630248872 0 0.1253600638236852 -0.096965084224112402 0 0.1507171810932898 -0.1029738244313211 0 0.1253600638236852 -0.096965084224112402 0 0.1507171810932898 -0.1029738244313211 0 0.1253600638236852 -0.096965084224112402 0 0.141649845952486 -0.087607620551480747 0 0.1507171810932898 -0.1029738244313211 0 0.1419885042235397 -0.1080603630248872 0 0.1253600638236852 -0.096965084224112402 0 0.1253600638236852 -0.096965084224112402 0 0.12882280988572481 -0.083728385530664931 0 0.141649845952486 -0.087607620551480747 0 0.1170625559092702 -0.075757022480246641 0 0.12882280988572481 -0.083728385530664931 0 0.13799523872489419 -0.075874528145069717 0 0.12882280988572481 -0.083728385530664931 0 0.13799523872489419 -0.075874528145069717 0 0.141649845952486 -0.087607620551480747 0 0.1170625559092702 -0.075757022480246641 0 0.13799523872489419 -0.075874528145069717 0 0.13497711828997899 -0.061696475718861603 0 0.15263317927555289 -0.076632451040727037 0 0.13497711828997899 -0.061696475718861603 0 0.15034935629101401 -0.061541528122385808 0 0.15263317927555289 -0.076632451040727037 0 0.13497711828997899 -0.061696475718861603 0 0.13799523872489419 -0.075874528145069717 0 0.15263317927555289 -0.076632451040727037 0 0.13497711828997899 -0.061696475718861603 0 0.15263317927555289 -0.076632451040727037 0 0.1612339477284844 -0.066521404249460764 0 0.15034935629101401 -0.061541528122385808 0 0.13799523872489419 -0.075874528145069717 0 0.15263317927555289 -0.076632451040727037 0 0.141649845952486 -0.087607620551480747 0 0.15263317927555289 -0.076632451040727037 0 0.141649845952486 -0.087607620551480747 0 0.1540147948929807 -0.089973314797876972 0 0.1507171810932898 -0.1029738244313211 0 0.141649845952486 -0.087607620551480747 0 0.1540147948929807 -0.089973314797876972 0 0.15263317927555289 -0.076632451040727037 0 0.1540147948929807 -0.089973314797876972 0 0.17028924026112699 -0.091568426362592201 0 0.15263317927555289 -0.076632451040727037 0 0.17028924026112699 -0.091568426362592201 0 0.15263317927555289 -0.076632451040727037 0 0.17028924026112699 -0.091568426362592201 0 0.1612339477284844 -0.066521404249460764 0 0.1612339477284844 -0.066521404249460764 0 0.1768363313288632 -0.070961396062821744 0 0.17280884401447119 -0.050292989976148873 0 0.17028924026112699 -0.091568426362592201 0 0.1612339477284844 -0.066521404249460764 0 0.1768363313288632 -0.070961396062821744 0 0.1768363313288632 -0.070961396062821744 0 0.18622810472991269 -0.057734813219947313 0 0.19041092709044791 -0.079842738935701082 0 0.17028924026112699 -0.091568426362592201 0 0.1768363313288632 -0.070961396062821744 0 0.19041092709044791 -0.079842738935701082 0 0.17028924026112699 -0.091568426362592201 0 0.19041092709044791 -0.079842738935701082 0 0.17028924026112699 -0.091568426362592201 0 0.1916037477526194 -0.093474349666556586 0 0.19041092709044791 -0.079842738935701082 0 0.17028924026112699 -0.091568426362592201 0 0.17217725452188279 -0.1080591030412297 0 0.18821373014991771 -0.106731476538661 0 0.17028924026112699 -0.091568426362592201 0 0.18821373014991771 -0.106731476538661 0 0.1916037477526194 -0.093474349666556586 0 0.17028924026112699 -0.091568426362592201 0 0.18821373014991771 -0.106731476538661 0 0.17217725452188279 -0.1080591030412297 0 0.18821373014991771 -0.106731476538661 0 0.17217725452188279 -0.1080591030412297 0 0.17754656365793939 -0.1228437332914644 0 0.19452270647590969 -0.1133541850561471 0 0.17217725452188279 -0.1080591030412297 0 0.19452270647590969 -0.1133541850561471 0 0.18821373014991771 -0.106731476538661 0 0.17217725452188279 -0.1080591030412297 0 0.19452270647590969 -0.1133541850561471 0 0.17754656365793939 -0.1228437332914644 0 0.19452270647590969 -0.1133541850561471 0 0.18824606381461781 -0.13108928585503721 0 0.17217725452188279 -0.1080591030412297 0 0.17754656365793939 -0.1228437332914644 0 0.16252856920045081 -0.1246549556405938 0 0.15572718810208269 -0.1166765889100263 0 0.17217725452188279 -0.1080591030412297 0 0.16252856920045081 -0.1246549556405938 0 0.1467594324635659 -0.11016339172565399 0 0.15572718810208269 -0.1166765889100263 0 0.17217725452188279 -0.1080591030412297 0 0.1507171810932898 -0.1029738244313211 0 0.1540147948929807 -0.089973314797876972 0 0.17028924026112699 -0.091568426362592201 0 0.1467594324635659 -0.11016339172565399 0 0.1507171810932898 -0.1029738244313211 0 0.17217725452188279 -0.1080591030412297 0 0.1467594324635659 -0.11016339172565399 0 0.17217725452188279 -0.1080591030412297 0 0.1507171810932898 -0.1029738244313211 0 0.17028924026112699 -0.091568426362592201 0 0.17217725452188279 -0.1080591030412297 0 0.1507171810932898 -0.1029738244313211 0 0.17217725452188279 -0.1080591030412297 0 0.1507171810932898 -0.1029738244313211 0 0.17028924026112699 -0.091568426362592201 0 0.14659122642751499 -0.010483642821581591 0 0.15485115784057579 -0.02633771107858664 0 0.1624995041732421 -0.00062200706116678425 0 0.14727000091299489 0.0059589223388665392 0 0.14659122642751499 -0.010483642821581591 0 0.1624995041732421 -0.00062200706116678425 0 0.14727000091299489 0.0059589223388665392 0 0.14659122642751499 -0.010483642821581591 0 0.1312801766641751 -0.0018119188418418051 0 0.14659122642751499 -0.010483642821581591 0 0.1312801766641751 -0.0018119188418418051 0 0.13167193313885359 -0.027479988125759101 0 0.13167193313885359 -0.027479988125759101 0 0.15485115784057579 -0.02633771107858664 0 0.15224038857666239 -0.038886489050954043 0 0.14659122642751499 -0.010483642821581591 0 0.13167193313885359 -0.027479988125759101 0 0.15485115784057579 -0.02633771107858664 0 0.15224038857666239 -0.038886489050954043 0 0.135761944818868 -0.044352786322899178 0 0.14636117332308379 -0.050393320038852142 0 0.13167193313885359 -0.027479988125759101 0 0.15224038857666239 -0.038886489050954043 0 0.13167193313885359 -0.027479988125759101 0 0.15224038857666239 -0.038886489050954043 0 0.135761944818868 -0.044352786322899178 0 0.1173210573044051 -0.046760500396996169 0 0.13167193313885359 -0.027479988125759101 0 0.135761944818868 -0.044352786322899178 0 0.1173210573044051 -0.046760500396996169 0 0.135761944818868 -0.044352786322899178 0 0.13497711828997899 -0.061696475718861603 0 0.1173210573044051 -0.046760500396996169 0 0.13497711828997899 -0.061696475718861603 0 0.135761944818868 -0.044352786322899178 0 0.13497711828997899 -0.061696475718861603 0 0.14636117332308379 -0.050393320038852142 0 0.13497711828997899 -0.061696475718861603 0 0.14636117332308379 -0.050393320038852142 0 0.15034935629101401 -0.061541528122385808 0 0.15224038857666239 -0.038886489050954043 0 0.14636117332308379 -0.050393320038852142 0 0.15629062503992261 -0.053367444043932642 0 0.1612339477284844 -0.066521404249460764 0 0.15034935629101401 -0.061541528122385808 0 0.15629062503992261 -0.053367444043932642 0 0.14636117332308379 -0.050393320038852142 0 0.15034935629101401 -0.061541528122385808 0 0.15629062503992261 -0.053367444043932642 0 0.1612339477284844 -0.066521404249460764 0 0.17280884401447119 -0.050292989976148873 0 0.1612339477284844 -0.066521404249460764 0 0.15629062503992261 -0.053367444043932642 0 0.17280884401447119 -0.050292989976148873 0 0.15224038857666239 -0.038886489050954043 0 0.15629062503992261 -0.053367444043932642 0 0.17280884401447119 -0.050292989976148873 0 0.1768363313288632 -0.070961396062821744 0 0.18622810472991269 -0.057734813219947313 0 0.17280884401447119 -0.050292989976148873 0 0.18622810472991269 -0.057734813219947313 0 0.17280884401447119 -0.050292989976148873 0 0.19808690712171609 -0.045886350461202791 0 0.18622810472991269 -0.057734813219947313 0 0.17280884401447119 -0.050292989976148873 0 0.17280884401447119 -0.050292989976148873 0 0.1901500169808952 -0.025980051706024611 0 0.19808690712171609 -0.045886350461202791 0 0.17280884401447119 -0.050292989976148873 0 0.16881729795263919 -0.032471465712206611 0 0.1901500169808952 -0.025980051706024611 0 0.17280884401447119 -0.050292989976148873 0 0.1901500169808952 -0.025980051706024611 0 0.15224038857666239 -0.038886489050954043 0 0.17280884401447119 -0.050292989976148873 0 0.16881729795263919 -0.032471465712206611 0 0.15485115784057579 -0.02633771107858664 0 0.15224038857666239 -0.038886489050954043 0 0.16881729795263919 -0.032471465712206611 0 0.15224038857666239 -0.038886489050954043 0 0.17280884401447119 -0.050292989976148873 0 0.15485115784057579 -0.02633771107858664 0 0.16881729795263919 -0.032471465712206611 0 0.17158475965152761 -0.01848720401140146 0 0.16881729795263919 -0.032471465712206611 0 0.17158475965152761 -0.01848720401140146 0 0.1901500169808952 -0.025980051706024611 0 0.17158475965152761 -0.01848720401140146 0 0.18038015996075341 -0.005838343130063919 0 0.1901500169808952 -0.025980051706024611 0 0.15485115784057579 -0.02633771107858664 0 0.1624995041732421 -0.00062200706116678425 0 0.15485115784057579 -0.02633771107858664 0 0.17158475965152761 -0.01848720401140146 0 0.1624995041732421 -0.00062200706116678425 0 0.17158475965152761 -0.01848720401140146 0 0.18038015996075341 -0.005838343130063919 0 0.1624995041732421 -0.00062200706116678425 0 0.2146470487559263 0.001390620045747815 0 0.20940566348870859 -0.0049930825441301049 0 0.2234680367370217 -0.003243545264484643 0 0.2070014301738502 -0.01521233363086731 0 0.20940566348870859 -0.0049930825441301049 0 0.2181488092848004 -0.015619875014309489 0 0.2070014301738502 -0.01521233363086731 0 0.20940566348870859 -0.0049930825441301049 0 0.20749118994731919 -0.00166711343590039 0 0.2146470487559263 0.001390620045747815 0 0.20940566348870859 -0.0049930825441301049 0 0.20749118994731919 -0.00166711343590039 0 0.18038015996075341 -0.005838343130063919 0 0.19300683895457149 -0.0058275217209607976 0 0.1901500169808952 -0.025980051706024611 0 0.2070014301738502 -0.01521233363086731 0 0.20749118994731919 -0.00166711343590039 0 0.1901500169808952 -0.025980051706024611 0 0.20749118994731919 -0.00166711343590039 0 0.19300683895457149 -0.0058275217209607976 0 0.1901500169808952 -0.025980051706024611 0 0.19820780820653869 0.0015596858391489451 0 0.20749118994731919 -0.00166711343590039 0 0.19300683895457149 -0.0058275217209607976 0 0.20749118994731919 -0.00166711343590039 0 0.1901500169808952 -0.025980051706024611 0 0.1893300298381568 0.0037459509503512769 0 0.18038015996075341 -0.005838343130063919 0 0.19300683895457149 -0.0058275217209607976 0 0.1893300298381568 0.0037459509503512769 0 0.19820780820653869 0.0015596858391489451 0 0.19300683895457149 -0.0058275217209607976 0 0.2070014301738502 -0.01521233363086731 0 0.1901500169808952 -0.025980051706024611 0 0.2098114711675276 -0.027801545453971978 0 0.2098114711675276 -0.027801545453971978 0 0.2181488092848004 -0.015619875014309489 0 0.22807577394445791 -0.01854760361150011 0 0.2070014301738502 -0.01521233363086731 0 0.2098114711675276 -0.027801545453971978 0 0.2181488092848004 -0.015619875014309489 0 0.2098114711675276 -0.027801545453971978 0 0.19808690712171609 -0.045886350461202791 0 0.21930419393211431 -0.043332327560155579 0 0.1901500169808952 -0.025980051706024611 0 0.2098114711675276 -0.027801545453971978 0 0.19808690712171609 -0.045886350461202791 0 0.18622810472991269 -0.057734813219947313 0 0.19808690712171609 -0.045886350461202791 0 0.2105326139197691 -0.068117051508810367 0 0.21930419393211431 -0.043332327560155579 0 0.2105326139197691 -0.068117051508810367 0 0.19808690712171609 -0.045886350461202791 0 0.21930419393211431 -0.043332327560155579 0 0.2105326139197691 -0.068117051508810367 0 0.23253918399983781 -0.055292969497911362 0 0.2105326139197691 -0.068117051508810367 0 0.23253918399983781 -0.055292969497911362 0 0.21930419393211431 -0.043332327560155579 0 0.2105326139197691 -0.068117051508810367 0 0.23253918399983781 -0.055292969497911362 0 0.22990913858572359 -0.06481544794934993 0 0.23253918399983781 -0.055292969497911362 0 0.22990913858572359 -0.06481544794934993 0 0.24076140161995349 -0.062688331269949854 0 0.23253918399983781 -0.055292969497911362 0 0.24981487347716699 -0.045225755123019462 0 0.23253918399983781 -0.055292969497911362 0 0.23706329014954669 -0.038912756786988398 0 0.2536512130525353 -0.062925688879433062 0 0.24981487347716699 -0.045225755123019462 0 0.24076140161995349 -0.062688331269949854 0 0.23253918399983781 -0.055292969497911362 0 0.24981487347716699 -0.045225755123019462 0 0.24076140161995349 -0.062688331269949854 0 0.23253918399983781 -0.055292969497911362 0 0.23629388744666621 -0.048188605337334517 0 0.23706329014954669 -0.038912756786988398 0 0.23253918399983781 -0.055292969497911362 0 0.23629388744666621 -0.048188605337334517 0 0.24981487347716699 -0.045225755123019462 0 0.24755297663032391 -0.033829018950415138 0 0.23706329014954669 -0.038912756786988398 0 0.24158739629925219 -0.0225325440760645 0 0.23629388744666621 -0.048188605337334517 0 0.24981487347716699 -0.045225755123019462 0 0.23706329014954669 -0.038912756786988398 0 0.23629388744666621 -0.048188605337334517 0 0.24981487347716699 -0.045225755123019462 0 0.24981487347716699 -0.045225755123019462 0 0.24755297663032391 -0.033829018950415138 0 0.23706329014954669 -0.038912756786988398 0 0.23706329014954669 -0.038912756786988398 0 0.21930419393211431 -0.043332327560155579 0 0.23150766358134281 -0.030831308008677141 0 0.23253918399983781 -0.055292969497911362 0 0.23706329014954669 -0.038912756786988398 0 0.21930419393211431 -0.043332327560155579 0 0.2098114711675276 -0.027801545453971978 0 0.21930419393211431 -0.043332327560155579 0 0.22807577394445791 -0.01854760361150011 0 0.21930419393211431 -0.043332327560155579 0 0.22807577394445791 -0.01854760361150011 0 0.23150766358134281 -0.030831308008677141 0 0.21930419393211431 -0.043332327560155579 0 0.22807577394445791 -0.01854760361150011 0 0.2181488092848004 -0.015619875014309489 0 0.22807577394445791 -0.01854760361150011 0 0.22920018298620329 -0.015370505794937929 0 0.2181488092848004 -0.015619875014309489 0 0.22807577394445791 -0.01854760361150011 0 0.22807577394445791 -0.01854760361150011 0 0.24158739629925219 -0.0225325440760645 0 0.22920018298620329 -0.015370505794937929 0 0.22807577394445791 -0.01854760361150011 0 0.22920018298620329 -0.015370505794937929 0 0.22807577394445791 -0.01854760361150011 0 0.23150766358134281 -0.030831308008677141 0 0.24158739629925219 -0.0225325440760645 0 0.23706329014954669 -0.038912756786988398 0 0.23150766358134281 -0.030831308008677141 0 0.24158739629925219 -0.0225325440760645 0 0.23706329014954669 -0.038912756786988398 0 0.24158739629925219 -0.0225325440760645 0 0.24755297663032391 -0.033829018950415138 0 0.24450000496530869 -0.023391550628056531 0 0.24158739629925219 -0.0225325440760645 0 0.25637973895058302 -0.01510207843556168 0 0.24450000496530869 -0.023391550628056531 0 0.24158739629925219 -0.0225325440760645 0 0.24450000496530869 -0.023391550628056531 0 0.24158739629925219 -0.0225325440760645 0 0.24158739629925219 -0.0225325440760645 0 0.22920018298620329 -0.015370505794937929 0 0.22807577394445791 -0.01854760361150011 0 0.24158739629925219 -0.0225325440760645 0 0.24158739629925219 -0.0225325440760645 0 0.23907990192560671 -0.01178237328430054 0 0.22920018298620329 -0.015370505794937929 0 0.24158739629925219 -0.0225325440760645 0 0.24658817508467629 -0.0044264657669183492 0 0.23805184844727961 0.0096405052919858736 0 0.24658817508467629 -0.0044264657669183492 0 0.23907990192560671 -0.01178237328430054 0 0.25637973895058302 -0.01510207843556168 0 0.24158739629925219 -0.0225325440760645 0 0.24658817508467629 -0.0044264657669183492 0 0.23805184844727961 0.0096405052919858736 0 0.23907990192560671 -0.01178237328430054 0 0.22920018298620329 -0.015370505794937929 0 0.24158739629925219 -0.0225325440760645 0 0.24658817508467629 -0.0044264657669183492 0 0.23907990192560671 -0.01178237328430054 0 0.23805184844727961 0.0096405052919858736 0 0.22920018298620329 -0.015370505794937929 0 0.2234680367370217 -0.003243545264484643 0 0.23805184844727961 0.0096405052919858736 0 0.22920018298620329 -0.015370505794937929 0 0.20940566348870859 -0.0049930825441301049 0 0.2181488092848004 -0.015619875014309489 0 0.22920018298620329 -0.015370505794937929 0 0.20940566348870859 -0.0049930825441301049 0 0.22920018298620329 -0.015370505794937929 0 0.20940566348870859 -0.0049930825441301049 0 0.22920018298620329 -0.015370505794937929 0 0.2234680367370217 -0.003243545264484643 0 0.21308279164136101 -0.095309639972186125 0 0.1971277302099903 -0.1059935049919082 0 0.2038301720648773 -0.087055278250358387 0 0.1971277302099903 -0.1059935049919082 0 0.22615962466036399 -0.103590014762133 0 0.2108766605663478 -0.1108409476594866 0 0.1971277302099903 -0.1059935049919082 0 0.22615962466036399 -0.103590014762133 0 0.21308279164136101 -0.095309639972186125 0 0.1971277302099903 -0.1059935049919082 0 0.22615962466036399 -0.103590014762133 0 0.21250995348574611 -0.11761652659820671 0 0.1966339408380163 -0.1138544729502155 0 0.1966339408380163 -0.1138544729502155 0 0.21805696086096199 -0.13197707111318621 0 0.21250995348574611 -0.11761652659820671 0 0.2108766605663478 -0.1108409476594866 0 0.22195205363762821 -0.1131502189949693 0 0.21250995348574611 -0.11761652659820671 0 0.1966339408380163 -0.1138544729502155 0 0.21805696086096199 -0.13197707111318621 0 0.21250995348574611 -0.11761652659820671 0 0.2108766605663478 -0.1108409476594866 0 0.1966339408380163 -0.1138544729502155 0 0.2108766605663478 -0.1108409476594866 0 0.1966339408380163 -0.1138544729502155 0 0.1971277302099903 -0.1059935049919082 0 0.1966339408380163 -0.1138544729502155 0 0.19452270647590969 -0.1133541850561471 0 0.18824606381461781 -0.13108928585503721 0 0.1966339408380163 -0.1138544729502155 0 0.19452270647590969 -0.1133541850561471 0 0.1971277302099903 -0.1059935049919082 0 0.19452270647590969 -0.1133541850561471 0 0.18824606381461781 -0.13108928585503721 0 0.1966339408380163 -0.1138544729502155 0 0.19452270647590969 -0.1133541850561471 0 0.19452270647590969 -0.1133541850561471 0 0.1971277302099903 -0.1059935049919082 0 0.19452270647590969 -0.1133541850561471 0 0.18821373014991771 -0.106731476538661 0 0.1971277302099903 -0.1059935049919082 0 0.2038301720648773 -0.087055278250358387 0 0.19452270647590969 -0.1133541850561471 0 0.18821373014991771 -0.106731476538661 0 0.1971277302099903 -0.1059935049919082 0 0.1971277302099903 -0.1059935049919082 0 0.1916037477526194 -0.093474349666556586 0 0.2038301720648773 -0.087055278250358387 0 0.18821373014991771 -0.106731476538661 0 0.1971277302099903 -0.1059935049919082 0 0.1916037477526194 -0.093474349666556586 0 0.18821373014991771 -0.106731476538661 0 0.1971277302099903 -0.1059935049919082 0 0.1916037477526194 -0.093474349666556586 0 0.19041092709044791 -0.079842738935701082 0 0.2038301720648773 -0.087055278250358387 0 0.19041092709044791 -0.079842738935701082 0 0.2105326139197691 -0.068117051508810367 0 0.2038301720648773 -0.087055278250358387 0 0.19041092709044791 -0.079842738935701082 0 0.2105326139197691 -0.068117051508810367 0 0.18622810472991269 -0.057734813219947313 0 0.19041092709044791 -0.079842738935701082 0 0.2105326139197691 -0.068117051508810367 0 0.2105326139197691 -0.068117051508810367 0 0.2038301720648773 -0.087055278250358387 0 0.2105326139197691 -0.068117051508810367 0 0.21850617288048901 -0.071028018471244375 0 0.21650924229281121 -0.083932412353944302 0 0.2105326139197691 -0.068117051508810367 0 0.2038301720648773 -0.087055278250358387 0 0.21650924229281121 -0.083932412353944302 0 0.21308279164136101 -0.095309639972186125 0 0.21650924229281121 -0.083932412353944302 0 0.22155096409350111 -0.094548886287172604 0 0.21308279164136101 -0.095309639972186125 0 0.2038301720648773 -0.087055278250358387 0 0.21650924229281121 -0.083932412353944302 0 0.21650924229281121 -0.083932412353944302 0 0.23007423796304241 -0.093078512915761275 0 0.22155096409350111 -0.094548886287172604 0 0.21650924229281121 -0.083932412353944302 0 0.22896501262220589 -0.081460667164990119 0 0.23007423796304241 -0.093078512915761275 0 0.21850617288048901 -0.071028018471244375 0 0.21650924229281121 -0.083932412353944302 0 0.22896501262220589 -0.081460667164990119 0 0.22896501262220589 -0.081460667164990119 0 0.23007423796304241 -0.093078512915761275 0 0.24172236734125041 -0.086945508578197175 0 0.21850617288048901 -0.071028018471244375 0 0.22990913858572359 -0.06481544794934993 0 0.24095333360466439 -0.073745428558349688 0 0.21850617288048901 -0.071028018471244375 0 0.22896501262220589 -0.081460667164990119 0 0.24095333360466439 -0.073745428558349688 0 0.21850617288048901 -0.071028018471244375 0 0.24095333360466439 -0.073745428558349688 0 0.23253918399983781 -0.055292969497911362 0 0.2105326139197691 -0.068117051508810367 0 0.22990913858572359 -0.06481544794934993 0 0.2105326139197691 -0.068117051508810367 0 0.21850617288048901 -0.071028018471244375 0 0.22990913858572359 -0.06481544794934993 0 0.22990913858572359 -0.06481544794934993 0 0.24076140161995349 -0.062688331269949854 0 0.24095333360466439 -0.073745428558349688 0 0.2536512130525353 -0.062925688879433062 0 0.24076140161995349 -0.062688331269949854 0 0.24095333360466439 -0.073745428558349688 0 0.22896501262220589 -0.081460667164990119 0 0.24095333360466439 -0.073745428558349688 0 0.24172236734125041 -0.086945508578197175 0 0.25342773340560182 -0.085256409719527318 0 0.24095333360466439 -0.073745428558349688 0 0.24172236734125041 -0.086945508578197175 0 0.25519151911073762 -0.10118652453235751 0 0.22615962466036399 -0.103590014762133 0 0.23638606072983509 -0.11316976175132951 0 0.25519151911073762 -0.10118652453235751 0 0.23007423796304241 -0.093078512915761275 0 0.25519151911073762 -0.10118652453235751 0 0.23007423796304241 -0.093078512915761275 0 0.22615962466036399 -0.103590014762133 0 0.25519151911073762 -0.10118652453235751 0 0.23007423796304241 -0.093078512915761275 0 0.24172236734125041 -0.086945508578197175 0 0.25519151911073762 -0.10118652453235751 0 0.22615962466036399 -0.103590014762133 0 0.2108766605663478 -0.1108409476594866 0 0.22615962466036399 -0.103590014762133 0 0.22195205363762821 -0.1131502189949693 0 0.21308279164136101 -0.095309639972186125 0 0.22615962466036399 -0.103590014762133 0 0.22155096409350111 -0.094548886287172604 0 0.23007423796304241 -0.093078512915761275 0 0.22615962466036399 -0.103590014762133 0 0.22155096409350111 -0.094548886287172604 0 0.21250995348574611 -0.11761652659820671 0 0.2283859661334765 -0.12137858024619511 0 0.21250995348574611 -0.11761652659820671 0 0.22195205363762821 -0.1131502189949693 0 0.2283859661334765 -0.12137858024619511 0 0.21250995348574611 -0.11761652659820671 0 0.2283859661334765 -0.12137858024619511 0 0.21805696086096199 -0.13197707111318621 0 0.22615962466036399 -0.103590014762133 0 0.22195205363762821 -0.1131502189949693 0 0.23638606072983509 -0.11316976175132951 0 0.22195205363762821 -0.1131502189949693 0 0.2283859661334765 -0.12137858024619511 0 0.23638606072983509 -0.11316976175132951 0 0.2283859661334765 -0.12137858024619511 0 0.23638606072983509 -0.11316976175132951 0 0.2283859661334765 -0.12137858024619511 0 0.2497788827640908 -0.1264479450695371 0 0.25519151911073762 -0.10118652453235751 0 0.25118621647523448 -0.1143086662573647 0 0.23638606072983509 -0.11316976175132951 0 0.2283859661334765 -0.12137858024619511 0 0.23638606072983509 -0.11316976175132951 0 0.2497788827640908 -0.1264479450695371 0 0.25118621647523448 -0.1143086662573647 0 0.23638606072983509 -0.11316976175132951 0 0.2497788827640908 -0.1264479450695371 0 0.2497788827640908 -0.1264479450695371 0 0.24693131303015389 -0.13561107073037831 0 0.23515709635350279 -0.13194433128213301 0 0.2283859661334765 -0.12137858024619511 0 0.2497788827640908 -0.1264479450695371 0 0.23515709635350279 -0.13194433128213301 0 0.25425784292570502 -0.14152125636394669 0 0.24693131303015389 -0.13561107073037831 0 0.23263235897883319 -0.14430698925136659 0 0.24693131303015389 -0.13561107073037831 0 0.23515709635350279 -0.13194433128213301 0 0.23263235897883319 -0.14430698925136659 0 0.25425784292570502 -0.14152125636394669 0 0.2424930941679386 -0.15264858353790259 0 0.23263235897883319 -0.14430698925136659 0 0.25425784292570502 -0.14152125636394669 0 0.23263235897883319 -0.14430698925136659 0 0.2424930941679386 -0.15264858353790259 0 0.23263235897883319 -0.14430698925136659 0 0.22991307897396751 -0.16270965705222179 0 0.2424930941679386 -0.15264858353790259 0 0.23263235897883319 -0.14430698925136659 0 0.23263235897883319 -0.14430698925136659 0 0.21090825709896269 -0.14710542581837641 0 0.21334697480097811 -0.15625463975025031 0 0.23263235897883319 -0.14430698925136659 0 0.21334697480097811 -0.15625463975025031 0 0.22991307897396751 -0.16270965705222179 0 0.23263235897883319 -0.14430698925136659 0 0.21090825709896269 -0.14710542581837641 0 0.23263235897883319 -0.14430698925136659 0 0.21805696086096199 -0.13197707111318621 0 0.21090825709896269 -0.14710542581837641 0 0.2283859661334765 -0.12137858024619511 0 0.23515709635350279 -0.13194433128213301 0 0.21805696086096199 -0.13197707111318621 0 0.23515709635350279 -0.13194433128213301 0 0.23263235897883319 -0.14430698925136659 0 0.21805696086096199 -0.13197707111318621 0 0.23263235897883319 -0.14430698925136659 0 0.21805696086096199 -0.13197707111318621 0 0.2283859661334765 -0.12137858024619511 0 0.21805696086096199 -0.13197707111318621 0 0.1966339408380163 -0.1138544729502155 0 0.21805696086096199 -0.13197707111318621 0 0.20090890753182569 -0.13049990077769311 0 0.21805696086096199 -0.13197707111318621 0 0.20069866461370789 -0.14507877319233059 0 0.20090890753182569 -0.13049990077769311 0 0.21805696086096199 -0.13197707111318621 0 0.21090825709896269 -0.14710542581837641 0 0.19999898804351471 -0.15050617967036509 0 0.21805696086096199 -0.13197707111318621 0 0.19999898804351471 -0.15050617967036509 0 0.21805696086096199 -0.13197707111318621 0 0.20069866461370789 -0.14507877319233059 0 0.19999898804351471 -0.15050617967036509 0 0.20674139227560409 -0.1529368356852473 0 0.20483682905896039 -0.1586901163803639 0 0.21334697480097811 -0.15625463975025031 0 0.20674139227560409 -0.1529368356852473 0 0.21090825709896269 -0.14710542581837641 0 0.21334697480097811 -0.15625463975025031 0 0.20674139227560409 -0.1529368356852473 0 0.21090825709896269 -0.14710542581837641 0 0.19999898804351471 -0.15050617967036509 0 0.19999898804351471 -0.15050617967036509 0 0.1819694211533269 -0.14882438665392761 0 0.185076077119496 -0.15823537318484471 0 0.20069866461370789 -0.14507877319233059 0 0.18824606381461781 -0.13108928585503721 0 0.1819694211533269 -0.14882438665392761 0 0.20069866461370789 -0.14507877319233059 0 0.19999898804351471 -0.15050617967036509 0 0.1819694211533269 -0.14882438665392761 0 0.20069866461370789 -0.14507877319233059 0 0.1819694211533269 -0.14882438665392761 0 0.20674139227560409 -0.1529368356852473 0 0.19999898804351471 -0.15050617967036509 0 0.2009897225651896 -0.15709503655973309 0 0.1966339408380163 -0.1138544729502155 0 0.18824606381461781 -0.13108928585503721 0 0.20090890753182569 -0.13049990077769311 0 0.20069866461370789 -0.14507877319233059 0 0.18824606381461781 -0.13108928585503721 0 0.20090890753182569 -0.13049990077769311 0 0.1983737261445889 -0.1764285710952499 0 0.19104545791353919 -0.17024674291021871 0 0.19946112365343341 -0.1691005586577097 0 0.1983737261445889 -0.1764285710952499 0 0.19946112365343341 -0.1691005586577097 0 0.20610231585550731 -0.17343313713835981 0 0.1973017483971678 -0.18525253720167539 0 0.205324338644813 -0.18170687963917939 0 0.20536058152340619 -0.19090944902359461 0 0.1983737261445889 -0.1764285710952499 0 0.1973017483971678 -0.18525253720167539 0 0.205324338644813 -0.18170687963917939 0 0.1983737261445889 -0.1764285710952499 0 0.1973017483971678 -0.18525253720167539 0 0.19072376216106049 -0.17918062107476429 0 0.1973017483971678 -0.18525253720167539 0 0.19072376216106049 -0.17918062107476429 0 0.18870902647254709 -0.1890917234543539 0 0.1983737261445889 -0.1764285710952499 0 0.19072376216106049 -0.17918062107476429 0 0.19104545791353919 -0.17024674291021871 0 0.19072376216106049 -0.17918062107476429 0 0.19104545791353919 -0.17024674291021871 0 0.18628641502169399 -0.17453244174948621 0 0.19999898804351471 -0.15050617967036509 0 0.185076077119496 -0.15823537318484471 0 0.1819410152260674 -0.16903528822754421 0 0.19999898804351471 -0.15050617967036509 0 0.1819410152260674 -0.16903528822754421 0 0.19104545791353919 -0.17024674291021871 0 0.19416766699690749 -0.16154069141398289 0 0.1819410152260674 -0.16903528822754421 0 0.19999898804351471 -0.15050617967036509 0 0.19416766699690749 -0.16154069141398289 0 0.1819410152260674 -0.16903528822754421 0 0.19104545791353919 -0.17024674291021871 0 0.19416766699690749 -0.16154069141398289 0 0.19604868142559501 -0.16577819338680491 0 0.19999898804351471 -0.15050617967036509 0 0.19416766699690749 -0.16154069141398289 0 0.2009897225651896 -0.15709503655973309 0 0.19416766699690749 -0.16154069141398289 0 0.19952047713849999 -0.16222478056530831 0 0.19604868142559501 -0.16577819338680491 0 0.19416766699690749 -0.16154069141398289 0 0.19952047713849999 -0.16222478056530831 0 0.2009897225651896 -0.15709503655973309 0 0.19952047713849999 -0.16222478056530831 0 0.2009897225651896 -0.15709503655973309 0 0.20483682905896039 -0.1586901163803639 0 0.19104545791353919 -0.17024674291021871 0 0.19604868142559501 -0.16577819338680491 0 0.19946112365343341 -0.1691005586577097 0 0.19952047713849999 -0.16222478056530831 0 0.19604868142559501 -0.16577819338680491 0 0.19946112365343341 -0.1691005586577097 0 0.19952047713849999 -0.16222478056530831 0 0.19946112365343341 -0.1691005586577097 0 0.20598025429554589 -0.16513499971400081 0 0.19946112365343341 -0.1691005586577097 0 0.20598025429554589 -0.16513499971400081 0 0.20610231585550731 -0.17343313713835981 0 0.21334697480097811 -0.15625463975025031 0 0.21224628501364201 -0.16962945009863639 0 0.22048311105724261 -0.18078614223293921 0 0.20598025429554589 -0.16513499971400081 0 0.21224628501364201 -0.16962945009863639 0 0.20610231585550731 -0.17343313713835981 0 0.21334697480097811 -0.15625463975025031 0 0.22048311105724261 -0.18078614223293921 0 0.20598025429554589 -0.16513499971400081 0 0.21334697480097811 -0.15625463975025031 0 0.21224628501364201 -0.16962945009863639 0 0.20598025429554589 -0.16513499971400081 0 0.20483682905896039 -0.1586901163803639 0 0.21334697480097811 -0.15625463975025031 0 0.20674139227560409 -0.1529368356852473 0 0.2009897225651896 -0.15709503655973309 0 0.20483682905896039 -0.1586901163803639 0 0.19952047713849999 -0.16222478056530831 0 0.20598025429554589 -0.16513499971400081 0 0.20483682905896039 -0.1586901163803639 0 0.21224628501364201 -0.16962945009863639 0 0.21145697816906461 -0.178079172610668 0 0.22048311105724261 -0.18078614223293921 0 0.1983737261445889 -0.1764285710952499 0 0.20610231585550731 -0.17343313713835981 0 0.205324338644813 -0.18170687963917939 0 0.21224628501364201 -0.16962945009863639 0 0.21145697816906461 -0.178079172610668 0 0.20610231585550731 -0.17343313713835981 0 0.21145697816906461 -0.178079172610668 0 0.20610231585550731 -0.17343313713835981 0 0.205324338644813 -0.18170687963917939 0 0.205324338644813 -0.18170687963917939 0 0.21101356140627131 -0.18484972163389379 0 0.20536058152340619 -0.19090944902359461 0 0.21145697816906461 -0.178079172610668 0 0.205324338644813 -0.18170687963917939 0 0.21101356140627131 -0.18484972163389379 0 0.21145697816906461 -0.178079172610668 0 0.21101356140627131 -0.18484972163389379 0 0.22048311105724261 -0.18078614223293921 0 0.21101356140627131 -0.18484972163389379 0 0.22048311105724261 -0.18078614223293921 0 0.21414516938968561 -0.19365074760121459 0 0.22048311105724261 -0.18078614223293921 0 0.2295230121292206 -0.17539384730469959 0 0.22991307897396751 -0.16270965705222179 0 0.22048311105724261 -0.18078614223293921 0 0.2295230121292206 -0.17539384730469959 0 0.23461739335212001 -0.19074041189359739 0 0.21334697480097811 -0.15625463975025031 0 0.22048311105724261 -0.18078614223293921 0 0.22991307897396751 -0.16270965705222179 0 0.2295230121292206 -0.17539384730469959 0 0.22991307897396751 -0.16270965705222179 0 0.24099992270959361 -0.16686774023617029 0 0.25680869245699112 -0.16168048277894281 0 0.2424930941679386 -0.15264858353790259 0 0.24099992270959361 -0.16686774023617029 0 0.2424930941679386 -0.15264858353790259 0 0.22991307897396751 -0.16270965705222179 0 0.24099992270959361 -0.16686774023617029 0 0.25041467395517297 -0.1872885007890264 0 0.2295230121292206 -0.17539384730469959 0 0.23461739335212001 -0.19074041189359739 0 0.25041467395517297 -0.1872885007890264 0 0.25392346609877092 -0.17356593308272719 0 0.24099992270959361 -0.16686774023617029 0 0.25041467395517297 -0.1872885007890264 0 0.2295230121292206 -0.17539384730469959 0 0.24099992270959361 -0.16686774023617029 0 0.25041467395517297 -0.1872885007890264 0 0.2295230121292206 -0.17539384730469959 0 0.25041467395517297 -0.1872885007890264 0 0.23461739335212001 -0.19074041189359739 0 0.24891553536165911 -0.2053312869436888 0 0.23461739335212001 -0.19074041189359739 0 0.24891553536165911 -0.2053312869436888 0 0.22761924731350711 -0.20531764471562811 0 0.24212555188216919 -0.21645416962327271 0 0.24891553536165911 -0.2053312869436888 0 0.22761924731350711 -0.20531764471562811 0 0.24212555188216919 -0.21645416962327271 0 0.22761924731350711 -0.20531764471562811 0 0.2347553835697716 -0.22984914719831689 0 0.25316959386933102 -0.22326036357781831 0 0.24212555188216919 -0.21645416962327271 0 0.24891553536165911 -0.2053312869436888 0 0.22761924731350711 -0.20531764471562811 0 0.2347553835697716 -0.22984914719831689 0 0.22761924731350711 -0.20531764471562811 0 0.2347553835697716 -0.22984914719831689 0 0.21763264000911259 -0.22055460876865979 0 0.22048311105724261 -0.18078614223293921 0 0.22761924731350711 -0.20531764471562811 0 0.22048311105724261 -0.18078614223293921 0 0.22761924731350711 -0.20531764471562811 0 0.21414516938968561 -0.19365074760121459 0 0.22048311105724261 -0.18078614223293921 0 0.23461739335212001 -0.19074041189359739 0 0.22761924731350711 -0.20531764471562811 0 0.2564817476433674 -0.23802328440166701 0 0.2404358338234682 -0.24935535655111379 0 0.2347553835697716 -0.22984914719831689 0 0.25316959386933102 -0.22326036357781831 0 0.24212555188216919 -0.21645416962327271 0 0.2347553835697716 -0.22984914719831689 0 0.2564817476433674 -0.23802328440166701 0 0.25316959386933102 -0.22326036357781831 0 0.2347553835697716 -0.22984914719831689 0 0.2347553835697716 -0.22984914719831689 0 0.21962238629089961 -0.23734885409196679 0 0.21763264000911259 -0.22055460876865979 0 0.2404358338234682 -0.24935535655111379 0 0.2347553835697716 -0.22984914719831689 0 0.21962238629089961 -0.23734885409196679 0 0.22043472291249741 -0.25263940855308931 0 0.2404358338234682 -0.24935535655111379 0 0.21962238629089961 -0.23734885409196679 0 0.2404358338234682 -0.24935535655111379 0 0.21962238629089961 -0.23734885409196679 0 0.22043472291249741 -0.25263940855308931 0 0.21962238629089961 -0.23734885409196679 0 0.19921510706912951 -0.23298762886338159 0 0.22043472291249741 -0.25263940855308931 0 0.20336960630150891 -0.25765746807165602 0 0.19921510706912951 -0.23298762886338159 0 0.22043472291249741 -0.25263940855308931 0 0.19921510706912951 -0.23298762886338159 0 0.21962238629089961 -0.23734885409196679 0 0.19880893875833119 -0.2253423516328194 0 0.19921510706912951 -0.23298762886338159 0 0.21962238629089961 -0.23734885409196679 0 0.21763264000911259 -0.22055460876865979 0 0.19880893875833119 -0.2253423516328194 0 0.21962238629089961 -0.23734885409196679 0 0.19880893875833119 -0.2253423516328194 0 0.19880893875833119 -0.2253423516328194 0 0.1779954912257623 -0.21333584917367299 0 0.19880893875833119 -0.2253423516328194 0 0.19921510706912951 -0.23298762886338159 0 0.1779954912257623 -0.21333584917367299 0 0.19921510706912951 -0.23298762886338159 0 0.1779954912257623 -0.21333584917367299 0 0.20336960630150891 -0.25765746807165602 0 0.19921510706912951 -0.23298762886338159 0 0.18121560557362729 -0.24660835227936731 0 0.22761924731350711 -0.20531764471562811 0 0.21414516938968561 -0.19365074760121459 0 0.20735724411305331 -0.20491504620456749 0 0.20536058152340619 -0.19090944902359461 0 0.21414516938968561 -0.19365074760121459 0 0.20735724411305331 -0.20491504620456749 0 0.20536058152340619 -0.19090944902359461 0 0.20735724411305331 -0.20491504620456749 0 0.19702142718944671 -0.19508176186103701 0 0.21101356140627131 -0.18484972163389379 0 0.20536058152340619 -0.19090944902359461 0 0.21414516938968561 -0.19365074760121459 0 0.21763264000911259 -0.22055460876865979 0 0.19880893875833119 -0.2253423516328194 0 0.20735724411305331 -0.20491504620456749 0 0.22761924731350711 -0.20531764471562811 0 0.21763264000911259 -0.22055460876865979 0 0.20735724411305331 -0.20491504620456749 0 0.19880893875833119 -0.2253423516328194 0 0.18980890466200079 -0.20387567758278749 0 0.1779954912257623 -0.21333584917367299 0 0.19880893875833119 -0.2253423516328194 0 0.20735724411305331 -0.20491504620456749 0 0.18980890466200079 -0.20387567758278749 0 0.20735724411305331 -0.20491504620456749 0 0.18980890466200079 -0.20387567758278749 0 0.19702142718944671 -0.19508176186103701 0 0.18980890466200079 -0.20387567758278749 0 0.19702142718944671 -0.19508176186103701 0 0.18870902647254709 -0.1890917234543539 0 0.1973017483971678 -0.18525253720167539 0 0.20536058152340619 -0.19090944902359461 0 0.19702142718944671 -0.19508176186103701 0 0.1973017483971678 -0.18525253720167539 0 0.19702142718944671 -0.19508176186103701 0 0.18870902647254709 -0.1890917234543539 0 0.18870902647254709 -0.1890917234543539 0 0.1795407792414038 -0.1941618056731603 0 0.181435424786109 -0.17966711478541789 0 0.1795407792414038 -0.1941618056731603 0 0.17814076189410799 -0.20400486509298921 0 0.16951402195888551 -0.19915933016307971 0 0.18980890466200079 -0.20387567758278749 0 0.1795407792414038 -0.1941618056731603 0 0.17814076189410799 -0.20400486509298921 0 0.18980890466200079 -0.20387567758278749 0 0.18870902647254709 -0.1890917234543539 0 0.1795407792414038 -0.1941618056731603 0 0.18980890466200079 -0.20387567758278749 0 0.1779954912257623 -0.21333584917367299 0 0.17814076189410799 -0.20400486509298921 0 0.1779954912257623 -0.21333584917367299 0 0.17384461238248861 -0.20949166287224449 0 0.1779954912257623 -0.21333584917367299 0 0.17814076189410799 -0.20400486509298921 0 0.17384461238248861 -0.20949166287224449 0 0.17814076189410799 -0.20400486509298921 0 0.17384461238248861 -0.20949166287224449 0 0.16951402195888551 -0.19915933016307971 0 0.1779954912257623 -0.21333584917367299 0 0.15873920167237809 -0.20222761313949289 0 0.17384461238248861 -0.20949166287224449 0 0.15873920167237809 -0.20222761313949289 0 0.16951402195888551 -0.19915933016307971 0 0.1779954912257623 -0.21333584917367299 0 0.15873920167237809 -0.20222761313949289 0 0.16166145061425979 -0.22051207538510029 0 0.1779954912257623 -0.21333584917367299 0 0.17384461238248861 -0.20949166287224449 0 0.15873920167237809 -0.20222761313949289 0 0.15873920167237809 -0.20222761313949289 0 0.165307411074607 -0.19021889122841229 0 0.1540439048629193 -0.18812233105930601 0 0.1795407792414038 -0.1941618056731603 0 0.165307411074607 -0.19021889122841229 0 0.1708203469568256 -0.18032688972115651 0 0.1795407792414038 -0.1941618056731603 0 0.165307411074607 -0.19021889122841229 0 0.16951402195888551 -0.19915933016307971 0 0.15873920167237809 -0.20222761313949289 0 0.165307411074607 -0.19021889122841229 0 0.16951402195888551 -0.19915933016307971 0 0.18121560557362729 -0.24660835227936731 0 0.17711937602480449 -0.22934512190426859 0 0.1651871679003436 -0.23727125451114339 0 0.19921510706912951 -0.23298762886338159 0 0.18121560557362729 -0.24660835227936731 0 0.17711937602480449 -0.22934512190426859 0 0.1779954912257623 -0.21333584917367299 0 0.17711937602480449 -0.22934512190426859 0 0.16166145061425979 -0.22051207538510029 0 0.19921510706912951 -0.23298762886338159 0 0.1779954912257623 -0.21333584917367299 0 0.17711937602480449 -0.22934512190426859 0 0.17711937602480449 -0.22934512190426859 0 0.16166145061425979 -0.22051207538510029 0 0.1651871679003436 -0.23727125451114339 0 0.16166145061425979 -0.22051207538510029 0 0.1651871679003436 -0.23727125451114339 0 0.15301548555591429 -0.2318268217837306 0 0.1651871679003436 -0.23727125451114339 0 0.15626600212707509 -0.2482759233637909 0 0.15301548555591429 -0.2318268217837306 0 0.18121560557362729 -0.24660835227936731 0 0.1651871679003436 -0.23727125451114339 0 0.16768087065939491 -0.2481964713033542 0 0.1651871679003436 -0.23727125451114339 0 0.16768087065939491 -0.2481964713033542 0 0.15626600212707509 -0.2482759233637909 0 0.146584308024862 -0.26090669957680368 0 0.15626600212707509 -0.2482759233637909 0 0.13663580234091999 -0.23558704631279759 0 0.146584308024862 -0.26090669957680368 0 0.13663580234091999 -0.23558704631279759 0 0.15626600212707509 -0.2482759233637909 0 0.15301548555591429 -0.2318268217837306 0 0.13663580234091999 -0.23558704631279759 0 0.15301548555591429 -0.2318268217837306 0 0.13663580234091999 -0.23558704631279759 0 0.1453270047969728 -0.21748780934582071 0 0.16166145061425979 -0.22051207538510029 0 0.15301548555591429 -0.2318268217837306 0 0.1453270047969728 -0.21748780934582071 0 0.1231550316035696 -0.224874595727343 0 0.13663580234091999 -0.23558704631279759 0 0.1266872966569787 -0.21026739304879119 0 0.13663580234091999 -0.23558704631279759 0 0.1266872966569787 -0.21026739304879119 0 0.1231550316035696 -0.224874595727343 0 0.1192412369078434 -0.23423845960763709 0 0.13663580234091999 -0.23558704631279759 0 0.13663580234091999 -0.23558704631279759 0 0.1453270047969728 -0.21748780934582071 0 0.1266872966569787 -0.21026739304879119 0 0.13464294467171431 -0.25401175962258071 0 0.1235403929927127 -0.25080405413174311 0 0.13663580234091999 -0.23558704631279759 0 0.1235403929927127 -0.25080405413174311 0 0.1192412369078434 -0.23423845960763709 0 0.13663580234091999 -0.23558704631279759 0 0.15873920167237809 -0.20222761313949289 0 0.13703097757004301 -0.2045841136457647 0 0.1394829121189933 -0.1911193771053139 0 0.15873920167237809 -0.20222761313949289 0 0.1394829121189933 -0.1911193771053139 0 0.15873920167237809 -0.20222761313949289 0 0.1540439048629193 -0.18812233105930601 0 0.1394829121189933 -0.1911193771053139 0 0.15873920167237809 -0.20222761313949289 0 0.16166145061425979 -0.22051207538510029 0 0.1453270047969728 -0.21748780934582071 0 0.15873920167237809 -0.20222761313949289 0 0.1453270047969728 -0.21748780934582071 0 0.13703097757004301 -0.2045841136457647 0 0.1453270047969728 -0.21748780934582071 0 0.13703097757004301 -0.2045841136457647 0 0.1266872966569787 -0.21026739304879119 0 0.13703097757004301 -0.2045841136457647 0 0.1266872966569787 -0.21026739304879119 0 0.13703097757004301 -0.2045841136457647 0 0.1266872966569787 -0.21026739304879119 0 0.1302666205825575 -0.19648169927245429 0 0.1202266225656085 -0.18001114107113489 0 0.1302666205825575 -0.19648169927245429 0 0.1394829121189933 -0.1911193771053139 0 0.1210496646125339 -0.19591921924960681 0 0.1266872966569787 -0.21026739304879119 0 0.1302666205825575 -0.19648169927245429 0 0.13703097757004301 -0.2045841136457647 0 0.1302666205825575 -0.19648169927245429 0 0.1394829121189933 -0.1911193771053139 0 0.1202266225656085 -0.18001114107113489 0 0.1394829121189933 -0.1911193771053139 0 0.1202266225656085 -0.18001114107113489 0 0.1394829121189933 -0.1911193771053139 0 0.13357705867409361 -0.18015293123311779 0 0.1202266225656085 -0.18001114107113489 0 0.1285317376946517 -0.17445877366848009 0 0.13357705867409361 -0.18015293123311779 0 0.1285317376946517 -0.17445877366848009 0 0.1360082810019082 -0.17386801413270439 0 0.13357705867409361 -0.18015293123311779 0 0.1285317376946517 -0.17445877366848009 0 0.1360082810019082 -0.17386801413270439 0 0.13119332211867729 -0.16826159703052099 0 0.1360082810019082 -0.17386801413270439 0 0.13357705867409361 -0.18015293123311779 0 0.14363573998930629 -0.18130735018795599 0 0.1360082810019082 -0.17386801413270439 0 0.1429910600683009 -0.1734186650927208 0 0.1395594139762894 -0.17008626268982549 0 0.1394829121189933 -0.1911193771053139 0 0.13357705867409361 -0.18015293123311779 0 0.14363573998930629 -0.18130735018795599 0 0.1540439048629193 -0.18812233105930601 0 0.1394829121189933 -0.1911193771053139 0 0.14363573998930629 -0.18130735018795599 0 0.1360082810019082 -0.17386801413270439 0 0.14363573998930629 -0.18130735018795599 0 0.1429910600683009 -0.1734186650927208 0 0.14363573998930629 -0.18130735018795599 0 0.1429910600683009 -0.1734186650927208 0 0.15096876677650381 -0.17357763029098369 0 0.1540439048629193 -0.18812233105930601 0 0.15096876677650381 -0.17357763029098369 0 0.16034599185520171 -0.17934674517475929 0 0.1540439048629193 -0.18812233105930601 0 0.14363573998930629 -0.18130735018795599 0 0.15096876677650381 -0.17357763029098369 0 0.15322470757068021 -0.16331399303510311 0 0.14225612381115629 -0.166251305889039 0 0.1359906672376926 -0.15890472080727919 0 0.15322470757068021 -0.16331399303510311 0 0.1359906672376926 -0.15890472080727919 0 0.15903537469215309 -0.1534109079053414 0 0.15096876677650381 -0.17357763029098369 0 0.15322470757068021 -0.16331399303510311 0 0.1634952105233197 -0.16930561009001319 0 0.15096876677650381 -0.17357763029098369 0 0.15322470757068021 -0.16331399303510311 0 0.14225612381115629 -0.166251305889039 0 0.1429910600683009 -0.1734186650927208 0 0.15096876677650381 -0.17357763029098369 0 0.14225612381115629 -0.166251305889039 0 0.1429910600683009 -0.1734186650927208 0 0.14225612381115629 -0.166251305889039 0 0.1395594139762894 -0.17008626268982549 0 0.1222450118071048 -0.15183242266510871 0 0.11841267312954661 -0.16000677523285189 0 0.1359906672376926 -0.15890472080727919 0 0.1359906672376926 -0.15890472080727919 0 0.13642045637714001 -0.16715132968494209 0 0.13119332211867729 -0.16826159703052099 0 0.14225612381115629 -0.166251305889039 0 0.1359906672376926 -0.15890472080727919 0 0.13642045637714001 -0.16715132968494209 0 0.1360082810019082 -0.17386801413270439 0 0.1395594139762894 -0.17008626268982549 0 0.13642045637714001 -0.16715132968494209 0 0.14225612381115629 -0.166251305889039 0 0.1395594139762894 -0.17008626268982549 0 0.13642045637714001 -0.16715132968494209 0 0.1360082810019082 -0.17386801413270439 0 0.13642045637714001 -0.16715132968494209 0 0.13119332211867729 -0.16826159703052099 0 0.12269579635467059 -0.16703586879580859 0 0.1359906672376926 -0.15890472080727919 0 0.13119332211867729 -0.16826159703052099 0 0.12269579635467059 -0.16703586879580859 0 0.1285317376946517 -0.17445877366848009 0 0.13119332211867729 -0.16826159703052099 0 0.12269579635467059 -0.16703586879580859 0 0.1359906672376926 -0.15890472080727919 0 0.1359906672376926 -0.15890472080727919 0 0.1314797621108208 -0.14195694301318171 0 0.14455085609560481 -0.14505244022316799 0 0.1222450118071048 -0.15183242266510871 0 0.1359906672376926 -0.15890472080727919 0 0.1314797621108208 -0.14195694301318171 0 0.12350217315272349 -0.12920401348410521 0 0.13192973104380229 -0.1228392870310011 0 0.13349443841731221 -0.1305309673285853 0 0.12350217315272349 -0.12920401348410521 0 0.1314797621108208 -0.14195694301318171 0 0.13349443841731221 -0.1305309673285853 0 0.1314797621108208 -0.14195694301318171 0 0.13349443841731221 -0.1305309673285853 0 0.1415477244476652 -0.13410655637661359 0 0.1314797621108208 -0.14195694301318171 0 0.1415477244476652 -0.13410655637661359 0 0.14455085609560481 -0.14505244022316799 0 0.13349443841731221 -0.1305309673285853 0 0.13934528667147289 -0.1261399147601574 0 0.1415477244476652 -0.13410655637661359 0 0.13192973104380229 -0.1228392870310011 0 0.13349443841731221 -0.1305309673285853 0 0.13934528667147289 -0.1261399147601574 0 0.14866867971233999 -0.1240781067766436 0 0.13934528667147289 -0.1261399147601574 0 0.1415477244476652 -0.13410655637661359 0 0.14866867971233999 -0.1240781067766436 0 0.1415477244476652 -0.13410655637661359 0 0.15443666431130371 -0.13660420598820791 0 0.1415477244476652 -0.13410655637661359 0 0.15443666431130371 -0.13660420598820791 0 0.14455085609560481 -0.14505244022316799 0 0.14866867971233999 -0.1240781067766436 0 0.16252856920045081 -0.1246549556405938 0 0.15443666431130371 -0.13660420598820791 0 0.1359906672376926 -0.15890472080727919 0 0.14455085609560481 -0.14505244022316799 0 0.15903537469215309 -0.1534109079053414 0 0.15443666431130371 -0.13660420598820791 0 0.14455085609560481 -0.14505244022316799 0 0.15903537469215309 -0.1534109079053414 0 0.1359906672376926 -0.15890472080727919 0 0.15903537469215309 -0.1534109079053414 0 0.15903537469215309 -0.1534109079053414 0 0.17025822427683709 -0.13706113686431201 0 0.1819694211533269 -0.14882438665392761 0 0.15443666431130371 -0.13660420598820791 0 0.15903537469215309 -0.1534109079053414 0 0.17025822427683709 -0.13706113686431201 0 0.15903537469215309 -0.1534109079053414 0 0.1819694211533269 -0.14882438665392761 0 0.15903537469215309 -0.1534109079053414 0 0.1819694211533269 -0.14882438665392761 0 0.16682391959891099 -0.15988610717438539 0 0.16252856920045081 -0.1246549556405938 0 0.15443666431130371 -0.13660420598820791 0 0.17025822427683709 -0.13706113686431201 0 0.17754656365793939 -0.1228437332914644 0 0.16252856920045081 -0.1246549556405938 0 0.17025822427683709 -0.13706113686431201 0 0.18824606381461781 -0.13108928585503721 0 0.17025822427683709 -0.13706113686431201 0 0.1819694211533269 -0.14882438665392761 0 0.17754656365793939 -0.1228437332914644 0 0.18824606381461781 -0.13108928585503721 0 0.17025822427683709 -0.13706113686431201 0 0.18824606381461781 -0.13108928585503721 0 0.1819694211533269 -0.14882438665392761 0 0.1819694211533269 -0.14882438665392761 0 0.17639488405507581 -0.16457563818754189 0 0.16682391959891099 -0.15988610717438539 0 0.17639488405507581 -0.16457563818754189 0 0.1819410152260674 -0.16903528822754421 0 0.1708203469568256 -0.18032688972115651 0 0.185076077119496 -0.15823537318484471 0 0.17639488405507581 -0.16457563818754189 0 0.1819410152260674 -0.16903528822754421 0 0.1819694211533269 -0.14882438665392761 0 0.185076077119496 -0.15823537318484471 0 0.17639488405507581 -0.16457563818754189 0 0.1819694211533269 -0.14882438665392761 0 0.17639488405507581 -0.16457563818754189 0 0.19104545791353919 -0.17024674291021871 0 0.1819410152260674 -0.16903528822754421 0 0.18628641502169399 -0.17453244174948621 0 0.17639488405507581 -0.16457563818754189 0 0.1708203469568256 -0.18032688972115651 0 0.19072376216106049 -0.17918062107476429 0 0.181435424786109 -0.17966711478541789 0 0.18628641502169399 -0.17453244174948621 0 0.1819410152260674 -0.16903528822754421 0 0.181435424786109 -0.17966711478541789 0 0.18628641502169399 -0.17453244174948621 0 0.19072376216106049 -0.17918062107476429 0 0.18870902647254709 -0.1890917234543539 0 0.181435424786109 -0.17966711478541789 0 0.1795407792414038 -0.1941618056731603 0 0.181435424786109 -0.17966711478541789 0 0.1708203469568256 -0.18032688972115651 0 0.1819410152260674 -0.16903528822754421 0 0.181435424786109 -0.17966711478541789 0 0.1708203469568256 -0.18032688972115651 0 0.1708203469568256 -0.18032688972115651 0 0.16034599185520171 -0.17934674517475929 0 0.1634952105233197 -0.16930561009001319 0 0.165307411074607 -0.19021889122841229 0 0.1708203469568256 -0.18032688972115651 0 0.16034599185520171 -0.17934674517475929 0 0.165307411074607 -0.19021889122841229 0 0.1540439048629193 -0.18812233105930601 0 0.16034599185520171 -0.17934674517475929 0 0.15096876677650381 -0.17357763029098369 0 0.16034599185520171 -0.17934674517475929 0 0.1634952105233197 -0.16930561009001319 0 0.17639488405507581 -0.16457563818754189 0 0.1708203469568256 -0.18032688972115651 0 0.1634952105233197 -0.16930561009001319 0 0.15322470757068021 -0.16331399303510311 0 0.1634952105233197 -0.16930561009001319 0 0.16682391959891099 -0.15988610717438539 0 0.15322470757068021 -0.16331399303510311 0 0.15903537469215309 -0.1534109079053414 0 0.16682391959891099 -0.15988610717438539 0 0.17639488405507581 -0.16457563818754189 0 0.1634952105233197 -0.16930561009001319 0 0.16682391959891099 -0.15988610717438539 0 
</DataArray>
</Points>
<Cells>
<DataArray type="UInt32" Name="connectivity" format="ascii">
0 1 2 3 4 5 6 7 8 9 10 11 12 13 14 15 16 17 18 19 20 21 22 23 24 25 26 27 28 29 30 31 32 33 34 35 36 37 38 39 40 41 42 43 44 45 46 47 48 49 50 51 52 53 54 55 56 57 58 59 60 61 62 63 64 65 66 67 68 69 70 71 72 73 74 75 76 77 78 79 80 81 82 83 84 85 86 87 88 89 90 91 92 93 94 95 96 97 98 99 100 101 102 103 104 105 106 107 108 109 110 111 112 113 114 115 116 117 118 119 120 121 122 123 124 125 126 127 128 129 130 131 132 133 134 135 136 137 138 139 140 141 142 143 144 145 146 147 148 149 150 151 152 153 154 155 156 157 158 159 160 161 162 163 164 165 166 167 168 169 170 171 172 173 174 175 176 177 178 179 180 181 182 183 184 185 186 187 188 189 190 191 192 193 194 195 196 197 198 199 200 201 202 203 204 205 206 207 208 209 210 211 212 213 214 215 216 217 218 219 220 221 222 223 224 225 226 227 228 229 230 231 232 233 234 235 236 237 238 239 240 241 242 243 244 245 246 247 248 249 250 251 252 253 254 255 256 257 258 259 260 261 262 263 264 265 266 267 268 269 270 271 272 273 274 275 276 277 278 279 280 281 282 283 284 285 286 287 288 289 290 291 292 293 294 295 296 297 298 299 300 301 302 303 304 305 306 307 308 309 310 311 312 313 314 315 316 317 318 319 320 321 322 323 324 325 326 327 328 329 330 331 332 333 334 335 336 337 338 339 340 341 342 343 344 345 346 347 348 349 350 351 352 353 354 355 356 357 358 359 360 361 362 363 364 365 366 367 368 369 370 371 372 373 374 375 376 377 378 379 380 381 382 383 384 385 386 387 388 389 390 391 392 393 394 395 396 397 398 399 400 401 402 403 404 405 406 407 408 409 410 411 412 413 414 415 416 417 418 419 420 421 422 423 424 425 426 427 428 429 430 431 432 433 434 435 436 437 438 439 440 441 442 443 444 445 446 447 448 449 450 451 452 453 454 455 456 457 458 459 460 461 462 463 464 465 466 467 468 469 470 471 472 473 474 475 476 477 478 479 480 481 482 483 484 485 486 487 488 489 490 491 492 493 494 495 496 497 498 499 500 501 502 503 504 505 506 507 508 509 510 511 512 513 514 515 516 517 518 519 520 521 522 523 524 525 526 527 528 529 530 531 532 533 534 535 536 537 538 539 540 541 542 543 544 545 546 547 548 549 550 551 552 553 554 555 556 557 558 559 560 561 562 563 564 565 566 567 568 569 570 571 572 573 574 575 576 577 578 579 580 581 582 583 584 585 586 587 588 589 590 591 592 593 594 595 596 597 598 599 600 601 602 603 604 605 606 607 608 609 610 611 612 613 614 615 616 617 618 619 620 621 622 623 624 625 626 627 628 629 630 631 632 633 634 635 636 637 638 639 640 641 642 643 644 645 646 647 648 649 650 651 652 653 654 655 656 657 658 659 660 661 662 663 664 665 666 667 668 669 670 671 672 673 674 675 676 677 678 679 680 681 682 683 684 685 686 687 688 689 690 691 692 693 694 695 696 697 698 699 700 701 702 703 704 705 706 707 708 709 710 711 712 713 714 715 716 717 718 719 720 721 722 723 724 725 726 727 728 729 730 731 732 733 734 735 736 737 738 739 740 741 742 743 744 745 746 747 748 749 750 751 752 753 754 755 756 757 758 759 760 761 762 763 764 765 766 767 768 769 770 771 772 773 774 775 776 777 778 779 780 781 782 783 784 785 786 787 788 789 790 791 792 793 794 795 796 797 798 799 800 801 802 803 804 805 806 807 808 809 810 811 812 813 814 815 816 817 818 819 820 821 822 823 824 825 826 827 828 829 830 831 832 833 834 835 836 837 838 839 840 841 842 843 844 845 846 847 848 849 850 851 852 853 854 855 856 857 858 859 860 861 862 863 864 865 866 867 868 869 870 871 872 873 874 875 876 877 878 879 880 881 882 883 884 885 886 887 888 889 890 891 892 893 894 895 896 897 898 899 900 901 902 903 904 905 906 907 908 909 910 911 912 913 914 915 916 917 918 919 920 921 922 923 924 925 926 927 928 929 930 931 932 933 934 935 936 937 938 939 940 941 942 943 944 945 946 947 948 949 950 951 952 953 954 955 956 957 958 959 960 961 962 963 964 965 966 967 968 969 970 971 972 973 974 975 976 977 978 979 980 981 982 983 984 985 986 987 988 989 990 991 992 993 994 995 996 997 998 999 1000 1001 1002 1003 1004 1005 1006 1007 1008 1009 1010 1011 1012 1013 1014 1015 1016 1017 1018 1019 1020 1021 1022 1023 1024 1025 1026 1027 1028 1029 1030 1031 1032 1033 1034 1035 1036 1037 1038 1039 1040 1041 1042 1043 1044 1045 1046 1047 1048 1049 1050 1051 1052 1053 1054 1055 1056 1057 1058 1059 1060 1061 1062 1063 1064 1065 1066 1067 1068 1069 1070 1071 1072 1073 1074 1075 1076 1077 1078 1079 1080 1081 1082 1083 1084 1085 1086 1087 1088 1089 1090 1091 1092 1093 1094 1095 1096 1097 1098 1099 1100 1101 1102 1103 1104 1105 1106 1107 1108 1109 1110 1111 1112 1113 1114 1115 1116 1117 1118 1119 1120 1121 1122 1123 1124 1125 1126 1127 1128 1129 1130 1131 1132 1133 1134 1135 1136 1137 1138 1139 1140 1141 1142 1143 1144 1145 1146 1147 1148 1149 1150 1151 1152 1153 1154 1155 1156 1157 1158 1159 1160 1161 1162 1163 1164 1165 1166 1167 1168 1169 1170 1171 1172 1173 1174 1175 1176 1177 1178 1179 1180 1181 1182 1183 1184 1185 1186 1187 1188 1189 1190 1191 1192 1193 1194 1195 1196 1197 1198 1199 1200 1201 1202 1203 1204 1205 1206 1207 1208 1209 1210 1211 1212 1213 1214 1215 1216 1217 1218 1219 1220 1221 1222 1223 1224 1225 1226 1227 1228 1229 1230 1231 1232 1233 1234 1235 1236 1237 1238 1239 1240 1241 1242 1243 1244 1245 1246 1247 1248 1249 1250 1251 1252 1253 1254 1255 1256 1257 1258 1259 1260 1261 1262 1263 1264 1265 1266 1267 1268 1269 1270 1271 1272 1273 1274 1275 1276 1277 1278 1279 1280 1281 1282 1283 1284 1285 1286 1287 1288 1289 1290 1291 1292 1293 1294 1295 1296 1297 1298 1299 1300 1301 1302 1303 1304 1305 1306 1307 1308 1309 1310 1311 1312 1313 1314 1315 1316 1317 1318 1319 1320 1321 1322 1323 1324 1325 1326 1327 1328 1329 1330 1331 1332 1333 1334 1335 1336 1337 1338 1339 1340 1341 1342 1343 1344 1345 1346 1347 1348 1349 1350 1351 1352 1353 1354 1355 1356 1357 1358 1359 1360 1361 1362 1363 1364 1365 1366 1367 1368 1369 1370 1371 1372 1373 1374 1375 1376 1377 1378 1379 1380 1381 1382 1383 1384 1385 1386 1387 1388 1389 1390 1391 1392 1393 1394 1395 1396 1397 1398 1399 1400 1401 1402 1403 1404 1405 1406 1407 1408 1409 1410 1411 1412 1413 1414 1415 1416 1417 1418 1419 1420 1421 1422 1423 1424 1425 1426 1427 1428 1429 1430 1431 1432 1433 1434 1435 1436 1437 1438 1439 1440 1441 1442 1443 1444 1445 1446 1447 1448 1449 1450 1451 1452 1453 1454 1455 1456 1457 1458 1459 1460 1461 1462 1463 1464 1465 1466 1467 1468 1469 1470 1471 1472 1473 1474 1475 1476 1477 1478 1479 1480 1481 1482 1483 1484 1485 1486 1487 1488 1489 1490 1491 1492 1493 1494 1495 1496 1497 1498 1499 1500 1501 1502 1503 1504 1505 1506 1507 1508 1509 1510 1511 1512 1513 1514 1515 1516 1517 1518 1519 1520 1521 1522 1523 1524 1525 1526 1527 1528 1529 1530 1531 1532 1533 1534 1535 1536 1537 1538 1539 1540 1541 1542 1543 1544 1545 1546 1547 1548 1549 1550 1551 1552 1553 1554 1555 1556 1557 1558 1559 1560 1561 1562 1563 1564 1565 1566 1567 1568 1569 1570 1571 1572 1573 1574 1575 1576 1577 1578 1579 1580 1581 1582 1583 1584 1585 1586 1587 1588 1589 1590 1591 1592 1593 1594 1595 1596 1597 1598 1599 1600 1601 1602 1603 1604 1605 1606 1607 1608 1609 1610 1611 1612 1613 1614 1615 1616 1617 1618 1619 1620 1621 1622 1623 1624 1625 1626 1627 1628 1629 1630 1631 1632 1633 1634 1635 1636 1637 1638 1639 1640 1641 1642 1643 1644 1645 1646 1647 1648 1649 1650 1651 1652 1653 1654 1655 1656 1657 1658 1659 1660 1661 1662 1663 1664 1665 1666 1667 1668 1669 1670 1671 1672 1673 1674 1675 1676 1677 1678 1679 1680 1681 1682 1683 1684 1685 1686 1687 1688 1689 1690 1691 1692 1693 1694 1695 1696 1697 1698 1699 1700 1701 1702 1703 1704 1705 1706 1707 1708 1709 1710 1711 1712 1713 1714 1715 1716 1717 1718 1719 1720 1721 1722 1723 1724 1725 1726 1727 1728 1729 1730 1731 1732 1733 1734 1735 1736 1737 1738 1739 1740 1741 1742 1743 1744 1745 1746 1747 1748 1749 1750 1751 1752 1753 1754 1755 1756 1757 1758 1759 1760 1761 1762 1763 1764 1765 1766 1767 1768 1769 1770 1771 1772 1773 1774 1775 1776 1777 1778 1779 1780 1781 1782 1783 1784 1785 1786 1787 1788 1789 1790 1791 1792 1793 1794 1795 1796 1797 1798 1799 1800 1801 1802 1803 1804 1805 1806 1807 1808 1809 1810 1811 1812 1813 1814 1815 1816 1817 1818 1819 1820 1821 1822 1823 1824 1825 1826 1827 1828 1829 1830 1831 1832 1833 1834 1835 1836 1837 1838 1839 1840 1841 1842 1843 1844 1845 1846 1847 1848 1849 1850 1851 1852 1853 1854 1855 1856 1857 1858 1859 1860 1861 1862 1863 1864 1865 1866 1867 1868 1869 1870 1871 1872 1873 1874 1875 1876 1877 1878 1879 1880 1881 1882 1883 1884 1885 1886 1887 1888 1889 1890 1891 1892 1893 1894 1895 1896 1897 1898 1899 1900 1901 1902 1903 1904 1905 1906 1907 1908 1909 1910 1911 1912 1913 1914 1915 1916 1917 1918 1919 1920 1921 1922 1923 1924 1925 1926 1927 1928 1929 1930 1931 1932 1933 1934 1935 1936 1937 1938 1939 1940 1941 1942 1943 1944 1945 1946 1947 1948 1949 1950 1951 1952 1953 1954 1955 1956 1957 1958 1959 1960 1961 1962 1963 1964 1965 1966 1967 1968 1969 1970 1971 1972 1973 1974 1975 1976 1977 1978 1979 1980 1981 1982 1983 1984 1985 1986 1987 1988 1989 1990 1991 1992 1993 1994 1995 1996 1997 1998 1999 2000 2001 2002 2003 2004 2005 2006 2007 2008 2009 2010 2011 2012 2013 2014 2015 2016 2017 2018 2019 2020 2021 2022 2023 2024 2025 2026 2027 2028 2029 2030 2031 2032 2033 2034 2035 2036 2037 2038 2039 2040 2041 2042 2043 2044 2045 2046 2047 2048 2049 2050 2051 2052 2053 2054 2055 2056 2057 2058 2059 2060 2061 2062 2063 2064 2065 2066 2067 2068 2069 2070 2071 2072 2073 2074 2075 2076 2077 2078 2079 2080 2081 2082 2083 2084 2085 2086 2087 2088 2089 2090 2091 2092 2093 2094 2095 2096 2097 2098 2099 2100 2101 2102 2103 2104 2105 2106 2107 2108 2109 2110 2111 2112 2113 2114 2115 2116 2117 2118 2119 2120 2121 2122 2123 2124 2125 2126 2127 2128 2129 2130 2131 2132 2133 2134 2135 2136 2137 2138 2139 2140 2141 2142 2143 2144 2145 2146 2147 2148 2149 2150 2151 2152 2153 2154 2155 2156 2157 2158 2159 2160 2161 2162 2163 2164 2165 2166 2167 2168 2169 2170 2171 2172 2173 2174 2175 2176 2177 2178 2179 2180 2181 2182 2183 2184 2185 2186 2187 2188 2189 2190 2191 2192 2193 2194 2195 2196 2197 2198 2199 2200 2201 2202 2203 2204 2205 2206 2207 2208 2209 2210 2211 2212 2213 2214 2215 2216 2217 2218 2219 2220 2221 2222 2223 2224 2225 2226 2227 2228 2229 2230 2231 2232 2233 2234 2235 2236 2237 2238 2239 2240 2241 2242 2243 2244 2245 2246 2247 2248 2249 2250 2251 2252 2253 2254 2255 2256 2257 2258 2259 2260 2261 2262 2263 2264 2265 2266 2267 2268 2269 2270 2271 2272 2273 2274 2275 2276 2277 2278 2279 2280 2281 2282 2283 2284 2285 2286 2287 2288 2289 2290 2291 2292 2293 2294 2295 2296 2297 2298 2299 2300 2301 2302 2303 2304 2305 2306 2307 2308 2309 2310 2311 2312 2313 2314 2315 2316 2317 2318 2319 2320 2321 2322 2323 2324 2325 2326 2327 2328 2329 2330 2331 2332 2333 2334 2335 2336 2337 2338 2339 2340 2341 2342 2343 2344 2345 2346 2347 2348 2349 2350 2351 2352 2353 2354 2355 2356 2357 2358 2359 2360 2361 2362 2363 2364 2365 2366 2367 2368 2369 2370 2371 2372 2373 2374 2375 2376 2377 2378 2379 2380 2381 2382 2383 2384 2385 2386 2387 2388 2389 2390 2391 2392 2393 2394 2395 2396 2397 2398 2399 2400 2401 2402 2403 2404 2405 2406 2407 2408 2409 2410 2411 2412 2413 2414 2415 2416 2417 2418 2419 2420 2421 2422 2423 2424 2425 2426 2427 2428 2429 2430 2431 2432 2433 2434 2435 2436 2437 2438 2439 2440 2441 2442 2443 2444 2445 2446 2447 2448 2449 2450 2451 2452 2453 2454 2455 2456 2457 2458 2459 2460 2461 2462 2463 2464 2465 2466 2467 2468 2469 2470 2471 2472 2473 2474 2475 2476 2477 2478 2479 2480 2481 2482 2483 2484 2485 2486 2487 2488 2489 2490 2491 2492 2493 2494 2495 2496 2497 2498 2499 2500 2501 2502 2503 2504 2505 2506 2507 2508 2509 2510 2511 2512 2513 2514 2515 2516 2517 2518 2519 2520 2521 2522 2523 2524 2525 2526 2527 2528 2529 2530 2531 2532 2533 2534 2535 2536 2537 2538 2539 2540 2541 2542 2543 2544 2545 2546 2547 2548 2549 2550 2551 2552 2553 2554 2555 2556 2557 2558 2559 2560 2561 2562 2563 2564 2565 2566 2567 2568 2569 2570 2571 2572 2573 2574 2575 2576 2577 2578 2579 2580 2581 2582 2583 2584 2585 2586 2587 2588 2589 2590 2591 2592 2593 2594 2595 2596 2597 2598 2599 2600 2601 2602 2603 2604 2605 2606 2607 2608 2609 2610 2611 2612 2613 2614 2615 2616 2617 2618 2619 2620 2621 2622 2623 2624 2625 2626 2627 2628 2629 2630 2631 2632 2633 2634 2635 2636 2637 2638 2639 2640 2641 2642 2643 2644 2645 2646 2647 2648 2649 2650 2651 2652 2653 2654 2655 2656 2657 2658 2659 2660 2661 2662 2663 2664 2665 2666 2667 2668 2669 2670 2671 2672 2673 2674 2675 2676 2677 2678 2679 2680 2681 2682 2683 2684 2685 2686 2687 2688 2689 2690 2691 2692 2693 2694 2695 2696 2697 2698 2699 2700 2701 2702 2703 2704 2705 2706 2707 2708 2709 2710 2711 2712 2713 2714 2715 2716 2717 2718 2719 2720 2721 2722 2723 2724 2725 2726 2727 2728 2729 2730 2731 2732 2733 2734 2735 2736 2737 2738 2739 2740 2741 2742 2743 2744 2745 2746 2747 2748 2749 2750 2751 2752 2753 2754 2755 2756 2757 2758 2759 2760 2761 2762 2763 2764 2765 2766 2767 2768 2769 2770 2771 2772 2773 2774 2775 2776 2777 2778 2779 2780 2781 2782 2783 2784 2785 2786 2787 2788 2789 2790 2791 2792 2793 2794 2795 2796 2797 2798 2799 2800 2801 2802 2803 2804 2805 2806 2807 2808 2809 2810 2811 2812 2813 2814 2815 2816 2817 2818 2819 2820 2821 2822 2823 2824 2825 2826 2827 2828 2829 2830 2831 2832 2833 2834 2835 2836 2837 2838 2839 2840 2841 2842 2843 2844 2845 2846 2847 2848 2849 2850 2851 2852 2853 2854 2855 2856 2857 2858 2859 2860 2861 2862 2863 2864 2865 2866 2867 2868 2869 2870 2871 2872 2873 2874 2875 2876 2877 2878 2879 2880 2881 2882 2883 2884 2885 2886 2887 2888 2889 2890 2891 2892 2893 2894 2895 2896 2897 2898 2899 2900 2901 2902 2903 2904 2905 2906 2907 2908 2909 2910 2911 2912 2913 2914 2915 2916 2917 2918 2919 2920 2921 2922 2923 2924 2925 2926 2927 2928 2929 2930 2931 2932 2933 2934 2935 2936 2937 2938 2939 2940 2941 2942 2943 2944 2945 2946 2947 2948 2949 2950 2951 2952 2953 2954 2955 2956 2957 2958 2959 2960 2961 2962 2963 2964 2965 2966 2967 2968 2969 2970 2971 2972 2973 2974 2975 2976 2977 2978 2979 2980 2981 2982 2983 2984 2985 2986 2987 2988 2989 2990 2991 2992 2993 2994 2995 2996 2997 2998 2999 3000 3001 3002 3003 3004 3005 3006 3007 3008 3009 3010 3011 3012 3013 3014 3015 3016 3017 3018 3019 3020 3021 3022 3023 3024 3025 3026 3027 3028 3029 3030 3031 3032 3033 3034 3035 3036 3037 3038 3039 3040 3041 3042 3043 3044 3045 3046 3047 3048 3049 3050 3051 3052 3053 3054 3055 3056 3057 3058 3059 3060 3061 3062 3063 3064 3065 3066 3067 3068 3069 3070 3071 3072 3073 3074 3075 3076 3077 3078 3079 3080 3081 3082 3083 3084 3085 3086 3087 3088 3089 3090 3091 3092 3093 3094 3095 3096 3097 3098 3099 3100 3101 3102 3103 3104 3105 3106 3107 3108 3109 3110 3111 3112 3113 3114 3115 3116 3117 3118 3119 3120 3121 3122 3123 3124 3125 3126 3127 3128 3129 3130 3131 3132 3133 3134 3135 3136 3137 3138 3139 3140 3141 3142 3143 3144 3145 3146 3147 3148 3149 3150 3151 3152 3153 3154 3155 3156 3157 3158 3159 3160 3161 3162 3163 3164 3165 3166 3167 3168 3169 3170 3171 3172 3173 3174 3175 3176 3177 3178 3179 3180 3181 3182 3183 3184 3185 3186 3187 3188 3189 3190 3191 3192 3193 3194 3195 3196 3197 3198 3199 3200 3201 3202 3203 3204 3205 3206 3207 3208 3209 3210 3211 3212 3213 3214 3215 3216 3217 3218 3219 3220 3221 3222 3223 3224 3225 3226 3227 3228 3229 3230 3231 3232 3233 3234 3235 3236 3237 3238 3239 3240 3241 3242 3243 3244 3245 3246 3247 3248 3249 3250 3251 3252 3253 3254 3255 3256 3257 3258 3259 3260 3261 3262 3263 3264 3265 3266 3267 3268 3269 3270 3271 3272 3273 3274 3275 3276 3277 3278 3279 3280 3281 3282 3283 3284 3285 3286 3287 3288 3289 3290 3291 3292 3293 3294 3295 3296 3297 3298 3299 3300 3301 3302 3303 3304 3305 3306 3307 3308 3309 3310 3311 3312 3313 3314 3315 3316 3317 3318 3319 3320 3321 3322 3323 3324 3325 3326 3327 3328 3329 3330 3331 3332 3333 3334 3335 3336 3337 3338 3339 3340 3341 3342 3343 3344 3345 3346 3347 3348 3349 3350 3351 3352 3353 3354 3355 3356 3357 3358 3359 3360 3361 3362 3363 3364 3365 3366 3367 3368 3369 3370 3371 3372 3373 3374 3375 3376 3377 3378 3379 3380 3381 3382 3383 3384 3385 3386 3387 3388 3389 3390 3391 3392 3393 3394 3395 3396 3397 3398 3399 3400 3401 3402 3403 3404 3405 3406 3407 3408 3409 3410 3411 3412 3413 3414 3415 3416 3417 3418 3419 3420 3421 3422 3423 3424 3425 3426 3427 3428 3429 3430 3431 3432 3433 3434 3435 3436 3437 3438 3439 3440 3441 3442 3443 3444 3445 3446 3447 3448 3449 3450 3451 3452 3453 3454 3455 3456 3457 3458 3459 3460 3461 3462 3463 3464 3465 3466 3467 3468 3469 3470 3471 3472 3473 3474 3475 3476 3477 3478 3479 3480 3481 3482 3483 3484 3485 3486 3487 3488 3489 3490 3491 3492 3493 3494 3495 3496 3497 3498 3499 3500 3501 3502 3503 3504 3505 3506 3507 3508 3509 3510 3511 3512 3513 3514 3515 3516 3517 3518 3519 3520 3521 3522 3523 3524 3525 3526 3527 3528 3529 3530 3531 3532 3533 3534 3535 3536 3537 3538 3539 3540 3541 3542 3543 3544 3545 3546 3547 3548 3549 3550 3551 3552 3553 3554 3555 3556 3557 3558 3559 3560 3561 3562 3563 3564 3565 3566 3567 3568 3569 3570 3571 3572 3573 3574 3575 3576 3577 3578 3579 3580 3581 3582 3583 3584 3585 3586 3587 3588 3589 3590 3591 3592 3593 3594 3595 3596 3597 3598 3599 3600 3601 3602 3603 3604 3605 3606 3607 3608 3609 3610 3611 3612 3613 3614 3615 3616 3617 3618 3619 3620 3621 3622 3623 3624 3625 3626 3627 3628 3629 3630 3631 3632 3633 3634 3635 3636 3637 3638 3639 3640 3641 3642 3643 3644 3645 3646 3647 3648 3649 3650 3651 3652 3653 3654 3655 3656 3657 3658 3659 3660 3661 3662 3663 3664 3665 3666 3667 3668 3669 3670 3671 3672 3673 3674 3675 3676 3677 3678 3679 3680 3681 3682 3683 3684 3685 3686 3687 3688 3689 3690 3691 3692 3693 3694 3695 3696 3697 3698 3699 3700 3701 3702 3703 3704 3705 3706 3707 3708 3709 3710 3711 3712 3713 3714 3715 3716 3717 3718 3719 3720 3721 3722 3723 3724 3725 3726 3727 3728 3729 3730 3731 3732 3733 3734 3735 3736 3737 3738 3739 3740 3741 3742 3743 3744 3745 3746 3747 3748 3749 3750 3751 3752 3753 3754 3755 3756 3757 3758 3759 3760 3761 3762 3763 3764 3765 3766 3767 3768 3769 3770 3771 3772 3773 3774 3775 3776 3777 3778 3779 3780 3781 3782 3783 3784 3785 3786 3787 3788 3789 3790 3791 3792 3793 3794 3795 3796 3797 3798 3799 3800 3801 3802 3803 3804 3805 3806 3807 3808 3809 3810 3811 3812 3813 3814 3815 3816 3817 3818 3819 3820 3821 3822 3823 3824 3825 3826 3827 3828 3829 3830 3831 3832 3833 3834 3835 3836 3837 3838 3839 3840 3841 3842 3843 3844 3845 3846 3847 3848 3849 3850 3851 3852 3853 3854 3855 3856 3857 3858 3859 3860 3861 3862 3863 3864 3865 3866 3867 3868 3869 3870 3871 3872 3873 3874 3875 3876 3877 3878 3879 3880 3881 3882 3883 3884 3885 3886 3887 3888 3889 3890 3891 3892 3893 3894 3895 3896 3897 3898 3899 3900 3901 3902 3903 3904 3905 3906 3907 3908 3909 3910 3911 3912 3913 3914 3915 3916 3917 3918 3919 3920 3921 3922 3923 3924 3925 3926 3927 3928 3929 3930 3931 3932 3933 3934 3935 3936 3937 3938 3939 3940 3941 3942 3943 3944 3945 3946 3947 3948 3949 3950 3951 3952 3953 3954 3955 3956 3957 3958 3959 3960 3961 3962 3963 3964 3965 3966 3967 3968 3969 3970 3971 3972 3973 3974 3975 3976 3977 3978 3979 3980 3981 3982 3983 3984 3985 3986 3987 3988 3989 3990 3991 3992 3993 3994 3995 3996 3997 3998 3999 4000 4001 4002 4003 4004 4005 4006 4007 4008 4009 4010 4011 4012 4013 4014 4015 4016 4017 4018 4019 4020 4021 4022 4023 4024 4025 4026 4027 4028 4029 4030 4031 4032 4033 4034 4035 4036 4037 4038 4039 4040 4041 4042 4043 4044 4045 4046 4047 4048 4049 4050 4051 4052 4053 4054 4055 4056 4057 4058 4059 4060 4061 4062 4063 4064 4065 4066 4067 4068 4069 4070 4071 4072 4073 4074 4075 4076 4077 4078 4079 4080 4081 4082 4083 4084 4085 4086 4087 4088 4089 4090 4091 4092 4093 4094 4095 4096 4097 4098 4099 4100 4101 4102 4103 4104 4105 4106 4107 4108 4109 4110 4111 4112 4113 4114 4115 4116 4117 4118 4119 4120 4121 4122 4123 4124 4125 4126 4127 4128 4129 4130 4131 4132 4133 4134 4135 4136 4137 4138 4139 4140 4141 4142 4143 4144 4145 4146 4147 4148 4149 4150 4151 4152 4153 4154 4155 4156 4157 4158 4159 4160 4161 4162 4163 4164 4165 4166 4167 4168 4169 4170 4171 4172 4173 4174 4175 4176 4177 4178 4179 4180 4181 4182 4183 4184 4185 4186 4187 4188 4189 4190 4191 4192 4193 4194 4195 4196 4197 4198 4199 4200 4201 4202 4203 4204 4205 4206 4207 4208 4209 4210 4211 4212 4213 4214 4215 4216 4217 4218 4219 4220 4221 4222 4223 4224 4225 4226 4227 4228 4229 4230 4231 4232 4233 4234 4235 4236 4237 4238 4239 4240 4241 4242 4243 4244 4245 4246 4247 4248 4249 4250 4251 4252 4253 4254 4255 4256 4257 4258 4259 4260 4261 4262 4263 4264 4265 4266 4267 4268 4269 4270 4271 4272 4273 4274 4275 4276 4277 4278 4279 4280 4281 4282 4283 4284 4285 4286 4287 4288 4289 4290 4291 4292 4293 4294 4295 4296 4297 4298 4299 4300 4301 4302 4303 4304 4305 4306 4307 4308 4309 4310 4311 4312 4313 4314 4315 4316 4317 4318 4319 4320 4321 4322 4323 4324 4325 4326 4327 4328 4329 4330 4331 4332 4333 4334 4335 4336 4337 4338 4339 4340 4341 4342 4343 4344 4345 4346 4347 4348 4349 4350 4351 4352 4353 4354 4355 4356 4357 4358 4359 4360 4361 4362 4363 4364 4365 4366 4367 4368 4369 4370 4371 4372 4373 4374 4375 4376 4377 4378 4379 4380 4381 4382 4383 4384 4385 4386 4387 4388 4389 4390 4391 4392 4393 4394 4395 4396 4397 4398 4399 4400 4401 4402 4403 4404 4405 4406 4407 4408 4409 4410 4411 4412 4413 4414 4415 4416 4417 4418 4419 4420 4421 4422 4423 4424 4425 4426 4427 4428 4429 4430 4431 4432 4433 4434 4435 4436 4437 4438 4439 4440 4441 4442 4443 4444 4445 4446 4447 4448 4449 4450 4451 4452 4453 4454 4455 4456 4457 4458 4459 4460 4461 4462 4463 4464 4465 4466 4467 4468 4469 4470 4471 4472 4473 4474 4475 4476 4477 4478 4479 4480 4481 4482 4483 4484 4485 4486 4487 4488 4489 4490 4491 4492 4493 4494 4495 4496 4497 4498 4499 4500 4501 4502 4503 4504 4505 4506 4507 4508 4509 4510 4511 4512 4513 4514 4515 4516 4517 4518 4519 4520 4521 4522 4523 4524 4525 4526 4527 4528 4529 4530 4531 4532 4533 4534 4535 4536 4537 4538 4539 4540 4541 4542 4543 4544 4545 4546 4547 4548 4549 4550 4551 4552 4553 4554 4555 4556 4557 4558 4559 4560 4561 4562 4563 4564 4565 4566 4567 4568 4569 4570 4571 4572 4573 4574 4575 4576 4577 4578 4579 4580 4581 4582 4583 4584 4585 4586 4587 4588 4589 4590 4591 4592 4593 4594 4595 4596 4597 4598 4599 4600 4601 4602 4603 4604 4605 4606 4607 4608 4609 4610 4611 4612 4613 4614 4615 4616 4617 4618 4619 4620 4621 4622 4623 4624 4625 4626 4627 4628 4629 4630 4631 4632 4633 4634 4635 4636 4637 4638 4639 4640 4641 4642 4643 4644 4645 4646 4647 4648 4649 4650 4651 4652 4653 4654 4655 4656 4657 4658 4659 4660 4661 4662 4663 4664 4665 4666 4667 4668 4669 4670 4671 4672 4673 4674 4675 4676 4677 4678 4679 4680 4681 4682 4683 4684 4685 4686 4687 4688 4689 4690 4691 4692 4693 4694 4695 4696 4697 4698 4699 4700 4701 4702 4703 4704 4705 4706 4707 4708 4709 4710 4711 4712 4713 4714 4715 4716 4717 4718 4719 4720 4721 4722 4723 4724 4725 4726 4727 4728 4729 4730 4731 4732 4733 4734 4735 4736 4737 4738 4739 4740 4741 4742 4743 4744 4745 4746 4747 4748 4749 4750 4751 4752 4753 4754 4755 4756 4757 4758 4759 4760 4761 4762 4763 4764 4765 4766 4767 4768 4769 4770 4771 4772 4773 4774 4775 4776 4777 4778 4779 4780 4781 4782 4783 4784 4785 4786 4787 4788 4789 4790 4791 4792 4793 4794 4795 4796 4797 4798 4799 4800 4801 4802 4803 4804 4805 4806 4807 4808 4809 4810 4811 4812 4813 4814 4815 4816 4817 4818 4819 4820 4821 4822 4823 4824 4825 4826 4827 4828 4829 4830 4831 4832 4833 4834 4835 4836 4837 4838 4839 4840 4841 4842 4843 4844 4845 4846 4847 4848 4849 4850 4851 4852 4853 4854 4855 4856 4857 4858 4859 4860 4861 4862 4863 4864 4865 4866 4867 4868 4869 4870 4871 4872 4873 4874 4875 4876 4877 4878 4879 4880 4881 4882 4883 4884 4885 4886 4887 4888 4889 4890 4891 4892 4893 4894 4895 4896 4897 4898 4899 4900 4901 4902 4903 4904 4905 4906 4907 4908 4909 4910 4911 4912 4913 4914 4915 4916 4917 4918 4919 4920 4921 4922 4923 4924 4925 4926 4927 4928 4929 4930 4931 4932 4933 4934 4935 4936 4937 4938 4939 4940 4941 4942 4943 4944 4945 4946 4947 4948 4949 4950 4951 4952 4953 4954 4955 4956 4957 4958 4959 4960 4961 4962 4963 4964 4965 4966 4967 4968 4969 4970 4971 4972 4973 4974 4975 4976 4977 4978 4979 4980 4981 4982 4983 4984 4985 4986 4987 4988 4989 4990 4991 4992 4993 4994 4995 4996 4997 4998 4999 5000 5001 5002 5003 5004 5005 5006 5007 5008 5009 5010 5011 5012 5013 5014 5015 5016 5017 5018 5019 5020 5021 5022 5023 5024 5025 5026 5027 5028 5029 5030 5031 5032 5033 5034 5035 5036 5037 5038 5039 5040 5041 5042 5043 5044 5045 5046 5047 5048 5049 5050 5051 5052 5053 5054 5055 5056 5057 5058 5059 5060 5061 5062 5063 5064 5065 5066 5067 5068 5069 5070 5071 5072 5073 5074 5075 5076 5077 5078 5079 5080 5081 5082 5083 5084 5085 5086 5087 5088 5089 5090 5091 5092 5093 5094 5095 5096 5097 5098 5099 5100 5101 5102 5103 5104 5105 5106 5107 5108 5109 5110 5111 5112 5113 5114 5115 5116 5117 5118 5119 5120 5121 5122 5123 5124 5125 5126 5127 5128 5129 5130 5131 5132 5133 5134 5135 5136 5137 5138 5139 5140 5141 5142 5143 5144 5145 5146 5147 5148 5149 5150 5151 5152 5153 5154 5155 5156 5157 5158 5159 5160 5161 5162 5163 5164 5165 5166 5167 5168 5169 5170 5171 5172 5173 5174 5175 5176 5177 5178 5179 5180 5181 5182 5183 5184 5185 5186 5187 5188 5189 5190 5191 5192 5193 5194 5195 5196 5197 5198 5199 5200 5201 5202 5203 5204 5205 5206 5207 5208 5209 5210 5211 5212 5213 5214 5215 5216 5217 5218 5219 5220 5221 5222 5223 5224 5225 5226 5227 5228 5229 5230 5231 5232 5233 5234 5235 5236 5237 5238 5239 5240 5241 5242 5243 5244 5245 5246 5247 5248 5249 5250 5251 5252 5253 5254 5255 5256 5257 5258 5259 5260 5261 5262 5263 5264 5265 5266 5267 5268 5269 5270 5271 5272 5273 5274 5275 5276 5277 5278 5279 5280 5281 5282 5283 5284 5285 5286 5287 5288 5289 5290 5291 5292 5293 5294 5295 5296 5297 5298 5299 5300 5301 5302 5303 5304 5305 5306 5307 5308 5309 5310 5311 5312 5313 5314 5315 5316 5317 5318 5319 5320 5321 5322 5323 5324 5325 5326 5327 5328 5329 5330 5331 5332 5333 5334 5335 5336 5337 5338 5339 5340 5341 5342 5343 5344 5345 5346 5347 5348 5349 5350 5351 5352 5353 5354 5355 5356 5357 5358 5359 5360 5361 5362 5363 5364 5365 5366 5367 5368 5369 5370 5371 5372 5373 5374 5375 5376 5377 5378 5379 5380 5381 5382 5383 5384 5385 5386 5387 5388 5389 5390 5391 5392 5393 5394 5395 5396 5397 5398 5399 5400 5401 5402 5403 5404 5405 5406 5407 5408 5409 5410 5411 5412 5413 5414 5415 5416 5417 5418 5419 5420 5421 5422 5423 5424 5425 5426 5427 5428 5429 5430 5431 5432 5433 5434 5435 5436 5437 5438 5439 5440 5441 5442 5443 5444 5445 5446 5447 5448 5449 5450 5451 5452 5453 5454 5455 5456 5457 5458 5459 5460 5461 5462 5463 5464 5465 5466 5467 5468 5469 5470 5471 5472 5473 5474 5475 5476 5477 5478 5479 5480 5481 5482 5483 5484 5485 5486 5487 5488 5489 5490 5491 5492 5493 5494 5495 5496 5497 5498 5499 5500 5501 5502 5503 5504 5505 5506 5507 5508 5509 5510 5511 5512 5513 5514 5515 5516 5517 5518 5519 5520 5521 5522 5523 5524 5525 5526 5527 5528 5529 5530 5531 5532 5533 5534 5535 5536 5537 5538 5539 5540 5541 5542 5543 5544 5545 5546 5547 5548 5549 5550 5551 5552 5553 5554 5555 5556 5557 5558 5559 5560 5561 5562 5563 5564 5565 5566 5567 5568 5569 5570 5571 5572 5573 5574 5575 5576 5577 5578 5579 5580 5581 5582 5583 5584 5585 5586 5587 5588 5589 5590 5591 5592 5593 5594 5595 5596 5597 5598 5599 5600 5601 5602 5603 5604 5605 5606 5607 5608 5609 5610 5611 5612 5613 5614 5615 5616 5617 5618 5619 5620 5621 5622 5623 5624 5625 5626 5627 5628 5629 5630 5631 5632 5633 5634 5635 5636 5637 5638 5639 5640 5641 5642 5643 5644 5645 5646 5647 5648 5649 5650 5651 5652 5653 5654 5655 5656 5657 5658 5659 5660 5661 5662 5663 5664 5665 5666 5667 5668 5669 5670 5671 5672 5673 5674 5675 5676 5677 5678 5679 5680 5681 5682 5683 5684 5685 5686 5687 5688 5689 5690 5691 5692 5693 5694 5695 5696 5697 5698 5699 5700 5701 5702 5703 5704 5705 5706 5707 5708 5709 5710 5711 5712 5713 5714 5715 5716 5717 5718 5719 5720 5721 5722 5723 5724 5725 5726 5727 5728 5729 5730 5731 5732 5733 5734 5735 5736 5737 5738 5739 5740 5741 5742 5743 5744 5745 5746 5747 5748 5749 5750 5751 5752 5753 5754 5755 5756 5757 5758 5759 5760 5761 5762 5763 5764 5765 5766 5767 5768 5769 5770 5771 5772 5773 5774 5775 5776 5777 5778 5779 5780 5781 5782 5783 5784 5785 5786 5787 5788 5789 5790 5791 5792 5793 5794 5795 5796 5797 5798 5799 5800 5801 5802 5803 5804 5805 5806 5807 5808 5809 5810 5811 5812 5813 5814 5815 5816 5817 5818 5819 5820 5821 5822 5823 5824 5825 5826 5827 5828 5829 5830 5831 5832 5833 5834 5835 5836 5837 5838 5839 5840 5841 5842 5843 5844 5845 5846 5847 5848 5849 5850 5851 5852 5853 5854 5855 5856 5857 5858 5859 5860 5861 5862 5863 5864 5865 5866 5867 5868 5869 5870 5871 5872 5873 5874 5875 5876 5877 5878 5879 5880 5881 5882 5883 5884 5885 5886 5887 5888 5889 5890 5891 5892 5893 5894 5895 5896 5897 5898 5899 5900 5901 5902 5903 5904 5905 5906 5907 5908 5909 5910 5911 5912 5913 5914 5915 5916 5917 5918 5919 5920 5921 5922 5923 5924 5925 5926 5927 5928 5929 5930 5931 5932 5933 5934 5935 5936 5937 5938 5939 5940 5941 5942 5943 5944 5945 5946 5947 5948 5949 5950 5951 5952 5953 5954 5955 5956 5957 5958 5959 5960 5961 5962 5963 5964 5965 5966 5967 5968 5969 5970 5971 5972 5973 5974 5975 5976 5977 5978 5979 5980 5981 5982 5983 5984 5985 5986 5987 5988 5989 5990 5991 5992 5993 5994 5995 5996 5997 5998 5999 6000 6001 6002 6003 6004 6005 6006 6007 6008 6009 6010 6011 6012 6013 6014 6015 6016 6017 6018 6019 6020 6021 6022 6023 6024 6025 6026 6027 6028 6029 6030 6031 6032 6033 6034 6035 6036 6037 6038 6039 6040 6041 6042 6043 6044 6045 6046 6047 6048 6049 6050 6051 6052 6053 6054 6055 6056 6057 6058 6059 6060 6061 6062 6063 6064 6065 6066 6067 6068 6069 6070 6071 6072 6073 6074 6075 6076 6077 6078 6079 6080 6081 6082 6083 6084 6085 6086 6087 6088 6089 6090 6091 6092 6093 6094 6095 6096 6097 6098 6099 6100 6101 6102 6103 6104 6105 6106 6107 6108 6109 6110 6111 6112 6113 6114 6115 6116 6117 6118 6119 6120 6121 6122 6123 6124 6125 6126 6127 6128 6129 6130 6131 6132 6133 6134 6135 6136 6137 6138 6139 6140 6141 6142 6143 6144 6145 6146 6147 6148 6149 6150 6151 6152 6153 6154 6155 6156 6157 6158 6159 6160 6161 6162 6163 6164 6165 6166 6167 6168 6169 6170 6171 6172 6173 6174 6175 6176 6177 6178 6179 6180 6181 6182 6183 6184 6185 6186 6187 6188 6189 6190 6191 6192 6193 6194 6195 6196 6197 6198 6199 6200 6201 6202 6203 6204 6205 6206 6207 6208 6209 6210 6211 6212 6213 6214 6215 6216 6217 6218 6219 6220 6221 6222 6223 6224 6225 6226 6227 6228 6229 6230 6231 6232 6233 6234 6235 6236 6237 6238 6239 6240 6241 6242 6243 6244 6245 6246 6247 6248 6249 6250 6251 6252 6253 6254 6255 6256 6257 6258 6259 6260 6261 6262 6263 6264 6265 6266 6267 6268 6269 6270 6271 6272 6273 6274 6275 6276 6277 6278 6279 6280 6281 6282 6283 6284 6285 6286 6287 6288 6289 6290 6291 6292 6293 6294 6295 6296 6297 6298 6299 6300 6301 6302 6303 6304 6305 6306 6307 6308 6309 6310 6311 6312 6313 6314 6315 6316 6317 6318 6319 6320 6321 6322 6323 6324 6325 6326 6327 6328 6329 6330 6331 6332 6333 6334 6335 6336 6337 6338 6339 6340 6341 6342 6343 6344 6345 6346 6347 6348 6349 6350 6351 6352 6353 6354 6355 6356 6357 6358 6359 6360 6361 6362 6363 6364 6365 6366 6367 6368 6369 6370 6371 6372 6373 6374 6375 6376 6377 6378 6379 6380 6381 6382 6383 6384 6385 6386 6387 6388 6389 6390 6391 6392 6393 6394 6395 6396 6397 6398 6399 6400 6401 6402 6403 6404 6405 6406 6407 6408 6409 6410 6411 6412 6413 6414 6415 6416 6417 6418 6419 6420 6421 6422 6423 6424 6425 6426 6427 6428 6429 6430 6431 6432 6433 6434 6435 6436 6437 6438 6439 6440 6441 6442 6443 6444 6445 6446 6447 6448 6449 6450 6451 6452 6453 6454 6455 6456 6457 6458 6459 6460 6461 6462 6463 6464 6465 6466 6467 6468 6469 6470 6471 6472 6473 6474 6475 6476 6477 6478 6479 6480 6481 6482 6483 6484 6485 6486 6487 6488 6489 6490 6491 6492 6493 6494 6495 6496 6497 6498 6499 6500 6501 6502 6503 6504 6505 6506 6507 6508 6509 6510 6511 6512 6513 6514 6515 6516 6517 6518 6519 6520 6521 6522 6523 6524 6525 6526 6527 6528 6529 6530 6531 6532 6533 6534 6535 6536 6537 6538 6539 6540 6541 6542 6543 6544 6545 6546 6547 6548 6549 6550 6551 6552 6553 6554 6555 6556 6557 6558 6559 6560 6561 6562 6563 6564 6565 6566 6567 6568 6569 6570 6571 6572 6573 6574 6575 6576 6577 6578 6579 6580 6581 6582 6583 6584 6585 6586 6587 6588 6589 6590 6591 6592 6593 6594 6595 6596 6597 6598 6599 6600 6601 6602 6603 6604 6605 6606 6607 6608 6609 6610 6611 6612 6613 6614 6615 6616 6617 6618 6619 6620 6621 6622 6623 6624 6625 6626 6627 6628 6629 6630 6631 6632 6633 6634 6635 6636 6637 6638 6639 6640 6641 6642 6643 6644 6645 6646 6647 6648 6649 6650 6651 6652 6653 6654 6655 6656 6657 6658 6659 6660 6661 6662 6663 6664 6665 6666 6667 6668 6669 6670 6671 6672 6673 6674 6675 6676 6677 6678 6679 6680 6681 6682 6683 6684 6685 6686 6687 6688 6689 6690 6691 6692 6693 6694 6695 6696 6697 6698 6699 6700 6701 6702 6703 6704 6705 6706 6707 6708 6709 6710 6711 6712 6713 6714 6715 6716 6717 6718 6719 6720 6721 6722 6723 6724 6725 6726 6727 6728 6729 6730 6731 6732 6733 6734 6735 6736 6737 6738 6739 6740 6741 6742 6743 6744 6745 6746 6747 6748 6749 6750 6751 6752 6753 6754 6755 6756 6757 6758 6759 6760 6761 6762 6763 6764 6765 6766 6767 6768 6769 6770 6771 6772 6773 6774 6775 6776 6777 6778 6779 6780 6781 6782 6783 6784 6785 6786 6787 6788 6789 6790 6791 6792 6793 6794 6795 6796 6797 6798 6799 6800 6801 6802 6803 6804 6805 6806 6807 6808 6809 6810 6811 6812 6813 6814 6815 6816 6817 6818 6819 6820 6821 6822 6823 6824 6825 6826 6827 6828 6829 6830 6831 6832 6833 6834 6835 6836 6837 6838 6839 6840 6841 6842 6843 6844 6845 6846 6847 6848 6849 6850 6851 6852 6853 6854 6855 6856 6857 6858 6859 6860 6861 6862 6863 6864 6865 6866 6867 6868 6869 6870 6871 6872 6873 6874 6875 6876 6877 6878 6879 6880 6881 6882 6883 6884 6885 6886 6887 6888 6889 6890 6891 6892 6893 6894 6895 6896 6897 6898 6899 6900 6901 6902 6903 6904 6905 6906 6907 6908 6909 6910 6911 6912 6913 6914 6915 6916 6917 6918 6919 6920 6921 6922 6923 6924 6925 6926 6927 6928 6929 6930 6931 6932 6933 6934 6935 6936 6937 6938 6939 6940 6941 6942 6943 6944 6945 6946 6947 6948 6949 6950 6951 6952 6953 6954 6955 6956 6957 6958 6959 6960 6961 6962 6963 6964 6965 6966 6967 6968 6969 6970 6971 6972 6973 6974 6975 6976 6977 6978 6979 6980 6981 6982 6983 6984 6985 6986 6987 6988 6989 6990 6991 6992 6993 6994 6995 6996 6997 6998 6999 7000 7001 7002 7003 7004 7005 7006 7007 7008 7009 7010 7011 7012 7013 7014 7015 7016 7017 7018 7019 7020 7021 7022 7023 7024 7025 7026 7027 7028 7029 7030 7031 7032 7033 7034 7035 7036 7037 7038 7039 7040 7041 7042 7043 7044 7045 7046 7047 7048 7049 7050 7051 7052 7053 7054 7055 7056 7057 7058 7059 7060 7061 7062 7063 7064 7065 7066 7067 7068 7069 7070 7071 7072 7073 7074 7075 7076 7077 7078 7079 7080 7081 7082 7083 7084 7085 7086 7087 7088 7089 7090 7091 7092 7093 7094 7095 7096 7097 7098 7099 7100 7101 7102 7103 7104 7105 7106 7107 7108 7109 7110 7111 7112 7113 7114 7115 7116 7117 7118 7119 7120 7121 7122 7123 7124 7125 7126 7127 7128 7129 7130 7131 7132 7133 7134 7135 7136 7137 7138 7139 7140 7141 7142 7143 7144 7145 7146 7147 7148 7149 7150 7151 7152 7153 7154 7155 7156 7157 7158 7159 7160 7161 7162 7163 7164 7165 7166 7167 7168 7169 7170 7171 7172 7173 7174 7175 7176 7177 7178 7179 7180 7181 7182 7183 7184 7185 7186 7187 7188 7189 7190 7191 7192 7193 7194 7195 7196 7197 7198 7199 7200 7201 7202 7203 7204 7205 7206 7207 7208 7209 7210 7211 7212 7213 7214 7215 7216 7217 7218 7219 7220 7221 7222 7223 7224 7225 7226 7227 7228 7229 7230 7231 7232 7233 7234 7235 7236 7237 7238 7239 7240 7241 7242 7243 7244 7245 7246 7247 7248 7249 7250 7251 7252 7253 7254 7255 7256 7257 7258 7259 7260 7261 7262 7263 7264 7265 7266 7267 7268 7269 7270 7271 7272 7273 7274 7275 7276 7277 7278 7279 7280 7281 7282 7283 7284 7285 7286 7287 7288 7289 7290 7291 7292 7293 7294 7295 7296 7297 7298 7299 7300 7301 7302 7303 7304 7305 7306 7307 7308 7309 7310 7311 7312 7313 7314 7315 7316 7317 7318 7319 7320 7321 7322 7323 7324 7325 7326 7327 7328 7329 7330 7331 7332 7333 7334 7335 7336 7337 7338 7339 7340 7341 7342 7343 7344 7345 7346 7347 7348 7349 7350 7351 7352 7353 7354 7355 7356 7357 7358 7359 7360 7361 7362 7363 7364 7365 7366 7367 7368 7369 7370 7371 7372 7373 7374 7375 7376 7377 7378 7379 7380 7381 7382 7383 7384 7385 7386 7387 7388 7389 7390 7391 7392 7393 7394 7395 7396 7397 7398 7399 7400 7401 7402 7403 7404 7405 7406 7407 7408 7409 7410 7411 7412 7413 7414 7415 7416 7417 7418 7419 7420 7421 7422 7423 7424 7425 7426 7427 7428 7429 7430 7431 7432 7433 7434 7435 7436 7437 7438 7439 7440 7441 7442 7443 7444 7445 7446 7447 7448 7449 7450 7451 7452 7453 7454 7455 7456 7457 7458 7459 7460 7461 7462 7463 7464 7465 7466 7467 7468 7469 7470 7471 7472 7473 7474 7475 7476 7477 7478 7479 7480 7481 7482 7483 7484 7485 7486 7487 7488 7489 7490 7491 7492 7493 7494 7495 7496 7497 7498 7499 7500 7501 7502 7503 7504 7505 7506 7507 7508 7509 7510 7511 7512 7513 7514 7515 7516 7517 7518 7519 7520 7521 7522 7523 7524 7525 7526 7527 7528 7529 7530 7531 7532 7533 7534 7535 7536 7537 7538 7539 7540 7541 7542 7543 7544 7545 7546 7547 7548 7549 7550 7551 7552 7553 7554 7555 7556 7557 7558 7559 7560 7561 7562 7563 7564 7565 7566 7567 7568 7569 7570 7571 7572 7573 7574 7575 7576 7577 7578 7579 7580 7581 7582 7583 7584 7585 7586 7587 7588 7589 7590 7591 7592 7593 7594 7595 7596 7597 7598 7599 7600 7601 7602 7603 7604 7605 7606 7607 7608 7609 7610 7611 7612 7613 7614 7615 7616 7617 7618 7619 7620 7621 7622 7623 7624 7625 7626 7627 7628 7629 7630 7631 7632 7633 7634 7635 7636 7637 7638 7639 7640 7641 7642 7643 7644 7645 7646 7647 7648 7649 7650 7651 7652 7653 7654 7655 7656 7657 7658 7659 7660 7661 7662 7663 7664 7665 7666 7667 7668 7669 7670 7671 7672 7673 7674 7675 7676 7677 7678 7679 7680 7681 7682 7683 7684 7685 7686 7687 7688 7689 7690 7691 7692 7693 7694 7695 7696 7697 7698 7699 7700 7701 7702 7703 7704 7705 7706 7707 7708 7709 7710 7711 7712 7713 7714 7715 7716 7717 7718 7719 7720 7721 7722 7723 7724 7725 7726 7727 7728 7729 7730 7731 7732 7733 7734 7735 7736 7737 7738 7739 7740 7741 7742 7743 7744 7745 7746 7747 7748 7749 7750 7751 7752 7753 7754 7755 7756 7757 7758 7759 7760 7761 7762 7763 7764 7765 7766 7767 7768 7769 7770 7771 7772 7773 7774 7775 7776 7777 7778 7779 7780 7781 7782 7783 7784 7785 7786 7787 7788 7789 7790 7791 7792 7793 7794 7795 7796 7797 7798 7799 7800 7801 7802 7803 7804 7805 7806 7807 7808 7809 7810 7811 7812 7813 7814 7815 7816 7817 7818 7819 7820 7821 7822 7823 7824 7825 7826 7827 7828 7829 7830 7831 7832 7833 7834 7835 7836 7837 7838 7839 7840 7841 7842 7843 7844 7845 7846 7847 7848 7849 7850 7851 7852 7853 7854 7855 7856 7857 7858 7859 7860 7861 7862 7863 7864 7865 7866 7867 7868 7869 7870 7871 7872 7873 7874 7875 7876 7877 7878 7879 7880 7881 7882 7883 7884 7885 7886 7887 7888 7889 7890 7891 7892 7893 7894 7895 7896 7897 7898 7899 7900 7901 7902 7903 7904 7905 7906 7907 7908 7909 7910 7911 7912 7913 7914 7915 7916 7917 7918 7919 7920 7921 7922 7923 7924 7925 7926 7927 7928 7929 7930 7931 7932 7933 7934 7935 7936 7937 7938 7939 7940 7941 7942 7943 7944 7945 7946 7947 7948 7949 7950 7951 7952 7953 7954 7955 7956 7957 7958 7959 7960 7961 7962 7963 7964 7965 7966 7967 7968 7969 7970 7971 7972 7973 7974 7975 7976 7977 7978 7979 7980 7981 7982 7983 7984 7985 7986 7987 7988 7989 7990 7991 7992 7993 7994 7995 7996 7997 7998 7999 8000 8001 8002 8003 8004 8005 8006 8007 8008 8009 8010 8011 8012 8013 8014 8015 8016 8017 8018 8019 8020 8021 8022 8023 8024 8025 8026 8027 8028 8029 8030 8031 8032 8033 8034 8035 8036 8037 8038 8039 8040 8041 8042 8043 8044 8045 8046 8047 8048 8049 8050 8051 8052 8053 8054 8055 8056 8057 8058 8059 8060 8061 8062 8063 8064 8065 8066 8067 8068 8069 8070 8071 8072 8073 8074 8075 8076 8077 8078 8079 8080 8081 8082 8083 8084 8085 8086 8087 8088 8089 8090 8091 8092 8093 8094 8095 8096 8097 8098 8099 8100 8101 8102 8103 8104 8105 8106 8107 8108 8109 8110 8111 8112 8113 8114 8115 8116 8117 8118 8119 8120 8121 8122 8123 8124 8125 8126 8127 8128 8129 8130 8131 8132 8133 8134 8135 8136 8137 8138 8139 8140 8141 8142 8143 8144 8145 8146 8147 8148 8149 8150 8151 8152 8153 8154 8155 8156 8157 8158 8159 8160 8161 8162 8163 8164 8165 8166 8167 8168 8169 8170 8171 8172 8173 8174 8175 8176 8177 8178 8179 8180 8181 8182 8183 8184 8185 8186 8187 8188 8189 8190 8191 8192 8193 8194 8195 8196 8197 8198 8199 8200 8201 8202 8203 8204 8205 8206 8207 8208 8209 8210 8211 8212 8213 8214 8215 8216 8217 8218 8219 8220 8221 8222 8223 8224 8225 8226 8227 8228 8229 8230 8231 8232 8233 8234 8235 8236 8237 8238 8239 8240 8241 8242 8243 8244 8245 8246 8247 8248 8249 8250 8251 8252 8253 8254 8255 8256 8257 8258 8259 8260 8261 8262 8263 8264 8265 8266 8267 8268 8269 8270 8271 8272 8273 8274 8275 8276 8277 8278 8279 8280 8281 8282 8283 8284 8285 8286 8287 8288 8289 8290 8291 8292 8293 8294 8295 8296 8297 8298 8299 8300 8301 8302 8303 8304 8305 8306 8307 8308 8309 8310 8311 8312 8313 8314 8315 8316 8317 8318 8319 8320 8321 8322 8323 8324 8325 8326 8327 8328 8329 8330 8331 8332 8333 8334 8335 8336 8337 8338 8339 8340 8341 8342 8343 8344 8345 8346 8347 8348 8349 8350 8351 8352 8353 8354 8355 8356 8357 8358 8359 8360 8361 8362 8363 8364 8365 8366 8367 8368 8369 8370 8371 8372 8373 8374 8375 8376 8377 8378 8379 8380 8381 8382 8383 8384 8385 8386 8387 8388 8389 8390 8391 8392 8393 8394 8395 8396 8397 8398 8399 8400 8401 8402 8403 8404 8405 8406 8407 8408 8409 8410 8411 8412 8413 8414 8415 8416 8417 8418 8419 8420 8421 8422 8423 8424 8425 8426 8427 8428 8429 8430 8431 8432 8433 8434 8435 8436 8437 8438 8439 8440 8441 8442 8443 8444 8445 8446 8447 8448 8449 8450 8451 8452 8453 8454 8455 8456 8457 8458 8459 8460 8461 8462 8463 8464 8465 8466 8467 8468 8469 8470 8471 8472 8473 8474 8475 8476 8477 8478 8479 8480 8481 8482 8483 8484 8485 8486 8487 8488 8489 8490 8491 8492 8493 8494 8495 8496 8497 8498 8499 8500 8501 8502 8503 8504 8505 8506 8507 8508 8509 8510 8511 8512 8513 8514 8515 8516 8517 8518 8519 8520 8521 8522 8523 8524 8525 8526 8527 8528 8529 8530 8531 8532 8533 8534 8535 8536 8537 8538 8539 8540 8541 8542 8543 8544 8545 8546 8547 8548 8549 8550 8551 8552 8553 8554 8555 8556 8557 8558 8559 8560 8561 8562 8563 8564 8565 8566 8567 8568 8569 8570 8571 8572 8573 8574 8575 8576 8577 8578 8579 8580 8581 8582 8583 8584 8585 8586 8587 8588 8589 8590 8591 8592 8593 8594 8595 8596 8597 8598 8599 8600 8601 8602 8603 8604 8605 8606 8607 8608 8609 8610 8611 8612 8613 8614 8615 8616 8617 8618 8619 8620 8621 8622 8623 8624 8625 8626 8627 8628 8629 8630 8631 8632 8633 8634 8635 8636 8637 8638 8639 8640 8641 8642 8643 8644 8645 8646 8647 8648 8649 8650 8651 8652 8653 8654 8655 8656 8657 8658 8659 8660 8661 8662 8663 8664 8665 8666 8667 8668 8669 8670 8671 8672 8673 8674 8675 8676 8677 8678 8679 8680 8681 8682 8683 8684 8685 8686 8687 8688 8689 8690 8691 8692 8693 8694 8695 8696 8697 8698 8699 8700 8701 8702 8703 8704 8705 8706 8707 8708 8709 8710 8711 8712 8713 8714 8715 8716 8717 8718 8719 8720 8721 8722 8723 8724 8725 8726 8727 8728 8729 8730 8731 8732 8733 8734 8735 8736 8737 8738 8739 8740 8741 8742 8743 8744 8745 8746 8747 8748 8749 8750 8751 8752 8753 8754 8755 8756 8757 8758 8759 8760 8761 8762 8763 8764 8765 8766 8767 8768 8769 8770 8771 8772 8773 8774 8775 8776 8777 8778 8779 8780 8781 8782 8783 8784 8785 8786 8787 8788 8789 8790 8791 8792 8793 8794 8795 8796 8797 8798 8799 8800 8801 8802 8803 8804 8805 8806 8807 8808 8809 8810 8811 8812 8813 8814 8815 8816 8817 8818 8819 8820 8821 8822 8823 8824 8825 8826 8827 8828 8829 8830 8831 8832 8833 8834 8835 8836 8837 8838 8839 8840 8841 8842 8843 8844 8845 8846 8847 8848 8849 8850 8851 8852 8853 8854 8855 8856 8857 8858 8859 8860 8861 8862 8863 8864 8865 8866 8867 8868 8869 8870 8871 8872 8873 8874 8875 8876 8877 8878 8879 8880 8881 8882 8883 8884 8885 8886 8887 8888 8889 8890 8891 8892 8893 8894 8895 8896 8897 8898 8899 8900 8901 8902 8903 8904 8905 8906 8907 8908 8909 8910 8911 8912 8913 8914 8915 8916 8917 8918 8919 8920 8921 8922 8923 8924 8925 8926 8927 8928 8929 8930 8931 8932 8933 8934 8935 8936 8937 8938 8939 8940 8941 8942 8943 8944 8945 8946 8947 8948 8949 8950 8951 8952 8953 8954 8955 8956 8957 8958 8959 8960 8961 8962 8963 8964 8965 8966 8967 8968 8969 8970 8971 8972 8973 8974 8975 8976 8977 8978 8979 8980 8981 8982 8983 8984 8985 8986 8987 8988 8989 8990 8991 8992 8993 8994 8995 8996 8997 8998 8999 9000 9001 9002 9003 9004 9005 9006 9007 9008 9009 9010 9011 9012 9013 9014 9015 9016 9017 9018 9019 9020 9021 9022 9023 9024 9025 9026 9027 9028 9029 9030 9031 9032 9033 9034 9035 9036 9037 9038 9039 9040 9041 9042 9043 9044 9045 9046 9047 9048 9049 9050 9051 9052 9053 9054 9055 9056 9057 9058 9059 9060 9061 9062 9063 9064 9065 9066 9067 9068 9069 9070 9071 9072 9073 9074 9075 9076 9077 9078 9079 9080 9081 9082 9083 9084 9085 9086 9087 9088 9089 9090 9091 9092 9093 9094 9095 9096 9097 9098 9099 9100 9101 9102 9103 9104 9105 9106 9107 9108 9109 9110 9111 9112 9113 9114 9115 9116 9117 9118 9119 9120 9121 9122 9123 9124 9125 9126 9127 9128 9129 9130 9131 9132 9133 9134 9135 9136 9137 9138 9139 9140 9141 9142 9143 9144 9145 9146 9147 9148 9149 9150 9151 9152 9153 9154 9155 9156 9157 9158 9159 9160 9161 9162 9163 9164 9165 9166 9167 9168 9169 9170 9171 9172 9173 9174 9175 9176 9177 9178 9179 9180 9181 9182 9183 9184 9185 9186 9187 9188 9189 9190 9191 9192 9193 9194 9195 9196 9197 9198 9199 9200 9201 9202 9203 9204 9205 9206 9207 9208 9209 9210 9211 9212 9213 9214 9215 9216 9217 9218 9219 9220 9221 9222 9223 9224 9225 9226 9227 9228 9229 9230 9231 9232 9233 9234 9235 9236 9237 9238 9239 9240 9241 9242 9243 9244 9245 9246 9247 9248 9249 9250 9251 9252 9253 9254 9255 9256 9257 9258 9259 9260 9261 9262 9263 9264 9265 9266 9267 9268 9269 9270 9271 9272 9273 9274 9275 9276 9277 9278 9279 9280 9281 9282 9283 9284 9285 9286 9287 9288 9289 9290 9291 9292 9293 9294 9295 9296 9297 9298 9299 9300 9301 9302 9303 9304 9305 9306 9307 9308 9309 9310 9311 9312 9313 9314 9315 9316 9317 9318 9319 9320 9321 9322 9323 9324 9325 9326 9327 9328 9329 9330 9331 9332 9333 9334 9335 9336 9337 9338 9339 9340 9341 9342 9343 9344 9345 9346 9347 9348 9349 9350 9351 9352 9353 9354 9355 9356 9357 9358 9359 9360 9361 9362 9363 9364 9365 9366 9367 9368 9369 9370 9371 9372 9373 9374 9375 9376 9377 9378 9379 9380 9381 9382 9383 9384 9385 9386 9387 9388 9389 9390 9391 9392 9393 9394 9395 9396 9397 9398 9399 9400 9401 9402 9403 9404 9405 9406 9407 9408 9409 9410 9411 9412 9413 9414 9415 9416 9417 9418 9419 9420 9421 9422 9423 9424 9425 9426 9427 9428 9429 9430 9431 9432 9433 9434 9435 9436 9437 9438 9439 9440 9441 9442 9443 9444 9445 9446 9447 9448 9449 9450 9451 9452 9453 9454 9455 9456 9457 9458 9459 9460 9461 9462 9463 9464 9465 9466 9467 9468 9469 9470 9471 9472 9473 9474 9475 9476 9477 9478 9479 9480 9481 9482 9483 9484 9485 9486 9487 9488 9489 9490 9491 9492 9493 9494 9495 9496 9497 9498 9499 9500 9501 9502 9503 9504 9505 9506 9507 9508 9509 9510 9511 9512 9513 9514 9515 9516 9517 9518 9519 9520 9521 9522 9523 9524 9525 9526 9527 9528 9529 9530 9531 9532 9533 9534 9535 9536 9537 9538 9539 9540 9541 9542 9543 9544 9545 9546 9547 9548 9549 9550 9551 9552 9553 9554 9555 9556 9557 9558 9559 9560 9561 9562 9563 9564 9565 9566 9567 9568 9569 9570 9571 9572 9573 9574 9575 9576 9577 9578 9579 9580 9581 9582 9583 9584 9585 9586 9587 9588 9589 9590 9591 9592 9593 9594 9595 9596 9597 9598 9599 9600 9601 9602 9603 9604 9605 9606 9607 9608 9609 9610 9611 9612 9613 9614 9615 9616 9617 9618 9619 9620 9621 9622 9623 9624 9625 9626 9627 9628 9629 9630 9631 9632 9633 9634 9635 9636 9637 9638 9639 9640 9641 9642 9643 9644 9645 9646 9647 9648 9649 9650 9651 9652 9653 9654 9655 9656 9657 9658 9659 9660 9661 9662 9663 9664 9665 9666 9667 9668 9669 9670 9671 9672 9673 9674 9675 9676 9677 9678 9679 9680 9681 9682 9683 9684 9685 9686 9687 9688 9689 9690 9691 9692 9693 9694 9695 9696 9697 9698 9699 9700 9701 9702 9703 9704 9705 9706 9707 9708 9709 9710 9711 9712 9713 9714 9715 9716 9717 9718 9719 9720 9721 9722 9723 9724 9725 9726 9727 9728 9729 9730 9731 9732 9733 9734 9735 9736 9737 9738 9739 9740 9741 9742 9743 9744 9745 9746 9747 9748 9749 9750 9751 9752 9753 9754 9755 9756 9757 9758 9759 9760 9761 9762 9763 9764 9765 9766 9767 9768 9769 9770 9771 9772 9773 9774 9775 9776 9777 9778 9779 9780 9781 9782 9783 9784 9785 9786 9787 9788 9789 9790 9791 9792 9793 9794 9795 9796 9797 9798 9799 9800 9801 9802 9803 9804 9805 9806 9807 9808 9809 9810 9811 9812 9813 9814 9815 9816 9817 9818 9819 9820 9821 9822 9823 9824 9825 9826 9827 9828 9829 9830 9831 9832 9833 9834 9835 9836 9837 9838 9839 9840 9841 9842 9843 9844 9845 9846 9847 9848 9849 9850 9851 9852 9853 9854 9855 9856 9857 9858 9859 9860 9861 9862 9863 9864 9865 9866 9867 9868 9869 9870 9871 9872 9873 9874 9875 9876 9877 9878 9879 9880 9881 9882 9883 9884 9885 9886 9887 9888 9889 9890 9891 9892 9893 9894 9895 9896 9897 9898 9899 9900 9901 9902 9903 9904 9905 9906 9907 9908 9909 9910 9911 9912 9913 9914 9915 9916 9917 9918 9919 9920 9921 9922 9923 9924 9925 9926 9927 9928 9929 9930 9931 9932 9933 9934 9935 9936 9937 9938 9939 9940 9941 9942 9943 9944 9945 9946 9947 9948 9949 9950 9951 9952 9953 9954 9955 9956 9957 9958 9959 9960 9961 9962 9963 9964 9965 9966 9967 9968 9969 9970 9971 9972 9973 9974 9975 9976 9977 9978 9979 9980 9981 9982 9983 9984 9985 9986 9987 9988 9989 9990 9991 9992 9993 9994 9995 9996 9997 9998 9999 10000 10001 10002 10003 10004 10005 10006 10007 10008 10009 10010 10011 10012 10013 10014 10015 10016 10017 10018 10019 10020 10021 10022 10023 10024 10025 10026 10027 10028 10029 10030 10031 10032 10033 10034 10035 10036 10037 10038 10039 10040 10041 10042 10043 10044 10045 10046 10047 10048 10049 10050 10051 10052 10053 10054 10055 10056 10057 10058 10059 10060 10061 10062 10063 10064 10065 10066 10067 10068 10069 10070 10071 10072 10073 10074 10075 10076 10077 10078 10079 10080 10081 10082 10083 10084 10085 10086 10087 10088 10089 10090 10091 10092 10093 10094 10095 10096 10097 10098 10099 10100 10101 10102 10103 10104 10105 10106 10107 10108 10109 10110 10111 10112 10113 10114 10115 10116 10117 10118 10119 10120 10121 10122 10123 10124 10125 10126 10127 10128 10129 10130 10131 10132 10133 10134 10135 10136 10137 10138 10139 10140 10141 10142 10143 10144 10145 10146 10147 10148 10149 10150 10151 10152 10153 10154 10155 10156 10157 10158 10159 10160 10161 10162 10163 10164 10165 10166 10167 10168 10169 10170 10171 10172 10173 10174 10175 10176 10177 10178 10179 10180 10181 10182 10183 10184 10185 10186 10187 10188 10189 10190 10191 10192 10193 10194 10195 10196 10197 10198 10199 10200 10201 10202 10203 10204 10205 10206 10207 10208 10209 10210 10211 10212 10213 10214 10215 10216 10217 10218 10219 10220 10221 10222 10223 10224 10225 10226 10227 10228 10229 10230 10231 10232 10233 10234 10235 10236 10237 10238 10239 10240 10241 10242 10243 10244 10245 10246 10247 10248 10249 10250 10251 10252 10253 10254 10255 10256 10257 10258 10259 10260 10261 10262 10263 10264 10265 10266 10267 10268 10269 10270 10271 10272 10273 10274 10275 10276 10277 10278 10279 10280 10281 10282 10283 10284 10285 10286 10287 10288 10289 10290 10291 10292 10293 10294 10295 10296 10297 10298 10299 10300 10301 10302 10303 10304 10305 10306 10307 10308 10309 10310 10311 10312 10313 10314 10315 10316 10317 10318 10319 10320 10321 10322 10323 10324 10325 10326 10327 10328 10329 10330 10331 10332 10333 10334 10335 10336 10337 10338 10339 10340 10341 10342 10343 10344 10345 10346 10347 10348 10349 10350 10351 10352 10353 10354 10355 10356 10357 10358 10359 10360 10361 10362 10363 10364 10365 10366 10367 10368 10369 10370 10371 10372 10373 10374 10375 10376 10377 10378 10379 10380 10381 10382 10383 10384 10385 10386 10387 10388 10389 10390 10391 10392 10393 10394 10395 10396 10397 10398 10399 10400 10401 10402 10403 10404 10405 10406 10407 10408 10409 10410 10411 10412 10413 10414 10415 10416 10417 10418 10419 10420 10421 10422 10423 10424 10425 10426 10427 10428 10429 10430 10431 10432 10433 10434 10435 10436 10437 10438 10439 10440 10441 10442 10443 10444 10445 10446 10447 10448 10449 10450 10451 10452 10453 10454 10455 10456 10457 10458 10459 10460 10461 10462 10463 10464 10465 10466 10467 10468 10469 10470 10471 10472 10473 10474 10475 10476 10477 10478 10479 10480 10481 10482 10483 10484 10485 10486 10487 10488 10489 10490 10491 10492 10493 10494 10495 10496 10497 10498 10499 10500 10501 10502 10503 10504 10505 10506 10507 10508 10509 10510 10511 10512 10513 10514 10515 10516 10517 10518 10519 10520 10521 10522 10523 10524 10525 10526 10527 10528 10529 10530 10531 10532 10533 10534 10535 10536 10537 10538 10539 10540 10541 10542 10543 10544 10545 10546 10547 10548 10549 10550 10551 10552 10553 10554 10555 10556 10557 10558 10559 10560 10561 10562 10563 10564 10565 10566 10567 10568 10569 10570 10571 10572 10573 10574 10575 10576 10577 10578 10579 10580 10581 10582 10583 10584 10585 10586 10587 10588 10589 10590 10591 10592 10593 10594 10595 10596 10597 10598 10599 10600 10601 10602 10603 10604 10605 10606 10607 10608 10609 10610 10611 10612 10613 10614 10615 10616 10617 10618 10619 10620 10621 10622 10623 10624 10625 10626 10627 10628 10629 10630 10631 10632 10633 10634 10635 10636 10637 10638 10639 10640 10641 10642 10643 10644 10645 10646 10647 10648 10649 10650 10651 10652 10653 10654 10655 10656 10657 10658 10659 10660 10661 10662 10663 10664 10665 10666 10667 10668 10669 10670 10671 10672 10673 10674 10675 10676 10677 10678 10679 10680 10681 10682 10683 10684 10685 10686 10687 10688 10689 10690 10691 10692 10693 10694 10695 10696 10697 10698 10699 10700 10701 10702 10703 10704 10705 10706 10707 10708 10709 10710 10711 10712 10713 10714 10715 10716 10717 10718 10719 10720 10721 10722 10723 10724 10725 10726 10727 10728 10729 10730 10731 10732 10733 10734 10735 10736 10737 10738 10739 10740 10741 10742 10743 10744 10745 10746 10747 10748 10749 10750 10751 10752 10753 10754 10755 10756 10757 10758 10759 10760 10761 10762 10763 10764 10765 10766 10767 10768 10769 10770 10771 10772 10773 10774 10775 10776 10777 10778 10779 10780 10781 10782 10783 10784 10785 10786 10787 10788 10789 10790 10791 10792 10793 10794 10795 10796 10797 10798 10799 10800 10801 10802 10803 10804 10805 10806 10807 10808 10809 10810 10811 10812 10813 10814 10815 10816 10817 10818 10819 10820 10821 10822 10823 10824 10825 10826 10827 10828 10829 10830 10831 10832 10833 10834 10835 10836 10837 10838 10839 10840 10841 10842 10843 10844 10845 10846 10847 10848 10849 10850 10851 10852 10853 10854 10855 10856 10857 10858 10859 10860 10861 10862 10863 10864 10865 10866 10867 10868 10869 10870 10871 10872 10873 10874 10875 10876 10877 10878 10879 10880 10881 10882 10883 10884 10885 10886 10887 10888 10889 10890 10891 10892 10893 10894 10895 10896 10897 10898 10899 10900 10901 10902 10903 10904 10905 10906 10907 10908 10909 10910 10911 10912 10913 10914 10915 10916 10917 10918 10919 10920 10921 10922 10923 10924 10925 10926 10927 10928 10929 10930 10931 10932 10933 10934 10935 10936 10937 10938 10939 10940 10941 10942 10943 10944 10945 10946 10947 10948 10949 10950 10951 10952 10953 10954 10955 10956 10957 10958 10959 10960 10961 10962 10963 10964 10965 10966 10967 10968 10969 10970 10971 10972 10973 10974 10975 10976 10977 10978 10979 10980 10981 10982 10983 10984 10985 10986 10987 10988 10989 10990 10991 10992 10993 10994 10995 10996 10997 10998 10999 11000 11001 11002 11003 11004 11005 11006 11007 11008 11009 11010 11011 11012 11013 11014 11015 11016 11017 11018 11019 11020 11021 11022 11023 11024 11025 11026 11027 11028 11029 11030 11031 11032 11033 11034 11035 11036 11037 11038 11039 11040 11041 11042 11043 11044 11045 11046 11047 11048 11049 11050 11051 11052 11053 11054 11055 11056 11057 11058 11059 11060 11061 11062 11063 11064 11065 11066 11067 11068 11069 11070 11071 11072 11073 11074 11075 11076 11077 11078 11079 11080 11081 11082 11083 11084 11085 11086 11087 11088 11089 11090 11091 11092 11093 11094 11095 11096 11097 11098 11099 11100 11101 11102 11103 11104 11105 11106 11107 11108 11109 11110 11111 11112 11113 11114 11115 11116 11117 11118 11119 11120 11121 11122 11123 11124 11125 11126 11127 11128 11129 11130 11131 11132 11133 11134 11135 11136 11137 11138 11139 11140 11141 11142 11143 11144 11145 11146 11147 11148 11149 11150 11151 11152 11153 11154 11155 11156 11157 11158 11159 11160 11161 11162 11163 11164 11165 11166 11167 11168 11169 11170 11171 11172 11173 11174 11175 11176 11177 11178 11179 11180 11181 11182 11183 11184 11185 11186 11187 11188 11189 11190 11191 11192 11193 11194 11195 11196 11197 11198 11199 11200 11201 11202 11203 11204 11205 11206 11207 11208 11209 11210 11211 11212 11213 11214 11215 11216 11217 11218 11219 11220 11221 11222 11223 11224 11225 11226 11227 11228 11229 11230 11231 11232 11233 11234 11235 11236 11237 11238 11239 11240 11241 11242 11243 11244 11245 11246 11247 11248 11249 11250 11251 11252 11253 11254 11255 11256 11257 11258 11259 11260 11261 11262 11263 11264 11265 11266 11267 11268 11269 11270 11271 11272 11273 11274 11275 11276 11277 11278 11279 11280 11281 11282 11283 11284 11285 11286 11287 11288 11289 11290 11291 11292 11293 11294 11295 11296 11297 11298 11299 11300 11301 11302 11303 11304 11305 11306 11307 11308 11309 11310 11311 11312 11313 11314 11315 11316 11317 11318 11319 11320 11321 11322 11323 11324 11325 11326 11327 11328 11329 11330 11331 11332 11333 11334 11335 11336 11337 11338 11339 11340 11341 11342 11343 11344 11345 11346 11347 11348 11349 11350 11351 11352 11353 11354 11355 11356 11357 11358 11359 11360 11361 11362 11363 11364 11365 11366 11367 11368 11369 11370 11371 11372 11373 11374 11375 11376 11377 11378 11379 11380 11381 11382 11383 11384 11385 11386 11387 11388 11389 11390 11391 11392 11393 11394 11395 11396 11397 11398 11399 11400 11401 11402 11403 11404 11405 11406 11407 11408 11409 11410 11411 11412 11413 11414 11415 11416 11417 11418 11419 11420 11421 11422 11423 11424 11425 11426 11427 11428 11429 11430 11431 11432 11433 11434 11435 11436 11437 11438 11439 11440 11441 11442 11443 11444 11445 11446 11447 11448 11449 11450 11451 11452 11453 11454 11455 11456 11457 11458 11459 11460 11461 11462 11463 11464 11465 11466 11467 11468 11469 11470 11471 11472 11473 11474 11475 11476 11477 11478 11479 11480 11481 11482 11483 11484 11485 11486 11487 11488 11489 11490 11491 11492 11493 11494 11495 11496 11497 11498 11499 11500 11501 11502 11503 11504 11505 11506 11507 11508 11509 11510 11511 11512 11513 11514 11515 11516 11517 11518 11519 11520 11521 11522 11523 11524 11525 11526 11527 11528 11529 11530 11531 11532 11533 11534 11535 11536 11537 11538 11539 11540 11541 11542 11543 11544 11545 11546 11547 11548 11549 11550 11551 11552 11553 11554 11555 11556 11557 11558 11559 11560 11561 11562 11563 11564 11565 11566 11567 11568 11569 11570 11571 11572 11573 11574 11575 11576 11577 11578 11579 11580 11581 11582 11583 11584 11585 11586 11587 11588 11589 11590 11591 11592 11593 11594 11595 11596 11597 11598 11599 11600 11601 11602 11603 11604 11605 11606 11607 11608 11609 11610 11611 11612 11613 11614 11615 11616 11617 11618 11619 11620 11621 11622 11623 11624 11625 11626 11627 11628 11629 11630 11631 11632 11633 11634 11635 11636 11637 11638 11639 11640 11641 11642 11643 11644 11645 11646 11647 11648 11649 11650 11651 11652 11653 11654 11655 11656 11657 11658 11659 11660 11661 11662 11663 11664 11665 11666 11667 11668 11669 11670 11671 11672 11673 11674 11675 11676 11677 11678 11679 11680 11681 11682 11683 11684 11685 11686 11687 11688 11689 11690 11691 11692 11693 11694 11695 11696 11697 11698 11699 11700 11701 11702 11703 11704 11705 11706 11707 11708 11709 11710 11711 11712 11713 11714 11715 11716 11717 11718 11719 11720 11721 11722 11723 11724 11725 11726 11727 11728 11729 11730 11731 11732 11733 11734 11735 11736 11737 11738 11739 11740 11741 11742 11743 11744 11745 11746 11747 11748 11749 11750 11751 11752 11753 11754 11755 11756 11757 11758 11759 11760 11761 11762 11763 11764 11765 11766 11767 11768 11769 11770 11771 11772 11773 11774 11775 11776 11777 11778 11779 11780 11781 11782 11783 11784 11785 11786 11787 11788 11789 11790 11791 11792 11793 11794 11795 11796 11797 11798 11799 11800 11801 11802 11803 11804 11805 11806 11807 11808 11809 11810 11811 11812 11813 11814 11815 11816 11817 11818 11819 11820 11821 11822 11823 11824 11825 11826 11827 11828 11829 11830 11831 11832 11833 11834 11835 11836 11837 11838 11839 11840 11841 11842 11843 11844 11845 11846 11847 11848 11849 11850 11851 11852 11853 11854 11855 11856 11857 11858 11859 11860 11861 11862 11863 11864 11865 11866 11867 11868 11869 11870 11871 11872 11873 11874 11875 11876 11877 11878 11879 11880 11881 11882 11883 11884 11885 11886 11887 11888 11889 11890 11891 11892 11893 11894 11895 11896 11897 11898 11899 11900 11901 11902 11903 11904 11905 11906 11907 11908 11909 11910 11911 11912 11913 11914 11915 11916 11917 11918 11919 11920 11921 11922 11923 11924 11925 11926 11927 11928 11929 11930 11931 11932 11933 11934 11935 11936 11937 11938 11939 11940 11941 11942 11943 11944 11945 11946 11947 11948 11949 11950 11951 11952 11953 11954 11955 11956 11957 11958 11959 11960 11961 11962 11963 11964 11965 11966 11967 11968 11969 11970 11971 11972 11973 11974 11975 11976 11977 11978 11979 11980 11981 11982 11983 11984 11985 11986 11987 11988 11989 11990 11991 11992 11993 11994 11995 11996 11997 11998 11999 12000 12001 12002 12003 12004 12005 12006 12007 12008 12009 12010 12011 12012 12013 12014 12015 12016 12017 12018 12019 12020 12021 12022 12023 12024 12025 12026 12027 12028 12029 12030 12031 12032 12033 12034 12035 12036 12037 12038 12039 12040 12041 12042 12043 12044 12045 12046 12047 12048 12049 12050 12051 12052 12053 12054 12055 12056 12057 12058 12059 12060 12061 12062 12063 12064 12065 12066 12067 12068 12069 12070 12071 12072 12073 12074 12075 12076 12077 12078 12079 12080 12081 12082 12083 12084 12085 12086 12087 12088 12089 12090 12091 12092 12093 12094 12095 12096 12097 12098 12099 12100 12101 12102 12103 12104 12105 12106 12107 12108 12109 12110 12111 12112 12113 12114 12115 12116 12117 12118 12119 12120 12121 12122 12123 12124 12125 12126 12127 12128 12129 12130 12131 12132 12133 12134 12135 12136 12137 12138 12139 12140 12141 12142 12143 12144 12145 12146 12147 12148 12149 12150 12151 12152 12153 12154 12155 12156 12157 12158 12159 12160 12161 12162 12163 12164 12165 12166 12167 12168 12169 12170 12171 12172 12173 12174 12175 12176 12177 12178 12179 12180 12181 12182 12183 12184 12185 12186 12187 12188 12189 12190 12191 12192 12193 12194 12195 12196 12197 12198 12199 12200 12201 12202 12203 12204 12205 12206 12207 12208 12209 12210 12211 12212 12213 12214 12215 12216 12217 12218 12219 12220 12221 12222 12223 12224 12225 12226 12227 12228 12229 12230 12231 12232 12233 12234 12235 12236 12237 12238 12239 12240 12241 12242 12243 12244 12245 12246 12247 12248 12249 12250 12251 12252 12253 12254 12255 12256 12257 12258 12259 12260 12261 12262 12263 12264 12265 12266 12267 12268 12269 12270 12271 12272 12273 12274 12275 12276 12277 12278 12279 12280 12281 12282 12283 12284 12285 12286 12287 12288 12289 12290 12291 12292 12293 12294 12295 12296 12297 12298 12299 12300 12301 12302 12303 12304 12305 12306 12307 12308 12309 12310 12311 12312 12313 12314 12315 12316 12317 12318 12319 12320 12321 12322 12323 12324 12325 12326 12327 12328 12329 12330 12331 12332 12333 12334 12335 12336 12337 12338 12339 12340 12341 12342 12343 12344 12345 12346 12347 12348 12349 12350 12351 12352 12353 12354 12355 12356 12357 12358 12359 12360 12361 12362 12363 12364 12365 12366 12367 12368 12369 12370 12371 12372 12373 12374 12375 12376 12377 12378 12379 12380 12381 12382 12383 12384 12385 12386 12387 12388 12389 12390 12391 12392 12393 12394 12395 12396 12397 12398 12399 12400 12401 12402 12403 12404 12405 12406 12407 12408 12409 12410 12411 12412 12413 12414 12415 12416 12417 12418 12419 12420 12421 12422 12423 12424 12425 12426 12427 12428 12429 12430 12431 12432 12433 12434 12435 12436 12437 12438 12439 12440 12441 12442 12443 12444 12445 12446 12447 12448 12449 12450 12451 12452 12453 12454 12455 12456 12457 12458 12459 12460 12461 12462 12463 12464 12465 12466 12467 12468 12469 12470 12471 12472 12473 12474 12475 12476 12477 12478 12479 12480 12481 12482 12483 12484 12485 12486 12487 12488 12489 12490 12491 12492 12493 12494 12495 12496 12497 12498 12499 12500 12501 12502 12503 12504 12505 12506 12507 12508 12509 12510 12511 12512 12513 12514 12515 12516 12517 12518 12519 12520 12521 12522 12523 12524 12525 12526 12527 12528 12529 12530 12531 12532 12533 12534 12535 12536 12537 12538 12539 12540 12541 12542 12543 12544 12545 12546 12547 12548 12549 12550 12551 12552 12553 12554 12555 12556 12557 12558 12559 12560 12561 12562 12563 12564 12565 12566 12567 12568 12569 12570 12571 12572 12573 12574 12575 12576 12577 12578 12579 12580 12581 12582 12583 12584 12585 12586 12587 12588 12589 12590 12591 12592 12593 12594 12595 12596 12597 12598 12599 12600 12601 12602 12603 12604 12605 12606 12607 12608 12609 12610 12611 12612 12613 12614 12615 12616 12617 12618 12619 12620 12621 12622 12623 12624 12625 12626 12627 12628 12629 12630 12631 12632 12633 12634 12635 12636 12637 12638 12639 12640 12641 12642 12643 12644 12645 12646 12647 12648 12649 12650 12651 12652 12653 12654 12655 12656 12657 12658 12659 12660 12661 12662 12663 12664 12665 12666 12667 12668 12669 12670 12671 12672 12673 12674 12675 12676 12677 12678 12679 12680 12681 12682 12683 12684 12685 12686 12687 12688 12689 12690 12691 12692 12693 12694 12695 12696 12697 12698 12699 12700 12701 12702 12703 12704 12705 12706 12707 12708 12709 12710 12711 12712 12713 12714 12715 12716 12717 12718 12719 12720 12721 12722 12723 12724 12725 12726 12727 12728 12729 12730 12731 12732 12733 12734 12735 12736 12737 12738 12739 12740 12741 12742 12743 12744 12745 12746 12747 12748 12749 12750 12751 12752 12753 12754 12755 12756 12757 12758 12759 12760 12761 12762 12763 12764 12765 12766 12767 12768 12769 12770 12771 12772 12773 12774 12775 12776 12777 12778 12779 12780 12781 12782 12783 12784 12785 12786 12787 12788 12789 12790 12791 12792 12793 12794 12795 12796 12797 12798 12799 12800 12801 12802 12803 12804 12805 12806 12807 12808 12809 12810 12811 12812 12813 12814 12815 12816 12817 12818 12819 12820 12821 12822 12823 12824 12825 12826 12827 12828 12829 12830 12831 12832 12833 12834 12835 12836 12837 12838 12839 12840 12841 12842 12843 12844 12845 12846 12847 12848 12849 12850 12851 12852 12853 12854 12855 12856 12857 12858 12859 12860 12861 12862 12863 12864 12865 12866 12867 12868 12869 12870 12871 12872 12873 12874 12875 12876 12877 12878 12879 12880 12881 12882 12883 12884 12885 12886 12887 12888 12889 12890 12891 12892 12893 12894 12895 12896 12897 12898 12899 12900 12901 12902 12903 12904 12905 12906 12907 12908 12909 12910 12911 12912 12913 12914 12915 12916 12917 12918 12919 12920 12921 12922 12923 12924 12925 12926 12927 12928 12929 12930 12931 12932 12933 12934 12935 12936 12937 12938 12939 12940 12941 12942 12943 12944 12945 12946 12947 12948 12949 12950 12951 12952 12953 12954 12955 12956 12957 12958 12959 12960 12961 12962 12963 12964 12965 12966 12967 12968 12969 12970 12971 12972 12973 12974 12975 12976 12977 12978 12979 12980 12981 12982 12983 12984 12985 12986 12987 12988 12989 12990 12991 12992 12993 12994 12995 12996 12997 12998 12999 13000 13001 13002 13003 13004 13005 13006 13007 13008 13009 13010 13011 13012 13013 13014 13015 13016 13017 13018 13019 13020 13021 13022 13023 13024 13025 13026 13027 13028 13029 13030 13031 13032 13033 13034 13035 13036 13037 13038 13039 13040 13041 13042 13043 13044 13045 13046 13047 13048 13049 13050 13051 13052 13053 13054 13055 13056 13057 13058 13059 13060 13061 13062 13063 13064 13065 13066 13067 13068 13069 13070 13071 13072 13073 13074 13075 13076 13077 13078 13079 13080 13081 13082 13083 13084 13085 13086 13087 13088 13089 13090 13091 13092 13093 13094 13095 13096 13097 13098 13099 13100 13101 13102 13103 13104 13105 13106 13107 13108 13109 13110 13111 13112 13113 13114 13115 13116 13117 13118 13119 13120 13121 13122 13123 13124 13125 13126 13127 13128 13129 13130 13131 13132 13133 13134 13135 13136 13137 13138 13139 13140 13141 13142 13143 13144 13145 13146 13147 13148 13149 13150 13151 13152 13153 13154 13155 13156 13157 13158 13159 13160 13161 13162 13163 13164 13165 13166 13167 13168 13169 13170 13171 13172 13173 13174 13175 13176 13177 13178 13179 13180 13181 13182 13183 13184 13185 13186 13187 13188 13189 13190 13191 13192 13193 13194 13195 13196 13197 13198 13199 13200 13201 13202 13203 13204 13205 13206 13207 13208 13209 13210 13211 13212 13213 13214 13215 13216 13217 13218 13219 13220 13221 13222 13223 13224 13225 13226 13227 13228 13229 13230 13231 13232 13233 13234 13235 13236 13237 13238 13239 13240 13241 13242 13243 13244 13245 13246 13247 13248 13249 13250 13251 13252 13253 13254 13255 13256 13257 13258 13259 13260 13261 13262 13263 13264 13265 13266 13267 13268 13269 13270 13271 13272 13273 13274 13275 13276 13277 13278 13279 13280 13281 13282 13283 13284 13285 13286 13287 13288 13289 13290 13291 13292 13293 13294 13295 13296 13297 13298 13299 13300 13301 13302 13303 13304 13305 13306 13307 13308 13309 13310 13311 13312 13313 13314 13315 13316 13317 13318 13319 13320 13321 13322 13323 13324 13325 13326 13327 13328 13329 13330 13331 13332 13333 13334 13335 13336 13337 13338 13339 13340 13341 13342 13343 13344 13345 13346 13347 13348 13349 13350 13351 13352 13353 13354 13355 13356 13357 13358 13359 13360 13361 13362 13363 13364 13365 13366 13367 13368 13369 13370 13371 13372 13373 13374 13375 13376 13377 13378 13379 13380 13381 13382 13383 13384 13385 13386 13387 13388 13389 13390 13391 13392 13393 13394 13395 13396 13397 13398 13399 13400 13401 13402 13403 13404 13405 13406 13407 13408 13409 13410 13411 13412 13413 13414 13415 13416 13417 13418 13419 13420 13421 13422 13423 13424 13425 13426 13427 13428 13429 13430 13431 13432 13433 13434 13435 13436 13437 13438 13439 13440 13441 13442 13443 13444 13445 13446 13447 13448 13449 13450 13451 13452 13453 13454 13455 13456 13457 13458 13459 13460 13461 13462 13463 13464 13465 13466 13467 13468 13469 13470 13471 13472 13473 13474 13475 13476 13477 13478 13479 13480 13481 13482 13483 13484 13485 13486 13487 13488 13489 13490 13491 13492 13493 13494 13495 13496 13497 13498 13499 13500 13501 13502 13503 13504 13505 13506 13507 13508 13509 13510 13511 13512 13513 13514 13515 13516 13517 13518 13519 13520 13521 13522 13523 13524 13525 13526 13527 13528 13529 13530 13531 13532 13533 13534 13535 13536 13537 13538 13539 13540 13541 13542 13543 13544 13545 13546 13547 13548 13549 13550 13551 13552 13553 13554 13555 13556 13557 13558 13559 13560 13561 13562 13563 13564 13565 13566 13567 13568 13569 13570 13571 13572 13573 13574 13575 13576 13577 13578 13579 13580 13581 13582 13583 13584 13585 13586 13587 13588 13589 13590 13591 13592 13593 13594 13595 13596 13597 13598 13599 13600 13601 13602 13603 13604 13605 13606 13607 13608 13609 13610 13611 13612 13613 13614 13615 13616 13617 13618 13619 13620 13621 13622 13623 13624 13625 13626 13627 13628 13629 13630 13631 13632 13633 13634 13635 13636 13637 13638 13639 13640 13641 13642 13643 13644 13645 13646 13647 13648 13649 13650 13651 13652 13653 13654 13655 13656 13657 13658 13659 13660 13661 13662 13663 13664 13665 13666 13667 13668 13669 13670 13671 13672 13673 13674 13675 13676 13677 13678 13679 13680 13681 13682 13683 13684 13685 13686 13687 13688 13689 13690 13691 13692 13693 13694 13695 13696 13697 13698 13699 13700 13701 13702 13703 13704 13705 13706 13707 13708 13709 13710 13711 13712 13713 13714 13715 13716 13717 13718 13719 13720 13721 13722 13723 13724 13725 13726 13727 13728 13729 13730 13731 13732 13733 13734 13735 13736 13737 13738 13739 13740 13741 13742 13743 13744 13745 13746 13747 13748 13749 13750 13751 13752 13753 13754 13755 13756 13757 13758 13759 13760 13761 13762 13763 13764 13765 13766 13767 13768 13769 13770 13771 13772 13773 13774 13775 13776 13777 13778 13779 13780 13781 13782 13783 13784 13785 13786 13787 13788 13789 13790 13791 13792 13793 13794 13795 13796 13797 13798 13799 13800 13801 13802 13803 13804 13805 13806 13807 13808 13809 13810 13811 13812 13813 13814 13815 13816 13817 13818 13819 13820 13821 13822 13823 13824 13825 13826 13827 13828 13829 13830 13831 13832 13833 13834 13835 13836 13837 13838 13839 13840 13841 13842 13843 13844 13845 13846 13847 13848 13849 13850 13851 13852 13853 13854 13855 13856 13857 13858 13859 13860 13861 13862 13863 13864 13865 13866 13867 13868 13869 13870 13871 13872 13873 13874 13875 13876 13877 13878 13879 13880 13881 13882 13883 13884 13885 13886 13887 13888 13889 13890 13891 13892 13893 13894 13895 13896 13897 13898 13899 13900 13901 13902 13903 13904 13905 13906 13907 13908 13909 13910 13911 13912 13913 13914 13915 13916 13917 13918 13919 13920 13921 13922 13923 13924 13925 13926 13927 13928 13929 13930 13931 13932 13933 13934 13935 13936 13937 13938 13939 13940 13941 13942 13943 13944 13945 13946 13947 13948 13949 13950 13951 13952 13953 13954 13955 13956 13957 13958 13959 13960 13961 13962 13963 13964 13965 13966 13967 13968 13969 13970 13971 13972 13973 13974 13975 13976 13977 13978 13979 13980 13981 13982 13983 13984 13985 13986 13987 13988 13989 13990 13991 13992 13993 13994 13995 13996 13997 13998 13999 14000 14001 14002 14003 14004 14005 14006 14007 14008 14009 14010 14011 14012 14013 14014 14015 14016 14017 14018 14019 14020 14021 14022 14023 14024 14025 14026 14027 14028 14029 14030 14031 14032 14033 14034 14035 14036 14037 14038 14039 14040 14041 14042 14043 14044 14045 14046 14047 14048 14049 14050 14051 14052 14053 14054 14055 14056 14057 14058 14059 14060 14061 14062 14063 14064 14065 14066 14067 14068 14069 14070 14071 14072 14073 14074 14075 14076 14077 14078 14079 14080 14081 14082 14083 14084 14085 14086 14087 14088 14089 14090 14091 14092 14093 14094 14095 14096 14097 14098 14099 14100 14101 14102 14103 14104 14105 14106 14107 14108 14109 14110 14111 14112 14113 14114 14115 14116 14117 14118 14119 14120 14121 14122 14123 14124 14125 14126 14127 14128 14129 14130 14131 14132 14133 14134 14135 14136 14137 14138 14139 14140 14141 14142 14143 14144 14145 14146 14147 14148 14149 14150 14151 14152 14153 14154 14155 14156 14157 14158 14159 14160 14161 14162 14163 14164 14165 14166 14167 14168 14169 14170 14171 14172 14173 14174 14175 14176 14177 14178 14179 14180 14181 14182 14183 14184 14185 14186 14187 14188 14189 14190 14191 14192 14193 14194 14195 14196 14197 14198 14199 14200 14201 14202 14203 14204 14205 14206 14207 14208 14209 14210 14211 14212 14213 14214 14215 14216 14217 14218 14219 14220 14221 14222 14223 14224 14225 14226 14227 14228 14229 14230 14231 14232 14233 14234 14235 14236 14237 14238 14239 14240 14241 14242 14243 14244 14245 14246 14247 14248 14249 14250 14251 14252 14253 14254 14255 14256 14257 14258 14259 14260 14261 14262 14263 14264 14265 14266 14267 14268 14269 14270 14271 14272 14273 14274 14275 14276 14277 14278 14279 14280 14281 14282 14283 14284 14285 14286 14287 14288 14289 14290 14291 14292 14293 14294 14295 14296 14297 14298 14299 14300 14301 14302 14303 14304 14305 14306 14307 14308 14309 14310 14311 14312 14313 14314 14315 14316 14317 14318 14319 14320 14321 14322 14323 14324 14325 14326 14327 14328 14329 14330 14331 14332 14333 14334 14335 14336 14337 14338 14339 14340 14341 14342 14343 14344 14345 14346 14347 14348 14349 14350 14351 14352 14353 14354 14355 14356 14357 14358 14359 14360 14361 14362 14363 14364 14365 14366 14367 14368 14369 14370 14371 14372 14373 14374 14375 14376 14377 14378 14379 14380 14381 14382 14383 14384 14385 14386 14387 14388 14389 14390 14391 14392 14393 14394 14395 14396 14397 14398 14399 14400 14401 14402 14403 14404 14405 14406 14407 14408 14409 14410 14411 14412 14413 14414 14415 14416 14417 14418 14419 14420 14421 14422 14423 14424 14425 14426 14427 14428 14429 14430 14431 14432 14433 14434 14435 14436 14437 14438 14439 14440 14441 14442 14443 14444 14445 14446 14447 14448 14449 14450 14451 14452 14453 14454 14455 14456 14457 14458 14459 14460 14461 14462 14463 14464 14465 14466 14467 14468 14469 14470 14471 14472 14473 14474 14475 14476 14477 14478 14479 14480 14481 14482 14483 14484 14485 14486 14487 14488 14489 14490 14491 14492 14493 14494 14495 14496 14497 14498 14499 14500 14501 14502 14503 14504 14505 14506 14507 14508 14509 14510 14511 14512 14513 14514 14515 14516 14517 14518 14519 14520 14521 14522 14523 14524 14525 14526 14527 14528 14529 14530 14531 14532 14533 14534 14535 14536 14537 14538 14539 14540 14541 14542 14543 14544 14545 14546 14547 14548 14549 14550 14551 14552 14553 14554 14555 14556 14557 14558 14559 14560 14561 14562 14563 14564 14565 14566 14567 14568 14569 14570 14571 14572 14573 14574 14575 14576 14577 14578 14579 14580 14581 14582 14583 14584 14585 14586 14587 14588 14589 14590 14591 14592 14593 14594 14595 14596 14597 14598 14599 14600 14601 14602 14603 14604 14605 14606 14607 14608 14609 14610 14611 14612 14613 14614 14615 14616 14617 14618 14619 14620 14621 14622 14623 14624 14625 14626 14627 14628 14629 14630 14631 14632 14633 14634 14635 14636 14637 14638 14639 14640 14641 14642 14643 14644 14645 14646 14647 14648 14649 14650 14651 14652 14653 14654 14655 14656 14657 14658 14659 14660 14661 14662 14663 14664 14665 14666 14667 14668 14669 14670 14671 14672 14673 14674 14675 14676 14677 14678 14679 14680 14681 14682 14683 14684 14685 14686 14687 14688 14689 14690 14691 14692 14693 14694 14695 14696 14697 14698 14699 14700 14701 14702 14703 14704 14705 14706 14707 14708 14709 14710 14711 14712 14713 14714 14715 14716 14717 14718 14719 14720 14721 14722 14723 14724 14725 14726 14727 14728 14729 14730 14731 14732 14733 14734 14735 14736 14737 14738 14739 14740 14741 14742 14743 14744 14745 14746 14747 14748 14749 14750 14751 14752 14753 14754 14755 14756 14757 14758 14759 14760 14761 14762 14763 14764 14765 14766 14767 14768 14769 14770 14771 14772 14773 14774 14775 14776 14777 14778 14779 14780 14781 14782 14783 14784 14785 14786 14787 14788 14789 14790 14791 14792 14793 14794 14795 14796 14797 14798 14799 14800 14801 14802 14803 14804 14805 14806 14807 14808 14809 14810 14811 14812 14813 14814 14815 14816 14817 14818 14819 14820 14821 14822 14823 14824 14825 14826 14827 14828 14829 14830 14831 14832 14833 14834 14835 14836 14837 14838 14839 14840 14841 14842 14843 14844 14845 14846 14847 14848 14849 14850 14851 14852 14853 14854 14855 14856 14857 14858 14859 14860 14861 14862 14863 14864 14865 14866 14867 14868 14869 14870 14871 14872 14873 14874 14875 14876 14877 14878 14879 14880 14881 14882 14883 14884 14885 14886 14887 14888 14889 14890 14891 14892 14893 14894 14895 14896 14897 14898 14899 14900 14901 14902 14903 14904 14905 14906 14907 14908 14909 14910 14911 14912 14913 14914 14915 14916 14917 14918 14919 14920 14921 14922 14923 14924 14925 14926 14927 14928 14929 14930 14931 14932 14933 14934 14935 14936 14937 14938 14939 14940 14941 14942 14943 14944 14945 14946 14947 14948 14949 14950 14951 14952 14953 14954 14955 14956 14957 14958 14959 14960 14961 14962 14963 14964 14965 14966 14967 14968 14969 14970 14971 14972 14973 14974 14975 14976 14977 14978 14979 14980 14981 14982 14983 14984 14985 14986 14987 14988 14989 14990 14991 14992 14993 14994 14995 14996 14997 14998 14999 15000 15001 15002 15003 15004 15005 15006 15007 15008 15009 15010 15011 15012 15013 15014 15015 15016 15017 15018 15019 15020 15021 15022 15023 15024 15025 15026 15027 15028 15029 15030 15031 15032 15033 15034 15035 15036 15037 15038 15039 15040 15041 15042 15043 15044 15045 15046 15047 15048 15049 15050 15051 15052 15053 15054 15055 15056 15057 15058 15059 15060 15061 15062 15063 15064 15065 15066 15067 15068 15069 15070 15071 15072 15073 15074 15075 15076 15077 15078 15079 15080 15081 15082 15083 15084 15085 15086 15087 15088 15089 15090 15091 15092 15093 15094 15095 15096 15097 15098 15099 15100 15101 15102 15103 15104 15105 15106 15107 15108 15109 15110 15111 15112 15113 15114 15115 15116 15117 15118 15119 15120 15121 15122 15123 15124 15125 15126 15127 15128 15129 15130 15131 15132 15133 15134 15135 15136 15137 15138 15139 15140 15141 15142 15143 15144 15145 15146 15147 15148 15149 15150 15151 15152 15153 15154 15155 15156 15157 15158 15159 15160 15161 15162 15163 15164 15165 15166 15167 15168 15169 15170 15171 15172 15173 15174 15175 15176 15177 15178 15179 15180 15181 15182 15183 15184 15185 15186 15187 15188 15189 15190 15191 15192 15193 15194 15195 15196 15197 15198 15199 15200 15201 15202 15203 15204 15205 15206 15207 15208 15209 15210 15211 15212 15213 15214 15215 15216 15217 15218 15219 15220 15221 15222 15223 15224 15225 15226 15227 15228 15229 15230 15231 15232 15233 15234 15235 15236 15237 15238 15239 15240 15241 15242 15243 15244 15245 15246 15247 15248 15249 15250 15251 15252 15253 15254 15255 15256 15257 15258 15259 15260 15261 15262 15263 15264 15265 15266 15267 15268 15269 15270 15271 15272 15273 15274 15275 15276 15277 15278 15279 15280 15281 15282 15283 15284 15285 15286 15287 15288 15289 15290 15291 15292 15293 15294 15295 15296 15297 15298 15299 15300 15301 15302 15303 15304 15305 15306 15307 15308 15309 15310 15311 15312 15313 15314 15315 15316 15317 15318 15319 15320 15321 15322 15323 15324 15325 15326 15327 15328 15329 15330 15331 15332 15333 15334 15335 15336 15337 15338 15339 15340 15341 15342 15343 15344 15345 15346 15347 15348 15349 15350 15351 15352 15353 15354 15355 15356 15357 15358 15359 15360 15361 15362 15363 15364 15365 15366 15367 15368 15369 15370 15371 15372 15373 15374 15375 15376 15377 15378 15379 15380 15381 15382 15383 15384 15385 15386 15387 15388 15389 15390 15391 15392 15393 15394 15395 15396 15397 15398 15399 15400 15401 15402 15403 15404 15405 15406 15407 15408 15409 15410 15411 15412 15413 15414 15415 15416 15417 15418 15419 15420 15421 15422 15423 15424 15425 15426 15427 15428 15429 15430 15431 15432 15433 15434 15435 15436 15437 15438 15439 15440 15441 15442 15443 15444 15445 15446 15447 15448 15449 15450 15451 15452 15453 15454 15455 15456 15457 15458 15459 15460 15461 15462 15463 15464 15465 15466 15467 15468 15469 15470 15471 15472 15473 15474 15475 15476 15477 15478 15479 15480 15481 15482 15483 15484 15485 15486 15487 15488 15489 15490 15491 15492 15493 15494 15495 15496 15497 15498 15499 15500 15501 15502 15503 15504 15505 15506 15507 15508 15509 15510 15511 15512 15513 15514 15515 15516 15517 15518 15519 15520 15521 15522 15523 15524 15525 15526 15527 15528 15529 15530 15531 15532 15533 15534 15535 15536 15537 15538 15539 15540 15541 15542 15543 15544 15545 15546 15547 15548 15549 15550 15551 15552 15553 15554 15555 15556 15557 15558 15559 15560 15561 15562 15563 15564 15565 15566 15567 15568 15569 15570 15571 15572 15573 15574 15575 15576 15577 15578 15579 15580 15581 15582 15583 15584 15585 15586 15587 15588 15589 15590 15591 15592 15593 15594 15595 15596 15597 15598 15599 15600 15601 15602 15603 15604 15605 15606 15607 15608 15609 15610 15611 15612 15613 15614 15615 15616 15617 15618 15619 15620 15621 15622 15623 15624 15625 15626 15627 15628 15629 15630 15631 15632 15633 15634 15635 15636 15637 15638 15639 15640 15641 15642 15643 15644 15645 15646 15647 15648 15649 15650 15651 15652 15653 15654 15655 15656 15657 15658 15659 15660 15661 15662 15663 15664 15665 15666 15667 15668 15669 15670 15671 15672 15673 15674 15675 15676 15677 15678 15679 15680 15681 15682 15683 15684 15685 15686 15687 15688 15689 15690 15691 15692 15693 15694 15695 15696 15697 15698 15699 15700 15701 15702 15703 15704 15705 15706 15707 15708 15709 15710 15711 15712 15713 15714 15715 15716 15717 15718 15719 15720 15721 15722 15723 15724 15725 15726 15727 15728 15729 15730 15731 15732 15733 15734 15735 15736 15737 15738 15739 15740 15741 15742 15743 15744 15745 15746 15747 15748 15749 15750 15751 15752 15753 15754 15755 15756 15757 15758 15759 15760 15761 15762 15763 15764 15765 15766 15767 15768 15769 15770 15771 15772 15773 15774 15775 15776 15777 15778 15779 15780 15781 15782 15783 15784 15785 15786 15787 15788 15789 15790 15791 15792 15793 15794 15795 15796 15797 15798 15799 15800 15801 15802 15803 15804 15805 15806 15807 15808 15809 15810 15811 15812 15813 15814 15815 15816 15817 15818 15819 15820 15821 15822 15823 15824 15825 15826 15827 15828 15829 15830 15831 15832 15833 15834 15835 15836 15837 15838 15839 15840 15841 15842 15843 15844 15845 15846 15847 15848 15849 15850 15851 15852 15853 15854 15855 15856 15857 15858 15859 15860 15861 15862 15863 15864 15865 15866 15867 15868 15869 15870 15871 15872 15873 15874 15875 15876 15877 15878 15879 15880 15881 15882 15883 15884 15885 15886 15887 15888 15889 15890 15891 15892 15893 15894 15895 15896 15897 15898 15899 15900 15901 15902 15903 15904 15905 15906 15907 15908 15909 15910 15911 15912 15913 15914 15915 15916 15917 15918 15919 15920 15921 15922 15923 15924 15925 15926 15927 15928 15929 15930 15931 15932 15933 15934 15935 15936 15937 15938 15939 15940 15941 15942 15943 15944 15945 15946 15947 15948 15949 15950 15951 15952 15953 15954 15955 15956 15957 15958 15959 15960 15961 15962 15963 15964 15965 15966 15967 15968 15969 15970 15971 15972 15973 15974 15975 15976 15977 15978 15979 15980 15981 15982 15983 15984 15985 15986 15987 15988 15989 15990 15991 15992 15993 15994 15995 15996 15997 15998 15999 16000 16001 16002 16003 16004 16005 16006 16007 16008 16009 16010 16011 16012 16013 16014 16015 16016 16017 16018 16019 16020 16021 16022 16023 16024 16025 16026 16027 16028 16029 16030 16031 16032 16033 16034 16035 16036 16037 16038 16039 16040 16041 16042 16043 16044 16045 16046 16047 16048 16049 16050 16051 16052 16053 16054 16055 16056 16057 16058 16059 16060 16061 16062 16063 16064 16065 16066 16067 16068 16069 16070 16071 16072 16073 16074 16075 16076 16077 16078 16079 16080 16081 16082 16083 16084 16085 16086 16087 16088 16089 16090 16091 16092 16093 16094 16095 16096 16097 16098 16099 16100 16101 16102 16103 16104 16105 16106 16107 16108 16109 16110 16111 16112 16113 16114 16115 16116 16117 16118 16119 16120 16121 16122 16123 16124 16125 16126 16127 16128 16129 16130 16131 16132 16133 16134 16135 16136 16137 16138 16139 16140 16141 16142 16143 16144 16145 16146 16147 16148 16149 16150 16151 16152 16153 16154 16155 16156 16157 16158 16159 16160 16161 16162 16163 16164 16165 16166 16167 16168 16169 16170 16171 16172 16173 16174 16175 16176 16177 16178 16179 16180 16181 16182 16183 16184 16185 16186 16187 16188 16189 16190 16191 16192 16193 16194 16195 16196 16197 16198 16199 16200 16201 16202 16203 16204 16205 16206 16207 16208 16209 16210 16211 16212 16213 16214 16215 16216 16217 16218 16219 16220 16221 16222 16223 16224 16225 16226 16227 16228 16229 16230 16231 16232 16233 16234 16235 16236 16237 16238 16239 16240 16241 16242 16243 16244 16245 16246 16247 16248 16249 16250 16251 16252 16253 16254 16255 16256 16257 16258 16259 16260 16261 16262 16263 16264 16265 16266 16267 16268 16269 16270 16271 16272 16273 16274 16275 16276 16277 16278 16279 16280 16281 16282 16283 16284 16285 16286 16287 16288 16289 16290 16291 16292 16293 16294 16295 16296 16297 16298 16299 16300 16301 16302 16303 16304 16305 16306 16307 16308 16309 16310 16311 16312 16313 16314 16315 16316 16317 16318 16319 16320 16321 16322 16323 16324 16325 16326 16327 16328 16329 16330 16331 16332 16333 16334 16335 16336 16337 16338 16339 16340 16341 16342 16343 16344 16345 16346 16347 16348 16349 16350 16351 16352 16353 16354 16355 16356 16357 16358 16359 16360 16361 16362 16363 16364 16365 16366 16367 16368 16369 16370 16371 16372 16373 16374 16375 16376 16377 16378 16379 16380 16381 16382 16383 16384 16385 16386 16387 16388 16389 16390 16391 16392 16393 16394 16395 16396 16397 16398 16399 16400 16401 16402 16403 16404 16405 16406 16407 16408 16409 16410 16411 16412 16413 16414 16415 16416 16417 16418 16419 16420 16421 16422 16423 16424 16425 16426 16427 16428 16429 16430 16431 16432 16433 16434 16435 16436 16437 16438 16439 16440 16441 16442 16443 16444 16445 16446 16447 16448 16449 16450 16451 16452 16453 16454 16455 16456 16457 16458 16459 16460 16461 16462 16463 16464 16465 16466 16467 16468 16469 16470 16471 16472 16473 16474 16475 16476 16477 16478 16479 16480 16481 16482 16483 16484 16485 16486 16487 16488 16489 16490 16491 16492 16493 16494 16495 16496 16497 16498 16499 16500 16501 16502 16503 16504 16505 16506 16507 16508 16509 16510 16511 16512 16513 16514 16515 16516 16517 16518 16519 16520 16521 16522 16523 16524 16525 16526 16527 16528 16529 16530 16531 16532 16533 16534 16535 16536 16537 16538 16539 16540 16541 16542 16543 16544 16545 16546 16547 16548 16549 16550 16551 16552 16553 16554 16555 16556 16557 16558 16559 16560 16561 16562 16563 16564 16565 16566 16567 16568 16569 16570 16571 16572 16573 16574 16575 16576 16577 16578 16579 16580 16581 16582 16583 16584 16585 16586 16587 16588 16589 16590 16591 16592 16593 16594 16595 16596 16597 16598 16599 16600 16601 16602 16603 16604 16605 16606 16607 16608 16609 16610 16611 16612 16613 16614 16615 16616 16617 16618 16619 16620 16621 16622 16623 16624 16625 16626 16627 16628 16629 16630 16631 16632 16633 16634 16635 16636 16637 16638 16639 16640 16641 16642 16643 16644 16645 16646 16647 16648 16649 16650 16651 16652 16653 16654 16655 16656 16657 16658 16659 16660 16661 16662 16663 16664 16665 16666 16667 16668 16669 16670 16671 16672 16673 16674 16675 16676 16677 16678 16679 16680 16681 16682 16683 16684 16685 16686 16687 16688 16689 16690 16691 16692 16693 16694 16695 16696 16697 16698 16699 16700 16701 16702 16703 16704 16705 16706 16707 16708 16709 16710 16711 16712 16713 16714 16715 16716 16717 16718 16719 16720 16721 16722 16723 16724 16725 16726 16727 16728 16729 16730 16731 16732 16733 16734 16735 16736 16737 16738 16739 16740 16741 16742 16743 16744 16745 16746 16747 16748 16749 16750 16751 16752 16753 16754 16755 16756 16757 16758 16759 16760 16761 16762 16763 16764 16765 16766 16767 16768 16769 16770 16771 16772 16773 16774 16775 16776 16777 16778 16779 16780 16781 16782 16783 16784 16785 16786 16787 16788 16789 16790 16791 16792 16793 16794 16795 16796 16797 16798 16799 16800 16801 16802 16803 16804 16805 16806 16807 16808 16809 16810 16811 16812 16813 16814 16815 16816 16817 16818 16819 16820 16821 16822 16823 16824 16825 16826 16827 16828 16829 16830 16831 16832 16833 16834 16835 16836 16837 16838 16839 16840 16841 16842 16843 16844 16845 16846 16847 16848 16849 16850 16851 16852 16853 16854 16855 16856 16857 16858 16859 16860 16861 16862 16863 16864 16865 16866 16867 16868 16869 16870 16871 16872 16873 16874 16875 16876 16877 16878 16879 16880 16881 16882 16883 16884 16885 16886 16887 16888 16889 16890 16891 16892 16893 16894 16895 16896 16897 16898 16899 16900 16901 16902 16903 16904 16905 16906 16907 16908 16909 16910 16911 16912 16913 16914 16915 16916 16917 16918 16919 16920 16921 16922 16923 16924 16925 16926 16927 16928 16929 16930 16931 16932 16933 16934 16935 16936 16937 16938 16939 16940 16941 16942 16943 16944 16945 16946 16947 16948 16949 16950 16951 16952 16953 16954 16955 16956 16957 16958 16959 16960 16961 16962 16963 16964 16965 16966 16967 16968 16969 16970 16971 16972 16973 16974 16975 16976 16977 16978 16979 16980 16981 16982 16983 16984 16985 16986 16987 16988 16989 16990 16991 16992 16993 16994 16995 16996 16997 16998 16999 17000 17001 17002 17003 17004 17005 17006 17007 17008 17009 17010 17011 17012 17013 17014 17015 17016 17017 17018 17019 17020 17021 17022 17023 17024 17025 17026 17027 17028 17029 17030 17031 17032 17033 17034 17035 17036 17037 17038 17039 17040 17041 17042 17043 17044 17045 17046 17047 17048 17049 17050 17051 17052 17053 17054 17055 17056 17057 17058 17059 17060 17061 17062 17063 17064 17065 17066 17067 17068 17069 17070 17071 17072 17073 17074 17075 17076 17077 17078 17079 17080 17081 17082 17083 17084 17085 17086 17087 17088 17089 17090 17091 17092 17093 17094 17095 17096 17097 17098 17099 17100 17101 17102 17103 17104 17105 17106 17107 17108 17109 17110 17111 17112 17113 17114 17115 17116 17117 17118 17119 17120 17121 17122 17123 17124 17125 17126 17127 17128 17129 17130 17131 17132 17133 17134 17135 17136 17137 17138 17139 17140 17141 17142 17143 17144 17145 17146 17147 17148 17149 17150 17151 17152 17153 17154 17155 17156 17157 17158 17159 17160 17161 17162 17163 17164 17165 17166 17167 17168 17169 17170 17171 17172 17173 17174 17175 17176 17177 17178 17179 17180 17181 17182 17183 17184 17185 17186 17187 17188 17189 17190 17191 17192 17193 17194 17195 17196 17197 17198 17199 17200 17201 17202 17203 17204 17205 17206 17207 17208 17209 17210 17211 17212 17213 17214 17215 17216 17217 17218 17219 17220 17221 17222 17223 17224 17225 17226 17227 17228 17229 17230 17231 17232 17233 17234 17235 17236 17237 17238 17239 17240 17241 17242 17243 17244 17245 17246 17247 17248 17249 17250 17251 17252 17253 17254 17255 17256 17257 17258 17259 17260 17261 17262 17263 17264 17265 17266 17267 17268 17269 17270 17271 17272 17273 17274 17275 17276 17277 17278 17279 17280 17281 17282 17283 17284 17285 17286 17287 17288 17289 17290 17291 17292 17293 17294 17295 17296 17297 17298 17299 17300 17301 17302 17303 17304 17305 17306 17307 17308 17309 17310 17311 17312 17313 17314 17315 17316 17317 17318 17319 17320 17321 17322 17323 17324 17325 17326 17327 17328 17329 17330 17331 17332 17333 17334 17335 17336 17337 17338 17339 17340 17341 17342 17343 17344 17345 17346 17347 17348 17349 17350 17351 17352 17353 17354 17355 17356 17357 17358 17359 17360 17361 17362 17363 17364 17365 17366 17367 17368 17369 17370 17371 17372 17373 17374 17375 17376 17377 17378 17379 17380 17381 17382 17383 17384 17385 17386 17387 17388 17389 17390 17391 17392 17393 17394 17395 17396 17397 17398 17399 17400 17401 17402 17403 17404 17405 17406 17407 17408 17409 17410 17411 17412 17413 17414 17415 17416 17417 17418 17419 17420 17421 17422 17423 17424 17425 17426 17427 17428 17429 17430 17431 17432 17433 17434 17435 17436 17437 17438 17439 17440 17441 17442 17443 17444 17445 17446 17447 17448 17449 17450 17451 17452 17453 17454 17455 17456 17457 17458 17459 17460 17461 17462 17463 17464 17465 17466 17467 17468 17469 17470 17471 17472 17473 17474 17475 17476 17477 17478 17479 17480 17481 17482 17483 17484 17485 17486 17487 17488 17489 17490 17491 17492 17493 17494 17495 17496 17497 17498 17499 17500 17501 17502 17503 17504 17505 17506 17507 17508 17509 17510 17511 17512 17513 17514 17515 17516 17517 17518 17519 17520 17521 17522 17523 17524 17525 17526 17527 17528 17529 17530 17531 17532 17533 17534 17535 17536 17537 17538 17539 17540 17541 17542 17543 17544 17545 17546 17547 17548 17549 17550 17551 17552 17553 17554 17555 17556 17557 17558 17559 17560 17561 17562 17563 17564 17565 17566 17567 17568 17569 17570 17571 17572 17573 17574 17575 17576 17577 17578 17579 17580 17581 17582 17583 17584 17585 17586 17587 17588 17589 17590 17591 17592 17593 17594 17595 17596 17597 17598 17599 17600 17601 17602 17603 17604 17605 17606 17607 17608 17609 17610 17611 17612 17613 17614 17615 17616 17617 17618 17619 17620 17621 17622 17623 17624 17625 17626 17627 17628 17629 17630 17631 17632 17633 17634 17635 17636 17637 17638 17639 17640 17641 17642 17643 17644 17645 17646 17647 17648 17649 17650 17651 17652 17653 17654 17655 17656 17657 17658 17659 17660 17661 17662 17663 17664 17665 17666 17667 17668 17669 17670 17671 17672 17673 17674 17675 17676 17677 17678 17679 17680 17681 17682 17683 17684 17685 17686 17687 17688 17689 17690 17691 17692 17693 17694 17695 17696 17697 17698 17699 17700 17701 17702 17703 17704 17705 17706 17707 17708 17709 17710 17711 17712 17713 17714 17715 17716 17717 17718 17719 17720 17721 17722 17723 17724 17725 17726 17727 17728 17729 17730 17731 17732 17733 17734 17735 17736 17737 17738 17739 17740 17741 17742 17743 17744 17745 17746 17747 17748 17749 17750 17751 17752 17753 17754 17755 17756 17757 17758 17759 17760 17761 17762 17763 17764 17765 17766 17767 17768 17769 17770 17771 17772 17773 17774 17775 17776 17777 17778 17779 17780 17781 17782 17783 17784 17785 17786 17787 17788 17789 17790 17791 17792 17793 17794 17795 17796 17797 17798 17799 17800 17801 17802 17803 17804 17805 17806 17807 17808 17809 17810 17811 17812 17813 17814 17815 17816 17817 17818 17819 17820 17821 17822 17823 17824 17825 17826 17827 17828 17829 17830 17831 17832 17833 17834 17835 17836 17837 17838 17839 17840 17841 17842 17843 17844 17845 17846 17847 17848 17849 17850 17851 17852 17853 17854 17855 17856 17857 17858 17859 17860 17861 17862 17863 17864 17865 17866 17867 17868 17869 17870 17871 17872 17873 17874 17875 17876 17877 17878 17879 17880 17881 17882 17883 17884 17885 17886 17887 17888 17889 17890 17891 17892 17893 17894 17895 17896 17897 17898 17899 17900 17901 17902 17903 17904 17905 17906 17907 17908 17909 17910 17911 17912 17913 17914 17915 17916 17917 17918 17919 17920 17921 17922 17923 17924 17925 17926 17927 17928 17929 17930 17931 17932 17933 17934 17935 17936 17937 17938 17939 17940 17941 17942 17943 17944 17945 17946 17947 17948 17949 17950 17951 17952 17953 17954 17955 17956 17957 17958 17959 17960 17961 17962 17963 17964 17965 17966 17967 17968 17969 17970 17971 17972 17973 17974 17975 17976 17977 17978 17979 17980 17981 17982 17983 17984 17985 17986 17987 17988 17989 17990 17991 17992 17993 17994 17995 17996 17997 17998 17999 18000 18001 18002 18003 18004 18005 18006 18007 18008 18009 18010 18011 18012 18013 18014 18015 18016 18017 18018 18019 18020 18021 18022 18023 18024 18025 18026 18027 18028 18029 18030 18031 18032 18033 18034 18035 18036 18037 18038 18039 18040 18041 18042 18043 18044 18045 18046 18047 18048 18049 18050 18051 18052 18053 18054 18055 18056 18057 18058 18059 18060 18061 18062 18063 18064 18065 18066 18067 18068 18069 18070 18071 18072 18073 18074 18075 18076 18077 18078 18079 18080 18081 18082 18083 18084 18085 18086 18087 18088 18089 18090 18091 18092 18093 18094 18095 18096 18097 18098 18099 18100 18101 18102 18103 18104 18105 18106 18107 18108 18109 18110 18111 18112 18113 18114 18115 18116 18117 18118 18119 18120 18121 18122 18123 18124 18125 18126 18127 18128 18129 18130 18131 18132 18133 18134 18135 18136 18137 18138 18139 18140 18141 18142 18143 18144 18145 18146 18147 18148 18149 18150 18151 18152 18153 18154 18155 18156 18157 18158 18159 18160 18161 18162 18163 18164 18165 18166 18167 18168 18169 18170 18171 18172 18173 18174 18175 18176 18177 18178 18179 18180 18181 18182 18183 18184 18185 18186 18187 18188 18189 18190 18191 18192 18193 18194 18195 18196 18197 18198 18199 18200 18201 18202 18203 18204 18205 18206 18207 18208 18209 18210 18211 18212 18213 18214 18215 18216 18217 18218 18219 18220 18221 18222 18223 18224 18225 18226 18227 18228 18229 18230 18231 18232 18233 18234 18235 18236 18237 18238 18239 18240 18241 18242 18243 18244 18245 18246 18247 18248 18249 18250 18251 18252 18253 18254 18255 18256 18257 18258 18259 18260 18261 18262 18263 18264 18265 18266 18267 18268 18269 18270 18271 18272 18273 18274 18275 18276 18277 18278 18279 18280 18281 18282 18283 18284 18285 18286 18287 18288 18289 18290 18291 18292 18293 18294 18295 18296 18297 18298 18299 18300 18301 18302 18303 18304 18305 18306 18307 18308 18309 18310 18311 18312 18313 18314 18315 18316 18317 18318 18319 18320 18321 18322 18323 18324 18325 18326 18327 18328 18329 18330 18331 18332 18333 18334 18335 18336 18337 18338 18339 18340 18341 18342 18343 18344 18345 18346 18347 18348 18349 18350 18351 18352 18353 18354 18355 18356 18357 18358 18359 18360 18361 18362 18363 18364 18365 18366 18367 18368 18369 18370 18371 18372 18373 18374 18375 18376 18377 18378 18379 18380 18381 18382 18383 18384 18385 18386 18387 18388 18389 18390 18391 18392 18393 18394 18395 18396 18397 18398 18399 18400 18401 18402 18403 18404 18405 18406 18407 18408 18409 18410 18411 18412 18413 18414 18415 18416 18417 18418 18419 18420 18421 18422 18423 18424 18425 18426 18427 18428 18429 18430 18431 18432 18433 18434 18435 18436 18437 18438 18439 18440 18441 18442 18443 18444 18445 18446 18447 18448 18449 18450 18451 18452 18453 18454 18455 18456 18457 18458 18459 18460 18461 18462 18463 18464 18465 18466 18467 18468 18469 18470 18471 18472 18473 18474 18475 18476 18477 18478 18479 18480 18481 18482 18483 18484 18485 18486 18487 18488 18489 18490 18491 18492 18493 18494 18495 18496 18497 18498 18499 18500 18501 18502 18503 18504 18505 18506 18507 18508 18509 18510 18511 18512 18513 18514 18515 18516 18517 18518 18519 18520 18521 18522 18523 18524 18525 18526 18527 18528 18529 18530 18531 18532 18533 18534 18535 18536 18537 18538 18539 18540 18541 18542 18543 18544 18545 18546 18547 18548 18549 18550 18551 18552 18553 18554 18555 18556 18557 18558 18559 18560 18561 18562 18563 18564 18565 18566 18567 18568 18569 18570 18571 18572 18573 18574 18575 18576 18577 18578 18579 18580 18581 18582 18583 18584 18585 18586 18587 18588 18589 18590 18591 18592 18593 18594 18595 18596 18597 18598 18599 18600 18601 18602 18603 18604 18605 18606 18607 18608 18609 18610 18611 18612 18613 18614 18615 18616 18617 18618 18619 18620 18621 18622 18623 18624 18625 18626 18627 18628 18629 18630 18631 18632 18633 18634 18635 18636 18637 18638 18639 18640 18641 18642 18643 18644 18645 18646 18647 18648 18649 18650 18651 18652 18653 18654 18655 18656 18657 18658 18659 18660 18661 18662 18663 18664 18665 18666 18667 18668 18669 18670 18671 18672 18673 18674 18675 18676 18677 18678 18679 18680 18681 18682 18683 18684 18685 18686 18687 18688 18689 18690 18691 18692 18693 18694 18695 18696 18697 18698 18699 18700 18701 18702 18703 18704 18705 18706 18707 18708 18709 18710 18711 18712 18713 18714 18715 18716 18717 18718 18719 18720 18721 18722 18723 18724 18725 18726 18727 18728 18729 18730 18731 18732 18733 18734 18735 18736 18737 18738 18739 18740 18741 18742 18743 18744 18745 18746 18747 18748 18749 18750 18751 18752 18753 18754 18755 18756 18757 18758 18759 18760 18761 18762 18763 18764 18765 18766 18767 18768 18769 18770 18771 18772 18773 18774 18775 18776 18777 18778 18779 18780 18781 18782 18783 18784 18785 18786 18787 18788 18789 18790 18791 18792 18793 18794 18795 18796 18797 18798 18799 18800 18801 18802 18803 18804 18805 18806 18807 18808 18809 18810 18811 18812 18813 18814 18815 18816 18817 18818 18819 18820 18821 18822 18823 18824 18825 18826 18827 18828 18829 18830 18831 18832 18833 18834 18835 18836 18837 18838 18839 18840 18841 18842 18843 18844 18845 18846 18847 18848 18849 18850 18851 18852 18853 18854 18855 18856 18857 18858 18859 18860 18861 18862 18863 18864 18865 18866 18867 18868 18869 18870 18871 18872 18873 18874 18875 18876 18877 18878 18879 18880 18881 18882 18883 18884 18885 18886 18887 18888 18889 18890 18891 18892 18893 18894 18895 18896 18897 18898 18899 18900 18901 18902 18903 18904 18905 18906 18907 18908 18909 18910 18911 18912 18913 18914 18915 18916 18917 18918 18919 18920 18921 18922 18923 18924 18925 18926 18927 18928 18929 18930 18931 18932 18933 18934 18935 18936 18937 18938 18939 18940 18941 18942 18943 18944 18945 18946 18947 18948 18949 18950 18951 18952 18953 18954 18955 18956 18957 18958 18959 18960 18961 18962 18963 18964 18965 18966 18967 18968 18969 18970 18971 18972 18973 18974 18975 18976 18977 18978 18979 18980 18981 18982 18983 18984 18985 18986 18987 18988 18989 18990 18991 18992 18993 18994 18995 18996 18997 18998 18999 19000 19001 19002 19003 19004 19005 19006 19007 19008 19009 19010 19011 19012 19013 19014 19015 19016 19017 19018 19019 19020 19021 19022 19023 19024 19025 19026 19027 19028 19029 19030 19031 19032 19033 19034 19035 19036 19037 19038 19039 19040 19041 19042 19043 19044 19045 19046 19047 19048 19049 19050 19051 19052 19053 19054 19055 19056 19057 19058 19059 19060 19061 19062 19063 19064 19065 19066 19067 19068 19069 19070 19071 19072 19073 19074 19075 19076 19077 19078 19079 19080 19081 19082 19083 19084 19085 19086 19087 19088 19089 19090 19091 19092 19093 19094 19095 19096 19097 19098 19099 19100 19101 19102 19103 19104 19105 19106 19107 19108 19109 19110 19111 19112 19113 19114 19115 19116 19117 19118 19119 19120 19121 19122 19123 19124 19125 19126 19127 19128 19129 19130 19131 19132 19133 19134 19135 19136 19137 19138 19139 19140 19141 19142 19143 19144 19145 19146 19147 19148 19149 19150 19151 19152 19153 19154 19155 19156 19157 19158 19159 19160 19161 19162 19163 19164 19165 19166 19167 19168 19169 19170 19171 19172 19173 19174 19175 19176 19177 19178 19179 19180 19181 19182 19183 19184 19185 19186 19187 19188 19189 19190 19191 19192 19193 19194 19195 19196 19197 19198 19199 19200 19201 19202 19203 19204 19205 19206 19207 19208 19209 19210 19211 19212 19213 19214 19215 19216 19217 19218 19219 19220 19221 19222 19223 19224 19225 19226 19227 19228 19229 19230 19231 19232 19233 19234 19235 19236 19237 19238 19239 19240 19241 19242 19243 19244 19245 19246 19247 19248 19249 19250 19251 19252 19253 19254 19255 19256 19257 19258 19259 19260 19261 19262 19263 19264 19265 19266 19267 19268 19269 19270 19271 19272 19273 19274 19275 19276 19277 19278 19279 19280 19281 19282 19283 19284 19285 19286 19287 19288 19289 19290 19291 19292 19293 19294 19295 19296 19297 19298 19299 19300 19301 19302 19303 19304 19305 19306 19307 19308 19309 19310 19311 19312 19313 19314 19315 19316 19317 19318 19319 19320 19321 19322 19323 19324 19325 19326 19327 19328 19329 19330 19331 19332 19333 19334 19335 19336 19337 19338 19339 19340 19341 19342 19343 19344 19345 19346 19347 19348 19349 19350 19351 19352 19353 19354 19355 19356 19357 19358 19359 19360 19361 19362 19363 19364 19365 19366 19367 19368 19369 19370 19371 19372 19373 19374 19375 19376 19377 19378 19379 19380 19381 19382 19383 19384 19385 19386 19387 19388 19389 19390 19391 19392 19393 19394 19395 19396 19397 19398 19399 19400 19401 19402 19403 19404 19405 19406 19407 19408 19409 19410 19411 19412 19413 19414 19415 19416 19417 19418 19419 19420 19421 19422 19423 19424 19425 19426 19427 19428 19429 19430 19431 19432 19433 19434 19435 19436 19437 19438 19439 19440 19441 19442 19443 19444 19445 19446 19447 19448 19449 19450 19451 19452 19453 19454 19455 19456 19457 19458 19459 19460 19461 19462 19463 19464 19465 19466 19467 19468 19469 19470 19471 19472 19473 19474 19475 19476 19477 19478 19479 19480 19481 19482 19483 19484 19485 19486 19487 19488 19489 19490 19491 19492 19493 19494 19495 19496 19497 19498 19499 19500 19501 19502 19503 19504 19505 19506 19507 19508 19509 19510 19511 19512 19513 19514 19515 19516 19517 19518 19519 19520 19521 19522 19523 19524 19525 19526 19527 19528 19529 19530 19531 19532 19533 19534 19535 19536 19537 19538 19539 19540 19541 19542 19543 19544 19545 19546 19547 19548 19549 19550 19551 19552 19553 19554 19555 19556 19557 19558 19559 19560 19561 19562 19563 19564 19565 19566 19567 19568 19569 19570 19571 19572 19573 19574 19575 19576 19577 19578 19579 19580 19581 19582 19583 19584 19585 19586 19587 19588 19589 19590 19591 19592 19593 19594 19595 19596 19597 19598 19599 19600 19601 19602 19603 19604 19605 19606 19607 19608 19609 19610 19611 19612 19613 19614 19615 19616 19617 19618 19619 19620 19621 19622 19623 19624 19625 19626 19627 19628 19629 19630 19631 19632 19633 19634 19635 19636 19637 19638 19639 19640 19641 19642 19643 19644 19645 19646 19647 19648 19649 19650 19651 19652 19653 19654 19655 19656 19657 19658 19659 19660 19661 19662 19663 19664 19665 19666 19667 19668 19669 19670 19671 19672 19673 19674 19675 19676 19677 19678 19679 19680 19681 19682 19683 19684 19685 19686 19687 19688 19689 19690 19691 19692 19693 19694 19695 19696 19697 19698 19699 19700 19701 19702 19703 19704 19705 19706 19707 19708 19709 19710 19711 19712 19713 19714 19715 19716 19717 19718 19719 19720 19721 19722 19723 19724 19725 19726 19727 19728 19729 19730 19731 19732 19733 19734 19735 19736 19737 19738 19739 19740 19741 19742 19743 19744 19745 19746 19747 19748 19749 19750 19751 19752 19753 19754 19755 19756 19757 19758 19759 19760 19761 19762 19763 19764 19765 19766 19767 19768 19769 19770 19771 19772 19773 19774 19775 19776 19777 19778 19779 19780 19781 19782 19783 19784 19785 19786 19787 19788 19789 19790 19791 19792 19793 19794 19795 19796 19797 19798 19799 19800 19801 19802 19803 19804 19805 19806 19807 19808 19809 19810 19811 19812 19813 19814 19815 19816 19817 19818 19819 19820 19821 19822 19823 19824 19825 19826 19827 19828 19829 19830 19831 19832 19833 19834 19835 19836 19837 19838 19839 19840 19841 19842 19843 19844 19845 19846 19847 19848 19849 19850 19851 19852 19853 19854 19855 19856 19857 19858 19859 19860 19861 19862 19863 19864 19865 19866 19867 19868 19869 19870 19871 19872 19873 19874 19875 19876 19877 19878 19879 19880 19881 19882 19883 19884 19885 19886 19887 19888 19889 19890 19891 19892 19893 19894 19895 19896 19897 19898 19899 19900 19901 19902 19903 19904 19905 19906 19907 19908 19909 19910 19911 19912 19913 19914 19915 19916 19917 19918 19919 19920 19921 19922 19923 19924 19925 19926 19927 19928 19929 19930 19931 19932 19933 19934 19935 19936 19937 19938 19939 19940 19941 19942 19943 19944 19945 19946 19947 19948 19949 19950 19951 19952 19953 19954 19955 19956 19957 19958 19959 19960 19961 19962 19963 19964 19965 19966 19967 19968 19969 19970 19971 19972 19973 19974 19975 19976 19977 19978 19979 19980 19981 19982 19983 19984 19985 19986 19987 19988 19989 19990 19991 19992 19993 19994 19995 19996 19997 19998 19999 20000 20001 20002 20003 20004 20005 20006 20007 20008 20009 20010 20011 20012 20013 20014 20015 20016 20017 20018 20019 20020 20021 20022 20023 20024 20025 20026 20027 20028 20029 20030 20031 20032 20033 20034 20035 20036 20037 20038 20039 20040 20041 20042 20043 20044 20045 20046 20047 20048 20049 20050 20051 20052 20053 20054 20055 20056 20057 20058 20059 20060 20061 20062 20063 20064 20065 20066 20067 20068 20069 20070 20071 20072 20073 20074 20075 20076 20077 20078 20079 20080 20081 20082 20083 20084 20085 20086 20087 20088 20089 20090 20091 20092 20093 20094 20095 20096 20097 20098 20099 20100 20101 20102 20103 20104 20105 20106 20107 20108 20109 20110 20111 20112 20113 20114 20115 20116 20117 20118 20119 20120 20121 20122 20123 20124 20125 20126 20127 20128 20129 20130 20131 20132 20133 20134 20135 20136 20137 20138 20139 20140 20141 20142 20143 20144 20145 20146 20147 20148 20149 20150 20151 20152 20153 20154 20155 20156 20157 20158 20159 20160 20161 20162 20163 20164 20165 20166 20167 20168 20169 20170 20171 20172 20173 20174 20175 20176 20177 20178 20179 20180 20181 20182 20183 20184 20185 20186 20187 20188 20189 20190 20191 20192 20193 20194 20195 20196 20197 20198 20199 20200 20201 20202 20203 20204 20205 20206 20207 20208 20209 20210 20211 20212 20213 20214 20215 20216 20217 20218 20219 20220 20221 20222 20223 20224 20225 20226 20227 20228 20229 20230 20231 20232 20233 20234 20235 20236 20237 20238 20239 20240 20241 20242 20243 20244 20245 20246 20247 20248 20249 20250 20251 20252 20253 20254 20255 20256 20257 20258 20259 20260 20261 20262 20263 20264 20265 20266 20267 20268 20269 20270 20271 20272 20273 20274 20275 20276 20277 20278 20279 20280 20281 20282 20283 20284 20285 20286 20287 20288 20289 20290 20291 20292 20293 20294 20295 20296 20297 20298 20299 20300 20301 20302 20303 20304 20305 20306 20307 20308 20309 20310 20311 20312 20313 20314 20315 20316 20317 20318 20319 20320 20321 20322 20323 20324 20325 20326 20327 20328 20329 20330 20331 20332 20333 20334 20335 20336 20337 20338 20339 20340 20341 20342 20343 20344 20345 20346 20347 20348 20349 20350 20351 20352 20353 20354 20355 20356 20357 20358 20359 20360 20361 20362 20363 20364 20365 20366 20367 20368 20369 20370 20371 20372 20373 20374 20375 20376 20377 20378 20379 20380 20381 20382 20383 20384 20385 20386 20387 20388 20389 20390 20391 20392 20393 20394 20395 20396 20397 20398 20399 20400 20401 20402 20403 20404 20405 20406 20407 20408 20409 20410 20411 20412 20413 20414 20415 20416 20417 20418 20419 20420 20421 20422 20423 20424 20425 20426 20427 20428 20429 20430 20431 20432 20433 20434 20435 20436 20437 20438 20439 20440 20441 20442 20443 20444 20445 20446 20447 20448 20449 20450 20451 20452 20453 20454 20455 20456 20457 20458 20459 20460 20461 20462 20463 20464 20465 20466 20467 20468 20469 20470 20471 20472 20473 20474 20475 20476 20477 20478 20479 20480 20481 20482 20483 20484 20485 20486 20487 20488 20489 20490 20491 20492 20493 20494 20495 20496 20497 20498 20499 20500 20501 20502 20503 20504 20505 20506 20507 20508 20509 20510 20511 20512 20513 20514 20515 20516 20517 20518 20519 20520 20521 20522 20523 20524 20525 20526 20527 20528 20529 20530 20531 20532 20533 20534 20535 20536 20537 20538 20539 20540 20541 20542 20543 20544 20545 20546 20547 20548 20549 20550 20551 20552 20553 20554 20555 20556 20557 20558 20559 20560 20561 20562 20563 20564 20565 20566 20567 20568 20569 20570 20571 20572 20573 20574 20575 20576 20577 20578 20579 20580 20581 20582 20583 20584 20585 20586 20587 20588 20589 20590 20591 20592 20593 20594 20595 20596 20597 20598 20599 20600 20601 20602 20603 20604 20605 20606 20607 20608 20609 20610 20611 20612 20613 20614 20615 20616 20617 20618 20619 20620 20621 20622 20623 20624 20625 20626 20627 20628 20629 20630 20631 20632 20633 20634 20635 20636 20637 20638 20639 20640 20641 20642 20643 20644 20645 20646 20647 20648 20649 20650 20651 20652 20653 20654 20655 20656 20657 20658 20659 20660 20661 20662 20663 20664 20665 20666 20667 20668 20669 20670 20671 20672 20673 20674 20675 20676 20677 20678 20679 20680 20681 20682 20683 20684 20685 20686 20687 20688 20689 20690 20691 20692 20693 20694 20695 20696 20697 20698 20699 20700 20701 20702 20703 20704 20705 20706 20707 20708 20709 20710 20711 20712 20713 20714 20715 20716 20717 20718 20719 20720 20721 20722 20723 20724 20725 20726 20727 20728 20729 20730 20731 20732 20733 20734 20735 20736 20737 20738 20739 20740 20741 20742 20743 20744 20745 20746 20747 20748 20749 20750 20751 20752 20753 20754 20755 20756 20757 20758 20759 20760 20761 20762 20763 20764 20765 20766 20767 20768 20769 20770 20771 20772 20773 20774 20775 20776 20777 20778 20779 20780 20781 20782 20783 20784 20785 20786 20787 20788 20789 20790 20791 20792 20793 20794 20795 20796 20797 20798 20799 20800 20801 20802 20803 20804 20805 20806 20807 20808 20809 20810 20811 20812 20813 20814 20815 20816 20817 20818 20819 20820 20821 20822 20823 20824 20825 20826 20827 20828 20829 20830 20831 20832 20833 20834 20835 20836 20837 20838 20839 20840 20841 20842 20843 20844 20845 20846 20847 20848 20849 20850 20851 20852 20853 20854 20855 20856 20857 20858 20859 20860 20861 20862 20863 20864 20865 20866 20867 20868 20869 20870 20871 20872 20873 20874 20875 20876 20877 20878 20879 20880 20881 20882 20883 20884 20885 20886 20887 20888 20889 20890 20891 20892 20893 20894 20895 20896 20897 20898 20899 20900 20901 20902 20903 20904 20905 20906 20907 20908 20909 20910 20911 20912 20913 20914 20915 20916 20917 20918 20919 20920 20921 20922 20923 20924 20925 20926 20927 20928 20929 20930 20931 20932 20933 20934 20935 20936 20937 20938 20939 20940 20941 20942 20943 20944 20945 20946 20947 20948 20949 20950 20951 20952 20953 20954 20955 20956 20957 20958 20959 20960 20961 20962 20963 20964 20965 20966 20967 20968 20969 20970 20971 20972 20973 20974 20975 20976 20977 20978 20979 20980 20981 20982 20983 20984 20985 20986 20987 20988 20989 20990 20991 20992 20993 20994 20995 20996 20997 20998 20999 21000 21001 21002 21003 21004 21005 21006 21007 21008 21009 21010 21011 21012 21013 21014 21015 21016 21017 21018 21019 21020 21021 21022 21023 21024 21025 21026 21027 21028 21029 21030 21031 21032 21033 21034 21035 21036 21037 21038 21039 21040 21041 21042 21043 21044 21045 21046 21047 21048 21049 21050 21051 21052 21053 21054 21055 21056 21057 21058 21059 21060 21061 21062 21063 21064 21065 21066 21067 21068 21069 21070 21071 21072 21073 21074 21075 21076 21077 21078 21079 21080 21081 21082 21083 21084 21085 21086 21087 21088 21089 21090 21091 21092 21093 21094 21095 21096 21097 21098 21099 21100 21101 21102 21103 21104 21105 21106 21107 21108 21109 21110 21111 21112 21113 21114 21115 21116 21117 21118 21119 21120 21121 21122 21123 21124 21125 21126 21127 21128 21129 21130 21131 21132 21133 21134 21135 21136 21137 21138 21139 21140 21141 21142 21143 21144 21145 21146 21147 21148 21149 21150 21151 21152 21153 21154 21155 21156 21157 21158 21159 21160 21161 21162 21163 21164 21165 21166 21167 21168 21169 21170 21171 21172 21173 21174 21175 21176 21177 21178 21179 21180 21181 21182 21183 21184 21185 21186 21187 21188 21189 21190 21191 21192 21193 21194 21195 21196 21197 21198 21199 21200 21201 21202 21203 21204 21205 21206 21207 21208 21209 21210 21211 21212 21213 21214 21215 21216 21217 21218 21219 21220 21221 21222 21223 21224 21225 21226 21227 21228 21229 21230 21231 21232 21233 21234 21235 21236 21237 21238 21239 21240 21241 21242 21243 21244 21245 21246 21247 21248 21249 21250 21251 21252 21253 21254 21255 21256 21257 21258 21259 21260 21261 21262 21263 21264 21265 21266 21267 21268 21269 21270 21271 21272 21273 21274 21275 21276 21277 21278 21279 21280 21281 21282 21283 21284 21285 21286 21287 21288 21289 21290 21291 21292 21293 21294 21295 21296 21297 21298 21299 21300 21301 21302 21303 21304 21305 21306 21307 21308 21309 21310 21311 21312 21313 21314 21315 21316 21317 21318 21319 21320 21321 21322 21323 21324 21325 21326 21327 21328 21329 21330 21331 21332 21333 21334 21335 21336 21337 21338 21339 21340 21341 21342 21343 21344 21345 21346 21347 21348 21349 21350 21351 21352 21353 21354 21355 21356 21357 21358 21359 21360 21361 21362 21363 21364 21365 21366 21367 21368 21369 21370 21371 21372 21373 21374 21375 21376 21377 21378 21379 21380 21381 21382 21383 21384 21385 21386 21387 21388 21389 21390 21391 21392 21393 21394 21395 21396 21397 21398 21399 21400 21401 21402 21403 21404 21405 21406 21407 21408 21409 21410 21411 21412 21413 21414 21415 21416 21417 21418 21419 21420 21421 21422 21423 21424 21425 21426 21427 21428 21429 21430 21431 21432 21433 21434 21435 21436 21437 21438 21439 21440 21441 21442 21443 21444 21445 21446 21447 21448 21449 21450 21451 21452 21453 21454 21455 21456 21457 21458 21459 21460 21461 21462 21463 21464 21465 21466 21467 21468 21469 21470 21471 21472 21473 21474 21475 21476 21477 21478 21479 21480 21481 21482 21483 21484 21485 21486 21487 21488 21489 21490 21491 21492 21493 21494 21495 21496 21497 21498 21499 21500 21501 21502 21503 21504 21505 21506 21507 21508 21509 21510 21511 21512 21513 21514 21515 21516 21517 21518 21519 21520 21521 21522 21523 21524 21525 21526 21527 21528 21529 21530 21531 21532 21533 21534 21535 21536 21537 21538 21539 21540 21541 21542 21543 21544 21545 21546 21547 21548 21549 21550 21551 21552 21553 21554 21555 21556 21557 21558 21559 21560 21561 21562 21563 21564 21565 21566 21567 21568 21569 21570 21571 21572 21573 21574 21575 21576 21577 21578 21579 21580 21581 21582 21583 21584 21585 21586 21587 21588 21589 21590 21591 21592 21593 21594 21595 21596 21597 21598 21599 21600 21601 21602 21603 21604 21605 21606 21607 21608 21609 21610 21611 21612 21613 21614 21615 21616 21617 21618 21619 21620 21621 21622 21623 21624 21625 21626 21627 21628 21629 21630 21631 21632 21633 21634 21635 21636 21637 21638 21639 21640 21641 21642 21643 21644 21645 21646 21647 21648 21649 21650 21651 21652 21653 21654 21655 21656 21657 21658 21659 21660 21661 21662 21663 21664 21665 21666 21667 21668 21669 21670 21671 21672 21673 21674 21675 21676 21677 21678 21679 21680 21681 21682 21683 21684 21685 21686 21687 21688 21689 21690 21691 21692 21693 21694 21695 21696 21697 21698 21699 21700 21701 21702 21703 21704 21705 21706 21707 21708 21709 21710 21711 21712 21713 21714 21715 21716 21717 21718 21719 21720 21721 21722 21723 21724 21725 21726 21727 21728 21729 21730 21731 21732 21733 21734 21735 21736 21737 21738 21739 21740 21741 21742 21743 21744 21745 21746 21747 21748 21749 21750 21751 21752 21753 21754 21755 21756 21757 21758 21759 21760 21761 21762 21763 21764 21765 21766 21767 21768 21769 21770 21771 21772 21773 21774 21775 21776 21777 21778 21779 21780 21781 21782 21783 21784 21785 21786 21787 21788 21789 21790 21791 21792 21793 21794 21795 21796 21797 21798 21799 21800 21801 21802 21803 21804 21805 21806 21807 21808 21809 21810 21811 21812 21813 21814 21815 21816 21817 21818 21819 21820 21821 21822 21823 21824 21825 21826 21827 21828 21829 21830 21831 21832 21833 21834 21835 21836 21837 21838 21839 21840 21841 21842 21843 21844 21845 21846 21847 21848 21849 21850 21851 21852 21853 21854 21855 21856 21857 21858 21859 21860 21861 21862 21863 21864 21865 21866 21867 21868 21869 21870 21871 21872 21873 21874 21875 21876 21877 21878 21879 21880 21881 21882 21883 21884 21885 21886 21887 21888 21889 21890 21891 21892 21893 21894 21895 21896 21897 21898 21899 21900 21901 21902 21903 21904 21905 21906 21907 21908 21909 21910 21911 21912 21913 21914 21915 21916 21917 21918 21919 21920 21921 21922 21923 21924 21925 21926 21927 21928 21929 21930 21931 21932 21933 21934 21935 21936 21937 21938 21939 21940 21941 21942 21943 21944 21945 21946 21947 21948 21949 21950 21951 21952 21953 21954 21955 21956 21957 21958 21959 21960 21961 21962 21963 21964 21965 21966 21967 21968 21969 21970 21971 21972 21973 21974 21975 21976 21977 21978 21979 21980 21981 21982 21983 21984 21985 21986 21987 21988 21989 21990 21991 21992 21993 21994 21995 21996 21997 21998 21999 22000 22001 22002 22003 22004 22005 22006 22007 22008 22009 22010 22011 22012 22013 22014 22015 22016 22017 22018 22019 22020 22021 22022 22023 22024 22025 22026 22027 22028 22029 22030 22031 22032 22033 22034 22035 22036 22037 22038 22039 22040 22041 22042 22043 22044 22045 22046 22047 22048 22049 22050 22051 22052 22053 22054 22055 22056 22057 22058 22059 22060 22061 22062 22063 22064 22065 22066 22067 22068 22069 22070 22071 22072 22073 22074 22075 22076 22077 22078 22079 22080 22081 22082 22083 22084 22085 22086 22087 22088 22089 22090 22091 22092 22093 22094 22095 22096 22097 22098 22099 22100 22101 22102 22103 22104 22105 22106 22107 22108 22109 22110 22111 22112 22113 22114 22115 22116 22117 22118 22119 22120 22121 22122 22123 22124 22125 22126 22127 22128 22129 22130 22131 22132 22133 22134 22135 22136 22137 22138 22139 22140 22141 22142 22143 22144 22145 22146 22147 22148 22149 22150 22151 22152 22153 22154 22155 22156 22157 22158 22159 22160 22161 22162 22163 22164 22165 22166 22167 22168 22169 22170 22171 22172 22173 22174 22175 22176 22177 22178 22179 22180 22181 22182 22183 22184 22185 22186 22187 22188 22189 22190 22191 22192 22193 22194 22195 22196 22197 22198 22199 22200 22201 22202 22203 22204 22205 22206 22207 22208 22209 22210 22211 22212 22213 22214 22215 22216 22217 22218 22219 22220 22221 22222 22223 22224 22225 22226 22227 22228 22229 22230 22231 22232 22233 22234 22235 22236 22237 22238 22239 22240 22241 22242 22243 22244 22245 22246 22247 22248 22249 22250 22251 22252 22253 22254 22255 22256 22257 22258 22259 22260 22261 22262 22263 22264 22265 22266 22267 22268 22269 22270 22271 22272 22273 22274 22275 22276 22277 22278 22279 22280 22281 22282 22283 22284 22285 22286 22287 22288 22289 22290 22291 22292 22293 22294 22295 22296 22297 22298 22299 22300 22301 22302 22303 22304 22305 22306 22307 22308 22309 22310 22311 22312 22313 22314 22315 22316 22317 22318 22319 22320 22321 22322 22323 22324 22325 22326 22327 22328 22329 22330 22331 22332 22333 22334 22335 22336 22337 22338 22339 22340 22341 22342 22343 22344 22345 22346 22347 22348 22349 22350 22351 22352 22353 22354 22355 22356 22357 22358 22359 22360 22361 22362 22363 22364 22365 22366 22367 22368 22369 22370 22371 22372 22373 22374 22375 22376 22377 22378 22379 22380 22381 22382 22383 22384 22385 22386 22387 22388 22389 22390 22391 22392 22393 22394 22395 22396 22397 22398 22399 22400 22401 22402 22403 22404 22405 22406 22407 22408 22409 22410 22411 22412 22413 22414 22415 22416 22417 22418 22419 22420 22421 22422 22423 22424 22425 22426 22427 22428 22429 22430 22431 22432 22433 22434 22435 22436 22437 22438 22439 22440 22441 22442 22443 22444 22445 22446 22447 22448 22449 22450 22451 22452 22453 22454 22455 22456 22457 22458 22459 22460 22461 22462 22463 22464 22465 22466 22467 22468 22469 22470 22471 22472 22473 22474 22475 22476 22477 22478 22479 22480 22481 22482 22483 22484 22485 22486 22487 22488 22489 22490 22491 22492 22493 22494 22495 22496 22497 22498 22499 22500 22501 22502 22503 22504 22505 22506 22507 22508 22509 22510 22511 22512 22513 22514 22515 22516 22517 22518 22519 22520 22521 22522 22523 22524 22525 22526 22527 22528 22529 22530 22531 22532 22533 22534 22535 22536 22537 22538 22539 22540 22541 22542 22543 22544 22545 22546 22547 22548 22549 22550 22551 22552 22553 22554 22555 22556 22557 22558 22559 22560 22561 22562 22563 22564 22565 22566 22567 22568 22569 22570 22571 22572 22573 22574 22575 22576 22577 22578 22579 22580 22581 22582 22583 22584 22585 22586 22587 22588 22589 22590 22591 22592 22593 22594 22595 22596 22597 22598 22599 22600 22601 22602 22603 22604 22605 22606 22607 22608 22609 22610 22611 22612 22613 22614 22615 22616 22617 22618 22619 22620 22621 22622 22623 22624 22625 22626 22627 22628 22629 22630 22631 22632 22633 22634 22635 22636 22637 22638 22639 22640 22641 22642 22643 22644 22645 22646 22647 22648 22649 22650 22651 22652 22653 22654 22655 22656 22657 22658 22659 22660 22661 22662 22663 22664 22665 22666 22667 22668 22669 22670 22671 22672 22673 22674 22675 22676 22677 22678 22679 22680 22681 22682 22683 22684 22685 22686 22687 22688 22689 22690 22691 22692 22693 22694 22695 22696 22697 22698 22699 22700 22701 22702 22703 22704 22705 22706 22707 22708 22709 22710 22711 22712 22713 22714 22715 22716 22717 22718 22719 22720 22721 22722 22723 22724 22725 22726 22727 22728 22729 22730 22731 22732 22733 22734 22735 22736 22737 22738 22739 22740 22741 22742 22743 22744 22745 22746 22747 22748 22749 22750 22751 22752 22753 22754 22755 22756 22757 22758 22759 22760 22761 22762 22763 22764 22765 22766 22767 22768 22769 22770 22771 22772 22773 22774 22775 22776 22777 22778 22779 22780 22781 22782 22783 22784 22785 22786 22787 22788 22789 22790 22791 22792 22793 22794 22795 22796 22797 22798 22799 22800 22801 22802 22803 22804 22805 22806 22807 22808 22809 22810 22811 22812 22813 22814 22815 22816 22817 22818 22819 22820 22821 22822 22823 22824 22825 22826 22827 22828 22829 22830 22831 22832 22833 22834 22835 22836 22837 22838 22839 22840 22841 22842 22843 22844 22845 22846 22847 22848 22849 22850 22851 22852 22853 22854 22855 22856 22857 22858 22859 22860 22861 22862 22863 22864 22865 22866 22867 22868 22869 22870 22871 22872 22873 22874 22875 22876 22877 22878 22879 22880 22881 22882 22883 22884 22885 22886 22887 22888 22889 22890 22891 22892 22893 22894 22895 22896 22897 22898 22899 22900 22901 22902 22903 22904 22905 22906 22907 22908 22909 22910 22911 22912 22913 22914 22915 22916 22917 22918 22919 22920 22921 22922 22923 22924 22925 22926 22927 22928 22929 22930 22931 22932 22933 22934 22935 22936 22937 22938 22939 22940 22941 22942 22943 22944 22945 22946 22947 22948 22949 22950 22951 22952 22953 22954 22955 22956 22957 22958 22959 22960 22961 22962 22963 22964 22965 22966 22967 22968 22969 22970 22971 22972 22973 22974 22975 22976 22977 22978 22979 22980 22981 22982 22983 22984 22985 22986 22987 22988 22989 22990 22991 22992 22993 22994 22995 22996 22997 22998 22999 23000 23001 23002 23003 23004 23005 23006 23007 23008 23009 23010 23011 23012 23013 23014 23015 23016 23017 23018 23019 23020 23021 23022 23023 23024 23025 23026 23027 23028 23029 23030 23031 23032 23033 23034 23035 23036 23037 23038 23039 23040 23041 23042 23043 23044 23045 23046 23047 23048 23049 23050 23051 23052 23053 23054 23055 23056 23057 23058 23059 23060 23061 23062 23063 23064 23065 23066 23067 23068 23069 23070 23071 23072 23073 23074 23075 23076 23077 23078 23079 23080 23081 23082 23083 23084 23085 23086 23087 23088 23089 23090 23091 23092 23093 23094 23095 23096 23097 23098 23099 23100 23101 23102 23103 23104 23105 23106 23107 23108 23109 23110 23111 23112 23113 23114 23115 23116 23117 23118 23119 23120 23121 23122 23123 23124 23125 23126 23127 23128 23129 23130 23131 23132 23133 23134 23135 23136 23137 23138 23139 23140 23141 23142 23143 23144 23145 23146 23147 23148 23149 23150 23151 23152 23153 23154 23155 23156 23157 23158 23159 23160 23161 23162 23163 23164 23165 23166 23167 23168 23169 23170 23171 23172 23173 23174 23175 23176 23177 23178 23179 23180 23181 23182 23183 23184 23185 23186 23187 23188 23189 23190 23191 23192 23193 23194 23195 23196 23197 23198 23199 23200 23201 23202 23203 23204 23205 23206 23207 23208 23209 23210 23211 23212 23213 23214 23215 23216 23217 23218 23219 23220 23221 23222 23223 23224 23225 23226 23227 23228 23229 23230 23231 23232 23233 23234 23235 23236 23237 23238 23239 23240 23241 23242 23243 23244 23245 23246 23247 23248 23249 23250 23251 23252 23253 23254 23255 23256 23257 23258 23259 23260 23261 23262 23263 23264 23265 23266 23267 23268 23269 23270 23271 23272 23273 23274 23275 23276 23277 23278 23279 23280 23281 23282 23283 23284 23285 23286 23287 23288 23289 23290 23291 23292 23293 23294 23295 23296 23297 23298 23299 23300 23301 23302 23303 23304 23305 23306 23307 23308 23309 23310 23311 23312 23313 23314 23315 23316 23317 23318 23319 23320 23321 23322 23323 23324 23325 23326 23327 23328 23329 23330 23331 23332 23333 23334 23335 23336 23337 23338 23339 23340 23341 23342 23343 23344 23345 23346 23347 23348 23349 23350 23351 23352 23353 23354 23355 23356 23357 23358 23359 23360 23361 23362 23363 23364 23365 23366 23367 23368 23369 23370 23371 23372 23373 23374 23375 23376 23377 23378 23379 23380 23381 23382 23383 23384 23385 23386 23387 23388 23389 23390 23391 23392 23393 23394 23395 23396 23397 23398 23399 23400 23401 23402 23403 23404 23405 23406 23407 23408 23409 23410 23411 23412 23413 23414 23415 23416 23417 23418 23419 23420 23421 23422 23423 23424 23425 23426 23427 23428 23429 23430 23431 23432 23433 23434 23435 23436 23437 23438 23439 23440 23441 23442 23443 23444 23445 23446 23447 23448 23449 23450 23451 23452 23453 23454 23455 23456 23457 23458 23459 23460 23461 23462 23463 23464 23465 23466 23467 23468 23469 23470 23471 23472 23473 23474 23475 23476 23477 23478 23479 23480 23481 23482 23483 23484 23485 23486 23487 23488 23489 23490 23491 23492 23493 23494 23495 23496 23497 23498 23499 23500 23501 23502 23503 23504 23505 23506 23507 23508 23509 23510 23511 23512 23513 23514 23515 23516 23517 23518 23519 23520 23521 23522 23523 23524 23525 23526 23527 23528 23529 23530 23531 23532 23533 23534 23535 23536 23537 23538 23539 23540 23541 23542 23543 23544 23545 23546 23547 23548 23549 23550 23551 23552 23553 23554 23555 23556 23557 23558 23559 23560 23561 23562 23563 23564 23565 23566 23567 23568 23569 23570 23571 23572 23573 23574 23575 23576 23577 23578 23579 23580 23581 23582 23583 23584 23585 23586 23587 23588 23589 23590 23591 23592 23593 23594 23595 23596 23597 23598 23599 23600 23601 23602 23603 23604 23605 23606 23607 23608 23609 23610 23611 23612 23613 23614 23615 23616 23617 23618 23619 23620 23621 23622 23623 23624 23625 23626 23627 23628 23629 23630 23631 23632 23633 23634 23635 23636 23637 23638 23639 23640 23641 23642 23643 23644 23645 23646 23647 23648 23649 23650 23651 23652 23653 23654 23655 23656 23657 23658 23659 23660 23661 23662 23663 23664 23665 23666 23667 23668 23669 23670 23671 23672 23673 23674 23675 23676 23677 23678 23679 23680 23681 23682 23683 23684 23685 23686 23687 23688 23689 23690 23691 23692 23693 23694 23695 23696 23697 23698 23699 23700 23701 23702 23703 23704 23705 23706 23707 23708 23709 23710 23711 23712 23713 23714 23715 23716 23717 23718 23719 23720 23721 23722 23723 23724 23725 23726 23727 23728 23729 23730 23731 23732 23733 23734 23735 23736 23737 23738 23739 23740 23741 23742 23743 23744 23745 23746 23747 23748 23749 23750 23751 23752 23753 23754 23755 23756 23757 23758 23759 23760 23761 23762 23763 23764 23765 23766 23767 23768 23769 23770 23771 23772 23773 23774 23775 23776 23777 23778 23779 23780 23781 23782 23783 23784 23785 23786 23787 23788 23789 23790 23791 23792 23793 23794 23795 23796 23797 23798 23799 23800 23801 23802 23803 23804 23805 23806 23807 23808 23809 23810 23811 23812 23813 23814 23815 23816 23817 23818 23819 23820 23821 23822 23823 23824 23825 23826 23827 23828 23829 23830 23831 23832 23833 23834 23835 23836 23837 23838 23839 23840 23841 23842 23843 23844 23845 23846 23847 23848 23849 23850 23851 23852 23853 23854 23855 23856 23857 23858 23859 23860 23861 23862 23863 23864 23865 23866 23867 23868 23869 23870 23871 23872 23873 23874 23875 23876 23877 23878 23879 23880 23881 23882 23883 23884 23885 23886 23887 23888 23889 23890 23891 23892 23893 23894 23895 23896 23897 23898 23899 23900 23901 23902 23903 23904 23905 23906 23907 23908 23909 23910 23911 23912 23913 23914 23915 23916 23917 23918 23919 23920 23921 23922 23923 23924 23925 23926 23927 23928 23929 23930 23931 23932 23933 23934 23935 23936 23937 23938 23939 23940 23941 23942 23943 23944 23945 23946 23947 23948 23949 23950 23951 23952 23953 23954 23955 23956 23957 23958 23959 23960 23961 23962 23963 23964 23965 23966 23967 23968 23969 23970 23971 23972 23973 23974 23975 23976 23977 23978 23979 23980 23981 23982 23983 23984 23985 23986 23987 23988 23989 23990 23991 23992 23993 23994 23995 23996 23997 23998 23999 24000 24001 24002 24003 24004 24005 24006 24007 24008 24009 24010 24011 24012 24013 24014 24015 24016 24017 24018 24019 24020 24021 24022 24023 24024 24025 24026 24027 24028 24029 24030 24031 24032 24033 24034 24035 24036 24037 24038 24039 24040 24041 24042 24043 24044 24045 24046 24047 24048 24049 24050 24051 24052 24053 24054 24055 24056 24057 24058 24059 24060 24061 24062 24063 24064 24065 24066 24067 24068 24069 24070 24071 24072 24073 24074 24075 24076 24077 24078 24079 24080 24081 24082 24083 24084 24085 24086 24087 24088 24089 24090 24091 24092 24093 24094 24095 24096 24097 24098 24099 24100 24101 24102 24103 24104 24105 24106 24107 24108 24109 24110 24111 24112 24113 24114 24115 24116 24117 24118 24119 24120 24121 24122 24123 24124 24125 24126 24127 24128 24129 24130 24131 24132 24133 24134 24135 24136 24137 24138 24139 24140 24141 24142 24143 24144 24145 24146 24147 24148 24149 24150 24151 24152 24153 24154 24155 24156 24157 24158 24159 24160 24161 24162 24163 24164 24165 24166 24167 24168 24169 24170 24171 24172 24173 24174 24175 24176 24177 24178 24179 24180 24181 24182 24183 24184 24185 24186 24187 24188 24189 24190 24191 24192 24193 24194 24195 24196 24197 24198 24199 24200 24201 24202 24203 24204 24205 24206 24207 24208 24209 24210 24211 24212 24213 24214 24215 24216 24217 24218 24219 24220 24221 24222 24223 24224 24225 24226 24227 24228 24229 24230 24231 24232 24233 24234 24235 24236 24237 24238 24239 24240 24241 24242 24243 24244 24245 24246 24247 24248 24249 24250 24251 24252 24253 24254 24255 24256 24257 24258 24259 24260 24261 24262 24263 24264 24265 24266 24267 24268 24269 24270 24271 24272 24273 24274 24275 24276 24277 24278 24279 24280 24281 24282 24283 24284 24285 24286 24287 24288 24289 24290 24291 24292 24293 24294 24295 24296 24297 24298 24299 24300 24301 24302 24303 24304 24305 24306 24307 24308 24309 24310 24311 24312 24313 24314 24315 24316 24317 24318 24319 24320 24321 24322 24323 24324 24325 24326 24327 24328 24329 24330 24331 24332 24333 24334 24335 24336 24337 24338 24339 24340 24341 24342 24343 24344 24345 24346 24347 24348 24349 24350 24351 24352 24353 24354 24355 24356 24357 24358 24359 24360 24361 24362 24363 24364 24365 24366 24367 24368 24369 24370 24371 24372 24373 24374 24375 24376 24377 24378 24379 24380 24381 24382 24383 24384 24385 24386 24387 24388 24389 24390 24391 24392 24393 24394 24395 24396 24397 24398 24399 24400 24401 24402 24403 24404 24405 24406 24407 24408 24409 24410 24411 24412 24413 24414 24415 24416 24417 24418 24419 24420 24421 24422 24423 24424 24425 24426 24427 24428 24429 24430 24431 24432 24433 24434 24435 24436 24437 24438 24439 24440 24441 24442 24443 24444 24445 24446 24447 24448 24449 24450 24451 24452 24453 24454 24455 24456 24457 24458 24459 24460 24461 24462 24463 24464 24465 24466 24467 24468 24469 24470 24471 24472 24473 24474 24475 24476 24477 24478 24479 24480 24481 24482 24483 24484 24485 24486 24487 24488 24489 24490 24491 24492 24493 24494 24495 24496 24497 24498 24499 24500 24501 24502 24503 24504 24505 24506 24507 24508 24509 24510 24511 24512 24513 24514 24515 24516 24517 24518 24519 24520 24521 24522 24523 24524 24525 24526 24527 24528 24529 24530 24531 24532 24533 24534 24535 24536 24537 24538 24539 24540 24541 24542 24543 24544 24545 24546 24547 24548 24549 24550 24551 24552 24553 24554 24555 24556 24557 24558 24559 24560 24561 24562 24563 24564 24565 24566 24567 24568 24569 24570 24571 24572 24573 24574 24575 24576 24577 24578 24579 24580 24581 24582 24583 24584 24585 24586 24587 24588 24589 24590 24591 24592 24593 24594 24595 24596 24597 24598 24599 24600 24601 24602 24603 24604 24605 24606 24607 24608 24609 24610 24611 24612 24613 24614 24615 24616 24617 24618 24619 24620 24621 24622 24623 24624 24625 24626 24627 24628 24629 24630 24631 24632 24633 24634 24635 24636 24637 24638 24639 24640 24641 24642 24643 24644 24645 24646 24647 24648 24649 24650 24651 24652 24653 24654 24655 24656 24657 24658 24659 24660 24661 24662 24663 24664 24665 24666 24667 24668 24669 24670 24671 24672 24673 24674 24675 24676 24677 24678 24679 24680 24681 24682 24683 24684 24685 24686 24687 24688 24689 24690 24691 24692 24693 24694 24695 24696 24697 24698 24699 24700 24701 24702 24703 24704 24705 24706 24707 24708 24709 24710 24711 24712 24713 24714 24715 24716 24717 24718 24719 24720 24721 24722 24723 24724 24725 24726 24727 24728 24729 24730 24731 24732 24733 24734 24735 24736 24737 24738 24739 24740 24741 24742 24743 24744 24745 24746 24747 24748 24749 24750 24751 24752 24753 24754 24755 24756 24757 24758 24759 24760 24761 24762 24763 24764 24765 24766 24767 24768 24769 24770 24771 24772 24773 24774 24775 24776 24777 24778 24779 24780 24781 24782 24783 24784 24785 24786 24787 24788 24789 24790 24791 24792 24793 24794 24795 24796 24797 24798 24799 24800 24801 24802 24803 24804 24805 24806 24807 24808 24809 24810 24811 24812 24813 24814 24815 24816 24817 24818 24819 24820 24821 24822 24823 24824 24825 24826 24827 24828 24829 24830 24831 24832 24833 24834 24835 24836 24837 24838 24839 24840 24841 24842 24843 24844 24845 24846 24847 24848 24849 24850 24851 24852 24853 24854 24855 24856 24857 24858 24859 24860 24861 24862 24863 24864 24865 24866 24867 24868 24869 24870 24871 24872 24873 24874 24875 24876 24877 24878 24879 24880 24881 24882 24883 24884 24885 24886 24887 24888 24889 24890 24891 24892 24893 24894 24895 24896 24897 24898 24899 24900 24901 24902 24903 24904 24905 24906 24907 24908 24909 24910 24911 24912 24913 24914 24915 24916 24917 24918 24919 24920 24921 24922 24923 24924 24925 24926 24927 24928 24929 24930 24931 24932 24933 24934 24935 24936 24937 24938 24939 24940 24941 24942 24943 24944 24945 24946 24947 24948 24949 24950 24951 24952 24953 24954 24955 24956 24957 24958 24959 24960 24961 24962 24963 24964 24965 24966 24967 24968 24969 24970 24971 24972 24973 24974 24975 24976 24977 24978 24979 24980 24981 24982 24983 24984 24985 24986 24987 24988 24989 24990 24991 24992 24993 24994 24995 24996 24997 24998 24999 25000 25001 25002 25003 25004 25005 25006 25007 25008 25009 25010 25011 25012 25013 25014 25015 25016 25017 25018 25019 25020 25021 25022 25023 25024 25025 25026 25027 25028 25029 25030 25031 25032 25033 25034 25035 25036 25037 25038 25039 25040 25041 25042 25043 25044 25045 25046 25047 25048 25049 25050 25051 25052 25053 25054 25055 25056 25057 25058 25059 25060 25061 25062 25063 25064 25065 25066 25067 25068 25069 25070 25071 25072 25073 25074 25075 25076 25077 25078 25079 25080 25081 25082 25083 25084 25085 25086 25087 25088 25089 25090 25091 25092 25093 25094 25095 25096 25097 25098 25099 25100 25101 25102 25103 25104 25105 25106 25107 25108 25109 25110 25111 25112 25113 25114 25115 25116 25117 25118 25119 25120 25121 25122 25123 25124 25125 25126 25127 25128 25129 25130 25131 25132 25133 25134 25135 25136 25137 25138 25139 25140 25141 25142 25143 25144 25145 25146 25147 25148 25149 25150 25151 25152 25153 25154 25155 25156 25157 25158 25159 25160 25161 25162 25163 25164 25165 25166 25167 25168 25169 25170 25171 25172 25173 25174 25175 25176 25177 25178 25179 25180 25181 25182 25183 25184 25185 25186 25187 25188 25189 25190 25191 25192 25193 25194 25195 25196 25197 25198 25199 25200 25201 25202 25203 25204 25205 25206 25207 25208 25209 25210 25211 25212 25213 25214 25215 25216 25217 25218 25219 25220 25221 25222 25223 25224 25225 25226 25227 25228 25229 25230 25231 25232 25233 25234 25235 25236 25237 25238 25239 25240 25241 25242 25243 25244 25245 25246 25247 25248 25249 25250 25251 25252 25253 25254 25255 25256 25257 25258 25259 25260 25261 25262 25263 25264 25265 25266 25267 25268 25269 25270 25271 25272 25273 25274 25275 25276 25277 25278 25279 25280 25281 25282 25283 25284 25285 25286 25287 25288 25289 25290 25291 25292 25293 25294 25295 25296 25297 25298 25299 25300 25301 25302 25303 25304 25305 25306 25307 25308 25309 25310 25311 25312 25313 25314 25315 25316 25317 25318 25319 25320 25321 25322 25323 25324 25325 25326 25327 25328 25329 25330 25331 25332 25333 25334 25335 25336 25337 25338 25339 25340 25341 25342 25343 25344 25345 25346 25347 25348 25349 25350 25351 25352 25353 25354 25355 25356 25357 25358 25359 25360 25361 25362 25363 25364 25365 25366 25367 25368 25369 25370 25371 25372 25373 25374 25375 25376 25377 25378 25379 25380 25381 25382 25383 25384 25385 25386 25387 25388 25389 25390 25391 25392 25393 25394 25395 25396 25397 25398 25399 25400 25401 25402 25403 25404 25405 25406 25407 25408 25409 25410 25411 25412 25413 25414 25415 25416 25417 25418 25419 25420 25421 25422 25423 25424 25425 25426 25427 25428 25429 25430 25431 25432 25433 25434 25435 25436 25437 25438 25439 25440 25441 25442 25443 25444 25445 25446 25447 25448 25449 25450 25451 25452 25453 25454 25455 25456 25457 25458 25459 25460 25461 25462 25463 25464 25465 25466 25467 25468 25469 25470 25471 25472 25473 25474 25475 25476 25477 25478 25479 25480 25481 25482 25483 25484 25485 25486 25487 25488 25489 25490 25491 25492 25493 25494 25495 25496 25497 25498 25499 25500 25501 25502 25503 25504 25505 25506 25507 25508 25509 25510 25511 25512 25513 25514 25515 25516 25517 25518 25519 25520 25521 25522 25523 25524 25525 25526 25527 25528 25529 25530 25531 25532 25533 25534 25535 25536 25537 25538 25539 25540 25541 25542 25543 25544 25545 25546 25547 25548 25549 25550 25551 25552 25553 25554 25555 25556 25557 25558 25559 25560 25561 25562 25563 25564 25565 25566 25567 25568 25569 25570 25571 25572 25573 25574 25575 25576 25577 25578 25579 25580 25581 25582 25583 25584 25585 25586 25587 25588 25589 25590 25591 25592 25593 25594 25595 25596 25597 25598 25599 25600 25601 25602 25603 25604 25605 25606 25607 25608 25609 25610 25611 25612 25613 25614 25615 25616 25617 25618 25619 25620 25621 25622 25623 25624 25625 25626 25627 25628 25629 25630 25631 25632 25633 25634 25635 25636 25637 25638 25639 25640 25641 25642 25643 25644 25645 25646 25647 25648 25649 25650 25651 25652 25653 25654 25655 25656 25657 25658 25659 25660 25661 25662 25663 25664 25665 25666 25667 25668 25669 25670 25671 25672 25673 25674 25675 25676 25677 25678 25679 25680 25681 25682 25683 25684 25685 25686 25687 25688 25689 25690 25691 25692 25693 25694 25695 25696 25697 25698 25699 25700 25701 25702 25703 25704 25705 25706 25707 25708 25709 25710 25711 25712 25713 25714 25715 25716 25717 25718 25719 25720 25721 25722 25723 25724 25725 25726 25727 25728 25729 25730 25731 25732 25733 25734 25735 25736 25737 25738 25739 25740 25741 25742 25743 25744 25745 25746 25747 25748 25749 25750 25751 25752 25753 25754 25755 25756 25757 25758 25759 25760 25761 25762 25763 25764 25765 25766 25767 25768 25769 25770 25771 25772 25773 25774 25775 25776 25777 25778 25779 25780 25781 25782 25783 25784 25785 25786 25787 25788 25789 25790 25791 25792 25793 25794 25795 25796 25797 25798 25799 25800 25801 25802 25803 25804 25805 25806 25807 25808 25809 25810 25811 25812 25813 25814 25815 25816 25817 25818 25819 25820 25821 25822 25823 25824 25825 25826 25827 25828 25829 25830 25831 25832 25833 25834 25835 25836 25837 25838 25839 25840 25841 25842 25843 25844 25845 25846 25847 25848 25849 25850 25851 25852 25853 25854 25855 25856 25857 25858 25859 25860 25861 25862 25863 25864 25865 25866 25867 25868 25869 25870 25871 25872 25873 25874 25875 25876 25877 25878 25879 25880 25881 25882 25883 25884 25885 25886 25887 25888 25889 25890 25891 25892 25893 25894 25895 25896 25897 25898 25899 25900 25901 25902 25903 25904 25905 25906 25907 25908 25909 25910 25911 25912 25913 25914 25915 25916 25917 25918 25919 25920 25921 25922 25923 25924 25925 25926 25927 25928 25929 25930 25931 25932 25933 25934 25935 25936 25937 25938 25939 25940 25941 25942 25943 25944 25945 25946 25947 25948 25949 25950 25951 25952 25953 25954 25955 25956 25957 25958 25959 25960 25961 25962 25963 25964 25965 25966 25967 25968 25969 25970 25971 25972 25973 25974 25975 25976 25977 25978 25979 25980 25981 25982 25983 25984 25985 25986 25987 25988 25989 25990 25991 25992 25993 25994 25995 25996 25997 25998 25999 26000 26001 26002 26003 26004 26005 26006 26007 26008 26009 26010 26011 26012 26013 26014 26015 26016 26017 26018 26019 26020 26021 26022 26023 26024 26025 26026 26027 26028 26029 26030 26031 26032 26033 26034 26035 26036 26037 26038 26039 26040 26041 26042 26043 26044 26045 26046 26047 26048 26049 26050 26051 26052 26053 26054 26055 26056 26057 26058 26059 26060 26061 26062 26063 26064 26065 26066 26067 26068 26069 26070 26071 26072 26073 26074 26075 26076 26077 26078 26079 26080 26081 26082 26083 26084 26085 26086 26087 26088 26089 26090 26091 26092 26093 26094 26095 26096 26097 26098 26099 26100 26101 26102 26103 26104 26105 26106 26107 26108 26109 26110 26111 26112 26113 26114 26115 26116 26117 26118 26119 26120 26121 26122 26123 26124 26125 26126 26127 26128 26129 26130 26131 26132 26133 26134 26135 26136 26137 26138 26139 26140 26141 26142 26143 26144 26145 26146 26147 26148 26149 26150 26151 26152 26153 26154 26155 26156 26157 26158 26159 26160 26161 26162 26163 26164 26165 26166 26167 26168 26169 26170 26171 26172 26173 26174 26175 26176 26177 26178 26179 26180 26181 26182 26183 26184 26185 26186 26187 26188 26189 26190 26191 26192 26193 26194 26195 26196 26197 26198 26199 26200 26201 26202 26203 26204 26205 26206 26207 26208 26209 26210 26211 26212 26213 26214 26215 26216 26217 26218 26219 26220 26221 26222 26223 26224 26225 26226 26227 26228 26229 26230 26231 26232 26233 26234 26235 26236 26237 26238 26239 26240 26241 26242 26243 26244 26245 26246 26247 26248 26249 26250 26251 26252 26253 26254 26255 26256 26257 26258 26259 26260 26261 26262 26263 26264 26265 26266 26267 26268 26269 26270 26271 26272 26273 26274 26275 26276 26277 26278 26279 26280 26281 26282 26283 26284 26285 26286 26287 26288 26289 26290 26291 26292 26293 26294 26295 26296 26297 26298 26299 26300 26301 26302 26303 26304 26305 26306 26307 26308 26309 26310 26311 26312 26313 26314 26315 26316 26317 26318 26319 26320 26321 26322 26323 26324 26325 26326 26327 26328 26329 26330 26331 26332 26333 26334 26335 26336 26337 26338 26339 26340 26341 26342 26343 26344 26345 26346 26347 26348 26349 26350 26351 26352 26353 26354 26355 26356 26357 26358 26359 26360 26361 26362 26363 26364 26365 26366 26367 26368 26369 26370 26371 26372 26373 26374 26375 26376 26377 26378 26379 26380 26381 26382 26383 26384 26385 26386 26387 26388 26389 26390 26391 26392 26393 26394 26395 26396 26397 26398 26399 26400 26401 26402 26403 26404 26405 26406 26407 26408 26409 26410 26411 26412 26413 26414 26415 26416 26417 26418 26419 26420 26421 26422 26423 26424 26425 26426 26427 26428 26429 26430 26431 26432 26433 26434 26435 26436 26437 26438 26439 26440 26441 26442 26443 26444 26445 26446 26447 26448 26449 26450 26451 26452 26453 26454 26455 26456 26457 26458 26459 26460 26461 26462 26463 26464 26465 26466 26467 26468 26469 26470 26471 26472 26473 26474 26475 26476 26477 26478 26479 26480 26481 26482 26483 26484 26485 26486 26487 26488 26489 26490 26491 26492 26493 26494 26495 26496 26497 26498 26499 26500 26501 26502 26503 26504 26505 26506 26507 26508 26509 26510 26511 26512 26513 26514 26515 26516 26517 26518 26519 26520 26521 26522 26523 26524 26525 26526 26527 26528 26529 26530 26531 26532 26533 26534 26535 26536 26537 26538 26539 26540 26541 26542 26543 26544 26545 26546 26547 26548 26549 26550 26551 26552 26553 26554 26555 26556 26557 26558 26559 26560 26561 26562 26563 26564 26565 26566 26567 26568 26569 26570 26571 26572 26573 26574 26575 26576 26577 26578 26579 26580 26581 26582 26583 26584 26585 26586 26587 26588 26589 26590 26591 26592 26593 26594 26595 26596 26597 26598 26599 26600 26601 26602 26603 26604 26605 26606 26607 26608 26609 26610 26611 26612 26613 26614 26615 26616 26617 26618 26619 26620 26621 26622 26623 26624 26625 26626 26627 26628 26629 26630 26631 26632 26633 26634 26635 26636 26637 26638 26639 26640 26641 26642 26643 26644 26645 26646 26647 26648 26649 26650 26651 26652 26653 26654 26655 26656 26657 26658 26659 26660 26661 26662 26663 26664 26665 26666 26667 26668 26669 26670 26671 26672 26673 26674 26675 26676 26677 26678 26679 26680 26681 26682 26683 26684 26685 26686 26687 26688 26689 26690 26691 26692 26693 26694 26695 26696 26697 26698 26699 26700 26701 26702 26703 26704 26705 26706 26707 26708 26709 26710 26711 26712 26713 26714 26715 26716 26717 26718 26719 26720 26721 26722 26723 26724 26725 26726 26727 26728 26729 26730 26731 26732 26733 26734 26735 26736 26737 26738 26739 26740 26741 26742 26743 26744 26745 26746 26747 26748 26749 26750 26751 26752 26753 26754 26755 26756 26757 26758 26759 26760 26761 26762 26763 26764 26765 26766 26767 26768 26769 26770 26771 26772 26773 26774 26775 26776 26777 26778 26779 26780 26781 26782 26783 26784 26785 26786 26787 26788 26789 26790 26791 26792 26793 26794 26795 26796 26797 26798 26799 26800 26801 26802 26803 26804 26805 26806 26807 26808 26809 26810 26811 26812 26813 26814 26815 26816 26817 26818 26819 26820 26821 26822 26823 26824 26825 26826 26827 26828 26829 26830 26831 26832 26833 26834 26835 26836 26837 26838 26839 26840 26841 26842 26843 26844 26845 26846 26847 26848 26849 26850 26851 26852 26853 26854 26855 26856 26857 26858 26859 26860 26861 26862 26863 26864 26865 26866 26867 26868 26869 26870 26871 26872 26873 26874 26875 26876 26877 26878 26879 26880 26881 26882 26883 26884 26885 26886 26887 26888 26889 26890 26891 26892 26893 26894 26895 26896 26897 26898 26899 26900 26901 26902 26903 26904 26905 26906 26907 26908 26909 26910 26911 26912 26913 26914 26915 26916 26917 26918 26919 26920 26921 26922 26923 26924 26925 26926 26927 26928 26929 26930 26931 26932 26933 26934 26935 26936 26937 26938 26939 26940 26941 26942 26943 26944 26945 26946 26947 26948 26949 26950 26951 26952 26953 26954 26955 26956 26957 26958 26959 26960 26961 26962 26963 26964 26965 26966 26967 26968 26969 26970 26971 26972 26973 26974 26975 26976 26977 26978 26979 26980 26981 26982 26983 26984 26985 26986 26987 26988 26989 26990 26991 26992 26993 26994 26995 26996 26997 26998 26999 27000 27001 27002 27003 27004 27005 27006 27007 27008 27009 27010 27011 27012 27013 27014 27015 27016 27017 27018 27019 27020 27021 27022 27023 27024 27025 27026 27027 27028 27029 27030 27031 27032 27033 27034 27035 27036 27037 27038 27039 27040 27041 27042 27043 27044 27045 27046 27047 27048 27049 27050 27051 27052 27053 27054 27055 27056 27057 27058 27059 27060 27061 27062 27063 27064 27065 27066 27067 27068 27069 27070 27071 27072 27073 27074 27075 27076 27077 27078 27079 27080 27081 27082 27083 27084 27085 27086 27087 27088 27089 27090 27091 27092 27093 27094 27095 27096 27097 27098 27099 27100 27101 27102 27103 27104 27105 27106 27107 27108 27109 27110 27111 27112 27113 27114 27115 27116 27117 27118 27119 27120 27121 27122 27123 27124 27125 27126 27127 27128 27129 27130 27131 27132 27133 27134 27135 27136 27137 27138 27139 27140 27141 27142 27143 27144 27145 27146 27147 27148 27149 27150 27151 27152 27153 27154 27155 27156 27157 27158 27159 27160 27161 27162 27163 27164 27165 27166 27167 27168 27169 27170 27171 27172 27173 27174 27175 27176 27177 27178 27179 27180 27181 27182 27183 27184 27185 27186 27187 27188 27189 27190 27191 27192 27193 27194 27195 27196 27197 27198 27199 27200 27201 27202 27203 27204 27205 27206 27207 27208 27209 27210 27211 27212 27213 27214 27215 27216 27217 27218 27219 27220 27221 27222 27223 27224 27225 27226 27227 27228 27229 27230 27231 27232 27233 27234 27235 27236 27237 27238 27239 27240 27241 27242 27243 27244 27245 27246 27247 27248 27249 27250 27251 27252 27253 27254 27255 27256 27257 27258 27259 27260 27261 27262 27263 27264 27265 27266 27267 27268 27269 27270 27271 27272 27273 27274 27275 27276 27277 27278 27279 27280 27281 27282 27283 27284 27285 27286 27287 27288 27289 27290 27291 27292 27293 27294 27295 27296 27297 27298 27299 27300 27301 27302 27303 27304 27305 27306 27307 27308 27309 27310 27311 27312 27313 27314 27315 27316 27317 27318 27319 27320 27321 27322 27323 27324 27325 27326 27327 27328 27329 27330 27331 27332 27333 27334 27335 27336 27337 27338 27339 27340 27341 27342 27343 27344 27345 27346 27347 27348 27349 27350 27351 27352 27353 27354 27355 27356 27357 27358 27359 27360 27361 27362 27363 27364 27365 27366 27367 27368 27369 27370 27371 27372 27373 27374 27375 27376 27377 27378 27379 27380 27381 27382 27383 27384 27385 27386 27387 27388 27389 27390 27391 27392 27393 27394 27395 27396 27397 27398 27399 27400 27401 27402 27403 27404 27405 27406 27407 27408 27409 27410 27411 27412 27413 27414 27415 27416 27417 27418 27419 27420 27421 27422 27423 27424 27425 27426 27427 27428 27429 27430 27431 27432 27433 27434 27435 27436 27437 27438 27439 27440 27441 27442 27443 27444 27445 27446 27447 27448 27449 27450 27451 27452 27453 27454 27455 27456 27457 27458 27459 27460 27461 27462 27463 27464 27465 27466 27467 27468 27469 27470 27471 27472 27473 27474 27475 27476 27477 27478 27479 27480 27481 27482 27483 27484 27485 27486 27487 27488 27489 27490 27491 27492 27493 27494 27495 27496 27497 27498 27499 27500 27501 27502 27503 27504 27505 27506 27507 27508 27509 27510 27511 27512 27513 27514 27515 27516 27517 27518 27519 27520 27521 27522 27523 27524 27525 27526 27527 27528 27529 27530 27531 27532 27533 27534 27535 27536 27537 27538 27539 27540 27541 27542 27543 27544 27545 27546 27547 27548 27549 27550 27551 27552 27553 27554 27555 27556 27557 27558 27559 27560 27561 27562 27563 27564 27565 27566 27567 27568 27569 27570 27571 27572 27573 27574 27575 27576 27577 27578 27579 27580 27581 27582 27583 27584 27585 27586 27587 27588 27589 27590 27591 27592 27593 27594 27595 27596 27597 27598 27599 27600 27601 27602 27603 27604 27605 27606 27607 27608 27609 27610 27611 27612 27613 27614 27615 27616 27617 27618 27619 27620 27621 27622 27623 27624 27625 27626 27627 27628 27629 27630 27631 27632 27633 27634 27635 27636 27637 27638 27639 27640 27641 27642 27643 27644 27645 27646 27647 27648 27649 27650 27651 27652 27653 27654 27655 27656 27657 27658 27659 27660 27661 27662 27663 27664 27665 27666 27667 27668 27669 27670 27671 27672 27673 27674 27675 27676 27677 27678 27679 27680 27681 27682 27683 27684 27685 27686 27687 27688 27689 27690 27691 27692 27693 27694 27695 27696 27697 27698 27699 27700 27701 27702 27703 27704 27705 27706 27707 27708 27709 27710 27711 27712 27713 27714 27715 27716 27717 27718 27719 27720 27721 27722 27723 27724 27725 27726 27727 27728 27729 27730 27731 27732 27733 27734 27735 27736 27737 27738 27739 27740 27741 27742 27743 27744 27745 27746 27747 27748 27749 27750 27751 27752 27753 27754 27755 27756 27757 27758 27759 27760 27761 27762 27763 27764 27765 27766 27767 27768 27769 27770 27771 27772 27773 27774 27775 27776 27777 27778 27779 27780 27781 27782 27783 27784 27785 27786 27787 27788 27789 27790 27791 27792 27793 27794 27795 27796 27797 27798 27799 27800 27801 27802 27803 27804 27805 27806 27807 27808 27809 27810 27811 27812 27813 27814 27815 27816 27817 27818 27819 27820 27821 27822 27823 27824 27825 27826 27827 27828 27829 27830 27831 27832 27833 27834 27835 27836 27837 27838 27839 27840 27841 27842 27843 27844 27845 27846 27847 27848 27849 27850 27851 27852 27853 27854 27855 27856 27857 27858 27859 27860 27861 27862 27863 27864 27865 27866 27867 27868 27869 27870 27871 27872 27873 27874 27875 27876 27877 27878 27879 27880 27881 27882 27883 27884 27885 27886 27887 27888 27889 27890 27891 27892 27893 27894 27895 27896 27897 27898 27899 27900 27901 27902 27903 27904 27905 27906 27907 27908 27909 27910 27911 27912 27913 27914 27915 27916 27917 27918 27919 27920 27921 27922 27923 27924 27925 27926 27927 27928 27929 27930 27931 27932 27933 27934 27935 27936 27937 27938 27939 27940 27941 27942 27943 27944 27945 27946 27947 27948 27949 27950 27951 27952 27953 27954 27955 27956 27957 27958 27959 27960 27961 27962 27963 27964 27965 27966 27967 27968 27969 27970 27971 27972 27973 27974 27975 27976 27977 27978 27979 27980 27981 27982 27983 27984 27985 27986 27987 27988 27989 27990 27991 27992 27993 27994 27995 27996 27997 27998 27999 28000 28001 28002 28003 28004 28005 28006 28007 28008 28009 28010 28011 28012 28013 28014 28015 28016 28017 28018 28019 28020 28021 28022 28023 28024 28025 28026 28027 28028 28029 28030 28031 28032 28033 28034 28035 28036 28037 28038 28039 28040 28041 28042 28043 28044 28045 28046 28047 28048 28049 28050 28051 28052 28053 28054 28055 28056 28057 28058 28059 28060 28061 28062 28063 28064 28065 28066 28067 28068 28069 28070 28071 28072 28073 28074 28075 28076 28077 28078 28079 28080 28081 28082 28083 28084 28085 28086 28087 28088 28089 28090 28091 28092 28093 28094 28095 28096 28097 28098 28099 28100 28101 28102 28103 28104 28105 28106 28107 28108 28109 28110 28111 28112 28113 28114 28115 28116 28117 28118 28119 28120 28121 28122 28123 28124 28125 28126 28127 28128 28129 28130 28131 28132 28133 28134 28135 28136 28137 28138 28139 28140 28141 28142 28143 28144 28145 28146 28147 28148 28149 28150 28151 28152 28153 28154 28155 28156 28157 28158 28159 28160 28161 28162 28163 28164 28165 28166 28167 28168 28169 28170 28171 28172 28173 28174 28175 28176 28177 28178 28179 28180 28181 28182 28183 28184 28185 28186 28187 28188 28189 28190 28191 28192 28193 28194 28195 28196 28197 28198 28199 28200 28201 28202 28203 28204 28205 28206 28207 28208 28209 28210 28211 28212 28213 28214 28215 28216 28217 28218 28219 28220 28221 28222 28223 28224 28225 28226 28227 28228 28229 28230 28231 28232 28233 28234 28235 28236 28237 28238 28239 28240 28241 28242 28243 28244 28245 28246 28247 28248 28249 28250 28251 28252 28253 28254 28255 28256 28257 28258 28259 28260 28261 28262 28263 28264 28265 28266 28267 28268 28269 28270 28271 28272 28273 28274 28275 28276 28277 28278 28279 28280 28281 28282 28283 28284 28285 28286 28287 28288 28289 28290 28291 28292 28293 28294 28295 28296 28297 28298 28299 28300 28301 28302 28303 28304 28305 28306 28307 28308 28309 28310 28311 28312 28313 28314 28315 28316 28317 28318 28319 28320 28321 28322 28323 28324 28325 28326 28327 28328 28329 28330 28331 28332 28333 28334 28335 28336 28337 28338 28339 28340 28341 28342 28343 28344 28345 28346 28347 28348 28349 28350 28351 28352 28353 28354 28355 28356 28357 28358 28359 28360 28361 28362 28363 28364 28365 28366 28367 28368 28369 28370 28371 28372 28373 28374 28375 28376 28377 28378 28379 28380 28381 28382 28383 28384 28385 28386 28387 28388 28389 28390 28391 28392 28393 28394 28395 28396 28397 28398 28399 28400 28401 28402 28403 28404 28405 28406 28407 28408 28409 28410 28411 28412 28413 28414 28415 28416 28417 28418 28419 28420 28421 28422 28423 28424 28425 28426 28427 28428 28429 28430 28431 28432 28433 28434 28435 28436 28437 28438 28439 28440 28441 28442 28443 28444 28445 28446 28447 28448 28449 28450 28451 28452 28453 28454 28455 28456 28457 28458 28459 28460 28461 28462 28463 28464 28465 28466 28467 28468 28469 28470 28471 28472 28473 28474 28475 28476 28477 28478 28479 28480 28481 28482 28483 28484 28485 28486 28487 28488 28489 28490 28491 28492 28493 28494 28495 28496 28497 28498 28499 28500 28501 28502 28503 28504 28505 28506 28507 28508 28509 28510 28511 28512 28513 28514 28515 28516 28517 28518 28519 28520 28521 28522 28523 28524 28525 28526 28527 28528 28529 28530 28531 28532 28533 28534 28535 28536 28537 28538 28539 28540 28541 28542 28543 28544 28545 28546 28547 28548 28549 28550 28551 28552 28553 28554 28555 28556 28557 28558 28559 28560 28561 28562 28563 28564 28565 28566 28567 28568 28569 28570 28571 28572 28573 28574 28575 28576 28577 28578 28579 28580 28581 28582 28583 28584 28585 28586 28587 28588 28589 28590 28591 28592 28593 28594 28595 28596 28597 28598 28599 28600 28601 28602 28603 28604 28605 28606 28607 28608 28609 28610 28611 28612 28613 28614 28615 28616 28617 28618 28619 28620 28621 28622 28623 28624 28625 28626 28627 28628 28629 28630 28631 28632 28633 28634 28635 28636 28637 28638 28639 28640 28641 28642 28643 28644 28645 28646 28647 28648 28649 28650 28651 28652 28653 28654 28655 28656 28657 28658 28659 28660 28661 28662 28663 28664 28665 28666 28667 28668 28669 28670 28671 28672 28673 28674 28675 28676 28677 28678 28679 28680 28681 28682 28683 28684 28685 28686 28687 28688 28689 28690 28691 28692 28693 28694 28695 28696 28697 28698 28699 28700 28701 28702 28703 28704 28705 28706 28707 28708 28709 28710 28711 28712 28713 28714 28715 28716 28717 28718 28719 28720 28721 28722 28723 28724 28725 28726 28727 28728 28729 28730 28731 28732 28733 28734 28735 28736 28737 28738 28739 28740 28741 28742 28743 28744 28745 28746 28747 28748 28749 28750 28751 28752 28753 28754 28755 28756 28757 28758 28759 28760 28761 28762 28763 28764 28765 28766 28767 28768 28769 28770 28771 28772 28773 28774 28775 28776 28777 28778 28779 28780 28781 28782 28783 28784 28785 28786 28787 28788 28789 28790 28791 28792 28793 28794 28795 28796 28797 28798 28799 28800 28801 28802 28803 28804 28805 28806 28807 28808 28809 28810 28811 28812 28813 28814 28815 28816 28817 28818 28819 28820 28821 28822 28823 28824 28825 28826 28827 28828 28829 28830 28831 28832 28833 28834 28835 28836 28837 28838 28839 28840 28841 28842 28843 28844 28845 28846 28847 28848 28849 28850 28851 28852 28853 28854 28855 28856 28857 28858 28859 28860 28861 28862 28863 28864 28865 28866 28867 28868 28869 28870 28871 28872 28873 28874 28875 28876 28877 28878 28879 28880 28881 28882 28883 28884 28885 28886 28887 28888 28889 28890 28891 28892 28893 28894 28895 28896 28897 28898 28899 28900 28901 28902 28903 28904 28905 28906 28907 28908 28909 28910 28911 28912 28913 28914 28915 28916 28917 28918 28919 28920 28921 28922 28923 28924 28925 28926 28927 28928 28929 28930 28931 28932 28933 28934 28935 28936 28937 28938 28939 28940 28941 28942 28943 28944 28945 28946 28947 28948 28949 28950 28951 28952 28953 28954 28955 28956 28957 28958 28959 28960 28961 28962 28963 28964 28965 28966 28967 28968 28969 28970 28971 28972 28973 28974 28975 28976 28977 28978 28979 28980 28981 28982 28983 28984 28985 28986 28987 28988 28989 28990 28991 28992 28993 28994 28995 28996 28997 28998 28999 29000 29001 29002 29003 29004 29005 29006 29007 29008 29009 29010 29011 29012 29013 29014 29015 29016 29017 29018 29019 29020 29021 29022 29023 29024 29025 29026 29027 29028 29029 29030 29031 29032 29033 29034 29035 29036 29037 29038 29039 29040 29041 29042 29043 29044 29045 29046 29047 29048 29049 29050 29051 29052 29053 29054 29055 29056 29057 29058 29059 29060 29061 29062 29063 29064 29065 29066 29067 29068 29069 29070 29071 29072 29073 29074 29075 29076 29077 29078 29079 29080 29081 29082 29083 29084 29085 29086 29087 29088 29089 29090 29091 29092 29093 29094 29095 29096 29097 29098 29099 29100 29101 29102 29103 29104 29105 29106 29107 29108 29109 29110 29111 29112 29113 29114 29115 29116 29117 29118 29119 29120 29121 29122 29123 29124 29125 29126 29127 29128 29129 29130 29131 29132 29133 29134 29135 29136 29137 29138 29139 29140 29141 29142 29143 29144 29145 29146 29147 29148 29149 29150 29151 29152 29153 29154 29155 29156 29157 29158 29159 29160 29161 29162 29163 29164 29165 29166 29167 29168 29169 29170 29171 29172 29173 29174 29175 29176 29177 29178 29179 29180 29181 29182 29183 29184 29185 29186 29187 29188 29189 29190 29191 29192 29193 29194 29195 29196 29197 29198 29199 29200 29201 29202 29203 29204 29205 29206 29207 29208 29209 29210 29211 29212 29213 29214 29215 29216 29217 29218 29219 29220 29221 29222 29223 29224 29225 29226 29227 29228 29229 29230 29231 29232 29233 29234 29235 29236 29237 29238 29239 29240 29241 29242 29243 29244 29245 29246 29247 29248 29249 29250 29251 29252 29253 29254 29255 29256 29257 29258 29259 29260 29261 29262 29263 29264 29265 29266 29267 29268 29269 29270 29271 29272 29273 29274 29275 29276 29277 29278 29279 29280 29281 29282 29283 29284 29285 29286 29287 29288 29289 29290 29291 29292 29293 29294 29295 29296 29297 29298 29299 29300 29301 29302 29303 29304 29305 29306 29307 29308 29309 29310 29311 29312 29313 29314 29315 29316 29317 29318 29319 29320 29321 29322 29323 29324 29325 29326 29327 29328 29329 29330 29331 29332 29333 29334 29335 29336 29337 29338 29339 29340 29341 29342 29343 29344 29345 29346 29347 29348 29349 29350 29351 29352 29353 29354 29355 29356 29357 29358 29359 29360 29361 29362 29363 29364 29365 29366 29367 29368 29369 29370 29371 29372 29373 29374 29375 29376 29377 29378 29379 29380 29381 29382 29383 29384 29385 29386 29387 29388 29389 29390 29391 29392 29393 29394 29395 29396 29397 29398 29399 29400 29401 29402 29403 29404 29405 29406 29407 29408 29409 29410 29411 29412 29413 29414 29415 29416 29417 29418 29419 29420 29421 29422 29423 29424 29425 29426 29427 29428 29429 29430 29431 29432 29433 29434 29435 29436 29437 29438 29439 29440 29441 29442 29443 29444 29445 29446 29447 29448 29449 29450 29451 29452 29453 29454 29455 29456 29457 29458 29459 29460 29461 29462 29463 29464 29465 29466 29467 29468 29469 29470 29471 29472 29473 29474 29475 29476 29477 29478 29479 29480 29481 29482 29483 29484 29485 29486 29487 29488 29489 29490 29491 29492 29493 29494 29495 29496 29497 29498 29499 29500 29501 29502 29503 29504 29505 29506 29507 29508 29509 29510 29511 29512 29513 29514 29515 29516 29517 29518 29519 29520 29521 29522 29523 29524 29525 29526 29527 29528 29529 29530 29531 29532 29533 29534 29535 29536 29537 29538 29539 29540 29541 29542 29543 29544 29545 29546 29547 29548 29549 29550 29551 29552 29553 29554 29555 29556 29557 29558 29559 29560 29561 29562 29563 29564 29565 29566 29567 29568 29569 29570 29571 29572 29573 29574 29575 29576 29577 29578 29579 29580 29581 29582 29583 29584 29585 29586 29587 29588 29589 29590 29591 29592 29593 29594 29595 29596 29597 29598 29599 29600 29601 29602 29603 29604 29605 29606 29607 29608 29609 29610 29611 29612 29613 29614 29615 29616 29617 29618 29619 29620 29621 29622 29623 29624 29625 29626 29627 29628 29629 29630 29631 29632 29633 29634 29635 29636 29637 29638 29639 29640 29641 29642 29643 29644 29645 29646 29647 29648 29649 29650 29651 29652 29653 29654 29655 29656 29657 29658 29659 29660 29661 29662 29663 29664 29665 29666 29667 29668 29669 29670 29671 29672 29673 29674 29675 29676 29677 29678 29679 29680 29681 29682 29683 29684 29685 29686 29687 29688 29689 29690 29691 29692 29693 29694 29695 29696 29697 29698 29699 29700 29701 29702 29703 29704 29705 29706 29707 29708 29709 29710 29711 29712 29713 29714 29715 29716 29717 29718 29719 29720 29721 29722 29723 29724 29725 29726 29727 29728 29729 29730 29731 29732 29733 29734 29735 29736 29737 29738 29739 29740 29741 29742 29743 29744 29745 29746 29747 29748 29749 29750 29751 29752 29753 29754 29755 29756 29757 29758 29759 29760 29761 29762 29763 29764 29765 29766 29767 29768 29769 29770 29771 29772 29773 29774 29775 29776 29777 29778 29779 29780 29781 29782 29783 29784 29785 29786 29787 29788 29789 29790 29791 29792 29793 29794 29795 29796 29797 29798 29799 29800 29801 29802 29803 29804 29805 29806 29807 29808 29809 29810 29811 29812 29813 29814 29815 29816 29817 29818 29819 29820 29821 29822 29823 29824 29825 29826 29827 29828 29829 29830 29831 29832 29833 29834 29835 29836 29837 29838 29839 29840 29841 29842 29843 29844 29845 29846 29847 29848 29849 29850 29851 29852 29853 29854 29855 29856 29857 29858 29859 29860 29861 29862 29863 29864 29865 29866 29867 29868 29869 29870 29871 29872 29873 29874 29875 29876 29877 29878 29879 29880 29881 29882 29883 29884 29885 29886 29887 29888 29889 29890 29891 29892 29893 29894 29895 29896 29897 29898 29899 29900 29901 29902 29903 29904 29905 29906 29907 29908 29909 29910 29911 29912 29913 29914 29915 29916 29917 29918 29919 29920 29921 29922 29923 29924 29925 29926 29927 29928 29929 29930 29931 29932 29933 29934 29935 29936 29937 29938 29939 29940 29941 29942 29943 29944 29945 29946 29947 29948 29949 29950 29951 29952 29953 29954 29955 29956 29957 29958 29959 29960 29961 29962 29963 29964 29965 29966 29967 29968 29969 29970 29971 29972 29973 29974 29975 29976 29977 29978 29979 29980 29981 29982 29983 29984 29985 29986 29987 29988 29989 29990 29991 29992 29993 29994 29995 29996 29997 29998 29999 30000 30001 30002 30003 30004 30005 30006 30007 30008 30009 30010 30011 30012 30013 30014 30015 30016 30017 30018 30019 30020 30021 30022 30023 30024 30025 30026 30027 30028 30029 30030 30031 30032 30033 30034 30035 30036 30037 30038 30039 30040 30041 30042 30043 30044 30045 30046 30047 30048 30049 30050 30051 30052 30053 30054 30055 30056 30057 30058 30059 30060 30061 30062 30063 30064 30065 30066 30067 30068 30069 30070 30071 30072 30073 30074 30075 30076 30077 30078 30079 30080 30081 30082 30083 30084 30085 30086 30087 30088 30089 30090 30091 30092 30093 30094 30095 30096 30097 30098 30099 30100 30101 30102 30103 30104 30105 30106 30107 30108 30109 30110 30111 30112 30113 30114 30115 30116 30117 30118 30119 30120 30121 30122 30123 30124 30125 30126 30127 30128 30129 30130 30131 30132 30133 30134 30135 30136 30137 30138 30139 30140 30141 30142 30143 30144 30145 30146 30147 30148 30149 30150 30151 30152 30153 30154 30155 30156 30157 30158 30159 30160 30161 30162 30163 30164 30165 30166 30167 30168 30169 30170 30171 30172 30173 30174 30175 30176 30177 30178 30179 30180 30181 30182 30183 30184 30185 30186 30187 30188 30189 30190 30191 30192 30193 30194 30195 30196 30197 30198 30199 30200 30201 30202 30203 30204 30205 30206 30207 30208 30209 30210 30211 30212 30213 30214 30215 30216 30217 30218 30219 30220 30221 30222 30223 30224 30225 30226 30227 30228 30229 30230 30231 30232 30233 30234 30235 30236 30237 30238 30239 30240 30241 30242 30243 30244 30245 30246 30247 30248 30249 30250 30251 30252 30253 30254 30255 30256 30257 30258 30259 30260 30261 30262 30263 30264 30265 30266 30267 30268 30269 30270 30271 30272 30273 30274 30275 30276 30277 30278 30279 30280 30281 30282 30283 30284 30285 30286 30287 30288 30289 30290 30291 30292 30293 30294 30295 30296 30297 30298 30299 30300 30301 30302 30303 30304 30305 30306 30307 30308 30309 30310 30311 30312 30313 30314 30315 30316 30317 30318 30319 30320 30321 30322 30323 30324 30325 30326 30327 30328 30329 30330 30331 30332 30333 30334 30335 30336 30337 30338 30339 30340 30341 30342 30343 30344 30345 30346 30347 30348 30349 30350 30351 30352 30353 30354 30355 30356 30357 30358 30359 30360 30361 30362 30363 30364 30365 30366 30367 30368 30369 30370 30371 30372 30373 30374 30375 30376 30377 30378 30379 30380 30381 30382 30383 30384 30385 30386 30387 30388 30389 30390 30391 30392 30393 30394 30395 30396 30397 30398 30399 30400 30401 30402 30403 30404 30405 30406 30407 30408 30409 30410 30411 30412 30413 30414 30415 30416 30417 30418 30419 30420 30421 30422 30423 30424 30425 30426 30427 30428 30429 30430 30431 30432 30433 30434 30435 30436 30437 30438 30439 30440 30441 30442 30443 30444 30445 30446 30447 30448 30449 30450 30451 30452 30453 30454 30455 30456 30457 30458 30459 30460 30461 30462 30463 30464 30465 30466 30467 30468 30469 30470 30471 30472 30473 30474 30475 30476 30477 30478 30479 30480 30481 30482 30483 30484 30485 30486 30487 30488 30489 30490 30491 30492 30493 30494 30495 30496 30497 30498 30499 30500 30501 30502 30503 30504 30505 30506 30507 30508 30509 30510 30511 30512 30513 30514 30515 30516 30517 30518 30519 30520 30521 30522 30523 30524 30525 30526 30527 30528 30529 30530 30531 30532 30533 30534 30535 30536 30537 30538 30539 30540 30541 30542 30543 30544 30545 30546 30547 30548 30549 30550 30551 30552 30553 30554 30555 30556 30557 30558 30559 30560 30561 30562 30563 30564 30565 30566 30567 30568 30569 30570 30571 30572 30573 30574 30575 30576 30577 30578 30579 30580 30581 30582 30583 30584 30585 30586 30587 30588 30589 30590 30591 30592 30593 30594 30595 30596 30597 30598 30599 30600 30601 30602 30603 30604 30605 30606 30607 30608 30609 30610 30611 30612 30613 30614 30615 30616 30617 30618 30619 30620 30621 30622 30623 30624 30625 30626 30627 30628 30629 30630 30631 30632 30633 30634 30635 30636 30637 30638 30639 30640 30641 30642 30643 30644 30645 30646 30647 30648 30649 30650 30651 30652 30653 30654 30655 30656 30657 30658 30659 30660 30661 30662 30663 30664 30665 30666 30667 30668 30669 30670 30671 30672 30673 30674 30675 30676 30677 30678 30679 30680 30681 30682 30683 30684 30685 30686 30687 30688 30689 30690 30691 30692 30693 30694 30695 30696 30697 30698 30699 30700 30701 30702 30703 30704 30705 30706 30707 30708 30709 30710 30711 30712 
</DataArray>
<DataArray type="UInt32" Name="offsets" format="ascii">
3 6 9 12 15 17 20 23 26 29 31 34 37 39 42 45 47 50 53 55 57 60 63 66 69 72 75 78 81 84 87 89 92 95 97 100 103 106 109 112 115 118 120 122 125 128 131 134 137 139 142 145 148 151 153 155 158 161 164 167 170 172 175 178 180 183 186 189 192 194 197 200 203 205 208 211 214 217 220 223 226 229 232 235 238 241 244 247 250 253 256 259 262 265 267 270 273 276 279 282 285 288 290 293 296 299 302 305 308 311 314 317 320 323 326 328 331 334 337 340 343 346 349 352 355 358 361 364 367 370 373 376 379 381 384 387 389 392 394 397 400 403 406 408 411 414 417 420 423 426 429 432 435 438 441 444 447 450 452 455 458 461 464 467 470 473 476 479 482 485 488 491 494 497 500 502 505 508 511 514 517 519 522 525 528 531 533 536 539 542 545 548 551 554 557 559 562 565 567 570 573 576 579 581 584 587 590 593 596 599 602 605 608 611 614 617 620 623 626 629 632 635 638 641 644 647 650 653 655 658 661 664 667 670 673 676 679 682 685 688 691 694 697 700 703 706 709 712 715 718 721 724 727 730 733 735 738 740 743 746 749 752 754 757 760 763 766 769 771 774 777 780 783 786 789 791 794 797 799 801 804 807 809 812 815 818 821 823 826 829 831 834 837 840 843 845 848 851 854 857 859 862 865 868 871 873 876 879 881 884 887 890 892 895 897 900 903 906 909 912 915 918 921 924 927 930 932 935 938 940 943 946 948 950 953 956 959 961 964 966 969 972 975 978 981 983 986 988 991 994 997 1000 1003 1006 1009 1012 1015 1018 1021 1024 1026 1029 1031 1034 1037 1039 1041 1044 1047 1050 1053 1056 1059 1061 1064 1066 1069 1072 1075 1078 1080 1083 1086 1089 1092 1095 1098 1101 1104 1107 1110 1113 1116 1119 1122 1125 1128 1131 1134 1137 1140 1143 1146 1149 1152 1155 1158 1161 1164 1167 1170 1173 1176 1179 1182 1185 1188 1190 1193 1196 1199 1202 1205 1208 1211 1213 1216 1219 1222 1224 1227 1230 1233 1235 1238 1241 1244 1247 1250 1253 1256 1259 1262 1265 1268 1270 1273 1275 1278 1281 1284 1287 1290 1293 1296 1299 1302 1305 1308 1311 1314 1316 1319 1322 1324 1327 1330 1333 1336 1339 1342 1345 1348 1351 1354 1357 1360 1363 1366 1369 1372 1375 1378 1381 1384 1387 1390 1393 1396 1399 1402 1405 1408 1410 1412 1415 1418 1421 1424 1427 1430 1433 1436 1439 1442 1445 1448 1451 1454 1457 1460 1463 1466 1469 1472 1474 1477 1480 1482 1485 1488 1491 1493 1496 1498 1501 1503 1505 1508 1511 1514 1517 1520 1523 1526 1529 1531 1534 1537 1540 1543 1546 1549 1552 1555 1558 1561 1564 1567 1570 1573 1576 1579 1582 1585 1588 1591 1593 1596 1599 1602 1605 1608 1611 1614 1617 1619 1621 1624 1627 1630 1633 1636 1639 1642 1645 1647 1650 1653 1656 1659 1661 1663 1666 1669 1671 1674 1677 1680 1682 1685 1688 1691 1694 1696 1698 1701 1704 1706 1709 1711 1713 1716 1719 1722 1725 1727 1730 1732 1735 1737 1740 1743 1745 1748 1750 1753 1756 1759 1761 1764 1766 1769 1772 1775 1778 1781 1784 1787 1790 1792 1795 1798 1801 1804 1807 1810 1813 1816 1818 1821 1824 1826 1829 1832 1834 1837 1839 1842 1845 1848 1851 1853 1856 1859 1862 1865 1868 1871 1874 1877 1880 1883 1886 1889 1892 1895 1898 1901 1904 1907 1910 1913 1916 1919 1922 1924 1926 1929 1932 1934 1937 1939 1942 1945 1948 1951 1953 1956 1959 1962 1965 1968 1971 1974 1977 1980 1982 1985 1988 1991 1993 1996 1999 2001 2004 2007 2010 2013 2016 2019 2022 2025 2028 2031 2034 2036 2039 2041 2044 2047 2050 2052 2055 2058 2061 2064 2067 2070 2073 2076 2079 2082 2085 2087 2090 2093 2096 2099 2102 2105 2107 2110 2113 2116 2119 2122 2124 2126 2128 2131 2134 2137 2139 2142 2144 2147 2150 2153 2156 2159 2162 2165 2168 2171 2174 2177 2180 2183 2186 2189 2192 2195 2198 2200 2203 2206 2208 2211 2214 2217 2219 2222 2225 2227 2230 2233 2236 2238 2241 2244 2247 2249 2252 2255 2257 2260 2262 2265 2268 2271 2274 2276 2279 2282 2285 2288 2290 2293 2296 2299 2302 2305 2308 2310 2313 2316 2319 2322 2324 2327 2330 2333 2335 2337 2340 2342 2345 2348 2351 2354 2356 2358 2361 2363 2365 2368 2371 2373 2376 2379 2382 2385 2387 2390 2393 2396 2399 2402 2405 2407 2409 2411 2414 2416 2419 2421 2424 2426 2429 2431 2434 2437 2440 2442 2445 2448 2451 2453 2456 2459 2462 2465 2468 2471 2473 2475 2478 2480 2483 2485 2488 2491 2493 2495 2498 2501 2503 2506 2509 2512 2515 2518 2521 2524 2527 2530 2533 2536 2539 2542 2545 2547 2550 2553 2556 2559 2561 2564 2567 2570 2573 2576 2578 2580 2583 2585 2588 2590 2593 2596 2599 2602 2605 2608 2611 2613 2615 2618 2621 2624 2627 2630 2633 2635 2638 2641 2644 2647 2650 2653 2656 2658 2661 2664 2667 2670 2672 2675 2678 2680 2683 2686 2689 2692 2695 2698 2701 2704 2707 2710 2713 2716 2719 2722 2724 2726 2729 2732 2735 2738 2741 2744 2747 2750 2752 2755 2758 2761 2764 2766 2769 2772 2775 2778 2781 2784 2787 2790 2792 2795 2798 2801 2804 2807 2810 2813 2816 2819 2821 2824 2826 2829 2832 2835 2838 2841 2844 2846 2848 2851 2854 2857 2859 2862 2865 2868 2871 2874 2877 2880 2882 2885 2888 2891 2894 2897 2900 2903 2906 2909 2912 2915 2918 2920 2923 2926 2929 2932 2935 2938 2941 2944 2946 2949 2952 2955 2957 2960 2963 2966 2969 2972 2975 2977 2980 2982 2985 2988 2991 2994 2996 2999 3002 3005 3007 3009 3012 3015 3018 3020 3022 3024 3027 3030 3033 3036 3039 3041 3044 3047 3050 3052 3055 3057 3060 3063 3066 3069 3071 3074 3077 3079 3082 3085 3088 3090 3093 3095 3097 3100 3103 3106 3109 3112 3115 3118 3121 3124 3127 3130 3133 3135 3138 3141 3144 3147 3150 3153 3155 3158 3161 3164 3167 3170 3172 3175 3178 3181 3184 3187 3190 3193 3196 3198 3201 3204 3206 3209 3212 3215 3218 3220 3223 3226 3229 3232 3234 3237 3240 3242 3244 3247 3250 3253 3256 3258 3260 3263 3266 3269 3271 3274 3276 3278 3281 3283 3286 3288 3291 3294 3297 3300 3302 3305 3307 3310 3313 3316 3319 3322 3325 3327 3330 3332 3335 3338 3341 3344 3347 3349 3352 3355 3358 3361 3364 3367 3370 3373 3376 3379 3382 3385 3388 3391 3394 3396 3399 3401 3404 3407 3409 3412 3415 3417 3420 3423 3426 3428 3430 3433 3436 3439 3442 3444 3447 3450 3453 3456 3459 3461 3464 3467 3469 3472 3475 3477 3480 3483 3486 3488 3490 3492 3495 3498 3500 3502 3505 3508 3511 3514 3517 3520 3523 3526 3529 3532 3535 3538 3541 3544 3547 3550 3552 3554 3557 3560 3563 3566 3568 3571 3574 3576 3578 3581 3584 3587 3589 3592 3595 3598 3601 3604 3607 3610 3613 3616 3619 3622 3625 3628 3631 3634 3636 3639 3642 3645 3648 3651 3654 3657 3660 3663 3666 3669 3672 3675 3678 3681 3684 3687 3690 3693 3696 3699 3702 3705 3708 3711 3714 3717 3720 3723 3726 3729 3732 3735 3738 3741 3744 3747 3750 3753 3756 3759 3762 3765 3767 3770 3773 3776 3778 3781 3783 3786 3789 3792 3794 3797 3800 3803 3806 3809 3812 3815 3818 3821 3824 3827 3830 3833 3836 3839 3842 3845 3848 3851 3854 3857 3860 3863 3866 3868 3871 3874 3877 3880 3883 3886 3889 3892 3895 3898 3901 3904 3907 3910 3913 3915 3918 3921 3924 3926 3929 3931 3934 3937 3940 3943 3946 3949 3952 3955 3958 3961 3964 3967 3970 3973 3976 3979 3982 3985 3988 3991 3994 3997 4000 4003 4006 4009 4012 4015 4018 4021 4024 4027 4030 4033 4036 4039 4041 4044 4046 4049 4052 4054 4057 4060 4062 4064 4067 4070 4073 4076 4079 4082 4085 4088 4090 4093 4096 4099 4102 4105 4108 4111 4114 4116 4119 4122 4125 4127 4130 4133 4136 4139 4142 4145 4148 4150 4153 4156 4159 4162 4165 4168 4170 4173 4176 4179 4182 4185 4188 4191 4194 4197 4200 4203 4206 4209 4212 4215 4218 4220 4223 4226 4229 4232 4235 4238 4241 4244 4247 4250 4253 4256 4259 4262 4265 4268 4271 4274 4277 4280 4283 4285 4288 4291 4293 4296 4299 4302 4305 4308 4311 4314 4317 4320 4323 4326 4329 4332 4335 4338 4341 4344 4347 4350 4353 4355 4358 4361 4364 4367 4370 4373 4375 4378 4381 4384 4387 4390 4393 4396 4399 4402 4405 4408 4411 4414 4417 4420 4423 4426 4428 4431 4434 4436 4439 4441 4444 4447 4449 4452 4454 4457 4460 4462 4465 4468 4470 4472 4475 4477 4480 4483 4486 4488 4491 4494 4497 4499 4502 4505 4508 4511 4514 4517 4520 4523 4526 4529 4532 4535 4538 4541 4544 4547 4550 4553 4556 4559 4562 4565 4568 4570 4572 4575 4578 4581 4584 4587 4589 4592 4595 4598 4601 4604 4607 4609 4612 4614 4617 4620 4623 4626 4629 4632 4635 4638 4641 4643 4646 4649 4651 4653 4656 4659 4662 4664 4667 4670 4673 4676 4679 4682 4685 4688 4691 4694 4697 4700 4703 4706 4709 4712 4715 4717 4720 4723 4726 4729 4732 4735 4738 4740 4743 4746 4749 4752 4754 4757 4760 4762 4765 4768 4771 4774 4777 4780 4783 4785 4788 4791 4794 4797 4800 4803 4806 4809 4812 4815 4818 4820 4823 4826 4829 4832 4835 4838 4841 4844 4847 4849 4852 4854 4857 4859 4862 4865 4868 4871 4874 4877 4880 4883 4885 4887 4890 4893 4896 4898 4901 4904 4906 4909 4912 4914 4916 4919 4921 4924 4927 4930 4933 4936 4938 4941 4944 4947 4950 4953 4956 4959 4962 4964 4966 4969 4972 4975 4978 4981 4984 4987 4990 4993 4996 4998 5001 5004 5007 5010 5013 5016 5018 5021 5023 5026 5028 5031 5034 5037 5040 5043 5046 5049 5052 5055 5057 5060 5063 5065 5067 5070 5073 5076 5078 5080 5083 5086 5088 5091 5094 5097 5099 5102 5105 5108 5111 5114 5117 5120 5123 5126 5128 5131 5134 5136 5139 5142 5144 5147 5150 5153 5156 5159 5162 5165 5168 5170 5173 5176 5178 5180 5182 5185 5188 5191 5194 5196 5198 5201 5204 5207 5209 5212 5215 5217 5219 5222 5225 5228 5231 5234 5237 5240 5243 5246 5249 5252 5255 5257 5260 5263 5266 5268 5271 5273 5276 5279 5282 5284 5287 5290 5293 5296 5299 5302 5305 5308 5310 5313 5316 5319 5322 5325 5328 5331 5334 5337 5340 5343 5346 5349 5352 5355 5358 5361 5364 5367 5370 5373 5376 5378 5381 5384 5386 5389 5392 5395 5398 5401 5404 5406 5409 5412 5415 5417 5420 5423 5426 5429 5431 5434 5436 5439 5442 5445 5448 5450 5452 5455 5458 5461 5464 5467 5470 5473 5476 5479 5482 5485 5488 5491 5494 5497 5500 5503 5506 5509 5512 5515 5518 5521 5524 5527 5530 5533 5536 5539 5542 5545 5548 5551 5554 5557 5560 5563 5566 5569 5572 5575 5578 5581 5584 5587 5590 5593 5596 5599 5602 5605 5608 5611 5614 5617 5620 5623 5626 5629 5632 5635 5638 5641 5644 5647 5650 5653 5656 5659 5662 5665 5668 5671 5674 5677 5680 5683 5686 5689 5691 5693 5696 5699 5702 5705 5707 5710 5713 5716 5719 5722 5724 5727 5730 5733 5736 5738 5741 5743 5746 5749 5752 5754 5757 5760 5763 5765 5768 5771 5774 5777 5780 5783 5786 5789 5792 5795 5798 5801 5804 5807 5810 5813 5816 5818 5821 5824 5826 5829 5832 5834 5837 5840 5843 5846 5849 5852 5855 5858 5861 5863 5866 5868 5871 5873 5876 5879 5882 5885 5888 5891 5894 5897 5900 5903 5905 5908 5911 5913 5916 5919 5922 5925 5928 5931 5934 5937 5940 5943 5946 5949 5952 5955 5957 5960 5963 5965 5968 5971 5974 5977 5980 5983 5985 5988 5990 5993 5996 5999 6002 6005 6008 6010 6013 6016 6019 6022 6025 6028 6030 6033 6036 6039 6042 6045 6048 6051 6054 6057 6060 6062 6065 6068 6071 6073 6076 6079 6082 6084 6087 6090 6093 6096 6099 6102 6105 6108 6111 6114 6117 6120 6123 6126 6129 6132 6135 6138 6141 6144 6147 6150 6153 6156 6159 6162 6165 6168 6171 6174 6177 6180 6183 6186 6189 6192 6195 6198 6201 6204 6207 6210 6213 6216 6219 6222 6225 6228 6230 6233 6236 6239 6242 6245 6248 6251 6254 6256 6259 6262 6265 6268 6271 6273 6276 6279 6282 6284 6286 6289 6292 6295 6298 6301 6304 6307 6309 6312 6315 6318 6321 6323 6326 6329 6332 6335 6338 6341 6344 6346 6349 6352 6355 6357 6359 6362 6364 6366 6369 6372 6375 6378 6381 6383 6386 6389 6392 6395 6398 6401 6404 6407 6410 6413 6416 6419 6422 6425 6428 6431 6434 6437 6440 6443 6446 6449 6452 6455 6458 6461 6464 6467 6470 6473 6476 6479 6482 6485 6488 6491 6493 6496 6499 6502 6505 6508 6511 6514 6517 6519 6522 6525 6528 6531 6533 6536 6538 6541 6544 6547 6550 6553 6555 6558 6561 6564 6566 6569 6571 6574 6577 6580 6583 6586 6589 6592 6595 6598 6601 6604 6607 6610 6613 6616 6619 6622 6625 6628 6631 6634 6637 6640 6643 6646 6649 6651 6654 6657 6659 6662 6665 6668 6671 6674 6677 6680 6683 6686 6689 6692 6695 6698 6701 6703 6706 6709 6712 6715 6718 6721 6724 6727 6730 6733 6736 6739 6742 6744 6747 6750 6753 6756 6758 6761 6764 6767 6770 6773 6776 6779 6782 6785 6787 6790 6793 6796 6798 6801 6803 6806 6809 6812 6815 6818 6821 6823 6826 6829 6831 6834 6837 6840 6843 6846 6849 6852 6855 6857 6860 6862 6865 6868 6871 6874 6877 6880 6883 6886 6889 6891 6894 6897 6900 6903 6906 6909 6911 6914 6917 6920 6922 6925 6927 6930 6933 6936 6939 6942 6945 6948 6951 6954 6957 6960 6963 6966 6969 6972 6975 6978 6981 6984 6987 6990 6993 6996 6998 7001 7004 7007 7010 7013 7016 7019 7021 7024 7027 7030 7033 7036 7038 7041 7044 7047 7050 7053 7056 7059 7062 7065 7067 7070 7073 7076 7079 7082 7085 7088 7091 7094 7097 7100 7103 7106 7109 7112 7115 7117 7120 7123 7126 7129 7132 7135 7138 7140 7143 7146 7148 7151 7154 7157 7160 7163 7166 7169 7172 7175 7178 7180 7183 7186 7189 7192 7195 7198 7201 7204 7207 7210 7213 7216 7218 7220 7223 7226 7229 7232 7235 7238 7241 7244 7247 7250 7253 7255 7258 7261 7264 7267 7270 7273 7276 7279 7282 7285 7288 7291 7294 7297 7300 7303 7306 7309 7312 7315 7318 7321 7324 7327 7330 7333 7335 7338 7341 7343 7346 7348 7351 7354 7357 7360 7363 7366 7369 7372 7375 7378 7381 7384 7387 7390 7393 7395 7398 7401 7404 7407 7409 7412 7415 7418 7421 7424 7426 7429 7432 7434 7436 7439 7442 7445 7447 7450 7453 7456 7459 7461 7464 7467 7470 7473 7476 7479 7482 7485 7488 7491 7494 7497 7500 7503 7506 7509 7512 7515 7518 7521 7524 7527 7530 7533 7536 7539 7542 7545 7548 7551 7553 7556 7559 7562 7565 7568 7570 7573 7576 7579 7582 7585 7588 7591 7594 7597 7599 7602 7605 7608 7611 7614 7617 7620 7623 7626 7629 7632 7635 7638 7641 7644 7647 7650 7653 7656 7659 7662 7665 7668 7671 7674 7677 7680 7683 7686 7688 7690 7693 7696 7699 7702 7704 7707 7710 7713 7716 7719 7722 7725 7728 7731 7734 7737 7740 7743 7746 7748 7751 7754 7757 7760 7763 7766 7769 7772 7775 7778 7781 7784 7787 7790 7793 7795 7798 7801 7803 7806 7809 7812 7815 7818 7821 7824 7827 7830 7833 7836 7839 7842 7845 7848 7851 7854 7857 7860 7863 7866 7869 7872 7875 7878 7881 7884 7887 7890 7893 7896 7899 7902 7905 7908 7911 7914 7917 7920 7923 7926 7929 7932 7935 7938 7941 7944 7947 7950 7953 7956 7959 7962 7965 7968 7971 7974 7977 7980 7983 7986 7989 7992 7995 7998 8000 8003 8006 8009 8011 8014 8017 8020 8023 8026 8029 8032 8035 8038 8041 8044 8046 8049 8052 8055 8058 8061 8064 8067 8069 8072 8075 8077 8080 8083 8086 8089 8091 8094 8097 8100 8103 8106 8108 8111 8114 8117 8120 8122 8125 8128 8131 8134 8137 8140 8143 8146 8149 8151 8154 8157 8160 8163 8165 8168 8171 8174 8177 8180 8183 8186 8189 8192 8195 8198 8200 8203 8206 8209 8212 8215 8217 8220 8222 8225 8227 8230 8232 8235 8238 8240 8243 8246 8248 8251 8254 8256 8258 8261 8264 8267 8270 8273 8276 8279 8282 8285 8288 8291 8293 8296 8299 8301 8304 8307 8309 8312 8315 8318 8321 8324 8327 8329 8332 8335 8338 8341 8344 8346 8349 8352 8355 8357 8360 8362 8365 8368 8371 8374 8377 8380 8382 8385 8388 8391 8394 8397 8400 8403 8406 8408 8411 8414 8417 8420 8423 8426 8429 8431 8434 8437 8440 8443 8445 8448 8451 8454 8457 8460 8463 8466 8469 8472 8475 8477 8480 8483 8486 8488 8491 8494 8497 8500 8503 8506 8509 8511 8514 8517 8520 8523 8526 8529 8532 8535 8538 8541 8544 8547 8550 8553 8556 8559 8562 8565 8568 8571 8574 8577 8580 8583 8586 8588 8591 8594 8597 8600 8602 8605 8608 8611 8614 8617 8620 8623 8626 8629 8632 8635 8638 8640 8643 8646 8649 8652 8655 8658 8660 8663 8666 8669 8672 8674 8677 8680 8683 8686 8689 8692 8695 8698 8701 8704 8707 8710 8713 8716 8719 8722 8725 8728 8731 8734 8737 8740 8743 8746 8749 8752 8755 8757 8760 8763 8766 8769 8772 8775 8778 8780 8783 8786 8789 8792 8794 8797 8799 8802 8805 8808 8811 8814 8817 8820 8822 8824 8827 8830 8833 8836 8839 8842 8845 8848 8851 8854 8857 8860 8862 8865 8867 8870 8873 8876 8879 8881 8884 8887 8890 8892 8895 8898 8901 8904 8907 8910 8913 8916 8919 8922 8925 8928 8931 8934 8937 8940 8943 8946 8949 8952 8955 8958 8961 8963 8965 8968 8971 8974 8977 8979 8982 8984 8987 8990 8992 8995 8998 9001 9004 9007 9010 9013 9016 9019 9022 9025 9028 9031 9034 9037 9040 9042 9045 9048 9051 9054 9057 9060 9062 9065 9067 9070 9072 9075 9078 9080 9083 9086 9089 9092 9095 9098 9101 9104 9107 9109 9112 9115 9117 9120 9123 9126 9129 9132 9135 9138 9141 9144 9147 9150 9153 9156 9158 9161 9164 9167 9170 9173 9176 9179 9182 9185 9187 9190 9193 9195 9198 9201 9204 9207 9210 9213 9216 9219 9222 9225 9228 9230 9233 9236 9239 9242 9245 9248 9251 9254 9257 9260 9263 9266 9269 9272 9275 9278 9281 9284 9287 9290 9292 9295 9297 9300 9303 9306 9309 9312 9314 9317 9319 9322 9325 9328 9331 9334 9337 9340 9343 9345 9348 9351 9354 9357 9360 9363 9365 9368 9371 9373 9376 9379 9382 9385 9388 9391 9393 9396 9399 9402 9405 9408 9411 9414 9417 9420 9423 9426 9429 9432 9435 9438 9441 9444 9447 9450 9453 9455 9458 9461 9464 9467 9470 9473 9476 9479 9482 9485 9487 9490 9492 9495 9497 9500 9503 9506 9509 9511 9514 9517 9520 9523 9526 9529 9532 9535 9538 9541 9544 9546 9549 9551 9553 9556 9559 9562 9565 9568 9571 9573 9576 9579 9582 9585 9588 9591 9594 9597 9600 9603 9606 9609 9612 9615 9618 9621 9624 9627 9630 9633 9636 9639 9642 9645 9648 9651 9654 9657 9660 9663 9666 9669 9672 9675 9678 9681 9684 9687 9690 9693 9696 9699 9702 9705 9707 9710 9713 9716 9719 9722 9725 9728 9731 9734 9737 9740 9743 9746 9749 9752 9755 9758 9761 9764 9767 9770 9773 9775 9778 9781 9783 9786 9789 9792 9794 9797 9800 9802 9804 9807 9810 9813 9816 9819 9821 9824 9827 9830 9833 9836 9838 9841 9844 9847 9850 9853 9856 9859 9862 9865 9868 9871 9874 9877 9879 9882 9885 9888 9891 9894 9897 9900 9903 9906 9909 9912 9914 9916 9919 9922 9925 9928 9931 9934 9937 9940 9943 9946 9949 9952 9955 9958 9961 9964 9967 9970 9973 9976 9979 9982 9985 9988 9991 9994 9997 10000 10003 10006 10009 10012 10015 10018 10021 10024 10027 10030 10033 10036 10039 10042 10045 10048 10051 10054 10057 10060 10063 10066 10069 10072 10075 10078 10081 10084 10087 10090 10092 10094 10097 10100 10102 10105 10108 10111 10114 10116 10119 10121 10123 10126 10129 10132 10135 10138 10141 10144 10147 10150 10153 10156 10159 10161 10164 10167 10170 10173 10176 10178 10181 10184 10186 10188 10191 10194 10197 10200 10203 10206 10209 10212 10215 10217 10220 10222 10225 10227 10229 10232 10235 10238 10240 10243 10246 10248 10251 10254 10256 10259 10262 10265 10267 10270 10272 10275 10277 10280 10282 10285 10288 10291 10294 10296 10299 10302 10304 10307 10309 10311 10313 10315 10318 10321 10324 10326 10329 10332 10335 10337 10340 10343 10345 10347 10350 10353 10356 10358 10360 10363 10366 10369 10372 10375 10378 10381 10383 10386 10389 10392 10395 10398 10401 10404 10406 10409 10412 10415 10418 10421 10424 10426 10429 10432 10434 10437 10440 10443 10446 10449 10452 10455 10458 10461 10463 10466 10469 10472 10475 10478 10481 10483 10485 10488 10490 10493 10496 10499 10502 10505 10507 10510 10512 10515 10518 10521 10524 10526 10529 10531 10534 10537 10540 10542 10545 10548 10551 10554 10557 10560 10563 10566 10568 10571 10574 10577 10580 10583 10586 10589 10592 10595 10598 10601 10604 10606 10609 10611 10614 10617 10619 10621 10624 10627 10630 10633 10635 10637 10640 10643 10646 10649 10651 10654 10657 10660 10663 10666 10669 10672 10675 10678 10681 10684 10687 10690 10692 10695 10697 10700 10702 10705 10708 10711 10714 10717 10720 10723 10726 10729 10732 10734 10737 10739 10742 10745 10748 10751 10754 10756 10759 10762 10765 10768 10771 10774 10777 10780 10783 10786 10789 10792 10794 10797 10800 10803 10806 10809 10811 10814 10817 10819 10822 10825 10828 10831 10834 10836 10839 10842 10844 10846 10849 10852 10855 10858 10861 10863 10866 10869 10872 10875 10878 10881 10884 10887 10890 10893 10896 10899 10902 10905 10908 10911 10913 10916 10919 10921 10924 10927 10929 10932 10934 10937 10940 10943 10946 10948 10951 10954 10957 10960 10962 10965 10968 10971 10974 10977 10980 10983 10986 10989 10991 10994 10996 10999 11002 11005 11008 11011 11014 11017 11020 11023 11026 11029 11032 11035 11038 11041 11044 11047 11050 11053 11056 11059 11061 11064 11067 11070 11073 11076 11079 11082 11085 11087 11090 11093 11096 11099 11102 11105 11108 11110 11113 11116 11119 11122 11125 11128 11131 11134 11137 11140 11142 11145 11148 11151 11153 11155 11158 11160 11163 11166 11168 11171 11174 11176 11179 11182 11185 11188 11190 11193 11196 11198 11201 11203 11206 11209 11212 11215 11217 11219 11222 11225 11228 11230 11233 11236 11239 11242 11245 11248 11251 11254 11257 11260 11262 11265 11268 11271 11274 11277 11280 11283 11286 11289 11292 11295 11298 11301 11304 11307 11310 11313 11315 11318 11321 11324 11327 11330 11333 11336 11339 11342 11345 11348 11351 11354 11357 11360 11362 11365 11368 11371 11374 11377 11380 11383 11386 11389 11392 11395 11398 11401 11404 11407 11410 11413 11416 11419 11422 11425 11428 11431 11434 11437 11440 11443 11446 11449 11452 11455 11458 11461 11464 11467 11470 11473 11476 11479 11482 11485 11488 11491 11494 11497 11499 11502 11505 11508 11510 11513 11516 11519 11522 11525 11528 11531 11534 11537 11540 11543 11546 11548 11551 11554 11557 11560 11563 11566 11569 11572 11575 11578 11581 11584 11587 11590 11593 11596 11599 11602 11605 11608 11611 11614 11617 11620 11623 11626 11629 11632 11634 11636 11639 11642 11645 11648 11651 11654 11657 11660 11663 11666 11669 11672 11675 11678 11681 11684 11687 11690 11693 11696 11699 11702 11705 11708 11711 11714 11717 11720 11723 11725 11728 11731 11734 11737 11740 11743 11746 11749 11752 11755 11758 11761 11764 11767 11770 11773 11776 11779 11781 11784 11787 11790 11793 11796 11799 11801 11804 11807 11809 11812 11814 11817 11820 11823 11826 11828 11830 11833 11836 11839 11842 11845 11848 11851 11854 11857 11860 11863 11866 11869 11872 11875 11878 11881 11883 11886 11889 11892 11894 11897 11900 11903 11906 11909 11912 11915 11918 11921 11924 11927 11929 11932 11935 11938 11941 11944 11947 11950 11953 11955 11958 11961 11964 11966 11969 11972 11975 11978 11981 11984 11987 11990 11993 11996 11999 12002 12005 12007 12010 12013 12016 12019 12021 12024 12027 12030 12033 12036 12039 12042 12045 12047 12050 12053 12056 12059 12062 12065 12068 12071 12074 12077 12080 12083 12085 12088 12091 12093 12096 12099 12102 12105 12108 12111 12114 12117 12120 12123 12125 12128 12131 12134 12137 12140 12143 12146 12148 12151 12154 12156 12159 12162 12165 12168 12171 12174 12177 12180 12183 12186 12189 12192 12195 12198 12201 12204 12207 12210 12213 12215 12218 12221 12223 12226 12229 12232 12235 12238 12241 12244 12247 12250 12252 12254 12257 12259 12262 12265 12268 12271 12274 12276 12279 12282 12285 12288 12291 12294 12297 12300 12303 12306 12309 12312 12315 12318 12321 12324 12327 12330 12333 12336 12339 12342 12345 12348 12351 12354 12357 12360 12363 12365 12367 12370 12372 12375 12378 12381 12384 12387 12390 12393 12396 12399 12402 12405 12408 12411 12414 12417 12420 12423 12426 12429 12432 12435 12438 12441 12444 12447 12450 12452 12455 12458 12461 12464 12467 12470 12473 12475 12478 12481 12484 12487 12489 12492 12495 12498 12501 12504 12507 12510 12512 12515 12518 12521 12524 12527 12530 12533 12536 12539 12542 12545 12548 12551 12554 12557 12559 12562 12565 12567 12570 12573 12576 12579 12582 12585 12588 12591 12594 12597 12600 12603 12606 12609 12612 12615 12618 12621 12623 12626 12629 12632 12635 12638 12641 12644 12647 12650 12653 12656 12659 12662 12665 12667 12670 12673 12676 12679 12682 12685 12688 12690 12693 12696 12699 12702 12705 12708 12711 12713 12716 12719 12722 12725 12727 12730 12733 12736 12739 12742 12745 12748 12751 12754 12757 12760 12763 12766 12769 12772 12775 12778 12781 12784 12787 12790 12793 12796 12799 12802 12805 12808 12811 12814 12817 12820 12823 12826 12829 12832 12835 12838 12841 12844 12847 12850 12853 12856 12859 12862 12865 12868 12871 12874 12877 12880 12883 12886 12889 12892 12895 12898 12901 12904 12907 12910 12913 12916 12919 12922 12925 12928 12931 12934 12937 12940 12943 12946 12949 12952 12955 12958 12961 12964 12967 12970 12973 12976 12979 12982 12985 12988 12991 12994 12997 13000 13003 13006 13009 13012 13015 13018 13020 13023 13026 13029 13032 13035 13038 13041 13044 13047 13050 13053 13056 13059 13062 13065 13068 13071 13074 13077 13080 13083 13085 13087 13090 13093 13096 13099 13102 13104 13107 13110 13113 13116 13119 13122 13124 13127 13130 13133 13136 13139 13142 13145 13148 13150 13153 13156 13159 13162 13164 13167 13170 13173 13176 13179 13182 13185 13188 13191 13194 13197 13200 13203 13206 13209 13212 13215 13218 13221 13224 13227 13230 13233 13236 13239 13242 13245 13248 13251 13254 13257 13260 13263 13265 13268 13271 13274 13277 13280 13283 13286 13289 13292 13295 13298 13301 13304 13307 13310 13313 13316 13319 13322 13325 13328 13331 13334 13337 13340 13343 13346 13349 13352 13355 13358 13361 13364 13367 13370 13373 13376 13379 13382 13385 13388 13390 13393 13396 13399 13402 13405 13408 13411 13413 13416 13419 13422 13425 13428 13431 13434 13437 13440 13443 13446 13449 13452 13455 13457 13460 13463 13466 13469 13472 13475 13478 13481 13484 13487 13490 13493 13496 13499 13502 13505 13508 13511 13514 13517 13520 13523 13526 13529 13532 13535 13538 13541 13544 13547 13550 13553 13556 13559 13562 13565 13568 13571 13574 13577 13580 13583 13586 13589 13592 13595 13598 13600 13603 13606 13609 13612 13615 13618 13621 13624 13627 13630 13633 13635 13638 13641 13644 13647 13650 13653 13656 13659 13662 13665 13668 13671 13674 13676 13679 13682 13685 13688 13691 13694 13697 13700 13702 13705 13708 13711 13714 13717 13720 13723 13726 13729 13732 13735 13738 13741 13743 13746 13749 13752 13755 13758 13761 13763 13766 13769 13772 13775 13778 13781 13784 13787 13790 13793 13796 13799 13802 13805 13808 13811 13814 13817 13820 13823 13826 13829 13832 13835 13838 13841 13844 13847 13849 13852 13855 13858 13861 13864 13866 13869 13872 13875 13878 13880 13883 13886 13889 13892 13895 13898 13901 13904 13907 13910 13912 13915 13918 13921 13924 13927 13930 13933 13936 13938 13941 13944 13947 13950 13953 13956 13958 13961 13964 13966 13969 13972 13974 13977 13980 13983 13986 13989 13992 13995 13998 14001 14004 14007 14010 14013 14016 14019 14022 14024 14027 14029 14032 14035 14038 14040 14043 14046 14049 14051 14054 14057 14060 14063 14065 14068 14071 14074 14077 14080 14083 14086 14089 14091 14093 14096 14099 14102 14105 14108 14110 14113 14116 14118 14121 14124 14127 14130 14132 14135 14138 14141 14143 14145 14148 14150 14153 14156 14159 14162 14165 14167 14170 14173 14176 14179 14182 14185 14188 14191 14194 14197 14199 14202 14205 14208 14211 14214 14217 14220 14223 14226 14229 14232 14235 14238 14241 14244 14247 14250 14253 14256 14259 14261 14264 14267 14270 14273 14276 14279 14282 14285 14288 14291 14294 14297 14300 14303 14306 14309 14312 14315 14318 14321 14324 14327 14329 14331 14334 14336 14339 14342 14345 14348 14351 14354 14357 14360 14363 14366 14369 14372 14374 14377 14379 14382 14385 14388 14390 14393 14396 14399 14402 14405 14408 14411 14413 14415 14418 14421 14423 14426 14429 14431 14434 14437 14439 14441 14444 14447 14449 14451 14454 14457 14459 14462 14464 14467 14470 14473 14476 14479 14481 14484 14487 14489 14492 14494 14496 14499 14502 14505 14508 14511 14514 14517 14519 14522 14525 14528 14531 14534 14537 14540 14543 14546 14549 14551 14554 14557 14559 14562 14565 14568 14571 14574 14576 14579 14582 14584 14587 14590 14593 14596 14599 14602 14605 14607 14610 14613 14616 14618 14621 14624 14627 14630 14633 14636 14639 14642 14645 14648 14651 14654 14657 14660 14663 14666 14669 14672 14675 14678 14681 14684 14687 14689 14692 14695 14698 14701 14704 14706 14708 14710 14712 14715 14718 14720 14722 14724 14726 14729 14731 14734 14737 14739 14742 14745 14748 14751 14754 14757 14760 14763 14766 14769 14772 14775 14778 14781 14784 14787 14790 14793 14796 14799 14802 14805 14808 14811 14814 14817 14820 14823 14826 14829 14832 14835 14838 14841 14844 14847 14850 14853 14856 14859 14862 14865 14868 14871 14874 14877 14880 14883 14886 14889 14892 14895 14898 14901 14904 14907 14910 14913 14916 14919 14922 14924 14927 14929 14932 14935 14938 14941 14944 14947 14950 14953 14956 14958 14961 14964 14967 14970 14972 14975 14978 14981 14984 14987 14990 14993 14995 14998 15001 15004 15007 15010 15013 15016 15018 15021 15023 15026 15029 15032 15035 15038 15041 15044 15047 15049 15052 15055 15058 15061 15064 15067 15069 15072 15075 15078 15081 15084 15087 15090 15093 15096 15099 15102 15105 15108 15111 15114 15117 15120 15123 15126 15128 15131 15134 15137 15140 15143 15146 15149 15152 15155 15158 15161 15163 15166 15169 15171 15174 15177 15179 15181 15184 15187 15189 15192 15194 15196 15199 15202 15204 15207 15209 15212 15214 15217 15220 15223 15226 15229 15232 15235 15238 15241 15244 15247 15250 15253 15256 15259 15262 15264 15267 15270 15273 15276 15279 15281 15284 15287 15290 15293 15296 15299 15302 15305 15308 15311 15313 15316 15319 15322 15324 15327 15329 15332 15335 15338 15341 15344 15347 15350 15353 15356 15359 15361 15364 15367 15370 15373 15376 15379 15382 15385 15388 15391 15394 15397 15400 15403 15406 15409 15412 15415 15418 15421 15424 15427 15430 15433 15436 15439 15441 15444 15447 15450 15453 15456 15459 15462 15465 15468 15471 15474 15477 15479 15482 15485 15488 15491 15494 15497 15500 15503 15506 15509 15512 15515 15518 15521 15524 15527 15530 15532 15535 15538 15541 15544 15547 15550 15553 15556 15559 15562 15565 15568 15571 15574 15577 15580 15583 15586 15589 15592 15595 15598 15601 15603 15606 15609 15612 15615 15618 15621 15624 15627 15630 15633 15636 15639 15642 15645 15648 15651 15654 15657 15660 15663 15666 15669 15672 15675 15678 15681 15684 15687 15690 15693 15696 15699 15702 15704 15707 15709 15712 15714 15717 15720 15723 15726 15729 15732 15734 15737 15740 15743 15746 15749 15752 15755 15758 15761 15763 15766 15769 15772 15775 15778 15781 15783 15786 15789 15791 15794 15796 15799 15802 15805 15807 15810 15813 15816 15819 15822 15825 15827 15830 15833 15836 15838 15840 15843 15845 15847 15850 15852 15855 15858 15861 15864 15867 15870 15873 15876 15879 15882 15885 15888 15891 15894 15897 15900 15903 15906 15908 15911 15914 15917 15920 15923 15926 15929 15932 15934 15937 15940 15943 15946 15948 15951 15954 15956 15959 15962 15965 15967 15970 15973 15976 15979 15982 15985 15987 15989 15992 15994 15997 16000 16002 16005 16008 16011 16013 16016 16019 16022 16025 16028 16031 16034 16037 16040 16043 16046 16049 16052 16055 16058 16061 16064 16067 16070 16073 16076 16079 16082 16085 16088 16091 16094 16097 16100 16103 16106 16109 16112 16115 16118 16121 16124 16127 16130 16133 16136 16139 16142 16145 16147 16150 16153 16156 16159 16162 16165 16168 16171 16174 16177 16180 16183 16186 16188 16190 16193 16196 16199 16202 16204 16207 16210 16212 16215 16218 16221 16224 16227 16229 16232 16235 16238 16241 16244 16247 16250 16252 16255 16258 16261 16263 16266 16269 16272 16275 16278 16281 16283 16286 16289 16291 16294 16297 16299 16301 16303 16306 16309 16312 16315 16318 16321 16324 16327 16330 16333 16336 16339 16342 16345 16348 16351 16354 16357 16360 16363 16366 16369 16372 16375 16378 16381 16383 16386 16389 16392 16395 16397 16400 16403 16406 16408 16411 16414 16417 16420 16423 16426 16429 16431 16434 16437 16440 16443 16446 16449 16452 16454 16457 16460 16463 16466 16469 16472 16475 16478 16481 16484 16487 16490 16493 16496 16499 16502 16505 16508 16511 16514 16517 16520 16523 16526 16529 16532 16534 16536 16539 16542 16545 16548 16550 16552 16555 16558 16561 16564 16567 16570 16573 16575 16578 16580 16583 16586 16589 16592 16595 16598 16601 16604 16606 16609 16612 16615 16618 16621 16623 16625 16628 16631 16634 16636 16639 16642 16645 16647 16650 16653 16656 16659 16662 16665 16668 16671 16674 16677 16680 16683 16686 16689 16692 16695 16698 16701 16704 16707 16710 16713 16716 16719 16722 16725 16727 16730 16733 16736 16739 16742 16745 16748 16751 16754 16757 16759 16762 16765 16768 16771 16774 16777 16779 16782 16784 16787 16790 16793 16796 16799 16802 16805 16808 16810 16813 16816 16818 16821 16824 16827 16829 16831 16833 16836 16839 16842 16845 16848 16851 16854 16857 16860 16863 16866 16869 16871 16874 16877 16880 16883 16886 16888 16891 16894 16897 16900 16903 16905 16908 16911 16914 16917 16920 16923 16925 16928 16931 16934 16937 16940 16943 16946 16949 16951 16953 16956 16959 16962 16964 16967 16970 16973 16975 16978 16981 16984 16987 16989 16992 16995 16998 17001 17004 17006 17009 17012 17014 17017 17020 17023 17026 17029 17032 17035 17038 17041 17044 17047 17050 17053 17056 17059 17062 17065 17068 17071 17074 17077 17080 17083 17086 17089 17092 17095 17098 17101 17104 17107 17110 17113 17116 17119 17122 17125 17128 17131 17134 17137 17140 17143 17146 17149 17152 17155 17158 17161 17164 17167 17170 17173 17176 17179 17182 17184 17187 17190 17193 17196 17199 17202 17205 17208 17211 17214 17217 17220 17223 17225 17228 17231 17233 17236 17239 17242 17245 17248 17251 17254 17257 17260 17262 17265 17268 17271 17274 17277 17280 17283 17286 17288 17291 17294 17297 17300 17303 17306 17309 17312 17314 17317 17320 17323 17326 17329 17332 17335 17338 17341 17344 17347 17350 17353 17356 17359 17362 17365 17368 17371 17374 17377 17380 17383 17385 17387 17389 17392 17395 17398 17401 17404 17407 17410 17413 17415 17418 17421 17424 17427 17430 17433 17436 17438 17441 17444 17447 17450 17453 17455 17458 17460 17463 17466 17469 17472 17475 17478 17481 17484 17487 17490 17493 17496 17499 17502 17505 17508 17511 17514 17517 17520 17523 17525 17528 17531 17533 17536 17539 17542 17544 17546 17549 17552 17555 17558 17561 17564 17567 17570 17573 17576 17579 17582 17585 17588 17591 17594 17597 17600 17603 17606 17608 17611 17613 17616 17619 17622 17625 17628 17631 17634 17636 17639 17641 17644 17647 17649 17652 17655 17657 17660 17663 17666 17669 17672 17674 17677 17680 17683 17685 17687 17690 17693 17696 17699 17702 17705 17708 17711 17714 17716 17719 17722 17724 17727 17730 17733 17736 17739 17742 17745 17747 17750 17753 17756 17759 17762 17765 17768 17771 17773 17776 17778 17781 17783 17786 17789 17792 17795 17797 17799 17802 17805 17808 17810 17812 17815 17818 17821 17824 17827 17830 17833 17835 17838 17841 17844 17846 17848 17851 17854 17857 17860 17863 17866 17868 17871 17874 17877 17880 17883 17886 17888 17891 17894 17897 17900 17903 17906 17909 17912 17915 17918 17921 17924 17927 17930 17933 17936 17939 17942 17945 17948 17951 17953 17956 17959 17962 17965 17968 17971 17974 17977 17980 17983 17985 17988 17991 17994 17997 18000 18003 18006 18009 18012 18015 18018 18021 18024 18027 18029 18032 18035 18037 18040 18043 18046 18049 18052 18055 18058 18061 18064 18067 18070 18073 18076 18078 18081 18084 18086 18089 18092 18095 18098 18101 18104 18106 18109 18112 18114 18117 18120 18123 18126 18129 18132 18135 18138 18140 18142 18145 18148 18151 18154 18156 18159 18162 18165 18168 18171 18174 18177 18180 18183 18186 18189 18192 18195 18197 18199 18202 18205 18208 18211 18214 18217 18220 18223 18225 18228 18231 18234 18237 18240 18242 18245 18248 18251 18254 18257 18260 18262 18264 18267 18270 18273 18276 18278 18280 18282 18285 18287 18289 18292 18295 18298 18301 18303 18305 18308 18311 18314 18317 18320 18323 18326 18328 18331 18334 18337 18340 18342 18345 18348 18351 18354 18357 18360 18363 18366 18368 18371 18374 18377 18380 18383 18386 18388 18391 18394 18397 18400 18403 18406 18409 18412 18414 18417 18420 18423 18426 18429 18432 18435 18438 18440 18443 18446 18449 18452 18455 18458 18461 18464 18467 18470 18472 18475 18478 18481 18484 18487 18490 18493 18496 18499 18502 18505 18508 18511 18514 18517 18520 18523 18526 18529 18532 18535 18537 18539 18542 18545 18548 18551 18554 18557 18560 18563 18566 18569 18571 18574 18576 18579 18582 18584 18587 18590 18593 18596 18599 18601 18604 18606 18608 18611 18614 18617 18619 18622 18624 18627 18629 18632 18635 18638 18641 18644 18647 18650 18653 18656 18658 18661 18664 18667 18670 18673 18676 18678 18681 18684 18687 18690 18693 18695 18698 18701 18704 18707 18709 18712 18715 18718 18721 18724 18726 18729 18732 18735 18738 18741 18744 18747 18750 18753 18755 18758 18761 18764 18767 18770 18772 18774 18776 18779 18782 18785 18788 18790 18792 18795 18798 18801 18804 18806 18809 18811 18814 18817 18820 18823 18826 18829 18832 18835 18837 18840 18843 18846 18849 18852 18855 18858 18861 18864 18867 18870 18872 18874 18877 18880 18883 18886 18888 18891 18894 18896 18898 18901 18904 18907 18910 18913 18916 18919 18922 18925 18927 18930 18933 18936 18939 18942 18945 18948 18951 18954 18957 18960 18963 18966 18969 18972 18975 18978 18980 18983 18986 18989 18992 18994 18997 18999 19002 19004 19006 19009 19012 19015 19018 19021 19024 19027 19030 19033 19036 19038 19041 19044 19047 19050 19053 19056 19059 19062 19065 19068 19071 19074 19077 19080 19083 19086 19089 19092 19095 19098 19101 19104 19107 19109 19112 19115 19118 19121 19124 19127 19130 19133 19136 19139 19142 19145 19148 19151 19154 19157 19160 19163 19166 19169 19172 19175 19178 19181 19184 19187 19190 19193 19196 19199 19202 19205 19208 19211 19214 19217 19220 19223 19226 19229 19232 19235 19238 19240 19243 19246 19249 19252 19255 19258 19261 19264 19267 19270 19273 19276 19279 19282 19285 19288 19291 19294 19297 19300 19303 19306 19309 19312 19315 19318 19321 19324 19327 19330 19333 19336 19339 19342 19345 19348 19351 19354 19357 19360 19363 19366 19369 19372 19375 19378 19381 19384 19387 19390 19393 19396 19399 19402 19405 19408 19411 19414 19417 19420 19423 19426 19429 19431 19433 19436 19439 19441 19444 19447 19450 19453 19456 19459 19462 19465 19468 19470 19473 19476 19478 19481 19484 19487 19489 19492 19495 19498 19501 19504 19507 19510 19513 19516 19519 19522 19524 19527 19530 19533 19536 19539 19542 19545 19547 19550 19553 19555 19558 19561 19564 19567 19569 19572 19575 19578 19581 19584 19587 19590 19593 19596 19599 19602 19605 19608 19610 19613 19616 19619 19621 19624 19627 19630 19633 19636 19638 19641 19644 19647 19650 19653 19656 19659 19662 19664 19667 19670 19673 19676 19679 19682 19685 19688 19691 19694 19697 19700 19703 19706 19709 19712 19715 19718 19721 19724 19727 19730 19733 19736 19739 19742 19745 19748 19751 19754 19757 19760 19763 19766 19769 19772 19775 19778 19780 19783 19786 19789 19791 19794 19797 19799 19802 19805 19808 19811 19814 19817 19819 19822 19824 19827 19830 19833 19836 19839 19842 19845 19847 19850 19853 19856 19858 19861 19864 19867 19870 19872 19875 19878 19881 19884 19887 19890 19893 19896 19899 19902 19905 19908 19911 19914 19917 19919 19922 19925 19928 19931 19934 19937 19940 19943 19946 19949 19952 19955 19958 19961 19964 19967 19970 19973 19976 19979 19982 19984 19987 19990 19993 19996 19999 20002 20005 20007 20009 20012 20015 20017 20019 20022 20025 20028 20031 20034 20037 20039 20042 20045 20048 20050 20053 20056 20059 20062 20065 20067 20070 20073 20076 20079 20082 20085 20088 20091 20094 20097 20100 20103 20106 20109 20112 20115 20118 20121 20123 20126 20129 20132 20134 20137 20139 20142 20145 20148 20151 20154 20157 20160 20163 20165 20168 20171 20173 20176 20179 20182 20185 20187 20190 20193 20196 20198 20201 20204 20207 20210 20213 20216 20219 20221 20224 20227 20230 20232 20235 20238 20241 20244 20246 20249 20252 20255 20258 20261 20264 20267 20269 20272 20275 20278 20281 20284 20287 20290 20293 20296 20299 20302 20305 20308 20311 20314 20317 20320 20323 20326 20329 20332 20334 20337 20340 20343 20346 20349 20351 20354 20356 20359 20362 20365 20368 20370 20373 20376 20379 20382 20385 20388 20391 20394 20397 20400 20402 20405 20407 20410 20413 20416 20419 20422 20425 20428 20431 20434 20436 20439 20442 20445 20448 20451 20454 20457 20460 20463 20466 20469 20472 20475 20478 20481 20484 20487 20490 20493 20496 20499 20502 20504 20507 20510 20513 20515 20518 20521 20524 20526 20529 20532 20534 20537 20540 20543 20546 20549 20552 20555 20558 20560 20563 20566 20569 20572 20575 20577 20579 20582 20585 20588 20591 20593 20596 20599 20601 20604 20607 20610 20612 20615 20618 20621 20624 20626 20629 20632 20635 20638 20641 20643 20646 20649 20652 20655 20658 20661 20664 20667 20669 20672 20675 20678 20681 20684 20687 20689 20692 20695 20697 20700 20703 20705 20708 20711 20714 20717 20720 20722 20725 20728 20731 20734 20737 20739 20742 20745 20748 20751 20754 20756 20759 20762 20765 20767 20770 20773 20776 20778 20780 20783 20786 20789 20792 20794 20797 20800 20803 20806 20809 20812 20815 20818 20821 20824 20826 20828 20831 20834 20837 20839 20842 20844 20847 20850 20853 20856 20858 20861 20864 20867 20870 20873 20876 20879 20882 20884 20887 20890 20893 20896 20899 20902 20905 20907 20909 20912 20914 20917 20919 20922 20924 20927 20930 20933 20935 20938 20941 20943 20945 20948 20951 20954 20957 20959 20962 20965 20968 20971 20973 20976 20979 20982 20985 20988 20991 20994 20997 21000 21002 21005 21008 21010 21013 21016 21019 21022 21025 21028 21031 21034 21037 21040 21043 21045 21048 21051 21054 21057 21060 21062 21065 21067 21070 21073 21076 21079 21082 21085 21087 21089 21092 21094 21097 21100 21103 21106 21109 21111 21114 21117 21119 21122 21125 21127 21130 21133 21136 21138 21141 21144 21147 21150 21153 21156 21159 21162 21165 21167 21170 21172 21175 21178 21181 21184 21187 21190 21193 21196 21199 21201 21204 21206 21209 21212 21215 21218 21221 21223 21226 21229 21231 21234 21237 21240 21243 21246 21248 21251 21254 21257 21260 21263 21266 21268 21271 21274 21277 21280 21283 21286 21289 21292 21295 21298 21301 21304 21307 21310 21312 21315 21318 21321 21324 21327 21330 21333 21336 21338 21341 21344 21347 21350 21353 21356 21358 21361 21363 21366 21369 21372 21375 21378 21381 21384 21387 21390 21393 21396 21399 21402 21405 21408 21411 21414 21417 21420 21423 21425 21428 21431 21434 21437 21439 21442 21445 21448 21451 21454 21457 21460 21462 21464 21467 21470 21473 21476 21479 21481 21484 21486 21489 21491 21493 21496 21499 21502 21504 21507 21509 21512 21515 21517 21520 21523 21526 21528 21530 21533 21536 21539 21542 21544 21547 21550 21553 21555 21557 21560 21563 21565 21567 21570 21573 21576 21578 21581 21584 21586 21589 21591 21594 21597 21600 21603 21606 21609 21612 21614 21616 21619 21622 21625 21628 21630 21632 21635 21638 21641 21643 21646 21649 21651 21653 21655 21658 21661 21663 21666 21669 21672 21674 21677 21679 21682 21685 21687 21690 21693 21696 21699 21702 21705 21708 21711 21714 21717 21720 21722 21725 21728 21731 21734 21737 21740 21743 21746 21749 21752 21755 21758 21761 21764 21767 21769 21772 21775 21778 21781 21784 21786 21789 21792 21795 21798 21801 21804 21807 21809 21812 21814 21817 21820 21822 21825 21828 21831 21833 21836 21839 21842 21844 21847 21850 21852 21855 21858 21861 21863 21866 21869 21872 21875 21877 21880 21883 21886 21889 21892 21895 21898 21901 21904 21907 21910 21913 21916 21919 21922 21925 21928 21931 21934 21937 21940 21943 21945 21948 21951 21953 21956 21959 21961 21964 21967 21970 21973 21976 21979 21982 21985 21988 21991 21994 21997 22000 22003 22006 22008 22011 22014 22017 22019 22022 22025 22028 22031 22034 22037 22040 22043 22046 22049 22052 22055 22057 22060 22063 22066 22069 22072 22075 22078 22080 22083 22086 22089 22092 22095 22098 22101 22104 22106 22109 22112 22115 22118 22120 22123 22126 22129 22132 22135 22138 22140 22143 22146 22149 22152 22154 22157 22160 22163 22166 22168 22171 22174 22177 22180 22183 22186 22189 22192 22195 22198 22201 22204 22207 22210 22213 22216 22219 22222 22225 22228 22231 22234 22237 22240 22243 22246 22248 22251 22253 22256 22259 22262 22265 22268 22271 22274 22276 22278 22281 22284 22286 22289 22292 22295 22298 22301 22304 22307 22310 22313 22316 22319 22322 22325 22328 22331 22334 22337 22340 22343 22346 22348 22351 22353 22356 22359 22362 22365 22368 22371 22374 22377 22380 22383 22386 22389 22392 22395 22397 22400 22403 22406 22409 22412 22415 22418 22421 22424 22427 22429 22432 22435 22438 22441 22443 22446 22448 22451 22454 22457 22460 22463 22466 22468 22471 22474 22477 22479 22482 22485 22488 22491 22494 22497 22500 22503 22506 22509 22512 22514 22517 22520 22523 22526 22529 22532 22535 22538 22540 22543 22546 22549 22551 22554 22557 22560 22563 22566 22569 22572 22575 22578 22581 22584 22587 22589 22592 22595 22598 22600 22603 22606 22609 22612 22615 22618 22620 22623 22625 22628 22631 22633 22636 22639 22642 22645 22647 22650 22653 22656 22658 22661 22664 22667 22670 22673 22675 22678 22681 22684 22687 22689 22692 22695 22697 22700 22703 22706 22709 22711 22713 22716 22719 22722 22724 22727 22730 22732 22735 22738 22741 22743 22746 22749 22752 22754 22757 22760 22763 22765 22768 22771 22773 22775 22778 22781 22784 22787 22790 22793 22796 22799 22801 22804 22807 22809 22812 22815 22818 22820 22823 22826 22829 22832 22835 22838 22841 22843 22846 22849 22852 22855 22858 22861 22864 22867 22870 22872 22875 22878 22880 22883 22885 22888 22891 22894 22896 22899 22902 22905 22908 22911 22914 22917 22920 22923 22926 22929 22931 22934 22937 22939 22942 22945 22948 22951 22954 22957 22960 22963 22966 22969 22971 22974 22977 22980 22983 22986 22989 22992 22995 22997 23000 23003 23006 23008 23011 23014 23017 23020 23023 23026 23029 23032 23034 23037 23039 23042 23045 23048 23051 23053 23055 23058 23061 23064 23067 23070 23073 23076 23079 23082 23085 23088 23091 23094 23097 23100 23103 23105 23108 23111 23114 23117 23119 23122 23125 23128 23130 23133 23135 23138 23140 23142 23145 23148 23150 23153 23156 23159 23161 23163 23166 23169 23171 23173 23176 23179 23181 23183 23186 23189 23192 23194 23197 23200 23203 23206 23209 23212 23214 23217 23219 23222 23224 23226 23228 23231 23234 23237 23240 23243 23246 23248 23251 23254 23256 23258 23261 23263 23266 23268 23270 23273 23275 23278 23281 23284 23286 23289 23292 23295 23297 23300 23303 23306 23309 23312 23314 23317 23320 23323 23325 23328 23330 23332 23335 23338 23341 23344 23347 23349 23352 23355 23357 23360 23363 23365 23368 23371 23374 23376 23379 23381 23384 23387 23390 23392 23394 23396 23399 23402 23404 23407 23409 23411 23414 23417 23419 23422 23424 23427 23430 23433 23435 23438 23441 23443 23445 23448 23451 23453 23456 23459 23462 23465 23467 23470 23473 23476 23479 23481 23483 23486 23488 23491 23494 23497 23500 23503 23506 23509 23512 23515 23518 23521 23524 23527 23529 23532 23535 23537 23540 23542 23545 23548 23551 23554 23557 23560 23563 23566 23569 23572 23575 23577 23580 23583 23586 23589 23592 23594 23597 23600 23603 23605 23608 23611 23614 23616 23619 23621 23624 23626 23629 23632 23634 23637 23639 23642 23644 23647 23650 23652 23655 23658 23661 23664 23666 23668 23671 23674 23677 23679 23682 23685 23687 23690 23693 23696 23699 23701 23704 23706 23709 23712 23715 23718 23721 23724 23726 23729 23732 23735 23738 23741 23744 23747 23750 23753 23756 23759 23762 23765 23768 23771 23774 23777 23780 23783 23786 23789 23792 23795 23798 23801 23804 23807 23810 23813 23816 23819 23822 23825 23827 23829 23832 23835 23837 23840 23842 23845 23847 23850 23853 23856 23859 23862 23865 23868 23871 23874 23877 23879 23882 23885 23888 23891 23894 23897 23900 23902 23905 23908 23911 23914 23917 23920 23923 23925 23928 23931 23934 23937 23940 23943 23946 23949 23952 23955 23958 23961 23964 23967 23970 23973 23976 23979 23982 23984 23987 23990 23993 23995 23998 24001 24003 24006 24009 24012 24014 24017 24020 24022 24025 24028 24031 24033 24036 24039 24041 24044 24047 24050 24052 24054 24057 24060 24063 24066 24069 24072 24075 24077 24080 24083 24086 24089 24091 24094 24097 24100 24103 24105 24108 24111 24113 24115 24118 24121 24124 24127 24129 24132 24135 24138 24140 24142 24145 24147 24150 24153 24156 24159 24162 24165 24168 24171 24174 24177 24180 24183 24186 24188 24191 24194 24197 24200 24203 24205 24208 24210 24212 24215 24218 24221 24224 24227 24230 24233 24236 24238 24241 24244 24247 24250 24253 24256 24259 24262 24265 24268 24271 24274 24277 24280 24283 24286 24289 24291 24294 24297 24300 24303 24306 24309 24312 24315 24318 24320 24323 24326 24329 24331 24334 24337 24340 24343 24346 24348 24351 24354 24357 24360 24363 24366 24369 24372 24375 24378 24381 24384 24387 24390 24393 24395 24398 24401 24404 24407 24410 24413 24415 24418 24421 24424 24427 24430 24432 24435 24437 24439 24442 24445 24448 24451 24454 24456 24459 24462 24465 24468 24471 24473 24475 24478 24481 24484 24486 24488 24491 24494 24496 24498 24501 24504 24507 24510 24513 24515 24518 24521 24524 24527 24530 24533 24536 24539 24542 24545 24548 24551 24553 24556 24559 24562 24565 24568 24571 24574 24577 24579 24582 24585 24587 24590 24593 24596 24599 24602 24605 24608 24611 24614 24617 24620 24623 24626 24629 24631 24634 24637 24640 24643 24646 24649 24651 24654 24656 24659 24662 24665 24667 24670 24673 24676 24679 24681 24684 24686 24689 24692 24694 24697 24700 24703 24705 24708 24711 24713 24715 24717 24719 24722 24725 24727 24730 24732 24735 24738 24740 24743 24746 24748 24751 24754 24757 24760 24763 24765 24768 24770 24773 24776 24778 24780 24782 24785 24788 24790 24792 24795 24797 24800 24803 24806 24809 24812 24815 24818 24820 24823 24826 24829 24832 24835 24837 24840 24843 24846 24849 24852 24855 24858 24861 24864 24866 24869 24872 24875 24878 24881 24883 24886 24889 24892 24895 24897 24900 24903 24906 24909 24912 24915 24918 24921 24924 24927 24930 24933 24936 24938 24941 24944 24947 24950 24953 24956 24959 24962 24965 24968 24971 24973 24976 24979 24982 24985 24988 24991 24994 24996 24998 25001 25004 25006 25009 25012 25015 25018 25021 25024 25027 25029 25032 25035 25038 25041 25043 25046 25049 25052 25055 25058 25061 25064 25066 25069 25072 25075 25077 25080 25083 25086 25088 25091 25094 25097 25100 25103 25106 25109 25111 25114 25117 25120 25123 25126 25129 25132 25134 25137 25140 25143 25146 25149 25152 25155 25158 25161 25164 25167 25170 25173 25176 25179 25181 25184 25187 25190 25192 25195 25198 25201 25204 25207 25210 25213 25216 25219 25222 25225 25228 25231 25233 25236 25239 25242 25245 25247 25250 25253 25256 25259 25262 25265 25268 25271 25274 25277 25280 25283 25286 25289 25292 25295 25298 25301 25303 25306 25309 25312 25315 25318 25321 25324 25327 25330 25333 25335 25337 25340 25343 25346 25349 25352 25355 25358 25361 25364 25367 25370 25373 25376 25379 25382 25384 25387 25390 25393 25396 25398 25401 25404 25407 25410 25413 25415 25418 25421 25424 25427 25430 25433 25436 25439 25442 25445 25448 25450 25453 25456 25459 25462 25465 25468 25471 25474 25477 25480 25483 25485 25488 25491 25494 25497 25500 25503 25505 25508 25511 25514 25517 25520 25523 25526 25529 25532 25535 25538 25541 25544 25547 25550 25553 25556 25559 25562 25565 25568 25571 25574 25577 25580 25583 25586 25589 25592 25594 25597 25600 25603 25605 25608 25611 25614 25617 25620 25622 25625 25628 25631 25634 25637 25640 25643 25646 25649 25652 25655 25657 25660 25663 25666 25669 25672 25675 25678 25681 25684 25687 25690 25693 25696 25699 25702 25705 25708 25711 25714 25717 25720 25723 25726 25729 25732 25735 25738 25741 25744 25747 25750 25753 25756 25759 25762 25764 25767 25770 25773 25775 25778 25781 25784 25787 25790 25793 25796 25799 25801 25803 25806 25809 25812 25815 25818 25820 25823 25826 25829 25831 25834 25837 25840 25843 25846 25849 25851 25854 25857 25860 25863 25866 25869 25872 25875 25878 25881 25884 25887 25890 25893 25895 25898 25900 25903 25905 25907 25910 25913 25916 25919 25922 25925 25928 25931 25934 25937 25940 25942 25945 25948 25951 25954 25957 25960 25962 25965 25968 25971 25974 25977 25980 25983 25986 25989 25992 25995 25998 26001 26004 26007 26010 26013 26016 26019 26022 26025 26028 26031 26033 26036 26039 26042 26045 26047 26050 26053 26056 26059 26062 26065 26068 26071 26073 26076 26079 26082 26085 26088 26090 26092 26095 26097 26100 26103 26106 26109 26111 26113 26116 26118 26121 26124 26127 26130 26133 26135 26138 26141 26144 26147 26150 26153 26156 26159 26162 26165 26168 26170 26173 26176 26179 26181 26184 26187 26190 26193 26196 26199 26202 26204 26207 26210 26212 26214 26217 26220 26223 26226 26229 26232 26235 26237 26239 26242 26245 26247 26250 26252 26255 26258 26260 26263 26265 26268 26271 26274 26277 26280 26282 26285 26288 26291 26294 26297 26300 26303 26306 26309 26312 26315 26318 26321 26323 26325 26328 26331 26334 26337 26340 26343 26346 26349 26351 26354 26357 26360 26363 26365 26368 26371 26373 26376 26379 26381 26384 26386 26389 26392 26395 26397 26400 26403 26406 26409 26412 26415 26418 26421 26424 26427 26429 26432 26435 26438 26441 26444 26446 26449 26452 26455 26458 26461 26464 26467 26470 26473 26476 26479 26482 26485 26488 26491 26494 26497 26500 26503 26505 26508 26511 26513 26515 26518 26521 26524 26527 26530 26533 26536 26538 26540 26543 26546 26549 26552 26555 26558 26561 26564 26567 26570 26573 26576 26579 26582 26585 26587 26590 26593 26596 26599 26602 26605 26607 26610 26613 26615 26617 26620 26623 26625 26628 26631 26634 26637 26640 26643 26646 26649 26652 26655 26657 26660 26663 26666 26669 26672 26675 26678 26681 26684 26687 26690 26693 26696 26699 26702 26705 26708 26711 26714 26717 26720 26723 26726 26729 26732 26735 26738 26741 26744 26747 26750 26753 26756 26759 26762 26765 26768 26771 26774 26777 26780 26783 26786 26788 26791 26794 26797 26800 26803 26806 26809 26812 26815 26818 26820 26823 26826 26829 26832 26835 26838 26841 26844 26847 26850 26853 26856 26859 26862 26865 26868 26871 26874 26877 26880 26883 26886 26889 26892 26895 26898 26901 26904 26907 26910 26913 26916 26919 26922 26925 26928 26930 26933 26935 26938 26941 26944 26947 26950 26952 26955 26958 26961 26963 26966 26969 26971 26974 26977 26980 26983 26986 26989 26992 26995 26998 27001 27004 27007 27010 27013 27016 27019 27022 27025 27027 27030 27033 27036 27038 27041 27044 27047 27050 27053 27055 27058 27061 27064 27066 27069 27072 27075 27078 27081 27083 27086 27089 27092 27095 27098 27101 27104 27107 27110 27113 27116 27119 27122 27125 27128 27130 27133 27136 27139 27142 27145 27148 27150 27153 27156 27159 27161 27163 27166 27169 27172 27174 27177 27180 27183 27186 27189 27192 27195 27198 27201 27204 27207 27210 27212 27215 27218 27221 27224 27227 27230 27233 27235 27238 27241 27244 27247 27250 27253 27256 27259 27261 27264 27267 27270 27273 27276 27279 27282 27284 27287 27290 27293 27296 27298 27301 27304 27307 27310 27313 27316 27319 27322 27325 27328 27331 27334 27337 27340 27343 27346 27349 27352 27354 27356 27359 27362 27365 27368 27371 27374 27377 27380 27383 27386 27389 27392 27395 27398 27401 27404 27407 27410 27413 27415 27418 27421 27424 27427 27430 27433 27436 27439 27442 27445 27448 27451 27454 27456 27459 27462 27465 27468 27471 27474 27476 27479 27482 27485 27488 27491 27494 27497 27500 27503 27506 27509 27512 27515 27517 27520 27523 27526 27528 27531 27534 27537 27540 27543 27546 27549 27551 27554 27557 27560 27563 27565 27568 27571 27574 27577 27579 27582 27585 27588 27591 27594 27597 27600 27603 27606 27609 27612 27615 27618 27620 27623 27626 27629 27632 27635 27638 27641 27644 27647 27650 27653 27655 27658 27661 27664 27667 27670 27673 27676 27678 27681 27684 27687 27690 27692 27695 27698 27701 27704 27707 27710 27713 27716 27719 27722 27725 27728 27731 27734 27737 27740 27743 27746 27749 27752 27754 27757 27760 27763 27766 27769 27772 27775 27778 27781 27784 27787 27790 27793 27796 27799 27802 27805 27808 27811 27814 27817 27820 27823 27826 27829 27832 27834 27836 27839 27842 27845 27848 27851 27854 27857 27860 27863 27866 27869 27872 27875 27878 27881 27884 27887 27890 27893 27896 27899 27902 27905 27908 27911 27914 27917 27920 27923 27926 27929 27932 27935 27938 27941 27944 27947 27950 27953 27956 27959 27962 27965 27968 27971 27974 27977 27980 27983 27986 27989 27992 27995 27998 28001 28004 28007 28010 28013 28016 28019 28022 28025 28028 28031 28034 28036 28039 28042 28044 28047 28050 28053 28056 28059 28061 28064 28067 28070 28072 28075 28078 28081 28084 28087 28090 28093 28096 28099 28102 28105 28108 28111 28114 28117 28120 28123 28126 28129 28132 28135 28138 28141 28144 28146 28149 28152 28155 28158 28161 28164 28167 28169 28172 28175 28178 28181 28184 28187 28190 28193 28196 28199 28202 28205 28208 28210 28212 28215 28218 28220 28223 28226 28229 28232 28234 28237 28240 28242 28245 28248 28251 28254 28256 28258 28261 28264 28267 28270 28272 28275 28278 28281 28284 28287 28290 28293 28296 28298 28300 28302 28305 28308 28311 28314 28317 28319 28322 28325 28327 28330 28333 28336 28339 28342 28344 28347 28350 28353 28355 28358 28361 28364 28366 28369 28372 28375 28378 28381 28383 28385 28387 28390 28393 28396 28399 28402 28405 28408 28411 28414 28417 28419 28422 28425 28427 28429 28432 28435 28438 28441 28444 28447 28450 28453 28456 28459 28462 28465 28468 28471 28474 28477 28480 28483 28486 28489 28492 28495 28498 28501 28503 28506 28509 28512 28514 28517 28519 28521 28524 28527 28530 28532 28534 28537 28540 28543 28546 28549 28552 28554 28557 28559 28562 28565 28568 28571 28574 28577 28580 28583 28586 28589 28592 28595 28598 28601 28604 28606 28609 28612 28615 28617 28620 28623 28626 28629 28632 28635 28638 28641 28644 28647 28650 28653 28656 28658 28661 28664 28667 28670 28672 28675 28678 28681 28684 28687 28690 28693 28696 28699 28702 28705 28708 28711 28714 28717 28720 28723 28726 28729 28732 28735 28738 28741 28744 28747 28750 28753 28756 28759 28762 28765 28768 28771 28774 28777 28780 28783 28786 28789 28791 28794 28797 28800 28803 28806 28809 28812 28814 28817 28820 28823 28826 28829 28832 28835 28838 28841 28844 28847 28849 28852 28855 28858 28861 28864 28866 28869 28872 28874 28876 28879 28882 28884 28886 28889 28892 28895 28898 28901 28904 28907 28910 28913 28916 28919 28922 28925 28928 28931 28934 28936 28938 28941 28944 28947 28949 28951 28954 28957 28960 28963 28966 28968 28971 28974 28977 28980 28983 28986 28989 28991 28994 28997 29000 29003 29006 29009 29011 29014 29017 29020 29023 29026 29029 29032 29035 29038 29041 29043 29046 29049 29052 29055 29058 29061 29064 29066 29069 29072 29075 29078 29081 29083 29086 29089 29091 29094 29097 29100 29103 29106 29109 29112 29115 29118 29120 29123 29126 29129 29132 29135 29138 29141 29144 29147 29150 29153 29156 29159 29162 29165 29168 29171 29174 29177 29180 29183 29186 29189 29192 29194 29197 29199 29202 29205 29208 29211 29214 29217 29220 29223 29225 29228 29231 29234 29237 29240 29243 29245 29248 29251 29254 29256 29259 29262 29265 29268 29271 29274 29277 29280 29283 29286 29289 29292 29295 29298 29301 29303 29306 29309 29312 29315 29318 29321 29324 29327 29330 29333 29336 29339 29342 29345 29348 29351 29353 29356 29358 29361 29364 29367 29370 29373 29376 29379 29382 29385 29388 29391 29394 29397 29400 29402 29405 29408 29411 29414 29417 29420 29422 29425 29428 29431 29434 29437 29440 29443 29446 29449 29452 29455 29458 29461 29464 29467 29469 29472 29475 29478 29481 29484 29487 29490 29492 29495 29498 29500 29503 29506 29509 29512 29515 29518 29521 29523 29526 29529 29532 29535 29538 29541 29543 29546 29549 29552 29555 29558 29560 29563 29566 29569 29571 29573 29576 29579 29581 29584 29587 29590 29593 29596 29599 29601 29604 29606 29608 29611 29614 29617 29620 29623 29626 29629 29631 29634 29637 29640 29642 29645 29648 29651 29654 29657 29659 29662 29665 29668 29671 29673 29676 29679 29681 29684 29687 29689 29692 29695 29698 29700 29703 29706 29709 29712 29715 29718 29721 29724 29727 29730 29732 29735 29738 29741 29744 29747 29750 29753 29756 29758 29761 29763 29766 29768 29771 29773 29775 29778 29781 29784 29787 29790 29793 29795 29798 29801 29804 29807 29810 29812 29815 29817 29820 29822 29825 29828 29830 29833 29836 29838 29840 29842 29845 29847 29850 29853 29856 29859 29862 29864 29867 29869 29872 29875 29877 29880 29883 29885 29887 29890 29893 29896 29899 29902 29905 29907 29909 29911 29913 29915 29918 29921 29924 29926 29929 29932 29934 29937 29939 29942 29945 29948 29951 29954 29957 29960 29963 29966 29969 29971 29974 29977 29980 29983 29986 29989 29992 29994 29997 30000 30002 30005 30008 30011 30013 30016 30019 30022 30025 30027 30029 30032 30035 30038 30041 30044 30047 30050 30053 30055 30058 30060 30063 30066 30068 30071 30074 30077 30079 30081 30084 30087 30090 30092 30095 30098 30101 30104 30107 30110 30113 30115 30118 30121 30124 30127 30130 30133 30136 30139 30142 30145 30148 30151 30153 30156 30159 30162 30165 30168 30171 30174 30177 30180 30183 30186 30189 30192 30194 30197 30200 30203 30206 30209 30212 30215 30218 30221 30224 30227 30230 30233 30236 30239 30242 30245 30248 30251 30254 30257 30259 30262 30265 30268 30271 30274 30276 30279 30281 30284 30287 30290 30293 30296 30299 30302 30305 30307 30310 30313 30315 30318 30321 30323 30325 30328 30330 30333 30336 30339 30342 30345 30348 30351 30354 30357 30360 30363 30366 30369 30372 30375 30378 30381 30384 30386 30389 30392 30394 30397 30400 30403 30406 30409 30412 30415 30418 30421 30424 30427 30430 30433 30436 30439 30442 30445 30447 30450 30453 30456 30459 30461 30464 30467 30470 30473 30476 30478 30481 30484 30487 30490 30492 30495 30498 30501 30504 30506 30509 30512 30515 30518 30521 30524 30527 30530 30533 30536 30539 30542 30545 30548 30551 30554 30557 30560 30563 30566 30569 30572 30575 30578 30581 30584 30586 30589 30592 30595 30598 30601 30604 30607 30610 30613 30616 30619 30622 30625 30628 30630 30633 30636 30638 30641 30644 30647 30650 30653 30655 30658 30661 30664 30667 30669 30672 30674 30677 30680 30683 30686 30689 30692 30695 30698 30701 30704 30707 30710 30713 
</DataArray>
<DataArray type="UInt32" Name="types" format="ascii">
5 5 5 5 5 3 5 5 5 5 3 5 5 3 5 5 3 5 5 3 3 5 5 5 5 5 5 5 5 5 5 3 5 5 3 5 5 5 5 5 5 5 3 3 5 5 5 5 5 3 5 5 5 5 3 3 5 5 5 5 5 3 5 5 3 5 5 5 5 3 5 5 5 3 5 5 5 5 5 5 5 5 5 5 5 5 5 5 5 5 5 5 5 5 3 5 5 5 5 5 5 5 3 5 5 5 5 5 5 5 5 5 5 5 5 3 5 5 5 5 5 5 5 5 5 5 5 5 5 5 5 5 5 3 5 5 3 5 3 5 5 5 5 3 5 5 5 5 5 5 5 5 5 5 5 5 5 5 3 5 5 5 5 5 5 5 5 5 5 5 5 5 5 5 5 3 5 5 5 5 5 3 5 5 5 5 3 5 5 5 5 5 5 5 5 3 5 5 3 5 5 5 5 3 5 5 5 5 5 5 5 5 5 5 5 5 5 5 5 5 5 5 5 5 5 5 5 5 3 5 5 5 5 5 5 5 5 5 5 5 5 5 5 5 5 5 5 5 5 5 5 5 5 5 5 3 5 3 5 5 5 5 3 5 5 5 5 5 3 5 5 5 5 5 5 3 5 5 3 3 5 5 3 5 5 5 5 3 5 5 3 5 5 5 5 3 5 5 5 5 3 5 5 5 5 3 5 5 3 5 5 5 3 5 3 5 5 5 5 5 5 5 5 5 5 5 3 5 5 3 5 5 3 3 5 5 5 3 5 3 5 5 5 5 5 3 5 3 5 5 5 5 5 5 5 5 5 5 5 5 3 5 3 5 5 3 3 5 5 5 5 5 5 3 5 3 5 5 5 5 3 5 5 5 5 5 5 5 5 5 5 5 5 5 5 5 5 5 5 5 5 5 5 5 5 5 5 5 5 5 5 5 5 5 5 5 5 3 5 5 5 5 5 5 5 3 5 5 5 3 5 5 5 3 5 5 5 5 5 5 5 5 5 5 5 3 5 3 5 5 5 5 5 5 5 5 5 5 5 5 5 3 5 5 3 5 5 5 5 5 5 5 5 5 5 5 5 5 5 5 5 5 5 5 5 5 5 5 5 5 5 5 5 3 3 5 5 5 5 5 5 5 5 5 5 5 5 5 5 5 5 5 5 5 5 3 5 5 3 5 5 5 3 5 3 5 3 3 5 5 5 5 5 5 5 5 3 5 5 5 5 5 5 5 5 5 5 5 5 5 5 5 5 5 5 5 5 3 5 5 5 5 5 5 5 5 3 3 5 5 5 5 5 5 5 5 3 5 5 5 5 3 3 5 5 3 5 5 5 3 5 5 5 5 3 3 5 5 3 5 3 3 5 5 5 5 3 5 3 5 3 5 5 3 5 3 5 5 5 3 5 3 5 5 5 5 5 5 5 5 3 5 5 5 5 5 5 5 5 3 5 5 3 5 5 3 5 3 5 5 5 5 3 5 5 5 5 5 5 5 5 5 5 5 5 5 5 5 5 5 5 5 5 5 5 5 3 3 5 5 3 5 3 5 5 5 5 3 5 5 5 5 5 5 5 5 5 3 5 5 5 3 5 5 3 5 5 5 5 5 5 5 5 5 5 5 3 5 3 5 5 5 3 5 5 5 5 5 5 5 5 5 5 5 3 5 5 5 5 5 5 3 5 5 5 5 5 3 3 3 5 5 5 3 5 3 5 5 5 5 5 5 5 5 5 5 5 5 5 5 5 5 5 5 3 5 5 3 5 5 5 3 5 5 3 5 5 5 3 5 5 5 3 5 5 3 5 3 5 5 5 5 3 5 5 5 5 3 5 5 5 5 5 5 3 5 5 5 5 3 5 5 5 3 3 5 3 5 5 5 5 3 3 5 3 3 5 5 3 5 5 5 5 3 5 5 5 5 5 5 3 3 3 5 3 5 3 5 3 5 3 5 5 5 3 5 5 5 3 5 5 5 5 5 5 3 3 5 3 5 3 5 5 3 3 5 5 3 5 5 5 5 5 5 5 5 5 5 5 5 5 5 3 5 5 5 5 3 5 5 5 5 5 3 3 5 3 5 3 5 5 5 5 5 5 5 3 3 5 5 5 5 5 5 3 5 5 5 5 5 5 5 3 5 5 5 5 3 5 5 3 5 5 5 5 5 5 5 5 5 5 5 5 5 5 3 3 5 5 5 5 5 5 5 5 3 5 5 5 5 3 5 5 5 5 5 5 5 5 3 5 5 5 5 5 5 5 5 5 3 5 3 5 5 5 5 5 5 3 3 5 5 5 3 5 5 5 5 5 5 5 3 5 5 5 5 5 5 5 5 5 5 5 5 3 5 5 5 5 5 5 5 5 3 5 5 5 3 5 5 5 5 5 5 3 5 3 5 5 5 5 3 5 5 5 3 3 5 5 5 3 3 3 5 5 5 5 5 3 5 5 5 3 5 3 5 5 5 5 3 5 5 3 5 5 5 3 5 3 3 5 5 5 5 5 5 5 5 5 5 5 5 3 5 5 5 5 5 5 3 5 5 5 5 5 3 5 5 5 5 5 5 5 5 3 5 5 3 5 5 5 5 3 5 5 5 5 3 5 5 3 3 5 5 5 5 3 3 5 5 5 3 5 3 3 5 3 5 3 5 5 5 5 3 5 3 5 5 5 5 5 5 3 5 3 5 5 5 5 5 3 5 5 5 5 5 5 5 5 5 5 5 5 5 5 5 3 5 3 5 5 3 5 5 3 5 5 5 3 3 5 5 5 5 3 5 5 5 5 5 3 5 5 3 5 5 3 5 5 5 3 3 3 5 5 3 3 5 5 5 5 5 5 5 5 5 5 5 5 5 5 5 5 3 3 5 5 5 5 3 5 5 3 3 5 5 5 3 5 5 5 5 5 5 5 5 5 5 5 5 5 5 5 3 5 5 5 5 5 5 5 5 5 5 5 5 5 5 5 5 5 5 5 5 5 5 5 5 5 5 5 5 5 5 5 5 5 5 5 5 5 5 5 5 5 5 5 3 5 5 5 3 5 3 5 5 5 3 5 5 5 5 5 5 5 5 5 5 5 5 5 5 5 5 5 5 5 5 5 5 5 5 3 5 5 5 5 5 5 5 5 5 5 5 5 5 5 5 3 5 5 5 3 5 3 5 5 5 5 5 5 5 5 5 5 5 5 5 5 5 5 5 5 5 5 5 5 5 5 5 5 5 5 5 5 5 5 5 5 5 5 3 5 3 5 5 3 5 5 3 3 5 5 5 5 5 5 5 5 3 5 5 5 5 5 5 5 5 3 5 5 5 3 5 5 5 5 5 5 5 3 5 5 5 5 5 5 3 5 5 5 5 5 5 5 5 5 5 5 5 5 5 5 5 3 5 5 5 5 5 5 5 5 5 5 5 5 5 5 5 5 5 5 5 5 5 3 5 5 3 5 5 5 5 5 5 5 5 5 5 5 5 5 5 5 5 5 5 5 5 3 5 5 5 5 5 5 3 5 5 5 5 5 5 5 5 5 5 5 5 5 5 5 5 5 3 5 5 3 5 3 5 5 3 5 3 5 5 3 5 5 3 3 5 3 5 5 5 3 5 5 5 3 5 5 5 5 5 5 5 5 5 5 5 5 5 5 5 5 5 5 5 5 5 5 5 3 3 5 5 5 5 5 3 5 5 5 5 5 5 3 5 3 5 5 5 5 5 5 5 5 5 3 5 5 3 3 5 5 5 3 5 5 5 5 5 5 5 5 5 5 5 5 5 5 5 5 5 3 5 5 5 5 5 5 5 3 5 5 5 5 3 5 5 3 5 5 5 5 5 5 5 3 5 5 5 5 5 5 5 5 5 5 5 3 5 5 5 5 5 5 5 5 5 3 5 3 5 3 5 5 5 5 5 5 5 5 3 3 5 5 5 3 5 5 3 5 5 3 3 5 3 5 5 5 5 5 3 5 5 5 5 5 5 5 5 3 3 5 5 5 5 5 5 5 5 5 5 3 5 5 5 5 5 5 3 5 3 5 3 5 5 5 5 5 5 5 5 5 3 5 5 3 3 5 5 5 3 3 5 5 3 5 5 5 3 5 5 5 5 5 5 5 5 5 3 5 5 3 5 5 3 5 5 5 5 5 5 5 5 3 5 5 3 3 3 5 5 5 5 3 3 5 5 5 3 5 5 3 3 5 5 5 5 5 5 5 5 5 5 5 5 3 5 5 5 3 5 3 5 5 5 3 5 5 5 5 5 5 5 5 3 5 5 5 5 5 5 5 5 5 5 5 5 5 5 5 5 5 5 5 5 5 5 3 5 5 3 5 5 5 5 5 5 3 5 5 5 3 5 5 5 5 3 5 3 5 5 5 5 3 3 5 5 5 5 5 5 5 5 5 5 5 5 5 5 5 5 5 5 5 5 5 5 5 5 5 5 5 5 5 5 5 5 5 5 5 5 5 5 5 5 5 5 5 5 5 5 5 5 5 5 5 5 5 5 5 5 5 5 5 5 5 5 5 5 5 5 5 5 5 5 5 5 5 5 5 5 5 5 5 3 3 5 5 5 5 3 5 5 5 5 5 3 5 5 5 5 3 5 3 5 5 5 3 5 5 5 3 5 5 5 5 5 5 5 5 5 5 5 5 5 5 5 5 5 3 5 5 3 5 5 3 5 5 5 5 5 5 5 5 5 3 5 3 5 3 5 5 5 5 5 5 5 5 5 5 3 5 5 3 5 5 5 5 5 5 5 5 5 5 5 5 5 5 3 5 5 3 5 5 5 5 5 5 3 5 3 5 5 5 5 5 5 3 5 5 5 5 5 5 3 5 5 5 5 5 5 5 5 5 5 3 5 5 5 3 5 5 5 3 5 5 5 5 5 5 5 5 5 5 5 5 5 5 5 5 5 5 5 5 5 5 5 5 5 5 5 5 5 5 5 5 5 5 5 5 5 5 5 5 5 5 5 5 5 5 5 5 3 5 5 5 5 5 5 5 5 3 5 5 5 5 5 3 5 5 5 3 3 5 5 5 5 5 5 5 3 5 5 5 5 3 5 5 5 5 5 5 5 3 5 5 5 3 3 5 3 3 5 5 5 5 5 3 5 5 5 5 5 5 5 5 5 5 5 5 5 5 5 5 5 5 5 5 5 5 5 5 5 5 5 5 5 5 5 5 5 5 5 5 3 5 5 5 5 5 5 5 5 3 5 5 5 5 3 5 3 5 5 5 5 5 3 5 5 5 3 5 3 5 5 5 5 5 5 5 5 5 5 5 5 5 5 5 5 5 5 5 5 5 5 5 5 5 5 3 5 5 3 5 5 5 5 5 5 5 5 5 5 5 5 5 5 3 5 5 5 5 5 5 5 5 5 5 5 5 5 3 5 5 5 5 3 5 5 5 5 5 5 5 5 5 3 5 5 5 3 5 3 5 5 5 5 5 5 3 5 5 3 5 5 5 5 5 5 5 5 3 5 3 5 5 5 5 5 5 5 5 5 3 5 5 5 5 5 5 3 5 5 5 3 5 3 5 5 5 5 5 5 5 5 5 5 5 5 5 5 5 5 5 5 5 5 5 5 5 3 5 5 5 5 5 5 5 3 5 5 5 5 5 3 5 5 5 5 5 5 5 5 5 3 5 5 5 5 5 5 5 5 5 5 5 5 5 5 5 5 3 5 5 5 5 5 5 5 3 5 5 3 5 5 5 5 5 5 5 5 5 5 3 5 5 5 5 5 5 5 5 5 5 5 5 3 3 5 5 5 5 5 5 5 5 5 5 5 3 5 5 5 5 5 5 5 5 5 5 5 5 5 5 5 5 5 5 5 5 5 5 5 5 5 5 3 5 5 3 5 3 5 5 5 5 5 5 5 5 5 5 5 5 5 5 5 3 5 5 5 5 3 5 5 5 5 5 3 5 5 3 3 5 5 5 3 5 5 5 5 3 5 5 5 5 5 5 5 5 5 5 5 5 5 5 5 5 5 5 5 5 5 5 5 5 5 5 5 5 5 5 3 5 5 5 5 5 3 5 5 5 5 5 5 5 5 5 3 5 5 5 5 5 5 5 5 5 5 5 5 5 5 5 5 5 5 5 5 5 5 5 5 5 5 5 5 5 3 3 5 5 5 5 3 5 5 5 5 5 5 5 5 5 5 5 5 5 5 3 5 5 5 5 5 5 5 5 5 5 5 5 5 5 5 3 5 5 3 5 5 5 5 5 5 5 5 5 5 5 5 5 5 5 5 5 5 5 5 5 5 5 5 5 5 5 5 5 5 5 5 5 5 5 5 5 5 5 5 5 5 5 5 5 5 5 5 5 5 5 5 5 5 5 5 5 5 5 5 5 5 5 5 5 3 5 5 5 3 5 5 5 5 5 5 5 5 5 5 5 3 5 5 5 5 5 5 5 3 5 5 3 5 5 5 5 3 5 5 5 5 5 3 5 5 5 5 3 5 5 5 5 5 5 5 5 5 3 5 5 5 5 3 5 5 5 5 5 5 5 5 5 5 5 3 5 5 5 5 5 3 5 3 5 3 5 3 5 5 3 5 5 3 5 5 3 3 5 5 5 5 5 5 5 5 5 5 5 3 5 5 3 5 5 3 5 5 5 5 5 5 3 5 5 5 5 5 3 5 5 5 3 5 3 5 5 5 5 5 5 3 5 5 5 5 5 5 5 5 3 5 5 5 5 5 5 5 3 5 5 5 5 3 5 5 5 5 5 5 5 5 5 5 3 5 5 5 3 5 5 5 5 5 5 5 3 5 5 5 5 5 5 5 5 5 5 5 5 5 5 5 5 5 5 5 5 5 5 5 5 5 3 5 5 5 5 3 5 5 5 5 5 5 5 5 5 5 5 5 3 5 5 5 5 5 5 3 5 5 5 5 3 5 5 5 5 5 5 5 5 5 5 5 5 5 5 5 5 5 5 5 5 5 5 5 5 5 5 5 3 5 5 5 5 5 5 5 3 5 5 5 5 3 5 3 5 5 5 5 5 5 5 3 3 5 5 5 5 5 5 5 5 5 5 5 5 3 5 3 5 5 5 5 3 5 5 5 3 5 5 5 5 5 5 5 5 5 5 5 5 5 5 5 5 5 5 5 5 5 5 5 3 3 5 5 5 5 3 5 3 5 5 3 5 5 5 5 5 5 5 5 5 5 5 5 5 5 5 5 3 5 5 5 5 5 5 3 5 3 5 3 5 5 3 5 5 5 5 5 5 5 5 5 3 5 5 3 5 5 5 5 5 5 5 5 5 5 5 5 5 3 5 5 5 5 5 5 5 5 5 3 5 5 3 5 5 5 5 5 5 5 5 5 5 5 3 5 5 5 5 5 5 5 5 5 5 5 5 5 5 5 5 5 5 5 5 3 5 3 5 5 5 5 5 3 5 3 5 5 5 5 5 5 5 5 3 5 5 5 5 5 5 3 5 5 3 5 5 5 5 5 5 3 5 5 5 5 5 5 5 5 5 5 5 5 5 5 5 5 5 5 5 5 3 5 5 5 5 5 5 5 5 5 5 3 5 3 5 3 5 5 5 5 3 5 5 5 5 5 5 5 5 5 5 5 3 5 3 3 5 5 5 5 5 5 3 5 5 5 5 5 5 5 5 5 5 5 5 5 5 5 5 5 5 5 5 5 5 5 5 5 5 5 5 5 5 5 5 5 5 5 5 5 5 5 5 5 5 5 5 3 5 5 5 5 5 5 5 5 5 5 5 5 5 5 5 5 5 5 5 5 5 5 3 5 5 3 5 5 5 3 5 5 3 3 5 5 5 5 5 3 5 5 5 5 5 3 5 5 5 5 5 5 5 5 5 5 5 5 5 3 5 5 5 5 5 5 5 5 5 5 5 3 3 5 5 5 5 5 5 5 5 5 5 5 5 5 5 5 5 5 5 5 5 5 5 5 5 5 5 5 5 5 5 5 5 5 5 5 5 5 5 5 5 5 5 5 5 5 5 5 5 5 5 5 5 5 5 5 5 5 5 3 3 5 5 3 5 5 5 5 3 5 3 3 5 5 5 5 5 5 5 5 5 5 5 5 3 5 5 5 5 5 3 5 5 3 3 5 5 5 5 5 5 5 5 5 3 5 3 5 3 3 5 5 5 3 5 5 3 5 5 3 5 5 5 3 5 3 5 3 5 3 5 5 5 5 3 5 5 3 5 3 3 3 3 5 5 5 3 5 5 5 3 5 5 3 3 5 5 5 3 3 5 5 5 5 5 5 5 3 5 5 5 5 5 5 5 3 5 5 5 5 5 5 3 5 5 3 5 5 5 5 5 5 5 5 5 3 5 5 5 5 5 5 3 3 5 3 5 5 5 5 5 3 5 3 5 5 5 5 3 5 3 5 5 5 3 5 5 5 5 5 5 5 5 3 5 5 5 5 5 5 5 5 5 5 5 5 3 5 3 5 5 3 3 5 5 5 5 3 3 5 5 5 5 3 5 5 5 5 5 5 5 5 5 5 5 5 5 3 5 3 5 3 5 5 5 5 5 5 5 5 5 5 3 5 3 5 5 5 5 5 3 5 5 5 5 5 5 5 5 5 5 5 5 3 5 5 5 5 5 3 5 5 3 5 5 5 5 5 3 5 5 3 3 5 5 5 5 5 3 5 5 5 5 5 5 5 5 5 5 5 5 5 5 5 5 3 5 5 3 5 5 3 5 3 5 5 5 5 3 5 5 5 5 3 5 5 5 5 5 5 5 5 5 3 5 3 5 5 5 5 5 5 5 5 5 5 5 5 5 5 5 5 5 5 5 5 5 3 5 5 5 5 5 5 5 5 3 5 5 5 5 5 5 5 3 5 5 5 5 5 5 5 5 5 5 3 5 5 5 3 3 5 3 5 5 3 5 5 3 5 5 5 5 3 5 5 3 5 3 5 5 5 5 3 3 5 5 5 3 5 5 5 5 5 5 5 5 5 5 3 5 5 5 5 5 5 5 5 5 5 5 5 5 5 5 5 5 3 5 5 5 5 5 5 5 5 5 5 5 5 5 5 5 3 5 5 5 5 5 5 5 5 5 5 5 5 5 5 5 5 5 5 5 5 5 5 5 5 5 5 5 5 5 5 5 5 5 5 5 5 5 5 5 5 5 5 5 5 5 3 5 5 5 3 5 5 5 5 5 5 5 5 5 5 5 5 3 5 5 5 5 5 5 5 5 5 5 5 5 5 5 5 5 5 5 5 5 5 5 5 5 5 5 5 5 3 3 5 5 5 5 5 5 5 5 5 5 5 5 5 5 5 5 5 5 5 5 5 5 5 5 5 5 5 5 5 3 5 5 5 5 5 5 5 5 5 5 5 5 5 5 5 5 5 5 3 5 5 5 5 5 5 3 5 5 3 5 3 5 5 5 5 3 3 5 5 5 5 5 5 5 5 5 5 5 5 5 5 5 5 5 3 5 5 5 3 5 5 5 5 5 5 5 5 5 5 5 3 5 5 5 5 5 5 5 5 3 5 5 5 3 5 5 5 5 5 5 5 5 5 5 5 5 5 3 5 5 5 5 3 5 5 5 5 5 5 5 5 3 5 5 5 5 5 5 5 5 5 5 5 5 3 5 5 3 5 5 5 5 5 5 5 5 5 5 3 5 5 5 5 5 5 5 3 5 5 3 5 5 5 5 5 5 5 5 5 5 5 5 5 5 5 5 5 5 5 3 5 5 3 5 5 5 5 5 5 5 5 5 3 3 5 3 5 5 5 5 5 3 5 5 5 5 5 5 5 5 5 5 5 5 5 5 5 5 5 5 5 5 5 5 5 5 5 5 5 5 5 3 3 5 3 5 5 5 5 5 5 5 5 5 5 5 5 5 5 5 5 5 5 5 5 5 5 5 5 5 5 3 5 5 5 5 5 5 5 3 5 5 5 5 3 5 5 5 5 5 5 5 3 5 5 5 5 5 5 5 5 5 5 5 5 5 5 5 3 5 5 3 5 5 5 5 5 5 5 5 5 5 5 5 5 5 5 5 5 5 3 5 5 5 5 5 5 5 5 5 5 5 5 5 5 3 5 5 5 5 5 5 5 3 5 5 5 5 5 5 5 3 5 5 5 5 3 5 5 5 5 5 5 5 5 5 5 5 5 5 5 5 5 5 5 5 5 5 5 5 5 5 5 5 5 5 5 5 5 5 5 5 5 5 5 5 5 5 5 5 5 5 5 5 5 5 5 5 5 5 5 5 5 5 5 5 5 5 5 5 5 5 5 5 5 5 5 5 5 5 5 5 5 5 5 5 5 5 5 5 5 5 5 5 5 5 5 5 5 5 5 5 5 5 3 5 5 5 5 5 5 5 5 5 5 5 5 5 5 5 5 5 5 5 5 5 3 3 5 5 5 5 5 3 5 5 5 5 5 5 3 5 5 5 5 5 5 5 5 3 5 5 5 5 3 5 5 5 5 5 5 5 5 5 5 5 5 5 5 5 5 5 5 5 5 5 5 5 5 5 5 5 5 5 5 5 5 5 3 5 5 5 5 5 5 5 5 5 5 5 5 5 5 5 5 5 5 5 5 5 5 5 5 5 5 5 5 5 5 5 5 5 5 5 5 5 5 5 5 5 3 5 5 5 5 5 5 5 3 5 5 5 5 5 5 5 5 5 5 5 5 5 5 3 5 5 5 5 5 5 5 5 5 5 5 5 5 5 5 5 5 5 5 5 5 5 5 5 5 5 5 5 5 5 5 5 5 5 5 5 5 5 5 5 5 5 5 5 5 5 5 3 5 5 5 5 5 5 5 5 5 5 5 3 5 5 5 5 5 5 5 5 5 5 5 5 5 3 5 5 5 5 5 5 5 5 3 5 5 5 5 5 5 5 5 5 5 5 5 5 3 5 5 5 5 5 5 3 5 5 5 5 5 5 5 5 5 5 5 5 5 5 5 5 5 5 5 5 5 5 5 5 5 5 5 5 3 5 5 5 5 5 3 5 5 5 5 3 5 5 5 5 5 5 5 5 5 5 3 5 5 5 5 5 5 5 5 3 5 5 5 5 5 5 3 5 5 3 5 5 3 5 5 5 5 5 5 5 5 5 5 5 5 5 5 5 5 3 5 3 5 5 5 3 5 5 5 3 5 5 5 5 3 5 5 5 5 5 5 5 5 3 3 5 5 5 5 5 3 5 5 3 5 5 5 5 3 5 5 5 3 3 5 3 5 5 5 5 5 3 5 5 5 5 5 5 5 5 5 5 3 5 5 5 5 5 5 5 5 5 5 5 5 5 5 5 5 5 5 5 5 3 5 5 5 5 5 5 5 5 5 5 5 5 5 5 5 5 5 5 5 5 5 5 3 3 5 3 5 5 5 5 5 5 5 5 5 5 5 5 3 5 3 5 5 5 3 5 5 5 5 5 5 5 3 3 5 5 3 5 5 3 5 5 3 3 5 5 3 3 5 5 3 5 3 5 5 5 5 5 3 5 5 3 5 3 3 5 5 5 5 5 5 5 3 5 5 5 5 5 5 5 5 5 5 3 5 5 3 5 5 5 5 5 3 5 5 3 5 5 5 5 5 5 5 3 5 5 5 3 5 5 5 5 5 5 5 5 5 5 5 5 5 5 5 5 5 5 5 5 5 5 5 3 5 5 5 5 5 3 3 3 3 5 5 3 3 3 3 5 3 5 5 3 5 5 5 5 5 5 5 5 5 5 5 5 5 5 5 5 5 5 5 5 5 5 5 5 5 5 5 5 5 5 5 5 5 5 5 5 5 5 5 5 5 5 5 5 5 5 5 5 5 5 5 5 5 5 5 5 5 5 5 5 5 3 5 3 5 5 5 5 5 5 5 5 5 3 5 5 5 5 3 5 5 5 5 5 5 5 3 5 5 5 5 5 5 5 3 5 3 5 5 5 5 5 5 5 5 3 5 5 5 5 5 5 3 5 5 5 5 5 5 5 5 5 5 5 5 5 5 5 5 5 5 5 3 5 5 5 5 5 5 5 5 5 5 5 3 5 5 3 5 5 3 3 5 5 3 5 3 3 5 5 3 5 3 5 3 5 5 5 5 5 5 5 5 5 5 5 5 5 5 5 5 3 5 5 5 5 5 3 5 5 5 5 5 5 5 5 5 5 3 5 5 5 3 5 3 5 5 5 5 5 5 5 5 5 5 3 5 5 5 5 5 5 5 5 5 5 5 5 5 5 5 5 5 5 5 5 5 5 5 5 5 5 3 5 5 5 5 5 5 5 5 5 5 5 5 3 5 5 5 5 5 5 5 5 5 5 5 5 5 5 5 5 5 3 5 5 5 5 5 5 5 5 5 5 5 5 5 5 5 5 5 5 5 5 5 5 5 3 5 5 5 5 5 5 5 5 5 5 5 5 5 5 5 5 5 5 5 5 5 5 5 5 5 5 5 5 5 5 5 5 5 3 5 3 5 3 5 5 5 5 5 5 3 5 5 5 5 5 5 5 5 5 3 5 5 5 5 5 5 3 5 5 3 5 3 5 5 5 3 5 5 5 5 5 5 3 5 5 5 3 3 5 3 3 5 3 5 5 5 5 5 5 5 5 5 5 5 5 5 5 5 5 5 5 3 5 5 5 5 5 5 5 5 3 5 5 5 5 3 5 5 3 5 5 5 3 5 5 5 5 5 5 3 3 5 3 5 5 3 5 5 5 3 5 5 5 5 5 5 5 5 5 5 5 5 5 5 5 5 5 5 5 5 5 5 5 5 5 5 5 5 5 5 5 5 5 5 5 5 5 5 5 5 5 5 5 5 3 5 5 5 5 5 5 5 5 5 5 5 5 5 3 3 5 5 5 5 3 5 5 3 5 5 5 5 5 3 5 5 5 5 5 5 5 3 5 5 5 3 5 5 5 5 5 5 3 5 5 3 5 5 3 3 3 5 5 5 5 5 5 5 5 5 5 5 5 5 5 5 5 5 5 5 5 5 5 5 5 5 5 3 5 5 5 5 3 5 5 5 3 5 5 5 5 5 5 5 3 5 5 5 5 5 5 5 3 5 5 5 5 5 5 5 5 5 5 5 5 5 5 5 5 5 5 5 5 5 5 5 5 5 5 3 3 5 5 5 5 3 3 5 5 5 5 5 5 5 3 5 3 5 5 5 5 5 5 5 5 3 5 5 5 5 5 3 3 5 5 5 3 5 5 5 3 5 5 5 5 5 5 5 5 5 5 5 5 5 5 5 5 5 5 5 5 5 5 5 5 5 5 3 5 5 5 5 5 5 5 5 5 5 3 5 5 5 5 5 5 3 5 3 5 5 5 5 5 5 5 5 3 5 5 3 5 5 5 3 3 3 5 5 5 5 5 5 5 5 5 5 5 5 3 5 5 5 5 5 3 5 5 5 5 5 3 5 5 5 5 5 5 3 5 5 5 5 5 5 5 5 3 3 5 5 5 3 5 5 5 3 5 5 5 5 3 5 5 5 5 5 3 5 5 3 5 5 5 5 5 5 5 5 5 5 5 5 5 5 5 5 5 5 5 5 5 5 5 5 5 5 5 5 5 5 5 5 5 5 5 5 5 5 5 5 5 5 5 5 5 5 5 5 5 5 5 5 5 5 5 5 3 5 5 5 5 5 5 5 5 5 5 5 5 5 3 5 5 3 5 5 5 5 5 5 5 5 5 3 5 5 5 5 5 5 5 5 3 5 5 5 5 5 5 5 5 3 5 5 5 5 5 5 5 5 5 5 5 5 5 5 5 5 5 5 5 5 5 5 5 3 3 3 5 5 5 5 5 5 5 5 3 5 5 5 5 5 5 5 3 5 5 5 5 5 3 5 3 5 5 5 5 5 5 5 5 5 5 5 5 5 5 5 5 5 5 5 5 5 3 5 5 3 5 5 5 3 3 5 5 5 5 5 5 5 5 5 5 5 5 5 5 5 5 5 5 5 5 3 5 3 5 5 5 5 5 5 5 3 5 3 5 5 3 5 5 3 5 5 5 5 5 3 5 5 5 3 3 5 5 5 5 5 5 5 5 5 3 5 5 3 5 5 5 5 5 5 5 3 5 5 5 5 5 5 5 5 3 5 3 5 3 5 5 5 5 3 3 5 5 5 3 3 5 5 5 5 5 5 5 3 5 5 5 3 3 5 5 5 5 5 5 3 5 5 5 5 5 5 3 5 5 5 5 5 5 5 5 5 5 5 5 5 5 5 5 5 5 5 5 5 3 5 5 5 5 5 5 5 5 5 5 3 5 5 5 5 5 5 5 5 5 5 5 5 5 5 3 5 5 3 5 5 5 5 5 5 5 5 5 5 5 5 5 3 5 5 3 5 5 5 5 5 5 3 5 5 3 5 5 5 5 5 5 5 5 3 3 5 5 5 5 3 5 5 5 5 5 5 5 5 5 5 5 5 5 3 3 5 5 5 5 5 5 5 5 3 5 5 5 5 5 3 5 5 5 5 5 5 3 3 5 5 5 5 3 3 3 5 3 3 5 5 5 5 3 3 5 5 5 5 5 5 5 3 5 5 5 5 3 5 5 5 5 5 5 5 5 3 5 5 5 5 5 5 3 5 5 5 5 5 5 5 5 3 5 5 5 5 5 5 5 5 3 5 5 5 5 5 5 5 5 5 5 3 5 5 5 5 5 5 5 5 5 5 5 5 5 5 5 5 5 5 5 5 5 3 3 5 5 5 5 5 5 5 5 5 5 3 5 3 5 5 3 5 5 5 5 5 3 5 3 3 5 5 5 3 5 3 5 3 5 5 5 5 5 5 5 5 5 3 5 5 5 5 5 5 3 5 5 5 5 5 3 5 5 5 5 3 5 5 5 5 5 3 5 5 5 5 5 5 5 5 5 3 5 5 5 5 5 3 3 3 5 5 5 5 3 3 5 5 5 5 3 5 3 5 5 5 5 5 5 5 5 3 5 5 5 5 5 5 5 5 5 5 5 3 3 5 5 5 5 3 5 5 3 3 5 5 5 5 5 5 5 5 5 3 5 5 5 5 5 5 5 5 5 5 5 5 5 5 5 5 5 3 5 5 5 5 3 5 3 5 3 3 5 5 5 5 5 5 5 5 5 5 3 5 5 5 5 5 5 5 5 5 5 5 5 5 5 5 5 5 5 5 5 5 5 5 3 5 5 5 5 5 5 5 5 5 5 5 5 5 5 5 5 5 5 5 5 5 5 5 5 5 5 5 5 5 5 5 5 5 5 5 5 5 5 5 5 5 5 5 3 5 5 5 5 5 5 5 5 5 5 5 5 5 5 5 5 5 5 5 5 5 5 5 5 5 5 5 5 5 5 5 5 5 5 5 5 5 5 5 5 5 5 5 5 5 5 5 5 5 5 5 5 5 5 5 5 5 5 5 5 5 5 5 3 3 5 5 3 5 5 5 5 5 5 5 5 5 3 5 5 3 5 5 5 3 5 5 5 5 5 5 5 5 5 5 5 3 5 5 5 5 5 5 5 3 5 5 3 5 5 5 5 3 5 5 5 5 5 5 5 5 5 5 5 5 5 3 5 5 5 3 5 5 5 5 5 3 5 5 5 5 5 5 5 5 3 5 5 5 5 5 5 5 5 5 5 5 5 5 5 5 5 5 5 5 5 5 5 5 5 5 5 5 5 5 5 5 5 5 5 5 5 5 5 3 5 5 5 3 5 5 3 5 5 5 5 5 5 3 5 3 5 5 5 5 5 5 5 3 5 5 5 3 5 5 5 5 3 5 5 5 5 5 5 5 5 5 5 5 5 5 5 5 3 5 5 5 5 5 5 5 5 5 5 5 5 5 5 5 5 5 5 5 5 5 3 5 5 5 5 5 5 5 3 3 5 5 3 3 5 5 5 5 5 5 3 5 5 5 3 5 5 5 5 5 3 5 5 5 5 5 5 5 5 5 5 5 5 5 5 5 5 5 5 3 5 5 5 3 5 3 5 5 5 5 5 5 5 5 3 5 5 3 5 5 5 5 3 5 5 5 3 5 5 5 5 5 5 5 3 5 5 5 3 5 5 5 5 3 5 5 5 5 5 5 5 3 5 5 5 5 5 5 5 5 5 5 5 5 5 5 5 5 5 5 5 5 5 3 5 5 5 5 5 3 5 3 5 5 5 5 3 5 5 5 5 5 5 5 5 5 5 3 5 3 5 5 5 5 5 5 5 5 5 3 5 5 5 5 5 5 5 5 5 5 5 5 5 5 5 5 5 5 5 5 5 5 3 5 5 5 3 5 5 5 3 5 5 3 5 5 5 5 5 5 5 5 3 5 5 5 5 5 3 3 5 5 5 5 3 5 5 3 5 5 5 3 5 5 5 5 3 5 5 5 5 5 3 5 5 5 5 5 5 5 5 3 5 5 5 5 5 5 3 5 5 3 5 5 3 5 5 5 5 5 3 5 5 5 5 5 3 5 5 5 5 5 3 5 5 5 3 5 5 5 3 3 5 5 5 5 3 5 5 5 5 5 5 5 5 5 5 3 3 5 5 5 3 5 3 5 5 5 5 3 5 5 5 5 5 5 5 5 3 5 5 5 5 5 5 5 3 3 5 3 5 3 5 3 5 5 5 3 5 5 3 3 5 5 5 5 3 5 5 5 5 3 5 5 5 5 5 5 5 5 5 3 5 5 3 5 5 5 5 5 5 5 5 5 5 5 3 5 5 5 5 5 3 5 3 5 5 5 5 5 5 3 3 5 3 5 5 5 5 5 3 5 5 3 5 5 3 5 5 5 3 5 5 5 5 5 5 5 5 5 3 5 3 5 5 5 5 5 5 5 5 5 3 5 3 5 5 5 5 5 3 5 5 3 5 5 5 5 5 3 5 5 5 5 5 5 3 5 5 5 5 5 5 5 5 5 5 5 5 5 5 3 5 5 5 5 5 5 5 5 3 5 5 5 5 5 5 3 5 3 5 5 5 5 5 5 5 5 5 5 5 5 5 5 5 5 5 5 5 5 3 5 5 5 5 3 5 5 5 5 5 5 5 3 3 5 5 5 5 5 3 5 3 5 3 3 5 5 5 3 5 3 5 5 3 5 5 5 3 3 5 5 5 5 3 5 5 5 3 3 5 5 3 3 5 5 5 3 5 5 3 5 3 5 5 5 5 5 5 5 3 3 5 5 5 5 3 3 5 5 5 3 5 5 3 3 3 5 5 3 5 5 5 3 5 3 5 5 3 5 5 5 5 5 5 5 5 5 5 5 3 5 5 5 5 5 5 5 5 5 5 5 5 5 5 5 3 5 5 5 5 5 3 5 5 5 5 5 5 5 3 5 3 5 5 3 5 5 5 3 5 5 5 3 5 5 3 5 5 5 3 5 5 5 5 3 5 5 5 5 5 5 5 5 5 5 5 5 5 5 5 5 5 5 5 5 5 5 3 5 5 3 5 5 3 5 5 5 5 5 5 5 5 5 5 5 5 5 5 5 3 5 5 5 3 5 5 5 5 5 5 5 5 5 5 5 5 3 5 5 5 5 5 5 5 3 5 5 5 5 5 5 5 5 3 5 5 5 5 3 5 5 5 5 5 5 3 5 5 5 5 3 5 5 5 5 3 5 5 5 5 5 5 5 5 5 5 5 5 5 5 5 5 5 5 5 5 5 5 5 5 5 5 3 5 3 5 5 5 5 5 5 5 3 3 5 5 3 5 5 5 5 5 5 5 5 5 5 5 5 5 5 5 5 5 5 5 5 3 5 3 5 5 5 5 5 5 5 5 5 5 5 5 5 5 3 5 5 5 5 5 5 5 5 5 5 3 5 5 5 5 3 5 3 5 5 5 5 5 5 3 5 5 5 3 5 5 5 5 5 5 5 5 5 5 5 3 5 5 5 5 5 5 5 5 3 5 5 5 3 5 5 5 5 5 5 5 5 5 5 5 5 3 5 5 5 3 5 5 5 5 5 5 3 5 3 5 5 3 5 5 5 5 3 5 5 5 3 5 5 5 5 5 3 5 5 5 5 3 5 5 3 5 5 5 5 3 3 5 5 5 3 5 5 3 5 5 5 3 5 5 5 3 5 5 5 3 5 5 3 3 5 5 5 5 5 5 5 5 3 5 5 3 5 5 5 3 5 5 5 5 5 5 5 3 5 5 5 5 5 5 5 5 5 3 5 5 3 5 3 5 5 5 3 5 5 5 5 5 5 5 5 5 5 5 3 5 5 3 5 5 5 5 5 5 5 5 5 5 3 5 5 5 5 5 5 5 5 3 5 5 5 3 5 5 5 5 5 5 5 5 3 5 3 5 5 5 5 3 3 5 5 5 5 5 5 5 5 5 5 5 5 5 5 5 5 3 5 5 5 5 3 5 5 5 3 5 3 5 3 3 5 5 3 5 5 5 3 3 5 5 3 3 5 5 3 3 5 5 5 3 5 5 5 5 5 5 3 5 3 5 3 3 3 5 5 5 5 5 5 3 5 5 3 3 5 3 5 3 3 5 3 5 5 5 3 5 5 5 3 5 5 5 5 5 3 5 5 5 3 5 3 3 5 5 5 5 5 3 5 5 3 5 5 3 5 5 5 3 5 3 5 5 5 3 3 3 5 5 3 5 3 3 5 5 3 5 3 5 5 5 3 5 5 3 3 5 5 3 5 5 5 5 3 5 5 5 5 3 3 5 3 5 5 5 5 5 5 5 5 5 5 5 5 5 3 5 5 3 5 3 5 5 5 5 5 5 5 5 5 5 5 3 5 5 5 5 5 3 5 5 5 3 5 5 5 3 5 3 5 3 5 5 3 5 3 5 3 5 5 3 5 5 5 5 3 3 5 5 5 3 5 5 3 5 5 5 5 3 5 3 5 5 5 5 5 5 3 5 5 5 5 5 5 5 5 5 5 5 5 5 5 5 5 5 5 5 5 5 5 5 5 5 5 5 5 5 5 5 5 5 3 3 5 5 3 5 3 5 3 5 5 5 5 5 5 5 5 5 5 3 5 5 5 5 5 5 5 3 5 5 5 5 5 5 5 3 5 5 5 5 5 5 5 5 5 5 5 5 5 5 5 5 5 5 5 3 5 5 5 3 5 5 3 5 5 5 3 5 5 3 5 5 5 3 5 5 3 5 5 5 3 3 5 5 5 5 5 5 5 3 5 5 5 5 3 5 5 5 5 3 5 5 3 3 5 5 5 5 3 5 5 5 3 3 5 3 5 5 5 5 5 5 5 5 5 5 5 5 5 3 5 5 5 5 5 3 5 3 3 5 5 5 5 5 5 5 5 3 5 5 5 5 5 5 5 5 5 5 5 5 5 5 5 5 5 3 5 5 5 5 5 5 5 5 5 3 5 5 5 3 5 5 5 5 5 3 5 5 5 5 5 5 5 5 5 5 5 5 5 5 5 3 5 5 5 5 5 5 3 5 5 5 5 5 3 5 3 3 5 5 5 5 5 3 5 5 5 5 5 3 3 5 5 5 3 3 5 5 3 3 5 5 5 5 5 3 5 5 5 5 5 5 5 5 5 5 5 5 3 5 5 5 5 5 5 5 5 3 5 5 3 5 5 5 5 5 5 5 5 5 5 5 5 5 5 3 5 5 5 5 5 5 3 5 3 5 5 5 3 5 5 5 5 3 5 3 5 5 3 5 5 5 3 5 5 3 3 3 3 5 5 3 5 3 5 5 3 5 5 3 5 5 5 5 5 3 5 3 5 5 3 3 3 5 5 3 3 5 3 5 5 5 5 5 5 5 3 5 5 5 5 5 3 5 5 5 5 5 5 5 5 5 3 5 5 5 5 5 3 5 5 5 5 3 5 5 5 5 5 5 5 5 5 5 5 5 5 3 5 5 5 5 5 5 5 5 5 5 5 3 5 5 5 5 5 5 5 3 3 5 5 3 5 5 5 5 5 5 5 3 5 5 5 5 3 5 5 5 5 5 5 5 3 5 5 5 3 5 5 5 3 5 5 5 5 5 5 5 3 5 5 5 5 5 5 5 3 5 5 5 5 5 5 5 5 5 5 5 5 5 5 5 3 5 5 5 3 5 5 5 5 5 5 5 5 5 5 5 5 5 3 5 5 5 5 3 5 5 5 5 5 5 5 5 5 5 5 5 5 5 5 5 5 5 3 5 5 5 5 5 5 5 5 5 5 3 3 5 5 5 5 5 5 5 5 5 5 5 5 5 5 5 3 5 5 5 5 3 5 5 5 5 5 3 5 5 5 5 5 5 5 5 5 5 5 3 5 5 5 5 5 5 5 5 5 5 5 3 5 5 5 5 5 5 3 5 5 5 5 5 5 5 5 5 5 5 5 5 5 5 5 5 5 5 5 5 5 5 5 5 5 5 5 5 3 5 5 5 3 5 5 5 5 5 3 5 5 5 5 5 5 5 5 5 5 5 3 5 5 5 5 5 5 5 5 5 5 5 5 5 5 5 5 5 5 5 5 5 5 5 5 5 5 5 5 5 5 5 5 5 5 5 3 5 5 5 3 5 5 5 5 5 5 5 5 3 3 5 5 5 5 5 3 5 5 5 3 5 5 5 5 5 5 3 5 5 5 5 5 5 5 5 5 5 5 5 5 5 3 5 3 5 3 3 5 5 5 5 5 5 5 5 5 5 5 3 5 5 5 5 5 5 3 5 5 5 5 5 5 5 5 5 5 5 5 5 5 5 5 5 5 5 5 5 5 5 3 5 5 5 5 3 5 5 5 5 5 5 5 5 3 5 5 5 5 5 3 3 5 3 5 5 5 5 3 3 5 3 5 5 5 5 5 3 5 5 5 5 5 5 5 5 5 5 5 3 5 5 5 3 5 5 5 5 5 5 5 3 5 5 3 3 5 5 5 5 5 5 5 3 3 5 5 3 5 3 5 5 3 5 3 5 5 5 5 5 3 5 5 5 5 5 5 5 5 5 5 5 5 5 3 3 5 5 5 5 5 5 5 5 3 5 5 5 5 3 5 5 3 5 5 3 5 3 5 5 5 3 5 5 5 5 5 5 5 5 5 5 3 5 5 5 5 5 3 5 5 5 5 5 5 5 5 5 5 5 5 5 5 5 5 5 5 5 3 5 5 3 3 5 5 5 5 5 5 5 3 3 5 5 5 5 5 5 5 5 5 5 5 5 5 5 5 3 5 5 5 5 5 5 3 5 5 3 3 5 5 3 5 5 5 5 5 5 5 5 5 5 3 5 5 5 5 5 5 5 5 5 5 5 5 5 5 5 5 5 5 5 5 5 5 5 5 5 5 5 5 5 5 5 5 5 5 5 5 5 5 5 5 5 5 5 3 5 5 5 5 5 5 5 5 5 5 3 5 5 5 5 5 5 5 5 5 5 5 5 5 5 5 5 5 5 5 5 5 5 5 5 5 5 5 5 5 5 5 5 5 5 5 5 3 5 3 5 5 5 5 5 3 5 5 5 3 5 5 3 5 5 5 5 5 5 5 5 5 5 5 5 5 5 5 5 5 5 3 5 5 5 3 5 5 5 5 5 3 5 5 5 3 5 5 5 5 5 3 5 5 5 5 5 5 5 5 5 5 5 5 5 5 5 3 5 5 5 5 5 5 3 5 5 5 3 3 5 5 5 3 5 5 5 5 5 5 5 5 5 5 5 5 3 5 5 5 5 5 5 5 3 5 5 5 5 5 5 5 5 3 5 5 5 5 5 5 5 3 5 5 5 5 3 5 5 5 5 5 5 5 5 5 5 5 5 5 5 5 5 5 5 3 3 5 5 5 5 5 5 5 5 5 5 5 5 5 5 5 5 5 5 5 3 5 5 5 5 5 5 5 5 5 5 5 5 5 3 5 5 5 5 5 5 3 5 5 5 5 5 5 5 5 5 5 5 5 5 3 5 5 5 3 5 5 5 5 5 5 5 3 5 5 5 5 3 5 5 5 5 3 5 5 5 5 5 5 5 5 5 5 5 5 5 3 5 5 5 5 5 5 5 5 5 5 5 3 5 5 5 5 5 5 5 3 5 5 5 5 3 5 5 5 5 5 5 5 5 5 5 5 5 5 5 5 5 5 5 5 5 3 5 5 5 5 5 5 5 5 5 5 5 5 5 5 5 5 5 5 5 5 5 5 5 5 5 5 3 3 5 5 5 5 5 5 5 5 5 5 5 5 5 5 5 5 5 5 5 5 5 5 5 5 5 5 5 5 5 5 5 5 5 5 5 5 5 5 5 5 5 5 5 5 5 5 5 5 5 5 5 5 5 5 5 5 5 5 5 5 5 5 5 5 5 5 3 5 5 3 5 5 5 5 5 3 5 5 5 3 5 5 5 5 5 5 5 5 5 5 5 5 5 5 5 5 5 5 5 5 5 5 5 5 3 5 5 5 5 5 5 5 3 5 5 5 5 5 5 5 5 5 5 5 5 5 3 3 5 5 3 5 5 5 5 3 5 5 3 5 5 5 5 3 3 5 5 5 5 3 5 5 5 5 5 5 5 5 3 3 3 5 5 5 5 5 3 5 5 3 5 5 5 5 5 3 5 5 5 3 5 5 5 3 5 5 5 5 5 3 3 3 5 5 5 5 5 5 5 5 5 5 3 5 5 3 3 5 5 5 5 5 5 5 5 5 5 5 5 5 5 5 5 5 5 5 5 5 5 5 5 3 5 5 5 3 5 3 3 5 5 5 3 3 5 5 5 5 5 5 3 5 3 5 5 5 5 5 5 5 5 5 5 5 5 5 5 5 3 5 5 5 3 5 5 5 5 5 5 5 5 5 5 5 5 5 3 5 5 5 5 3 5 5 5 5 5 5 5 5 5 5 5 5 5 5 5 5 5 5 5 5 5 5 5 5 5 5 5 5 5 5 5 5 5 5 5 5 5 5 5 3 5 5 5 5 5 5 5 3 5 5 5 5 5 5 5 5 5 5 5 3 5 5 5 5 5 3 5 5 3 3 5 5 3 3 5 5 5 5 5 5 5 5 5 5 5 5 5 5 5 5 3 3 5 5 5 3 3 5 5 5 5 5 3 5 5 5 5 5 5 5 3 5 5 5 5 5 5 3 5 5 5 5 5 5 5 5 5 5 3 5 5 5 5 5 5 5 3 5 5 5 5 5 3 5 5 3 5 5 5 5 5 5 5 5 5 3 5 5 5 5 5 5 5 5 5 5 5 5 5 5 5 5 5 5 5 5 5 5 5 5 3 5 3 5 5 5 5 5 5 5 5 3 5 5 5 5 5 5 3 5 5 5 3 5 5 5 5 5 5 5 5 5 5 5 5 5 5 5 3 5 5 5 5 5 5 5 5 5 5 5 5 5 5 5 5 3 5 3 5 5 5 5 5 5 5 5 5 5 5 5 5 5 3 5 5 5 5 5 5 3 5 5 5 5 5 5 5 5 5 5 5 5 5 5 5 3 5 5 5 5 5 5 5 3 5 5 3 5 5 5 5 5 5 5 3 5 5 5 5 5 5 3 5 5 5 5 5 3 5 5 5 3 3 5 5 3 5 5 5 5 5 5 3 5 3 3 5 5 5 5 5 5 5 3 5 5 5 3 5 5 5 5 5 3 5 5 5 5 3 5 5 3 5 5 3 5 5 5 3 5 5 5 5 5 5 5 5 5 5 3 5 5 5 5 5 5 5 5 3 5 3 5 3 5 3 3 5 5 5 5 5 5 3 5 5 5 5 5 3 5 3 5 3 5 5 3 5 5 3 3 3 5 3 5 5 5 5 5 3 5 3 5 5 3 5 5 3 3 5 5 5 5 5 5 3 3 3 3 3 5 5 5 3 5 5 3 5 3 5 5 5 5 5 5 5 5 5 5 3 5 5 5 5 5 5 5 3 5 5 3 5 5 5 3 5 5 5 5 3 3 5 5 5 5 5 5 5 5 3 5 3 5 5 3 5 5 5 3 3 5 5 5 3 5 5 5 5 5 5 5 3 5 5 5 5 5 5 5 5 5 5 5 5 3 5 5 5 5 5 5 5 5 5 5 5 5 5 3 5 5 5 5 5 5 5 5 5 5 5 5 5 5 5 5 5 5 5 5 5 3 5 5 5 5 5 3 5 3 5 5 5 5 5 5 5 5 3 5 5 3 5 5 3 3 5 3 5 5 5 5 5 5 5 5 5 5 5 5 5 5 5 5 5 5 3 5 5 3 5 5 5 5 5 5 5 5 5 5 5 5 5 5 5 5 5 3 5 5 5 5 3 5 5 5 5 5 3 5 5 5 5 3 5 5 5 5 3 5 5 5 5 5 5 5 5 5 5 5 5 5 5 5 5 5 5 5 5 5 5 5 5 5 5 3 5 5 5 5 5 5 5 5 5 5 5 5 5 5 3 5 5 3 5 5 5 5 5 3 5 5 5 5 3 5 3 5 5 5 5 5 5 5 5 5 5 5 5 5 
</DataArray>
</Cells>
<PointData Scalars="" Vectors="displacement," Tensors="">
<DataArray type="Float64" Name="displacement" NumberOfComponents="3" format="ascii">
-3.135629496931832e-08 -0.0049996623644646878 0 -3.3301833198711773e-07 -0.0047830253791595542 0 -1.8982370451033659e-08 -0.0044222637337322183 0 -3.135629496931832e-08 -0.0049996623644646878 0 -3.3301833198711773e-07 -0.0047830253791595542 0 -4.5529816311843801e-08 -0.0049998848324819736 0 5.2365530690530702e-05 -0.004891163675507482 0 -3.3301833198711773e-07 -0.0047830253791595542 0 -4.5529816311843801e-08 -0.0049998848324819736 0 5.2365530690530702e-05 -0.004891163675507482 0 7.7531281526084576e-05 -0.0047996686144310729 0 -3.3301833198711773e-07 -0.0047830253791595542 0 5.2365530690530702e-05 -0.004891163675507482 0 7.7531281526084576e-05 -0.0047996686144310729 0 0.00010551624925037527 -0.0048401177557436115 0 1.7085314214278281e-05 -0.0046436980014577965 0 -1.3728899071235089e-05 -0.0047432387973543556 0 -9.3840911897735416e-06 -0.0044235250938080856 0 -3.3301833198711773e-07 -0.0047830253791595542 0 -1.8982370451033659e-08 -0.0044222637337322183 0 -9.3840911897735416e-06 -0.0044235250938080856 0 -1.8982370451033659e-08 -0.0044222637337322183 0 -4.3019752147962471e-06 -0.0042286311616281762 0 -1.8982370451033659e-08 -0.0044222637337322183 0 -4.3019752147962471e-06 -0.0042286311616281762 0 1.3258339854952793e-07 -0.0036832162230117098 0 -4.3019752147962471e-06 -0.0042286311616281762 0 4.0884122852207064e-06 -0.0041505457743821784 0 -8.1733897528859942e-08 -0.0040396949729867267 0 -1.5398647834531765e-05 -0.0041873001345517904 0 9.2804001358179615e-05 -0.0043407972830789131 0 -9.3840911897735416e-06 -0.0044235250938080856 0 -4.3019752147962471e-06 -0.0042286311616281762 0 8.60231636074134e-06 -0.0042392128659078862 0 7.7531281526084576e-05 -0.0047996686144310729 0 0.00014296169306737158 -0.0048063898923051858 0 0.00010551624925037527 -0.0048401177557436115 0 1.7085314214278281e-05 -0.0046436980014577965 0 9.2804001358179615e-05 -0.0043407972830789131 0 -4.3019752147962471e-06 -0.0042286311616281762 0 7.8802947494384447e-06 -0.0039385845135609197 0 1.3258339854952793e-07 -0.0036832162230117098 0 -4.3019752147962471e-06 -0.0042286311616281762 0 -8.1733897528859942e-08 -0.0040396949729867267 0 7.8802947494384447e-06 -0.0039385845135609197 0 9.2804001358179615e-05 -0.0043407972830789131 0 -1.1367101794267897e-05 -0.0037152519796252201 0 8.9262478970200484e-05 -0.0041026522480176152 0 4.200009707919757e-05 -0.0040945863255462513 0 7.2136163382109317e-05 -0.0040749670396759557 0 -9.3458090589340945e-05 -0.0032642451803564158 0 -8.9530679605466363e-05 -0.0032639293237573218 0 -8.1786502058717251e-05 -0.0032567763803825031 0 -1.1367101794267897e-05 -0.0037152519796252201 0 -3.9244434630966016e-05 -0.0036009144559339202 0 -1.1367101794267897e-05 -0.0037152519796252201 0 -7.3834945364686502e-05 -0.0036216556142221394 0 -9.4676423474932448e-05 -0.0032649869239802743 0 -8.9530679605466363e-05 -0.0032639293237573218 0 -9.3785115467442666e-05 -0.0032691522972605608 0 -8.9530679605466363e-05 -0.0032639293237573218 0 -8.2149302372280876e-05 -0.0032620369935862218 0 -8.1786502058717251e-05 -0.0032567763803825031 0 -8.2053876209623217e-05 -0.003270075003355649 0 -8.0322506993051959e-05 -0.0032652430692761128 0 -8.7325877822698152e-05 -0.0032679074894996635 0 -8.2149302372280876e-05 -0.0032620369935862218 0 -8.0322506993051959e-05 -0.0032652430692761128 0 -8.7325877822698152e-05 -0.0032679074894996635 0 -8.9530679605466363e-05 -0.0032639293237573218 0 -8.2149302372280876e-05 -0.0032620369935862218 0 -8.7325877822698152e-05 -0.0032679074894996635 0 -8.9530679605466363e-05 -0.0032639293237573218 0 -8.7325877822698152e-05 -0.0032679074894996635 0 -9.3785115467442666e-05 -0.0032691522972605608 0 -8.7325877822698152e-05 -0.0032679074894996635 0 -9.3785115467442666e-05 -0.0032691522972605608 0 -9.590346888223113e-05 -0.0032743753776926518 0 -8.2053876209623217e-05 -0.003270075003355649 0 -8.7325877822698152e-05 -0.0032679074894996635 0 -9.590346888223113e-05 -0.0032743753776926518 0 -8.2053876209623217e-05 -0.003270075003355649 0 -9.590346888223113e-05 -0.0032743753776926518 0 -9.4364723728697733e-05 -0.0032804203737739268 0 -9.590346888223113e-05 -0.0032743753776926518 0 -0.00010398449602649295 -0.0032763684408558418 0 -0.0001026192949522542 -0.0032900636225100281 0 -1.1367101794267897e-05 -0.0037152519796252201 0 0.00010081111013966869 -0.0042606648093688904 0 -9.4676423474932448e-05 -0.0032649869239802743 0 -9.3785115467442666e-05 -0.0032691522972605608 0 -0.00010398449602649295 -0.0032763684408558418 0 -9.3785115467442666e-05 -0.0032691522972605608 0 -9.590346888223113e-05 -0.0032743753776926518 0 -0.00010398449602649295 -0.0032763684408558418 0 0.00010081111013966869 -0.0042606648093688904 0 -0.00014200981702248842 -0.0039068536846056405 0 0.00014100780936180765 -0.0048342611400623006 0 0.00017066070494680682 -0.0048797730241619255 0 0.00013020897225442349 -0.0048831980625136705 0 -9.590346888223113e-05 -0.0032743753776926518 0 -0.0001026192949522542 -0.0032900636225100281 0 -9.4364723728697733e-05 -0.0032804203737739268 0 -0.0001026192949522542 -0.0032900636225100281 0 -9.4364723728697733e-05 -0.0032804203737739268 0 -9.5994478850300181e-05 -0.0032882480664332609 0 -8.2053876209623217e-05 -0.003270075003355649 0 -9.5994478850300181e-05 -0.0032882480664332609 0 -8.0861159589965494e-05 -0.0032891587430294573 0 -8.2053876209623217e-05 -0.003270075003355649 0 -9.4364723728697733e-05 -0.0032804203737739268 0 -9.5994478850300181e-05 -0.0032882480664332609 0 0.00016218303816671682 -0.0048360920103929107 0 0.00010551624925037527 -0.0048401177557436115 0 9.898664133650924e-05 -0.0048838533452802676 0 0.00014296169306737158 -0.0048063898923051858 0 0.00016218303816671682 -0.0048360920103929107 0 0.00010551624925037527 -0.0048401177557436115 0 0.00010081111013966869 -0.0042606648093688904 0 7.3318561501180653e-05 -0.005059631426086876 0 9.2804001358179615e-05 -0.0043407972830789131 0 0.00010081111013966869 -0.0042606648093688904 0 0.00014100780936180765 -0.0048342611400623006 0 0.00013020897225442349 -0.0048831980625136705 0 9.898664133650924e-05 -0.0048838533452802676 0 5.2365530690530702e-05 -0.004891163675507482 0 9.898664133650924e-05 -0.0048838533452802676 0 8.4923932453977204e-05 -0.0049341229052561626 0 5.2365530690530702e-05 -0.004891163675507482 0 0.00010551624925037527 -0.0048401177557436115 0 9.898664133650924e-05 -0.0048838533452802676 0 0.00013020897225442349 -0.0048831980625136705 0 9.898664133650924e-05 -0.0048838533452802676 0 8.4923932453977204e-05 -0.0049341229052561626 0 0.00013020897225442349 -0.0048831980625136705 0 8.4923932453977204e-05 -0.0049341229052561626 0 0.00013168971240123652 -0.0049299017705519777 0 -9.9293831789559024e-05 -0.0041507752552521352 0 -0.00019382247898633509 -0.0042080526850097394 0 8.4923932453977204e-05 -0.0049341229052561626 0 0.00013168971240123652 -0.0049299017705519777 0 8.9300470041765522e-05 -0.00497009192475956 0 8.4923932453977204e-05 -0.0049341229052561626 0 8.9300470041765522e-05 -0.00497009192475956 0 4.640150497858099e-05 -0.0049774273023919626 0 -9.5994478850300181e-05 -0.0032882480664332609 0 -0.00011218621837549107 -0.0033210562819400509 0 -8.0861159589965494e-05 -0.0032891587430294573 0 -0.0001026192949522542 -0.0032900636225100281 0 -9.5994478850300181e-05 -0.0032882480664332609 0 -0.00011218621837549107 -0.0033210562819400509 0 -0.00014200981702248842 -0.0039068536846056405 0 -0.00019434274258545777 -0.0032250518555668834 0 -0.00014200981702248842 -0.0039068536846056405 0 -9.9293831789559024e-05 -0.0041507752552521352 0 -0.00023722045454763758 -0.0032139842398273017 0 -0.00034911102186474638 -0.0033308779291118299 0 -0.00017759955874673439 -0.003300290794678334 0 0.00017066070494680682 -0.0048797730241619255 0 0.00013020897225442349 -0.0048831980625136705 0 0.00013168971240123652 -0.0049299017705519777 0 -0.00034911102186474638 -0.0033308779291118299 0 -0.0002315269677396926 -0.0034047267861921178 0 -0.00034928705997734925 -0.0034757729238592086 0 -0.00034911102186474638 -0.0033308779291118299 0 -0.00017759955874673439 -0.003300290794678334 0 -0.0002315269677396926 -0.0034047267861921178 0 -0.00017759955874673439 -0.003300290794678334 0 -0.0002315269677396926 -0.0034047267861921178 0 -0.00011173398462186716 -0.0033860939500222919 0 -0.00019434274258545777 -0.0032250518555668834 0 -9.2646274394775653e-05 -0.0034092488770626466 0 -0.0002315269677396926 -0.0034047267861921178 0 -0.00017151860544721532 -0.0035367043995802993 0 -0.00011173398462186716 -0.0033860939500222919 0 -0.0002315269677396926 -0.0034047267861921178 0 -0.00017151860544721532 -0.0035367043995802993 0 -0.00034928705997734925 -0.0034757729238592086 0 -0.00031003129373462885 -0.0035917025654750561 0 -0.00016974196580731566 -0.003535166511658023 0 -0.00031590299482372699 -0.0035961261299361888 0 -0.00017151860544721532 -0.0035367043995802993 0 -0.00034928705997734925 -0.0034757729238592086 0 -0.00030187535656540747 -0.0035885371116455385 0 -0.00016907656876224164 -0.0035370013701356146 0 -0.00016353763795166638 -0.0037030416964812496 0 -0.00034911102186474638 -0.0033308779291118299 0 -0.00047776004729240744 -0.003461063975317015 0 -0.00034928705997734925 -0.0034757729238592086 0 -0.00047776004729240744 -0.003461063975317015 0 -0.00034928705997734925 -0.0034757729238592086 0 -0.00047106260185036329 -0.0036525587678278683 0 -0.00031003129373462885 -0.0035917025654750561 0 -0.00047367753544205152 -0.0036466858060171256 0 -0.00031590299482372699 -0.0035961261299361888 0 -0.00034928705997734925 -0.0034757729238592086 0 -0.00047106260185036329 -0.0036525587678278683 0 -0.00061676735114734357 -0.0036069134430177755 0 -0.00060966667950136492 -0.0036323586116810661 0 -0.00047106260185036329 -0.0036525587678278683 0 -0.00047776004729240744 -0.003461063975317015 0 -0.00061676735114734357 -0.0036069134430177755 0 -0.00047106260185036329 -0.0036525587678278683 0 -0.00019382247898633509 -0.0042080526850097394 0 -0.00028427590063864061 -0.0043262468022066663 0 4.8524718895329765e-05 -0.0049949667971377291 0 4.640150497858099e-05 -0.0049774273023919626 0 3.6122103651410321e-05 -0.0049897371306737645 0 4.8524718895329765e-05 -0.0049949667971377291 0 4.4035436678481082e-05 -0.0049929279623704727 0 3.6122103651410321e-05 -0.0049897371306737645 0 8.9300470041765522e-05 -0.00497009192475956 0 4.8524718895329765e-05 -0.0049949667971377291 0 4.640150497858099e-05 -0.0049774273023919626 0 4.640150497858099e-05 -0.0049774273023919626 0 3.6122103651410321e-05 -0.0049897371306737645 0 1.8719117126687074e-05 -0.004989166929908649 0 4.640150497858099e-05 -0.0049774273023919626 0 1.8719117126687074e-05 -0.004989166929908649 0 3.2949274434904671e-05 -0.0049625579290248243 0 3.6122103651410321e-05 -0.0049897371306737645 0 2.0170820433997139e-05 -0.0049972162124853961 0 1.8719117126687074e-05 -0.004989166929908649 0 4.4035436678481082e-05 -0.0049929279623704727 0 3.6122103651410321e-05 -0.0049897371306737645 0 2.7226909130884835e-05 -0.0049984563149763029 0 3.6122103651410321e-05 -0.0049897371306737645 0 2.0170820433997139e-05 -0.0049972162124853961 0 2.7226909130884835e-05 -0.0049984563149763029 0 1.8719117126687074e-05 -0.004989166929908649 0 2.6766417361453748e-08 -0.0050000175003138397 0 9.2210497508254316e-06 -0.0050005813630114035 0 2.0170820433997139e-05 -0.0049972162124853961 0 1.8719117126687074e-05 -0.004989166929908649 0 9.2210497508254316e-06 -0.0050005813630114035 0 1.8719117126687074e-05 -0.004989166929908649 0 2.6766417361453748e-08 -0.0050000175003138397 0 -4.5529816311843801e-08 -0.0049998848324819736 0 1.8719117126687074e-05 -0.004989166929908649 0 -4.5529816311843801e-08 -0.0049998848324819736 0 3.2949274434904671e-05 -0.0049625579290248243 0 5.2365530690530702e-05 -0.004891163675507482 0 -4.5529816311843801e-08 -0.0049998848324819736 0 3.2949274434904671e-05 -0.0049625579290248243 0 5.2365530690530702e-05 -0.004891163675507482 0 8.4923932453977204e-05 -0.0049341229052561626 0 3.2949274434904671e-05 -0.0049625579290248243 0 8.4923932453977204e-05 -0.0049341229052561626 0 4.640150497858099e-05 -0.0049774273023919626 0 3.2949274434904671e-05 -0.0049625579290248243 0 0.00017892378860827386 -0.0031748452363458668 0 0.00021355099307394143 -0.0032222968001319827 0 0.00025850705048346262 -0.0032024708592844828 0 0.00017892378860827386 -0.0031748452363458668 0 0.0002505850520783785 -0.0031492924549177035 0 0.00025850705048346262 -0.0032024708592844828 0 8.2636369000972952e-05 -0.0031123085339098411 0 8.1303411806158934e-05 -0.0030332792373022632 0 5.1049202272226521e-05 -0.0031178947902673953 0 8.1303411806158934e-05 -0.0030332792373022632 0 4.0107304607304062e-05 -0.0030330202212129867 0 5.1049202272226521e-05 -0.0031178947902673953 0 8.1303411806158934e-05 -0.0030332792373022632 0 9.474866785122271e-05 -0.0029960348407616975 0 0.00010138115779239743 -0.0029591368602489851 0 0.00012510559219706003 -0.0031475173856005808 0 0.00016658159235196453 -0.0030716772429006342 0 8.2636369000972952e-05 -0.0031123085339098411 0 8.1303411806158934e-05 -0.0030332792373022632 0 9.474866785122271e-05 -0.0029960348407616975 0 0.00010138115779239743 -0.0029591368602489851 0 0.00012773808314385651 -0.0029516738562253399 0 9.617062796967307e-05 -0.0028657868067964499 0 8.1303411806158934e-05 -0.0030332792373022632 0 0.00010138115779239743 -0.0029591368602489851 0 8.6199213337530197e-05 -0.002984674366657265 0 0.00010138115779239743 -0.0029591368602489851 0 0.00012773808314385651 -0.0029516738562253399 0 8.6199213337530197e-05 -0.002984674366657265 0 -4.7921564958891936e-05 -0.0025879518941897858 0 -2.8148353411352201e-07 -0.0025513947188570423 0 1.1979185052908786e-07 -0.0027588077794927111 0 -4.7921564958891936e-05 -0.0025879518941897858 0 -2.8148353411352201e-07 -0.0025513947188570423 0 1.9216375826763845e-05 -0.002583819250257443 0 0.00012773808314385651 -0.0029516738562253399 0 2.493515923915153e-07 -0.0027594778698532855 0 4.70563008775555e-05 -0.0029462896041371868 0 3.6241839709570887e-05 -0.0027760246488526784 0 -2.3662231635890098e-08 -0.0027589878757794057 0 2.493515923915153e-07 -0.0027594778698532855 0 4.70563008775555e-05 -0.0029462896041371868 0 1.7282456990813189e-08 -0.0029595739398717157 0 0.00012773808314385651 -0.0029516738562253399 0 4.70563008775555e-05 -0.0029462896041371868 0 8.6199213337530197e-05 -0.002984674366657265 0 4.70563008775555e-05 -0.0029462896041371868 0 4.0107304607304062e-05 -0.0030330202212129867 0 1.7282456990813189e-08 -0.0029595739398717157 0 4.70563008775555e-05 -0.0029462896041371868 0 8.6199213337530197e-05 -0.002984674366657265 0 4.0107304607304062e-05 -0.0030330202212129867 0 8.1303411806158934e-05 -0.0030332792373022632 0 8.6199213337530197e-05 -0.002984674366657265 0 4.0107304607304062e-05 -0.0030330202212129867 0 4.0107304607304062e-05 -0.0030330202212129867 0 -1.1414079165730491e-05 -0.0031050912376046859 0 5.1049202272226521e-05 -0.0031178947902673953 0 4.0107304607304062e-05 -0.0030330202212129867 0 1.7282456990813189e-08 -0.0029595739398717157 0 -1.1414079165730491e-05 -0.0031050912376046859 0 2.493515923915153e-07 -0.0027594778698532855 0 1.7282456990813189e-08 -0.0029595739398717157 0 -9.3005153107995434e-08 -0.0029899304069266669 0 -9.3005153107995434e-08 -0.0029899304069266669 0 -1.1414079165730491e-05 -0.0031050912376046859 0 -2.0103852979507512e-08 -0.0032208330560478237 0 1.7282456990813189e-08 -0.0029595739398717157 0 -9.3005153107995434e-08 -0.0029899304069266669 0 -1.1414079165730491e-05 -0.0031050912376046859 0 -1.1414079165730491e-05 -0.0031050912376046859 0 2.2842564991144042e-05 -0.0031728368275616317 0 -9.2573028807222402e-06 -0.0032038579561349048 0 -1.1414079165730491e-05 -0.0031050912376046859 0 2.2842564991144042e-05 -0.0031728368275616317 0 5.1049202272226521e-05 -0.0031178947902673953 0 0.00012510559219706003 -0.0031475173856005808 0 7.8739673177072482e-05 -0.0032072256999088888 0 8.2636369000972952e-05 -0.0031123085339098411 0 5.1049202272226521e-05 -0.0031178947902673953 0 8.2713538615542797e-05 -0.0032154743884595721 0 2.2842564991144042e-05 -0.0031728368275616317 0 5.1049202272226521e-05 -0.0031178947902673953 0 8.2713538615542797e-05 -0.0032154743884595721 0 2.2842564991144042e-05 -0.0031728368275616317 0 8.2713538615542797e-05 -0.0032154743884595721 0 1.9363284925217322e-05 -0.0032408973310639774 0 2.2842564991144042e-05 -0.0031728368275616317 0 1.9363284925217322e-05 -0.0032408973310639774 0 -9.2573028807222402e-06 -0.0032038579561349048 0 1.9363284925217322e-05 -0.0032408973310639774 0 -1.7671475007304704e-05 -0.0032399098300543751 0 -1.5197105513323778e-05 -0.0032705844810870244 0 1.9363284925217322e-05 -0.0032408973310639774 0 -1.7671475007304704e-05 -0.0032399098300543751 0 -9.2573028807222402e-06 -0.0032038579561349048 0 -1.7671475007304704e-05 -0.0032399098300543751 0 -9.2573028807222402e-06 -0.0032038579561349048 0 -2.1706181115923686e-05 -0.0032416502320533557 0 -1.1414079165730491e-05 -0.0031050912376046859 0 -9.2573028807222402e-06 -0.0032038579561349048 0 -2.1706181115923686e-05 -0.0032416502320533557 0 -1.1414079165730491e-05 -0.0031050912376046859 0 -2.0103852979507512e-08 -0.0032208330560478237 0 -2.1706181115923686e-05 -0.0032416502320533557 0 -2.1706181115923686e-05 -0.0032416502320533557 0 -1.0090778388284136e-05 -0.0033264714161203033 0 -1.326940345683481e-07 -0.0034516930947296135 0 -2.0103852979507512e-08 -0.0032208330560478237 0 -2.1706181115923686e-05 -0.0032416502320533557 0 -1.326940345683481e-07 -0.0034516930947296135 0 -1.7671475007304704e-05 -0.0032399098300543751 0 -2.1706181115923686e-05 -0.0032416502320533557 0 -1.0090778388284136e-05 -0.0033264714161203033 0 -1.0090778388284136e-05 -0.0033264714161203033 0 2.6285835504633821e-05 -0.0033893207589613004 0 2.4038894248469768e-05 -0.0032715053883523386 0 -1.0090778388284136e-05 -0.0033264714161203033 0 -1.326940345683481e-07 -0.0034516930947296135 0 2.0467437933052197e-07 -0.003454442941903225 0 -1.326940345683481e-07 -0.0034516930947296135 0 2.0467437933052197e-07 -0.003454442941903225 0 2.879825863010061e-07 -0.0036823510067461899 0 -1.0090778388284136e-05 -0.0033264714161203033 0 2.0467437933052197e-07 -0.003454442941903225 0 2.6285835504633821e-05 -0.0033893207589613004 0 7.8802947494384447e-06 -0.0039385845135609197 0 1.3258339854952793e-07 -0.0036832162230117098 0 5.61386185905791e-05 -0.0038073720460411777 0 1.2567975473025879e-08 -0.0036826726206223475 0 -4.2394665622480359e-05 -0.0035044465076893038 0 2.0467437933052197e-07 -0.003454442941903225 0 2.879825863010061e-07 -0.0036823510067461899 0 7.338660979467422e-05 -0.0034558407614057227 0 2.0467437933052197e-07 -0.003454442941903225 0 7.338660979467422e-05 -0.0034558407614057227 0 2.6285835504633821e-05 -0.0033893207589613004 0 -3.9244434630966016e-05 -0.0036009144559339202 0 -4.2394665622480359e-05 -0.0035044465076893038 0 7.338660979467422e-05 -0.0034558407614057227 0 2.6285835504633821e-05 -0.0033893207589613004 0 2.4038894248469768e-05 -0.0032715053883523386 0 -4.2394665622480359e-05 -0.0035044465076893038 0 -2.2403307036000952e-05 -0.0032414778192832666 0 -8.1786502058717251e-05 -0.0032567763803825031 0 -7.4591864099504546e-05 -0.0032537367755440939 0 -6.9475763258915538e-05 -0.0032610884761031917 0 -8.2149302372280876e-05 -0.0032620369935862218 0 -8.1786502058717251e-05 -0.0032567763803825031 0 -6.9475763258915538e-05 -0.0032610884761031917 0 -8.2149302372280876e-05 -0.0032620369935862218 0 -8.0322506993051959e-05 -0.0032652430692761128 0 -6.9475763258915538e-05 -0.0032610884761031917 0 -8.2053876209623217e-05 -0.003270075003355649 0 -6.9475763258915538e-05 -0.0032610884761031917 0 -4.4287930267067891e-05 -0.0032670196878605839 0 -2.2403307036000952e-05 -0.0032414778192832666 0 -3.7960547751949473e-05 -0.0032832533188809879 0 -8.2053876209623217e-05 -0.003270075003355649 0 -8.0322506993051959e-05 -0.0032652430692761128 0 -6.9475763258915538e-05 -0.0032610884761031917 0 -1.7671475007304704e-05 -0.0032399098300543751 0 2.4038894248469768e-05 -0.0032715053883523386 0 -4.4287930267067891e-05 -0.0032670196878605839 0 -1.7671475007304704e-05 -0.0032399098300543751 0 -1.0090778388284136e-05 -0.0033264714161203033 0 2.4038894248469768e-05 -0.0032715053883523386 0 -1.7671475007304704e-05 -0.0032399098300543751 0 -4.4287930267067891e-05 -0.0032670196878605839 0 -1.5197105513323778e-05 -0.0032705844810870244 0 -8.2053876209623217e-05 -0.003270075003355649 0 -4.4287930267067891e-05 -0.0032670196878605839 0 -8.0861159589965494e-05 -0.0032891587430294573 0 -4.4287930267067891e-05 -0.0032670196878605839 0 -8.0861159589965494e-05 -0.0032891587430294573 0 -5.9696762473242522e-05 -0.0033149855671832213 0 -0.00011218621837549107 -0.0033210562819400509 0 -8.0861159589965494e-05 -0.0032891587430294573 0 -5.9696762473242522e-05 -0.0033149855671832213 0 -4.4287930267067891e-05 -0.0032670196878605839 0 -5.9696762473242522e-05 -0.0033149855671832213 0 -1.5197105513323778e-05 -0.0032705844810870244 0 -5.9696762473242522e-05 -0.0033149855671832213 0 -1.5197105513323778e-05 -0.0032705844810870244 0 7.1358010675274153e-06 -0.0033242846084804928 0 -5.9696762473242522e-05 -0.0033149855671832213 0 -3.5160648888376478e-05 -0.0033851468808582378 0 7.1358010675274153e-06 -0.0033242846084804928 0 -5.9696762473242522e-05 -0.0033149855671832213 0 -3.5160648888376478e-05 -0.0033851468808582378 0 -0.00011173398462186716 -0.0033860939500222919 0 -0.00011218621837549107 -0.0033210562819400509 0 -5.9696762473242522e-05 -0.0033149855671832213 0 -0.00011173398462186716 -0.0033860939500222919 0 -3.5160648888376478e-05 -0.0033851468808582378 0 -0.00011173398462186716 -0.0033860939500222919 0 -5.7071020797393507e-05 -0.0034787886972782499 0 -0.00017151860544721532 -0.0035367043995802993 0 -0.00011173398462186716 -0.0033860939500222919 0 -5.7071020797393507e-05 -0.0034787886972782499 0 -0.00016974196580731566 -0.003535166511658023 0 -6.3940297203653805e-05 -0.0034866903840521197 0 -0.00016907656876224164 -0.0035370013701356146 0 -5.7071020797393507e-05 -0.0034787886972782499 0 -8.8513589911304224e-05 -0.0036120301011691031 0 -5.7071020797393507e-05 -0.0034787886972782499 0 -4.8211298884089148e-06 -0.0036086085111594916 0 -8.8513589911304224e-05 -0.0036120301011691031 0 -5.7071020797393507e-05 -0.0034787886972782499 0 4.2287674641208936e-05 -0.0034428038700501282 0 -4.8211298884089148e-06 -0.0036086085111594916 0 -3.5160648888376478e-05 -0.0033851468808582378 0 -5.7071020797393507e-05 -0.0034787886972782499 0 4.2287674641208936e-05 -0.0034428038700501282 0 4.2287674641208936e-05 -0.0034428038700501282 0 9.5800547063105412e-05 -0.0035739835257327683 0 -4.8211298884089148e-06 -0.0036086085111594916 0 4.2287674641208936e-05 -0.0034428038700501282 0 0.00012685607321756407 -0.0034277087732404051 0 9.5800547063105412e-05 -0.0035739835257327683 0 0.00012685607321756407 -0.0034277087732404051 0 0.00020303017513896782 -0.0034931213009860994 0 9.5800547063105412e-05 -0.0035739835257327683 0 4.2287674641208936e-05 -0.0034428038700501282 0 0.00012685607321756407 -0.0034277087732404051 0 9.6724884416234683e-05 -0.0033123903384638049 0 4.2287674641208936e-05 -0.0034428038700501282 0 7.1358010675274153e-06 -0.0033242846084804928 0 9.6724884416234683e-05 -0.0033123903384638049 0 -3.5160648888376478e-05 -0.0033851468808582378 0 4.2287674641208936e-05 -0.0034428038700501282 0 7.1358010675274153e-06 -0.0033242846084804928 0 1.9363284925217322e-05 -0.0032408973310639774 0 -1.5197105513323778e-05 -0.0032705844810870244 0 7.1358010675274153e-06 -0.0033242846084804928 0 1.9363284925217322e-05 -0.0032408973310639774 0 7.1358010675274153e-06 -0.0033242846084804928 0 9.6724884416234683e-05 -0.0033123903384638049 0 8.2713538615542797e-05 -0.0032154743884595721 0 1.9363284925217322e-05 -0.0032408973310639774 0 9.6724884416234683e-05 -0.0033123903384638049 0 8.2713538615542797e-05 -0.0032154743884595721 0 0.00011595400149568997 -0.0032826679035408042 0 9.6724884416234683e-05 -0.0033123903384638049 0 8.2713538615542797e-05 -0.0032154743884595721 0 0.00011595400149568997 -0.0032826679035408042 0 0.00017020519977024309 -0.0032589237094196883 0 0.00011595400149568997 -0.0032826679035408042 0 0.00012741582009499671 -0.0033249334398784318 0 0.00017020519977024309 -0.0032589237094196883 0 0.00010371315027185212 -0.0033140897457839776 0 0.00019416084168504777 -0.0033580129188084959 0 0.00011595400149568997 -0.0032826679035408042 0 9.6724884416234683e-05 -0.0033123903384638049 0 0.00012741582009499671 -0.0033249334398784318 0 0.00012685607321756407 -0.0034277087732404051 0 0.00020303017513896782 -0.0034931213009860994 0 0.00026582538177663686 -0.0033897795771933477 0 0.00012685607321756407 -0.0034277087732404051 0 9.6724884416234683e-05 -0.0033123903384638049 0 0.00026582538177663686 -0.0033897795771933477 0 0.00020303017513896782 -0.0034931213009860994 0 0.00029871663898050379 -0.0034904009313440061 0 0.00026582538177663686 -0.0033897795771933477 0 0.00012741582009499671 -0.0033249334398784318 0 0.00020997499477693043 -0.0033708951224766266 0 0.00021075547764218839 -0.003304638888426293 0 0.00019416084168504777 -0.0033580129188084959 0 0.00027661288680809319 -0.0034060087042525038 0 0.00029871663898050379 -0.0034904009313440061 0 0.00034209149121145887 -0.0034450099567549957 0 0.00034581885594248086 -0.0034856625435511213 0 0.00029871663898050379 -0.0034904009313440061 0 0.00026582538177663686 -0.0033897795771933477 0 0.00034209149121145887 -0.0034450099567549957 0 0.00034209149121145887 -0.0034450099567549957 0 0.00034581885594248086 -0.0034856625435511213 0 0.0003283772950790965 -0.0034244714438982672 0 0.00020997499477693043 -0.0033708951224766266 0 0.00028404235200037045 -0.0033477820865002806 0 0.0003283772950790965 -0.0034244714438982672 0 0.00027661288680809319 -0.0034060087042525038 0 0.00032514926009722062 -0.0034253468867594967 0 0.00020997499477693043 -0.0033708951224766266 0 0.00021075547764218839 -0.003304638888426293 0 0.00028404235200037045 -0.0033477820865002806 0 0.00021075547764218839 -0.003304638888426293 0 0.00024875934328320967 -0.0032565979439952543 0 0.00030371034986246978 -0.0032914796888161512 0 0.00021075547764218839 -0.003304638888426293 0 0.00017020519977024309 -0.0032589237094196883 0 0.00024875934328320967 -0.0032565979439952543 0 0.00012741582009499671 -0.0033249334398784318 0 0.00021075547764218839 -0.003304638888426293 0 0.00017020519977024309 -0.0032589237094196883 0 0.00017892378860827386 -0.0031748452363458668 0 0.00017020519977024309 -0.0032589237094196883 0 0.00021355099307394143 -0.0032222968001319827 0 0.00017892378860827386 -0.0031748452363458668 0 8.2713538615542797e-05 -0.0032154743884595721 0 0.00017020519977024309 -0.0032589237094196883 0 0.00021355099307394143 -0.0032222968001319827 0 0.00024875934328320967 -0.0032565979439952543 0 0.00025850705048346262 -0.0032024708592844828 0 0.00017020519977024309 -0.0032589237094196883 0 0.00021355099307394143 -0.0032222968001319827 0 0.00024875934328320967 -0.0032565979439952543 0 0.00044518107746690779 -0.0036118711953290502 0 0.00040444455634690432 -0.0034035339185791986 0 0.00040022948497341981 -0.0035116791065972087 0 0.00038036827812086045 -0.0034887903239813915 0 0.00039513245049005371 -0.0034643351327524169 0 0.00043772965582073028 -0.003375742087207219 0 0.00039513245049005371 -0.0034643351327524169 0 0.00040580164300545543 -0.0033726964207777027 0 0.00044518107746690779 -0.0036118711953290502 0 0.00044965356067600611 -0.0036369091874008542 0 0.00061110139569201471 -0.0038825747388775834 0 0.0005112476846136925 -0.0037535284903606214 0 0.0004911126167495395 -0.0039188130171860401 0 0.0005112476846136925 -0.0037535284903606214 0 0.00033900256279841522 -0.0037906746571565665 0 0.0004911126167495395 -0.0039188130171860401 0 0.00033900256279841522 -0.0037906746571565665 0 0.00038521680371830222 -0.0039877962913629113 0 0.0004911126167495395 -0.0039188130171860401 0 0.00038036827812086045 -0.0034887903239813915 0 0.00037841246561746685 -0.0036020936625314856 0 0.00037780887708564748 -0.0035187754471015286 0 0.00044965356067600611 -0.0036369091874008542 0 0.0003867841192410369 -0.0035897114766373765 0 0.0005112476846136925 -0.0037535284903606214 0 0.00037841246561746685 -0.0036020936625314856 0 0.00033900256279841522 -0.0037906746571565665 0 0.00037841246561746685 -0.0036020936625314856 0 0.00037780887708564748 -0.0035187754471015286 0 0.00037006465529753024 -0.003518378770330561 0 0.00037780887708564748 -0.0035187754471015286 0 0.00037942025845348978 -0.0034763437784232523 0 0.00037006465529753024 -0.003518378770330561 0 0.00039513245049005371 -0.0034643351327524169 0 0.00037942025845348978 -0.0034763437784232523 0 0.00039089118747981025 -0.0034167063911940483 0 0.00037780887708564748 -0.0035187754471015286 0 0.00039513245049005371 -0.0034643351327524169 0 0.00037942025845348978 -0.0034763437784232523 0 0.00038036827812086045 -0.0034887903239813915 0 0.00037780887708564748 -0.0035187754471015286 0 0.00039513245049005371 -0.0034643351327524169 0 0.00037942025845348978 -0.0034763437784232523 0 0.0003547608799226164 -0.0034796333267392457 0 0.00037006465529753024 -0.003518378770330561 0 0.0003547608799226164 -0.0034796333267392457 0 0.00037006465529753024 -0.003518378770330561 0 0.00034581885594248086 -0.0034856625435511213 0 0.0003547608799226164 -0.0034796333267392457 0 0.00034581885594248086 -0.0034856625435511213 0 0.0003283772950790965 -0.0034244714438982672 0 0.00029871663898050379 -0.0034904009313440061 0 0.00034581885594248086 -0.0034856625435511213 0 0.00032801793972679172 -0.0035401717825372394 0 0.00037841246561746685 -0.0036020936625314856 0 0.00037006465529753024 -0.003518378770330561 0 0.00032801793972679172 -0.0035401717825372394 0 0.00037006465529753024 -0.003518378770330561 0 0.00034581885594248086 -0.0034856625435511213 0 0.00032801793972679172 -0.0035401717825372394 0 0.00032801793972679172 -0.0035401717825372394 0 0.00027719196555988924 -0.003619087773937167 0 0.0002573941572665491 -0.0035559588256262168 0 0.00037841246561746685 -0.0036020936625314856 0 0.00032801793972679172 -0.0035401717825372394 0 0.00027719196555988924 -0.003619087773937167 0 0.00029871663898050379 -0.0034904009313440061 0 0.00032801793972679172 -0.0035401717825372394 0 0.0002573941572665491 -0.0035559588256262168 0 0.00020303017513896782 -0.0034931213009860994 0 0.00029871663898050379 -0.0034904009313440061 0 0.0002573941572665491 -0.0035559588256262168 0 0.00020303017513896782 -0.0034931213009860994 0 0.0002573941572665491 -0.0035559588256262168 0 0.00017760799829149771 -0.0036309551997622683 0 0.00027719196555988924 -0.003619087773937167 0 0.0002573941572665491 -0.0035559588256262168 0 0.00017760799829149771 -0.0036309551997622683 0 0.00027719196555988924 -0.003619087773937167 0 0.00017760799829149771 -0.0036309551997622683 0 0.00020302482196714455 -0.0037303506487991072 0 0.00037841246561746685 -0.0036020936625314856 0 0.00027719196555988924 -0.003619087773937167 0 0.00033900256279841522 -0.0037906746571565665 0 0.00027719196555988924 -0.003619087773937167 0 0.00020302482196714455 -0.0037303506487991072 0 0.00033900256279841522 -0.0037906746571565665 0 0.00033900256279841522 -0.0037906746571565665 0 0.00020525692133682396 -0.0039313446931626686 0 0.00038521680371830222 -0.0039877962913629113 0 0.00020302482196714455 -0.0037303506487991072 0 0.00033900256279841522 -0.0037906746571565665 0 0.00020525692133682396 -0.0039313446931626686 0 0.00020302482196714455 -0.0037303506487991072 0 -1.881812347856147e-05 -0.0038836827478270202 0 0.00020525692133682396 -0.0039313446931626686 0 0.00019155291584873658 -0.0037534904115845069 0 5.3050496772798436e-05 -0.0038756807778588644 0 0.00012385699468355009 -0.0039142724139221412 0 3.3497619647387479e-05 -0.0038492819607044313 0 2.407090436506082e-05 -0.0039596619939752924 0 9.8808898511602652e-05 -0.0037383140015733161 0 3.3497619647387479e-05 -0.0038492819607044313 0 2.7209565129699039e-05 -0.0037027726247508383 0 0.00012385699468355009 -0.0039142724139221412 0 9.8808898511602652e-05 -0.0037383140015733161 0 3.3497619647387479e-05 -0.0038492819607044313 0 0.00017760799829149771 -0.0036309551997622683 0 0.00020302482196714455 -0.0037303506487991072 0 9.8808898511602652e-05 -0.0037383140015733161 0 0.00020302482196714455 -0.0037303506487991072 0 0.00012385699468355009 -0.0039142724139221412 0 9.8808898511602652e-05 -0.0037383140015733161 0 0.00017760799829149771 -0.0036309551997622683 0 9.8808898511602652e-05 -0.0037383140015733161 0 9.5800547063105412e-05 -0.0035739835257327683 0 0.00020303017513896782 -0.0034931213009860994 0 0.00017760799829149771 -0.0036309551997622683 0 9.5800547063105412e-05 -0.0035739835257327683 0 9.5800547063105412e-05 -0.0035739835257327683 0 2.7209565129699039e-05 -0.0037027726247508383 0 -4.8211298884089148e-06 -0.0036086085111594916 0 9.8808898511602652e-05 -0.0037383140015733161 0 9.5800547063105412e-05 -0.0035739835257327683 0 2.7209565129699039e-05 -0.0037027726247508383 0 2.7209565129699039e-05 -0.0037027726247508383 0 -4.8211298884089148e-06 -0.0036086085111594916 0 -4.7134045920563751e-05 -0.0037656326054941679 0 3.3497619647387479e-05 -0.0038492819607044313 0 2.7209565129699039e-05 -0.0037027726247508383 0 -4.7134045920563751e-05 -0.0037656326054941679 0 -4.8211298884089148e-06 -0.0036086085111594916 0 -8.8513589911304224e-05 -0.0036120301011691031 0 -4.7134045920563751e-05 -0.0037656326054941679 0 -8.8513589911304224e-05 -0.0036120301011691031 0 -4.7134045920563751e-05 -0.0037656326054941679 0 -0.00016353763795166638 -0.0037030416964812496 0 -4.7134045920563751e-05 -0.0037656326054941679 0 -0.00016353763795166638 -0.0037030416964812496 0 -0.00013259178792400853 -0.0038377393804677295 0 -6.7978408815703463e-05 -0.003894519945306298 0 -0.00013259178792400853 -0.0038377393804677295 0 -0.00014554889570245858 -0.0039711428376778624 0 -4.7134045920563751e-05 -0.0037656326054941679 0 -6.7978408815703463e-05 -0.003894519945306298 0 -0.00013259178792400853 -0.0038377393804677295 0 3.3497619647387479e-05 -0.0038492819607044313 0 -4.7134045920563751e-05 -0.0037656326054941679 0 -6.7978408815703463e-05 -0.003894519945306298 0 3.3497619647387479e-05 -0.0038492819607044313 0 -2.2335504723560542e-05 -0.0039451100947212421 0 2.407090436506082e-05 -0.0039596619939752924 0 3.3497619647387479e-05 -0.0038492819607044313 0 -6.7978408815703463e-05 -0.003894519945306298 0 -2.2335504723560542e-05 -0.0039451100947212421 0 -2.2335504723560542e-05 -0.0039451100947212421 0 2.407090436506082e-05 -0.0039596619939752924 0 -3.464412838165851e-05 -0.0040092698583864845 0 -2.2335504723560542e-05 -0.0039451100947212421 0 -9.1117579936511603e-05 -0.0040071323171098783 0 -3.464412838165851e-05 -0.0040092698583864845 0 -6.7978408815703463e-05 -0.003894519945306298 0 -9.1117579936511603e-05 -0.0040071323171098783 0 -0.00014554889570245858 -0.0039711428376778624 0 -6.7978408815703463e-05 -0.003894519945306298 0 -2.2335504723560542e-05 -0.0039451100947212421 0 -9.1117579936511603e-05 -0.0040071323171098783 0 -9.1117579936511603e-05 -0.0040071323171098783 0 -9.1107767060046672e-05 -0.0040748160049281588 0 -3.464412838165851e-05 -0.0040092698583864845 0 2.407090436506082e-05 -0.0039596619939752924 0 -3.464412838165851e-05 -0.0040092698583864845 0 1.2897651933905427e-05 -0.0040621966520137604 0 -9.1107767060046672e-05 -0.0040748160049281588 0 -3.464412838165851e-05 -0.0040092698583864845 0 1.2897651933905427e-05 -0.0040621966520137604 0 -0.00013155135729345791 -0.0042747988753702136 0 -8.506207641921848e-05 -0.0041846551118324034 0 -1.7038721377633537e-05 -0.0042812055872725506 0 -0.00013607454462260106 -0.0043124246386559394 0 -7.1666601961716531e-05 -0.004388658997439167 0 -8.506207641921848e-05 -0.0041846551118324034 0 -0.00016391773905488491 -0.0044115443908662516 0 -3.5858019477139853e-05 -0.0042119773209461564 0 -1.7038721377633537e-05 -0.0042812055872725506 0 -0.00013607454462260106 -0.0043124246386559394 0 -0.00017560488984615587 -0.0044746254174822106 0 -0.0001869609924635066 -0.0044764205724551007 0 -0.0001935062518614675 -0.004468924268841188 0 -0.00017710535054577981 -0.0044592619678239243 0 -0.00017560488984615587 -0.0044746254174822106 0 -0.0001869609924635066 -0.0044764205724551007 0 -0.00017710535054577981 -0.0044592619678239243 0 -0.00015718452429116329 -0.0044598083891003058 0 -0.00017560488984615587 -0.0044746254174822106 0 -0.00016391773905488491 -0.0044115443908662516 0 -0.00018279093318164871 -0.0044469451797721727 0 -0.00014088847366933808 -0.0043965814985670619 0 -0.00016497825511191581 -0.0044429714763882695 0 -7.1666601961716531e-05 -0.004388658997439167 0 -0.00013607454462260106 -0.0043124246386559394 0 -0.00014088847366933808 -0.0043965814985670619 0 -0.0001935062518614675 -0.004468924268841188 0 -0.00013607454462260106 -0.0043124246386559394 0 -0.00014088847366933808 -0.0043965814985670619 0 -7.1666601961716531e-05 -0.004388658997439167 0 -0.00014088847366933808 -0.0043965814985670619 0 -0.00016497825511191581 -0.0044429714763882695 0 -0.0001935062518614675 -0.004468924268841188 0 -0.0001901463281550688 -0.0045294266737275065 0 -0.0002121526877804403 -0.0045548495181165346 0 -0.00017093474711468175 -0.004549407203294809 0 -0.0001803450537995292 -0.0044895976451144876 0 -7.7119225091000639e-05 -0.0044998079491425846 0 -0.0001901463281550688 -0.0045294266737275065 0 -0.00015460257629578374 -0.0045330599596085409 0 -0.00017093474711468175 -0.004549407203294809 0 -0.00016497825511191581 -0.0044429714763882695 0 -7.1666601961716531e-05 -0.004388658997439167 0 1.724345967067789e-06 -0.0044637101573511539 0 -1.7038721377633537e-05 -0.0042812055872725506 0 -7.1666601961716531e-05 -0.004388658997439167 0 4.7832735729377729e-05 -0.0043774865275845063 0 -1.7038721377633537e-05 -0.0042812055872725506 0 4.7832735729377729e-05 -0.0043774865275845063 0 0.00015042466223789169 -0.0043514566883429825 0 -7.1666601961716531e-05 -0.004388658997439167 0 4.7832735729377729e-05 -0.0043774865275845063 0 1.724345967067789e-06 -0.0044637101573511539 0 4.7832735729377729e-05 -0.0043774865275845063 0 1.724345967067789e-06 -0.0044637101573511539 0 0.00017384356545425126 -0.0045011075270165561 0 -7.7119225091000639e-05 -0.0044998079491425846 0 1.0213051795449093e-05 -0.0045051961767847339 0 4.7832735729377729e-05 -0.0043774865275845063 0 0.00017384356545425126 -0.0045011075270165561 0 0.00015042466223789169 -0.0043514566883429825 0 -1.7038721377633537e-05 -0.0042812055872725506 0 0.00011635597266541981 -0.0042834655500762981 0 0.00011700383593737037 -0.0041899499875588568 0 -1.1175879669962797e-05 -0.0042792161443783025 0 0.00013038869123269974 -0.0043177503925190697 0 -8.506207641921848e-05 -0.0041846551118324034 0 7.1058213171154011e-05 -0.0041280541413568021 0 -3.5858019477139853e-05 -0.0042119773209461564 0 -1.7038721377633537e-05 -0.0042812055872725506 0 0.00011700383593737037 -0.0041899499875588568 0 0.00012385699468355009 -0.0039142724139221412 0 2.407090436506082e-05 -0.0039596619939752924 0 1.2897651933905427e-05 -0.0040621966520137604 0 5.3050496772798436e-05 -0.0038756807778588644 0 -8.506207641921848e-05 -0.0041846551118324034 0 -1.881812347856147e-05 -0.0038836827478270202 0 -0.00021914696728098305 -0.0040416272340112859 0 3.5114307385719705e-05 -0.0040836318660465235 0 -1.881812347856147e-05 -0.0038836827478270202 0 3.5114307385719705e-05 -0.0040836318660465235 0 0.00020525692133682396 -0.0039313446931626686 0 3.5114307385719705e-05 -0.0040836318660465235 0 0.00020525692133682396 -0.0039313446931626686 0 0.00029964044792802594 -0.0041494422896644232 0 0.00020525692133682396 -0.0039313446931626686 0 0.00029964044792802594 -0.0041494422896644232 0 0.00038521680371830222 -0.0039877962913629113 0 7.1058213171154011e-05 -0.0041280541413568021 0 0.0002979043274539158 -0.0041548104482540373 0 0.00011635597266541981 -0.0042834655500762981 0 0.00011700383593737037 -0.0041899499875588568 0 0.00029964044792802594 -0.0041494422896644232 0 0.00011635597266541981 -0.0042834655500762981 0 0.00029964044792802594 -0.0041494422896644232 0 0.00029411200223018025 -0.0043495361522893879 0 0.00013038869123269974 -0.0043177503925190697 0 0.00030994914104660995 -0.0043764552324520581 0 0.00017384356545425126 -0.0045011075270165561 0 0.00015042466223789169 -0.0043514566883429825 0 0.00031657102380216296 -0.0043998388887385026 0 0.00017384356545425126 -0.0045011075270165561 0 0.00031657102380216296 -0.0043998388887385026 0 0.00035182319901784796 -0.0045462902660275807 0 0.00029964044792802594 -0.0041494422896644232 0 0.00029411200223018025 -0.0043495361522893879 0 0.00044441941187579003 -0.0043075332693010178 0 0.00031657102380216296 -0.0043998388887385026 0 0.00051060985940262977 -0.0044494896741615036 0 0.00035182319901784796 -0.0045462902660275807 0 0.00030994914104660995 -0.0043764552324520581 0 0.00050153501407199379 -0.0044473651465606681 0 0.00029411200223018025 -0.0043495361522893879 0 0.00044441941187579003 -0.0043075332693010178 0 0.00051060985940262977 -0.0044494896741615036 0 0.00044441941187579003 -0.0043075332693010178 0 0.00051060985940262977 -0.0044494896741615036 0 0.0005688459500801335 -0.0043970208550697032 0 0.00037763006241822397 -0.0034129885780450216 0 0.00038161596609423236 -0.0035037389846790845 0 0.00032445806384688895 -0.0034475235721220391 0 0.00044441941187579003 -0.0043075332693010178 0 0.0005688459500801335 -0.0043970208550697032 0 0.00059159114339868727 -0.0041547935596535973 0 0.00049819628484611101 -0.003885916859968305 0 0.00048937590905921648 -0.0038597479792300935 0 0.00029964044792802594 -0.0041494422896644232 0 0.00059159114339868727 -0.0041547935596535973 0 0.00038521680371830222 -0.0039877962913629113 0 0.00029964044792802594 -0.0041494422896644232 0 0.00044441941187579003 -0.0043075332693010178 0 0.00059159114339868727 -0.0041547935596535973 0 0.00059159114339868727 -0.0041547935596535973 0 0.00038521680371830222 -0.0039877962913629113 0 0.0004911126167495395 -0.0039188130171860401 0 0.00061110139569201471 -0.0038825747388775834 0 0.00059159114339868727 -0.0041547935596535973 0 0.0004911126167495395 -0.0039188130171860401 0 0.00044518107746690779 -0.0036118711953290502 0 0.00048937590905921648 -0.0038597479792300935 0 0.00038182420889901783 -0.0035989533663403628 0 0.00038161596609423236 -0.0035037389846790845 0 0.00031908758100081106 -0.0035246935140160808 0 -9.8940446827923604e-05 -0.0050189528312135044 0 -0.00018486640007150631 -0.0050506189613940978 0 -5.0777007332044631e-05 -0.0050531772638942422 0 -0.00044263595113193003 -0.0043319511621827322 0 -8.8168219493404924e-05 -0.0048292636204568312 0 -9.8940446827923604e-05 -0.0050189528312135044 0 -0.00018486640007150631 -0.0050506189613940978 0 -0.00011484766567122983 -0.0049841191770691913 0 -0.00018486640007150631 -0.0050506189613940978 0 -0.00017784631416974662 -0.0049720023430511653 0 -0.00011484766567122983 -0.0049841191770691913 0 -0.00075663900379336778 -0.0039298140139089168 0 -0.00056446462822136163 -0.0039461764615671057 0 -0.00063084987765011627 -0.0041880565441575184 0 -0.00044263595113193003 -0.0043319511621827322 0 -0.00043805736251197503 -0.0045904053684538669 0 -0.00066407741657137029 -0.0039269703103593538 0 -0.00060825814287266409 -0.0038725837726710211 0 -0.00056446462822136163 -0.0039461764615671057 0 -0.00044263595113193003 -0.0043319511621827322 0 -0.00067484327295680208 -0.0039726843891089584 0 -0.00018486640007150631 -0.0050506189613940978 0 -0.00017784631416974662 -0.0049720023430511653 0 -0.00027175014794900598 -0.0049413717692229917 0 -0.00017784631416974662 -0.0049720023430511653 0 -0.00014695499062491492 -0.0049023324292630163 0 -0.00027175014794900598 -0.0049413717692229917 0 -0.00017784631416974662 -0.0049720023430511653 0 -0.00014695499062491492 -0.0049023324292630163 0 -0.00011484766567122983 -0.0049841191770691913 0 -9.8940446827923604e-05 -0.0050189528312135044 0 -0.00011484766567122983 -0.0049841191770691913 0 -5.3954621322365802e-05 -0.0049949123619941341 0 -0.00014695499062491492 -0.0049023324292630163 0 -0.00011484766567122983 -0.0049841191770691913 0 -8.7252486896982297e-05 -0.004947973775315237 0 -8.7252486896982297e-05 -0.004947973775315237 0 -5.3954621322365802e-05 -0.0049949123619941341 0 -4.5820982042070674e-05 -0.0049584814637545068 0 -5.3954621322365802e-05 -0.0049949123619941341 0 -1.95703321231611e-05 -0.0049879431107266291 0 -4.5820982042070674e-05 -0.0049584814637545068 0 -0.00011484766567122983 -0.0049841191770691913 0 -8.7252486896982297e-05 -0.004947973775315237 0 -5.3954621322365802e-05 -0.0049949123619941341 0 -1.4454186086875893e-08 -0.0049999543090746513 0 -3.4144576862323586e-07 -0.0049997554933268089 0 3.4351958826691478e-09 -0.0050000191829607261 0 -1.4454186086875893e-08 -0.0049999543090746513 0 -3.4144576862323586e-07 -0.0049997554933268089 0 -1.95703321231611e-05 -0.0049879431107266291 0 -5.3954621322365802e-05 -0.0049949123619941341 0 -1.95703321231611e-05 -0.0049879431107266291 0 -2.0462448447112379e-05 -0.0050133986659282002 0 1.1443275401393057e-06 -0.0049961040206975447 0 -2.6186235851189432e-05 -0.005013954299329674 0 -3.4144576862323586e-07 -0.0049997554933268089 0 -1.95703321231611e-05 -0.0049879431107266291 0 -2.0462448447112379e-05 -0.0050133986659282002 0 -3.4144576862323586e-07 -0.0049997554933268089 0 -1.1204660592837462e-06 -0.0049993443891764083 0 3.4351958826691478e-09 -0.0050000191829607261 0 -3.4469842165547631e-05 -0.0049268910925568668 0 -8.8168219493404924e-05 -0.0048292636204568312 0 -1.1204660592837462e-06 -0.0049993443891764083 0 -9.5443116085979019e-07 -0.0049999221478892368 0 -2.5927729836633864e-06 -0.004998931199137936 0 -1.1204660592837462e-06 -0.0049993443891764083 0 -9.5443116085979019e-07 -0.0049999221478892368 0 3.4351958826691478e-09 -0.0050000191829607261 0 -3.4469842165547631e-05 -0.0049268910925568668 0 1.1359625317292357e-09 -0.0049999230033252592 0 -3.4469842165547631e-05 -0.0049268910925568668 0 -3.8501150783308941e-08 -0.0049999550984947093 0 -2.3497435462587189e-07 -0.0049997367711578965 0 5.3957122195565168e-11 -0.0049999997491942238 0 -2.1699196299026478e-10 -0.0049999998656196287 0 -5.3954621322365802e-05 -0.0049949123619941341 0 -2.0462448447112379e-05 -0.0050133986659282002 0 -5.0777007332044631e-05 -0.0050531772638942422 0 -9.8940446827923604e-05 -0.0050189528312135044 0 -5.3954621322365802e-05 -0.0049949123619941341 0 -5.0777007332044631e-05 -0.0050531772638942422 0 -2.6186235851189432e-05 -0.005013954299329674 0 -8.8168219493404924e-05 -0.0048292636204568312 0 -9.5343293215591562e-05 -0.0047672472237426195 0 -9.8835855515040698e-05 -0.0047257808909229237 0 -5.9977297582352272e-05 -0.0047243082903151061 0 -8.8168219493404924e-05 -0.0048292636204568312 0 -0.00024892845589043829 -0.0045157434112309295 0 2.6766417361453748e-08 -0.0050000175003138397 0 -5.6052869596967679e-09 -0.0050000063689220452 0 9.2210497508254316e-06 -0.0050005813630114035 0 -0.00014246609219560583 -0.0047635185770776778 0 -9.5343293215591562e-05 -0.0047672472237426195 0 -9.8835855515040698e-05 -0.0047257808909229237 0 -9.8835855515040698e-05 -0.0047257808909229237 0 -5.3951010414755503e-05 -0.004687269686820858 0 -5.9977297582352272e-05 -0.0047243082903151061 0 9.6698638352310652e-06 -0.0050036501273719447 0 -5.6052869596967679e-09 -0.0050000063689220452 0 9.2210497508254316e-06 -0.0050005813630114035 0 2.9478123660717896e-06 -0.005001826808663094 0 9.6698638352310652e-06 -0.0050036501273719447 0 -5.6052869596967679e-09 -0.0050000063689220452 0 -3.4469842165547631e-05 -0.0049268910925568668 0 -3.9121366257578059e-05 -0.0048593501816609364 0 9.6698638352310652e-06 -0.0050036501273719447 0 9.2210497508254316e-06 -0.0050005813630114035 0 1.5878272940277922e-05 -0.005002275697522842 0 -3.9121366257578059e-05 -0.0048593501816609364 0 -4.0221698514834028e-05 -0.0048756614325464031 0 9.6698638352310652e-06 -0.0050036501273719447 0 1.5878272940277922e-05 -0.005002275697522842 0 2.2738572434389368e-05 -0.0050052283069874741 0 2.0170820433997139e-05 -0.0049972162124853961 0 1.5878272940277922e-05 -0.005002275697522842 0 1.9292787840138655e-05 -0.0050019970682574329 0 2.0170820433997139e-05 -0.0049972162124853961 0 9.2210497508254316e-06 -0.0050005813630114035 0 1.5878272940277922e-05 -0.005002275697522842 0 2.0170820433997139e-05 -0.0049972162124853961 0 2.2357707119310591e-05 -0.0049998446668197702 0 1.9292787840138655e-05 -0.0050019970682574329 0 2.0170820433997139e-05 -0.0049972162124853961 0 2.2357707119310591e-05 -0.0049998446668197702 0 2.7226909130884835e-05 -0.0049984563149763029 0 1.5878272940277922e-05 -0.005002275697522842 0 1.9292787840138655e-05 -0.0050019970682574329 0 2.2738572434389368e-05 -0.0050052283069874741 0 4.4035436678481082e-05 -0.0049929279623704727 0 3.3235122997000798e-05 -0.0049821179246274877 0 3.1493030392459719e-05 -0.004980363299427846 0 2.2357707119310591e-05 -0.0049998446668197702 0 2.7226909130884835e-05 -0.0049984563149763029 0 2.2705538392035839e-05 -0.0050013772982430158 0 2.7226909130884835e-05 -0.0049984563149763029 0 2.2705538392035839e-05 -0.0050013772982430158 0 2.2738572434389368e-05 -0.0050052283069874741 0 1.9292787840138655e-05 -0.0050019970682574329 0 2.2705538392035839e-05 -0.0050013772982430158 0 2.2738572434389368e-05 -0.0050052283069874741 0 2.2357707119310591e-05 -0.0049998446668197702 0 1.9292787840138655e-05 -0.0050019970682574329 0 2.2705538392035839e-05 -0.0050013772982430158 0 4.4035436678481082e-05 -0.0049929279623704727 0 2.7226909130884835e-05 -0.0049984563149763029 0 2.2738572434389368e-05 -0.0050052283069874741 0 4.0473012914402414e-05 -0.0050039686369674312 0 -4.0221698514834028e-05 -0.0048756614325464031 0 -5.3951010414755503e-05 -0.004687269686820858 0 -4.3753125855113894e-05 -0.0047045527293815255 0 -5.9977297582352272e-05 -0.0047243082903151061 0 -4.0221698514834028e-05 -0.0048756614325464031 0 -0.00038302440693598641 -0.0042334373165236906 0 -0.00035565041029423332 -0.0044454211188524788 0 -0.00031276592656181724 -0.0045179082577576747 0 -0.00029557730886452173 -0.0044992834009247307 0 -0.00035565041029423332 -0.0044454211188524788 0 -0.00025709312433746612 -0.0044582826579830743 0 -0.00029557730886452173 -0.0044992834009247307 0 -0.00044263595113193003 -0.0043319511621827322 0 -0.00038302440693598641 -0.0042334373165236906 0 -0.00038302440693598641 -0.0042334373165236906 0 -0.00024892845589043829 -0.0045157434112309295 0 -0.00066407741657137029 -0.0039269703103593538 0 -0.00075556525717183378 -0.0037584629739503004 0 -0.00065063628527088516 -0.0038064579817063409 0 -0.00066407741657137029 -0.0039269703103593538 0 -0.00060825814287266409 -0.0038725837726710211 0 -0.00065063628527088516 -0.0038064579817063409 0 -0.00060825814287266409 -0.0038725837726710211 0 -0.00065063628527088516 -0.0038064579817063409 0 -0.00054933340635117953 -0.0038076291427215489 0 -0.00065063628527088516 -0.0038064579817063409 0 -0.00055988423009509583 -0.0037392240287301335 0 -0.00054933340635117953 -0.0038076291427215489 0 -0.00060966667950136492 -0.0036323586116810661 0 -0.0006428586710513839 -0.0037036968680455597 0 -0.00047106260185036329 -0.0036525587678278683 0 4.8524718895329765e-05 -0.0049949667971377291 0 4.4035436678481082e-05 -0.0049929279623704727 0 3.1493030392459719e-05 -0.004980363299427846 0 -0.00028427590063864061 -0.0043262468022066663 0 -0.00038302440693598641 -0.0042334373165236906 0 -0.00061676735114734357 -0.0036069134430177755 0 -0.00060966667950136492 -0.0036323586116810661 0 -0.00073747776241757249 -0.0037933116706841703 0 -0.00068765064374582872 -0.0035439236960011057 0 -0.00038302440693598641 -0.0042334373165236906 0 -0.00065063628527088516 -0.0038064579817063409 0 -0.0006428586710513839 -0.0037036968680455597 0 -0.00055988423009509583 -0.0037392240287301335 0 -0.00060966667950136492 -0.0036323586116810661 0 -0.00075556525717183378 -0.0037584629739503004 0 -0.0006428586710513839 -0.0037036968680455597 0 -0.00075556525717183378 -0.0037584629739503004 0 -0.00065063628527088516 -0.0038064579817063409 0 -0.0006428586710513839 -0.0037036968680455597 0 -0.0006428586710513839 -0.0037036968680455597 0 -0.00055988423009509583 -0.0037392240287301335 0 -0.00047089805252529534 -0.0036382355809819076 0 -0.00062942198465138215 -0.0036978487750786971 0 -0.00047367753544205152 -0.0036466858060171256 0 -0.00055988423009509583 -0.0037392240287301335 0 -0.00048250597865315622 -0.0037389809429809692 0 -0.00047089805252529534 -0.0036382355809819076 0 -0.00030187535656540747 -0.0035885371116455385 0 -0.00047089805252529534 -0.0036382355809819076 0 -0.00037982802099652952 -0.0036974758580642993 0 -0.00037982802099652952 -0.0036974758580642993 0 -0.00040504671133672878 -0.0037988855069398691 0 -0.00028508889141511909 -0.0037317501766167957 0 -0.00048250597865315622 -0.0037389809429809692 0 -0.00037982802099652952 -0.0036974758580642993 0 -0.00040504671133672878 -0.0037988855069398691 0 -0.00048250597865315622 -0.0037389809429809692 0 -0.00047089805252529534 -0.0036382355809819076 0 -0.00037982802099652952 -0.0036974758580642993 0 -0.00040504671133672878 -0.0037988855069398691 0 -0.00028508889141511909 -0.0037317501766167957 0 -0.00031689393771806851 -0.0038944254627999624 0 -0.00040504671133672878 -0.0037988855069398691 0 -0.00043340294514061355 -0.0039217980642399031 0 -0.00031689393771806851 -0.0038944254627999624 0 -0.00048250597865315622 -0.0037389809429809692 0 -0.00040504671133672878 -0.0037988855069398691 0 -0.00054933340635117953 -0.0038076291427215489 0 -0.00040504671133672878 -0.0037988855069398691 0 -0.00054933340635117953 -0.0038076291427215489 0 -0.00043340294514061355 -0.0039217980642399031 0 -0.00060825814287266409 -0.0038725837726710211 0 -0.00054933340635117953 -0.0038076291427215489 0 -0.00056446462822136163 -0.0039461764615671057 0 -0.00055988423009509583 -0.0037392240287301335 0 -0.00048250597865315622 -0.0037389809429809692 0 -0.00054933340635117953 -0.0038076291427215489 0 -0.00016907656876224164 -0.0035370013701356146 0 -8.8513589911304224e-05 -0.0036120301011691031 0 -0.00016353763795166638 -0.0037030416964812496 0 -0.00030187535656540747 -0.0035885371116455385 0 -0.00016353763795166638 -0.0037030416964812496 0 -0.00028508889141511909 -0.0037317501766167957 0 -0.00030187535656540747 -0.0035885371116455385 0 -0.00037982802099652952 -0.0036974758580642993 0 -0.00028508889141511909 -0.0037317501766167957 0 -0.00028508889141511909 -0.0037317501766167957 0 -0.00022672063630952839 -0.0038678305456068787 0 -0.00031689393771806851 -0.0038944254627999624 0 -0.00016353763795166638 -0.0037030416964812496 0 -0.00028508889141511909 -0.0037317501766167957 0 -0.00022672063630952839 -0.0038678305456068787 0 -0.00016353763795166638 -0.0037030416964812496 0 -0.00013259178792400853 -0.0038377393804677295 0 -0.00022672063630952839 -0.0038678305456068787 0 -0.00013259178792400853 -0.0038377393804677295 0 -0.00022672063630952839 -0.0038678305456068787 0 -0.00014554889570245858 -0.0039711428376778624 0 -0.00022672063630952839 -0.0038678305456068787 0 -0.00021876312577234837 -0.0040365874182530306 0 -0.00014554889570245858 -0.0039711428376778624 0 -0.00022672063630952839 -0.0038678305456068787 0 -0.00021876312577234837 -0.0040365874182530306 0 -0.00031689393771806851 -0.0038944254627999624 0 -0.00021876312577234837 -0.0040365874182530306 0 -0.00031689393771806851 -0.0038944254627999624 0 -0.00032919781635384123 -0.0040270720986947664 0 -0.00021876312577234837 -0.0040365874182530306 0 -0.00027611223839821476 -0.0041341031108403543 0 -0.00017896261947888731 -0.0041464540457094544 0 -0.00021876312577234837 -0.0040365874182530306 0 -0.00032919781635384123 -0.0040270720986947664 0 -0.00027611223839821476 -0.0041341031108403543 0 -9.1117579936511603e-05 -0.0040071323171098783 0 -0.00014554889570245858 -0.0039711428376778624 0 -0.00017896261947888731 -0.0041464540457094544 0 -0.00021876312577234837 -0.0040365874182530306 0 -0.00014554889570245858 -0.0039711428376778624 0 -0.00017896261947888731 -0.0041464540457094544 0 -0.00056446462822136163 -0.0039461764615671057 0 -0.00043340294514061355 -0.0039217980642399031 0 -0.0004177721234822482 -0.0041293575456412728 0 -0.00054933340635117953 -0.0038076291427215489 0 -0.00056446462822136163 -0.0039461764615671057 0 -0.00043340294514061355 -0.0039217980642399031 0 -0.00043340294514061355 -0.0039217980642399031 0 -0.00032919781635384123 -0.0040270720986947664 0 -0.0004177721234822482 -0.0041293575456412728 0 -0.00043340294514061355 -0.0039217980642399031 0 -0.00031689393771806851 -0.0038944254627999624 0 -0.00032919781635384123 -0.0040270720986947664 0 -0.00032919781635384123 -0.0040270720986947664 0 -0.0004177721234822482 -0.0041293575456412728 0 -0.00027611223839821476 -0.0041341031108403543 0 -0.0004177721234822482 -0.0041293575456412728 0 -0.00027611223839821476 -0.0041341031108403543 0 -0.00030541734032981098 -0.0043219622081042105 0 -0.0004177721234822482 -0.0041293575456412728 0 -0.00038269043317178206 -0.0043531825103283496 0 -0.00030541734032981098 -0.0043219622081042105 0 -0.00056446462822136163 -0.0039461764615671057 0 -0.0004177721234822482 -0.0041293575456412728 0 -0.00063084987765011627 -0.0041880565441575184 0 -0.0004177721234822482 -0.0041293575456412728 0 -0.00063084987765011627 -0.0041880565441575184 0 -0.00038269043317178206 -0.0043531825103283496 0 -0.00027175014794900598 -0.0049413717692229917 0 -0.00038632109504400757 -0.004594501860809546 0 -0.00024158143582957758 -0.0047880265884127967 0 -0.00063084987765011627 -0.0041880565441575184 0 -0.00038632109504400757 -0.004594501860809546 0 -0.00038269043317178206 -0.0043531825103283496 0 -0.00043805736251197503 -0.0045904053684538669 0 -0.00039895976769025029 -0.0045901023810351075 0 -0.00038632109504400757 -0.004594501860809546 0 -0.00026707823624672853 -0.004689523495575873 0 -0.00024158143582957758 -0.0047880265884127967 0 -0.00038269043317178206 -0.0043531825103283496 0 -0.00030541734032981098 -0.0043219622081042105 0 -0.00028084241332566336 -0.0044823852818361805 0 -0.00038632109504400757 -0.004594501860809546 0 -0.00038269043317178206 -0.0043531825103283496 0 -0.00028084241332566336 -0.0044823852818361805 0 -0.00038632109504400757 -0.004594501860809546 0 -0.00028084241332566336 -0.0044823852818361805 0 -0.00031610274121953976 -0.0045696243956935244 0 -0.00028084241332566336 -0.0044823852818361805 0 -0.00031610274121953976 -0.0045696243956935244 0 -0.00027416659616932685 -0.0045387802058278774 0 -0.00031610274121953976 -0.0045696243956935244 0 -0.0003059033311119367 -0.0046084505165728097 0 -0.0002917941698942283 -0.0045624545199102907 0 -0.00031610274121953976 -0.0045696243956935244 0 -0.00027416659616932685 -0.0045387802058278774 0 -0.0002917941698942283 -0.0045624545199102907 0 -0.00029816026049563283 -0.0046343919633283189 0 -0.00023895868744969631 -0.0046672489552477088 0 -0.0003059033311119367 -0.0046084505165728097 0 -0.00026707823624672853 -0.004689523495575873 0 -0.00021114274453610174 -0.0047299351809125135 0 -0.00038632109504400757 -0.004594501860809546 0 -0.00031610274121953976 -0.0045696243956935244 0 -0.0003059033311119367 -0.0046084505165728097 0 -0.00038632109504400757 -0.004594501860809546 0 -0.0003059033311119367 -0.0046084505165728097 0 -0.00026707823624672853 -0.004689523495575873 0 -0.00013155135729345791 -0.0042747988753702136 0 -0.00020070973723456285 -0.004292410481846815 0 -0.00017710535054577981 -0.0044592619678239243 0 -0.000187563954434119 -0.0044399335373511324 0 -0.0001869609924635066 -0.0044764205724551007 0 -9.1117579936511603e-05 -0.0040071323171098783 0 -9.1107767060046672e-05 -0.0040748160049281588 0 -0.00017896261947888731 -0.0041464540457094544 0 -0.00027611223839821476 -0.0041341031108403543 0 -0.00030541734032981098 -0.0043219622081042105 0 -0.00017896261947888731 -0.0041464540457094544 0 -0.00031136660507008408 -0.0043092323986270312 0 -0.00020070973723456285 -0.004292410481846815 0 -0.00030541734032981098 -0.0043219622081042105 0 -0.00028084241332566336 -0.0044823852818361805 0 -0.000187563954434119 -0.0044399335373511324 0 -0.00028084241332566336 -0.0044823852818361805 0 -0.000187563954434119 -0.0044399335373511324 0 -0.00022230299209254466 -0.0044981354292061154 0 -0.00028084241332566336 -0.0044823852818361805 0 -0.00027416659616932685 -0.0045387802058278774 0 -0.00022230299209254466 -0.0044981354292061154 0 -0.00027416659616932685 -0.0045387802058278774 0 -0.00022230299209254466 -0.0044981354292061154 0 -0.00023784035381556906 -0.0045279767559465627 0 -0.00022230299209254466 -0.0044981354292061154 0 -0.00020601233684257881 -0.0044913427108202262 0 -0.00023784035381556906 -0.0045279767559465627 0 -0.00022230299209254466 -0.0044981354292061154 0 -0.0001869609924635066 -0.0044764205724551007 0 -0.00020601233684257881 -0.0044913427108202262 0 -0.000187563954434119 -0.0044399335373511324 0 -0.00022230299209254466 -0.0044981354292061154 0 -0.0001869609924635066 -0.0044764205724551007 0 -0.0001869609924635066 -0.0044764205724551007 0 -0.00020601233684257881 -0.0044913427108202262 0 -0.0001935062518614675 -0.004468924268841188 0 -0.0001901463281550688 -0.0045294266737275065 0 -0.00023784035381556906 -0.0045279767559465627 0 -0.0002121526877804403 -0.0045548495181165346 0 -0.00020601233684257881 -0.0044913427108202262 0 -0.0001935062518614675 -0.004468924268841188 0 -0.00023784035381556906 -0.0045279767559465627 0 -0.00016497825511191581 -0.0044429714763882695 0 -0.0001935062518614675 -0.004468924268841188 0 -0.00023784035381556906 -0.0045279767559465627 0 -0.0001803450537995292 -0.0044895976451144876 0 -0.00023768284974942707 -0.0045177180501018025 0 -0.00023784035381556906 -0.0045279767559465627 0 -0.0002121526877804403 -0.0045548495181165346 0 -0.00026169956191591799 -0.0045518586508919365 0 -0.00020567414803376554 -0.0045388149760748767 0 -0.00025586490655699025 -0.0045479171125030297 0 -0.00020040834530223021 -0.0045198535676505818 0 -0.00026169956191591799 -0.0045518586508919365 0 -0.00022679015634506511 -0.0045473381757493133 0 -0.0003059033311119367 -0.0046084505165728097 0 -0.00028230429533016027 -0.0045604104571710926 0 -0.00026668985114056555 -0.0045725777239585827 0 -0.0003059033311119367 -0.0046084505165728097 0 -0.00028230429533016027 -0.0045604104571710926 0 -0.0002917941698942283 -0.0045624545199102907 0 -0.00027416659616932685 -0.0045387802058278774 0 -0.00023784035381556906 -0.0045279767559465627 0 -0.0002917941698942283 -0.0045624545199102907 0 -0.00028230429533016027 -0.0045604104571710926 0 -0.0002917941698942283 -0.0045624545199102907 0 -0.00026169956191591799 -0.0045518586508919365 0 -0.00023784035381556906 -0.0045279767559465627 0 -0.0002917941698942283 -0.0045624545199102907 0 -0.00026169956191591799 -0.0045518586508919365 0 -0.00028230429533016027 -0.0045604104571710926 0 -0.00026169956191591799 -0.0045518586508919365 0 -0.00026547557868885149 -0.0045583531718959439 0 -0.00028230429533016027 -0.0045604104571710926 0 -0.00027189406565446771 -0.0045606537113500436 0 -0.00026547557868885149 -0.0045583531718959439 0 -0.00028230429533016027 -0.0045604104571710926 0 -0.00027189406565446771 -0.0045606537113500436 0 -0.00026668985114056555 -0.0045725777239585827 0 -0.00026834217592131091 -0.004564926512448041 0 -0.00026491966126171391 -0.0045691479373437781 0 -0.00026668985114056555 -0.0045725777239585827 0 -0.00027189406565446771 -0.0045606537113500436 0 -0.00026834217592131091 -0.004564926512448041 0 -0.00026668985114056555 -0.0045725777239585827 0 -0.00026491966126171391 -0.0045691479373437781 0 -0.00026071805040873394 -0.0045693920820727768 0 -0.00026691531805586263 -0.0045659739117337459 0 -0.00026834217592131091 -0.004564926512448041 0 -0.00026491966126171391 -0.0045691479373437781 0 -0.00026691531805586263 -0.0045659739117337459 0 -0.00020131648874806282 -0.0046910915339001781 0 -7.3313409825665314e-05 -0.0048481328369842716 0 -0.00012320125230426635 -0.0048338518717520951 0 -0.00018450346850857832 -0.0047582889403287405 0 -0.00013593599628010253 -0.004820716876912115 0 -0.00012320125230426635 -0.0048338518717520951 0 -0.00013593599628010253 -0.004820716876912115 0 -6.8954909954506674e-05 -0.0048982585138674104 0 -0.00020131648874806282 -0.0046910915339001781 0 -0.00023895868744969631 -0.0046672489552477088 0 -0.0003059033311119367 -0.0046084505165728097 0 -0.00018450346850857832 -0.0047582889403287405 0 -0.00021114274453610174 -0.0047299351809125135 0 -0.00026707823624672853 -0.004689523495575873 0 -0.00021114274453610174 -0.0047299351809125135 0 -0.0001930356256887637 -0.0047803364836778691 0 -0.00021114274453610174 -0.0047299351809125135 0 -0.00013593599628010253 -0.004820716876912115 0 -0.0001930356256887637 -0.0047803364836778691 0 -0.00018450346850857832 -0.0047582889403287405 0 -0.00021114274453610174 -0.0047299351809125135 0 -0.00013593599628010253 -0.004820716876912115 0 -0.00013593599628010253 -0.004820716876912115 0 -8.9423559855727236e-05 -0.0048996156169044628 0 -6.8954909954506674e-05 -0.0048982585138674104 0 -0.00013593599628010253 -0.004820716876912115 0 -0.00013903439710152935 -0.0048445988677150165 0 -0.0001930356256887637 -0.0047803364836778691 0 -0.00013593599628010253 -0.004820716876912115 0 -0.00013903439710152935 -0.0048445988677150165 0 -8.9423559855727236e-05 -0.0048996156169044628 0 -0.00014695499062491492 -0.0049023324292630163 0 -8.7252486896982297e-05 -0.004947973775315237 0 -8.9423559855727236e-05 -0.0048996156169044628 0 -0.00014695499062491492 -0.0049023324292630163 0 -0.00013903439710152935 -0.0048445988677150165 0 -8.9423559855727236e-05 -0.0048996156169044628 0 -0.00014695499062491492 -0.0049023324292630163 0 -0.00024158143582957758 -0.0047880265884127967 0 -0.0001930356256887637 -0.0047803364836778691 0 -0.00014695499062491492 -0.0049023324292630163 0 -0.00027175014794900598 -0.0049413717692229917 0 -0.00024158143582957758 -0.0047880265884127967 0 -0.00026707823624672853 -0.004689523495575873 0 -0.00024158143582957758 -0.0047880265884127967 0 -0.0001930356256887637 -0.0047803364836778691 0 -0.00014695499062491492 -0.0049023324292630163 0 -0.00013903439710152935 -0.0048445988677150165 0 -0.0001930356256887637 -0.0047803364836778691 0 -1.8897788614891328e-05 -0.0049755070547650333 0 -4.2096986579156205e-05 -0.0049436741389571482 0 -1.81674379145612e-08 -0.0049999601179302059 0 -1.4454186086875893e-08 -0.0049999543090746513 0 -1.8897788614891328e-05 -0.0049755070547650333 0 -1.81674379145612e-08 -0.0049999601179302059 0 -1.8897788614891328e-05 -0.0049755070547650333 0 -4.5820982042070674e-05 -0.0049584814637545068 0 -4.2096986579156205e-05 -0.0049436741389571482 0 -1.4454186086875893e-08 -0.0049999543090746513 0 -1.95703321231611e-05 -0.0049879431107266291 0 -1.8897788614891328e-05 -0.0049755070547650333 0 -1.95703321231611e-05 -0.0049879431107266291 0 -1.8897788614891328e-05 -0.0049755070547650333 0 -4.5820982042070674e-05 -0.0049584814637545068 0 -8.7252486896982297e-05 -0.004947973775315237 0 -8.9423559855727236e-05 -0.0048996156169044628 0 -4.5820982042070674e-05 -0.0049584814637545068 0 -8.9423559855727236e-05 -0.0048996156169044628 0 -4.5820982042070674e-05 -0.0049584814637545068 0 -4.2096986579156205e-05 -0.0049436741389571482 0 -8.9423559855727236e-05 -0.0048996156169044628 0 -4.2096986579156205e-05 -0.0049436741389571482 0 -6.8954909954506674e-05 -0.0048982585138674104 0 -4.2096986579156205e-05 -0.0049436741389571482 0 -6.8954909954506674e-05 -0.0048982585138674104 0 -1.81674379145612e-08 -0.0049999601179302059 0 -1.81674379145612e-08 -0.0049999601179302059 0 -4.8925636272474388e-05 -0.0049181129032385505 0 -3.8061864803378057e-08 -0.0049996923884617654 0 -6.8954909954506674e-05 -0.0048982585138674104 0 -1.81674379145612e-08 -0.0049999601179302059 0 -4.8925636272474388e-05 -0.0049181129032385505 0 -0.00012320125230426635 -0.0048338518717520951 0 -6.8954909954506674e-05 -0.0048982585138674104 0 -4.8925636272474388e-05 -0.0049181129032385505 0 -0.00012320125230426635 -0.0048338518717520951 0 -4.8925636272474388e-05 -0.0049181129032385505 0 -6.8295039451337619e-05 -0.0048366109853512119 0 -4.8925636272474388e-05 -0.0049181129032385505 0 -3.8061864803378057e-08 -0.0049996923884617654 0 -6.8295039451337619e-05 -0.0048366109853512119 0 -9.462206514396432e-10 -0.0050000002309380344 0 1.0654390934684109e-10 -0.0049999981248731017 0 -1.254514395032877e-06 -0.0049989210022128219 0 6.4682896011099153e-08 -0.0050000460848552272 0 -7.3313409825665314e-05 -0.0048481328369842716 0 -7.3313409825665314e-05 -0.0048481328369842716 0 1.0916277872496218e-05 -0.0050434124203187006 0 1.0654390934684109e-10 -0.0049999981248731017 0 -1.254514395032877e-06 -0.0049989210022128219 0 -7.7363766830914547e-08 -0.0049998346272623045 0 -3.5963684811932301e-06 -0.0050016037889102812 0 -3.1513302538031276e-06 -0.0050125074766019717 0 -7.7363766830914547e-08 -0.0049998346272623045 0 -3.5963684811932301e-06 -0.0050016037889102812 0 -3.1513302538031276e-06 -0.0050125074766019717 0 -7.0687069821942635e-06 -0.0050019126612152161 0 -3.1513302538031276e-06 -0.0050125074766019717 0 -1.3315712513585234e-05 -0.0049981406471043665 0 -4.9883389135053787e-05 -0.0049847833453272854 0 -3.1513302538031276e-06 -0.0050125074766019717 0 -1.3315712513585234e-05 -0.0049981406471043665 0 -7.0687069821942635e-06 -0.0050019126612152161 0 -1.3315712513585234e-05 -0.0049981406471043665 0 -8.0232492450691343e-06 -0.0049995240901722785 0 -9.3814753994915901e-06 -0.0049986504425988268 0 -1.3315712513585234e-05 -0.0049981406471043665 0 -8.0232492450691343e-06 -0.0049995240901722785 0 -7.0687069821942635e-06 -0.0050019126612152161 0 -3.5963684811932301e-06 -0.0050016037889102812 0 -8.0232492450691343e-06 -0.0049995240901722785 0 -7.0687069821942635e-06 -0.0050019126612152161 0 -3.5963684811932301e-06 -0.0050016037889102812 0 -8.0232492450691343e-06 -0.0049995240901722785 0 -5.8050900229934885e-06 -0.0049984724331297416 0 -8.0232492450691343e-06 -0.0049995240901722785 0 -9.3814753994915901e-06 -0.0049986504425988268 0 -5.8050900229934885e-06 -0.0049984724331297416 0 -9.3814753994915901e-06 -0.0049986504425988268 0 -5.8050900229934885e-06 -0.0049984724331297416 0 -8.7241504530573678e-06 -0.0049974273699577706 0 -1.7848660858093994e-06 -0.0049993570017150078 0 -7.7363766830914547e-08 -0.0049998346272623045 0 -2.552611250677819e-09 -0.0049999966148077018 0 1.0654390934684109e-10 -0.0049999981248731017 0 -7.7363766830914547e-08 -0.0049998346272623045 0 -2.552611250677819e-09 -0.0049999966148077018 0 -5.8050900229934885e-06 -0.0049984724331297416 0 -1.7848660858093994e-06 -0.0049993570017150078 0 -2.8985829806926173e-06 -0.0049984838090005616 0 -5.8050900229934885e-06 -0.0049984724331297416 0 -1.7848660858093994e-06 -0.0049993570017150078 0 -2.0720912577376983e-06 -0.0049999774029947947 0 -1.7848660858093994e-06 -0.0049993570017150078 0 -7.7363766830914547e-08 -0.0049998346272623045 0 -2.0720912577376983e-06 -0.0049999774029947947 0 -3.5963684811932301e-06 -0.0050016037889102812 0 -5.8050900229934885e-06 -0.0049984724331297416 0 -2.0720912577376983e-06 -0.0049999774029947947 0 -3.5963684811932301e-06 -0.0050016037889102812 0 -7.7363766830914547e-08 -0.0049998346272623045 0 -2.0720912577376983e-06 -0.0049999774029947947 0 -0.00027189406565446771 -0.0045606537113500436 0 -0.00026834217592131091 -0.004564926512448041 0 -0.00027180297617310857 -0.00456986891580445 0 -0.00026834217592131091 -0.004564926512448041 0 -0.00026691531805586263 -0.0045659739117337459 0 -0.00027180297617310857 -0.00456986891580445 0 -7.3313409825665314e-05 -0.0048481328369842716 0 -0.00017048161750630355 -0.0047660501372025436 0 -1.3315712513585234e-05 -0.0049981406471043665 0 -4.9883389135053787e-05 -0.0049847833453272854 0 -5.4233431476380714e-05 -0.0049446251070270003 0 -8.7241504530573678e-06 -0.0049974273699577706 0 -9.6450792271935414e-06 -0.0049983795586532606 0 -1.284280602919844e-05 -0.0049950852221010526 0 -1.4445899993369055e-05 -0.0049945093016395305 0 -3.3509939763331722e-05 -0.0049748898008606076 0 -1.3315712513585234e-05 -0.0049981406471043665 0 -9.3814753994915901e-06 -0.0049986504425988268 0 -9.6450792271935414e-06 -0.0049983795586532606 0 -9.3814753994915901e-06 -0.0049986504425988268 0 -8.7241504530573678e-06 -0.0049974273699577706 0 -9.6450792271935414e-06 -0.0049983795586532606 0 -5.4233431476380714e-05 -0.0049446251070270003 0 -0.00011827879025362009 -0.0049402820072910027 0 -0.00011044260909557328 -0.0048819319324472123 0 -0.00017048161750630355 -0.0047660501372025436 0 -0.00020038159463000771 -0.0047569510796657997 0 -4.9883389135053787e-05 -0.0049847833453272854 0 -5.4233431476380714e-05 -0.0049446251070270003 0 -0.00011827879025362009 -0.0049402820072910027 0 -3.3509939763331722e-05 -0.0049748898008606076 0 -3.3801858663516209e-05 -0.0049008421038211234 0 -5.7629764556295796e-06 -0.0050010366800448047 0 -5.5252575410677545e-06 -0.0050012657034972582 0 -4.5442928187986892e-06 -0.0050001922607735751 0 -2.3768326964773131e-05 -0.0048812934953444687 0 -3.3801858663516209e-05 -0.0049008421038211234 0 -3.3801858663516209e-05 -0.0049008421038211234 0 -6.9767684168182675e-07 -0.0050103742769687211 0 -8.7241504530573678e-06 -0.0049974273699577706 0 -1.284280602919844e-05 -0.0049950852221010526 0 -7.5162939806641027e-06 -0.0049955956482738515 0 -5.5252575410677545e-06 -0.0050012657034972582 0 -4.5442928187986892e-06 -0.0050001922607735751 0 -2.056059225200208e-06 -0.0050010676376852983 0 -2.4939493737579605e-06 -0.0049997020012698045 0 -4.5442928187986892e-06 -0.0050001922607735751 0 -2.056059225200208e-06 -0.0050010676376852983 0 -2.4939493737579605e-06 -0.0049997020012698045 0 -4.5442928187986892e-06 -0.0050001922607735751 0 -4.1515798485382309e-06 -0.0049987844425325584 0 -5.7629764556295796e-06 -0.0050010366800448047 0 -4.5442928187986892e-06 -0.0050001922607735751 0 -8.2427963619604404e-06 -0.0049989185411983567 0 -4.7379641263377369e-07 -0.0049995573494273767 0 -2.552611250677819e-09 -0.0049999966148077018 0 -2.8985829806926173e-06 -0.0049984838090005616 0 -1.7848660858093994e-06 -0.0049993570017150078 0 -2.552611250677819e-09 -0.0049999966148077018 0 -2.8985829806926173e-06 -0.0049984838090005616 0 -4.7379641263377369e-07 -0.0049995573494273767 0 -2.8985829806926173e-06 -0.0049984838090005616 0 -7.5162939806641027e-06 -0.0049955956482738515 0 -2.5381683139325374e-06 -0.0049964960946723555 0 -6.9767684168182675e-07 -0.0050103742769687211 0 -5.8050900229934885e-06 -0.0049984724331297416 0 -8.7241504530573678e-06 -0.0049974273699577706 0 -7.5162939806641027e-06 -0.0049955956482738515 0 -5.8050900229934885e-06 -0.0049984724331297416 0 -2.8985829806926173e-06 -0.0049984838090005616 0 -7.5162939806641027e-06 -0.0049955956482738515 0 -4.7379641263377369e-07 -0.0049995573494273767 0 -2.056059225200208e-06 -0.0050010676376852983 0 -8.7249633619428464e-07 -0.0049997550968289449 0 -2.4939493737579605e-06 -0.0049997020012698045 0 -2.056059225200208e-06 -0.0050010676376852983 0 -8.7249633619428464e-07 -0.0049997550968289449 0 -4.7379641263377369e-07 -0.0049995573494273767 0 -8.7249633619428464e-07 -0.0049997550968289449 0 -2.4178230192685538e-10 -0.0049999996342448743 0 -4.7379641263377369e-07 -0.0049995573494273767 0 -2.552611250677819e-09 -0.0049999966148077018 0 -2.4178230192685538e-10 -0.0049999996342448743 0 -8.7249633619428464e-07 -0.0049997550968289449 0 -2.4178230192685538e-10 -0.0049999996342448743 0 -4.1220332901835081e-07 -0.004999109724069431 0 -2.4178230192685538e-10 -0.0049999996342448743 0 1.4451803385348623e-10 -0.0049999970220751524 0 -4.1220332901835081e-07 -0.004999109724069431 0 1.4451803385348623e-10 -0.0049999970220751524 0 -5.6198512858615138e-07 -0.0049974743281067874 0 -4.1220332901835081e-07 -0.004999109724069431 0 -5.6198512858615138e-07 -0.0049974743281067874 0 -4.1220332901835081e-07 -0.004999109724069431 0 -1.8638783753956697e-06 -0.0049987502784110413 0 -2.4939493737579605e-06 -0.0049997020012698045 0 -8.7249633619428464e-07 -0.0049997550968289449 0 -1.8638783753956697e-06 -0.0049987502784110413 0 -8.7249633619428464e-07 -0.0049997550968289449 0 -4.1220332901835081e-07 -0.004999109724069431 0 -1.8638783753956697e-06 -0.0049987502784110413 0 -2.4939493737579605e-06 -0.0049997020012698045 0 -1.8638783753956697e-06 -0.0049987502784110413 0 -4.1515798485382309e-06 -0.0049987844425325584 0 -1.8638783753956697e-06 -0.0049987502784110413 0 -4.1515798485382309e-06 -0.0049987844425325584 0 -4.5405254069817824e-06 -0.0049966229420171536 0 -4.5442928187986892e-06 -0.0050001922607735751 0 -4.1515798485382309e-06 -0.0049987844425325584 0 -8.2427963619604404e-06 -0.0049989185411983567 0 -4.1515798485382309e-06 -0.0049987844425325584 0 -4.5405254069817824e-06 -0.0049966229420171536 0 -8.2427963619604404e-06 -0.0049989185411983567 0 -5.6198512858615138e-07 -0.0049974743281067874 0 -1.8638783753956697e-06 -0.0049987502784110413 0 -4.5405254069817824e-06 -0.0049966229420171536 0 -5.6198512858615138e-07 -0.0049974743281067874 0 -4.5405254069817824e-06 -0.0049966229420171536 0 -4.8337016757330323e-07 -0.0049947186155057301 0 -4.5405254069817824e-06 -0.0049966229420171536 0 -4.8337016757330323e-07 -0.0049947186155057301 0 -6.4903310750351499e-06 -0.0049900351093326561 0 -4.8337016757330323e-07 -0.0049947186155057301 0 -6.4903310750351499e-06 -0.0049900351093326561 0 4.1501031771383092e-07 -0.0049828585423462345 0 -1.8793450253769245e-07 -0.0049946831102232392 0 2.4325190878262398e-07 -0.004990209329695322 0 -4.8337016757330323e-07 -0.0049947186155057301 0 -3.5473515714162615e-07 -0.0049987723532033427 0 6.9217252428709883e-07 -0.0049986583921358893 0 -4.8337016757330323e-07 -0.0049947186155057301 0 -3.3116586032421238e-07 -0.0049980123190182003 0 -3.5473515714162615e-07 -0.0049987723532033427 0 -8.039042576177266e-10 -0.0049999975593407004 0 -3.3116586032421238e-07 -0.0049980123190182003 0 -3.5473515714162615e-07 -0.0049987723532033427 0 1.4451803385348623e-10 -0.0049999970220751524 0 -5.6198512858615138e-07 -0.0049974743281067874 0 -3.3116586032421238e-07 -0.0049980123190182003 0 1.4451803385348623e-10 -0.0049999970220751524 0 -8.039042576177266e-10 -0.0049999975593407004 0 -3.3116586032421238e-07 -0.0049980123190182003 0 -5.6198512858615138e-07 -0.0049974743281067874 0 -4.8337016757330323e-07 -0.0049947186155057301 0 -3.3116586032421238e-07 -0.0049980123190182003 0 -3.5536414316012725e-05 -0.0048113535826091493 0 -4.006277464628183e-05 -0.0048190125457111196 0 -2.3815623149563161e-05 -0.0048197776991175476 0 -3.5536414316012725e-05 -0.0048113535826091493 0 -3.128600773076618e-05 -0.0048037104792788389 0 -2.3815623149563161e-05 -0.0048197776991175476 0 -2.7069185598694743e-05 -0.0047383720868095806 0 -3.0455236216151446e-05 -0.0046688349726513988 0 -3.0455236216151446e-05 -0.0046688349726513988 0 -4.3480511286009135e-07 -0.0045681969605030088 0 3.9877487684627034e-05 -0.0045024710544474414 0 -1.4653451963358207e-05 -0.0045173227462383956 0 -4.3433793398220687e-06 -0.0044548991556570315 0 -2.384809589974773e-05 -0.0046713746363687848 0 -1.7853711107404142e-05 -0.0046606907290378669 0 -1.5592123935294711e-05 -0.0046748718506255445 0 -1.7853711107404142e-05 -0.0046606907290378669 0 -1.5592123935294711e-05 -0.0046748718506255445 0 -6.1298159467120779e-06 -0.0046733244429041001 0 -1.5592123935294711e-05 -0.0046748718506255445 0 -1.0166877140376356e-05 -0.0046819305166859769 0 -6.1298159467120779e-06 -0.0046733244429041001 0 -1.0166877140376356e-05 -0.0046819305166859769 0 -2.0496991191593045e-05 -0.0046847682330112463 0 -1.4110379991797409e-05 -0.0046874078918264757 0 -1.5592123935294711e-05 -0.0046748718506255445 0 -1.0166877140376356e-05 -0.0046819305166859769 0 -2.0496991191593045e-05 -0.0046847682330112463 0 -2.384809589974773e-05 -0.0046713746363687848 0 -1.5592123935294711e-05 -0.0046748718506255445 0 -2.0496991191593045e-05 -0.0046847682330112463 0 -2.384809589974773e-05 -0.0046713746363687848 0 -2.0496991191593045e-05 -0.0046847682330112463 0 -3.310946182302026e-05 -0.004684627042565892 0 -2.7069185598694743e-05 -0.0047383720868095806 0 -1.9140412427451023e-05 -0.0048530681059842824 0 -1.8471033461388838e-05 -0.0049850188949841379 0 -1.2235482358039184e-05 -0.0049850650110467853 0 -1.3082753579974105e-05 -0.0049938256312942082 0 -4.5405254069817824e-06 -0.0049966229420171536 0 -6.4903310750351499e-06 -0.0049900351093326561 0 -1.3082753579974105e-05 -0.0049938256312942082 0 -6.4903310750351499e-06 -0.0049900351093326561 0 -1.2235482358039184e-05 -0.0049850650110467853 0 -1.3082753579974105e-05 -0.0049938256312942082 0 -6.4903310750351499e-06 -0.0049900351093326561 0 -1.2235482358039184e-05 -0.0049850650110467853 0 -6.9369051883391497e-06 -0.004981610938695159 0 -1.9140412427451023e-05 -0.0048530681059842824 0 -1.896807797833274e-05 -0.0049130543807254928 0 -1.896807797833274e-05 -0.0049130543807254928 0 -8.1968574578176337e-06 -0.0049269070398832646 0 -4.5405254069817824e-06 -0.0049966229420171536 0 -1.3082753579974105e-05 -0.0049938256312942082 0 -8.2427963619604404e-06 -0.0049989185411983567 0 -2.3815623149563161e-05 -0.0048197776991175476 0 -1.5833086780032635e-05 -0.0048373102006131208 0 -2.9930119883597627e-05 -0.0048309283601895812 0 -4.3594111003955061e-05 -0.0047814683654027971 0 -3.9940032339391175e-05 -0.0047637644029293758 0 -1.5833086780032635e-05 -0.0048373102006131208 0 -2.9930119883597627e-05 -0.0048309283601895812 0 -1.90952008666836e-05 -0.0048432640297946424 0 -6.1633294669213385e-05 -0.0047025969378378394 0 -7.1933846636274031e-05 -0.0047089249709950359 0 -7.8417622071609236e-05 -0.0046988031689087677 0 -6.1633294669213385e-05 -0.0047025969378378394 0 -7.1933846636274031e-05 -0.0047089249709950359 0 -6.7630016075433873e-05 -0.0047204823029424426 0 -3.0455236216151446e-05 -0.0046688349726513988 0 -4.3594111003955061e-05 -0.0047814683654027971 0 -4.006277464628183e-05 -0.0048190125457111196 0 -2.3815623149563161e-05 -0.0048197776991175476 0 -2.9930119883597627e-05 -0.0048309283601895812 0 -7.3242502121260086e-05 -0.0046893459093342747 0 -6.1633294669213385e-05 -0.0047025969378378394 0 -7.8417622071609236e-05 -0.0046988031689087677 0 3.9877487684627034e-05 -0.0045024710544474414 0 1.9575404622777989e-05 -0.0045410678022827474 0 -1.4653451963358207e-05 -0.0045173227462383956 0 1.9575404622777989e-05 -0.0045410678022827474 0 -1.4653451963358207e-05 -0.0045173227462383956 0 -1.1824167288744747e-06 -0.0045804518736213429 0 -3.0455236216151446e-05 -0.0046688349726513988 0 -2.9548982712725965e-05 -0.0046190694361047113 0 -2.9548982712725965e-05 -0.0046190694361047113 0 -4.1226872549140852e-05 -0.0045701529827274984 0 -7.1933846636274031e-05 -0.0047089249709950359 0 -7.8417622071609236e-05 -0.0046988031689087677 0 -8.3335517844087761e-05 -0.0047078135313759336 0 -8.701667988192655e-05 -0.0046101613250956507 0 -0.00011032681404406389 -0.0046146238120666257 0 -8.2678689308841774e-05 -0.0046309695127474551 0 -8.2382061958756009e-05 -0.0046778528613248254 0 -4.1226872549140852e-05 -0.0045701529827274984 0 -7.1933846636274031e-05 -0.0047089249709950359 0 -6.7630016075433873e-05 -0.0047204823029424426 0 -8.3335517844087761e-05 -0.0047078135313759336 0 -3.0733672824895596e-05 -0.0045192530685302561 0 -4.1226872549140852e-05 -0.0045701529827274984 0 -0.00018913203196360522 -0.0045876308986932315 0 -0.00010862317450772638 -0.0045552054269550396 0 -0.00011508037212359763 -0.0045933728959639012 0 -0.00010097868239440159 -0.0046019177542806575 0 -9.1584453088557703e-05 -0.0045894098100001954 0 -0.00011032681404406389 -0.0046146238120666257 0 -0.00011508037212359763 -0.0045933728959639012 0 -0.00010097868239440159 -0.0046019177542806575 0 -8.701667988192655e-05 -0.0046101613250956507 0 -0.00011032681404406389 -0.0046146238120666257 0 -0.00010097868239440159 -0.0046019177542806575 0 2.3359546821608587e-05 -0.0044463814595744706 0 3.4863737195884518e-05 -0.0045018665390107503 0 -1.4155049754212929e-05 -0.0044636370644857643 0 -3.0733672824895596e-05 -0.0045192530685302561 0 -0.00010862317450772638 -0.0045552054269550396 0 -8.701667988192655e-05 -0.0046101613250956507 0 -0.00010097868239440159 -0.0046019177542806575 0 -9.1584453088557703e-05 -0.0045894098100001954 0 -2.3768326964773131e-05 -0.0048812934953444687 0 -3.9940032339391175e-05 -0.0047637644029293758 0 -7.5831199684082003e-06 -0.0048557379407220651 0 -1.5833086780032635e-05 -0.0048373102006131208 0 -1.90952008666836e-05 -0.0048432640297946424 0 -2.3768326964773131e-05 -0.0048812934953444687 0 -8.1968574578176337e-06 -0.0049269070398832646 0 -6.7630016075433873e-05 -0.0047204823029424426 0 -4.9802741688611564e-05 -0.0047163257358068178 0 -5.1089177327032796e-05 -0.0047337489581281969 0 -6.1633294669213385e-05 -0.0047025969378378394 0 -6.7630016075433873e-05 -0.0047204823029424426 0 -4.9802741688611564e-05 -0.0047163257358068178 0 -0.00018913203196360522 -0.0045876308986932315 0 -0.00015899586445895732 -0.0047052369680773368 0 -0.00011032681404406389 -0.0046146238120666257 0 -0.00011508037212359763 -0.0045933728959639012 0 -0.00013881374156828711 -0.0045977925503603058 0 -8.2382061958756009e-05 -0.0046778528613248254 0 -0.00015899586445895732 -0.0047052369680773368 0 -0.00011827879025362009 -0.0049402820072910027 0 -0.00011044260909557328 -0.0048819319324472123 0 -0.00018994650332864054 -0.0048913762704416146 0 -3.7074070018376633e-05 -0.0047310497103144819 0 -3.549427982803952e-05 -0.0047329028488427355 0 -5.1089177327032796e-05 -0.0047337489581281969 0 -3.7074070018376633e-05 -0.0047310497103144819 0 -4.9802741688611564e-05 -0.0047163257358068178 0 -5.1089177327032796e-05 -0.0047337489581281969 0 -3.3801858663516209e-05 -0.0049008421038211234 0 -0.00015899586445895732 -0.0047052369680773368 0 -0.00027180297617310857 -0.00456986891580445 0 -0.00026149892914748089 -0.004586181371303808 0 -0.00026590461308795862 -0.0045658970414741221 0 -0.00020038159463000771 -0.0047569510796657997 0 -0.00015899586445895732 -0.0047052369680773368 0 -0.0002393940738887793 -0.0045873012905057872 0 -0.00026590461308795862 -0.0045658970414741221 0 -0.00024659182233989474 -0.0045597662234823288 0 -0.0002393940738887793 -0.0045873012905057872 0 -0.00026149892914748089 -0.004586181371303808 0 -0.00026590461308795862 -0.0045658970414741221 0 -0.00026169956191591799 -0.0045518586508919365 0 -0.00026547557868885149 -0.0045583531718959439 0 -0.00024659182233989474 -0.0045597662234823288 0 -0.00026547557868885149 -0.0045583531718959439 0 -0.00026590461308795862 -0.0045658970414741221 0 -0.00024659182233989474 -0.0045597662234823288 0 -0.00027189406565446771 -0.0045606537113500436 0 -0.00027180297617310857 -0.00456986891580445 0 -0.00026590461308795862 -0.0045658970414741221 0 -0.00027189406565446771 -0.0045606537113500436 0 -0.00026547557868885149 -0.0045583531718959439 0 -0.00026590461308795862 -0.0045658970414741221 0 -0.00020106459844502277 -0.0045582330200872887 0 -0.00018916655227406028 -0.0045834135820612687 0 -0.00016234899763394639 -0.0045444785473559689 0 -0.00020106459844502277 -0.0045582330200872887 0 -0.00019860409731335419 -0.0045871793569815227 0 -0.00022564628571402191 -0.0045682604999891007 0 -0.00018360676164472131 -0.0045612715656715508 0 -0.00010862317450772638 -0.0045552054269550396 0 -0.0002393940738887793 -0.0045873012905057872 0 -0.00019860409731335419 -0.0045871793569815227 0 -0.00022564628571402191 -0.0045682604999891007 0 -0.0002393940738887793 -0.0045873012905057872 0 -0.00022564628571402191 -0.0045682604999891007 0 -0.00024659182233989474 -0.0045597662234823288 0 -0.00020106459844502277 -0.0045582330200872887 0 -0.00022564628571402191 -0.0045682604999891007 0 -0.00022679015634506511 -0.0045473381757493133 0 -0.00022564628571402191 -0.0045682604999891007 0 -0.00024659182233989474 -0.0045597662234823288 0 -0.00022679015634506511 -0.0045473381757493133 0 -0.00026169956191591799 -0.0045518586508919365 0 -0.00024659182233989474 -0.0045597662234823288 0 -0.00022679015634506511 -0.0045473381757493133 0 -0.00020040834530223021 -0.0045198535676505818 0 -0.00020106459844502277 -0.0045582330200872887 0 -0.00022679015634506511 -0.0045473381757493133 0 -0.00020040834530223021 -0.0045198535676505818 0 -0.00020106459844502277 -0.0045582330200872887 0 -0.00016234899763394639 -0.0045444785473559689 0 -0.00016234899763394639 -0.0045444785473559689 0 -0.00013867169519042946 -0.0045627978863385637 0 -0.00012073753390475575 -0.0045161626599747396 0 -0.00020567414803376554 -0.0045388149760748767 0 -0.00014712395178574338 -0.0045334257886276673 0 -0.00020040834530223021 -0.0045198535676505818 0 -0.00016234899763394639 -0.0045444785473559689 0 -0.00012073753390475575 -0.0045161626599747396 0 -0.00018916655227406028 -0.0045834135820612687 0 -0.00016234899763394639 -0.0045444785473559689 0 -0.00013867169519042946 -0.0045627978863385637 0 -0.00010862317450772638 -0.0045552054269550396 0 -7.6533578658452922e-05 -0.0045345876866927952 0 -0.00013867169519042946 -0.0045627978863385637 0 -9.1344096134026763e-05 -0.0045229101498681715 0 -0.00012073753390475575 -0.0045161626599747396 0 -2.1988079210704904e-05 -0.0045109708393881072 0 -9.1344096134026763e-05 -0.0045229101498681715 0 -7.6531499967625233e-05 -0.0044675093781086916 0 -7.6533578658452922e-05 -0.0045345876866927952 0 -9.4373160135359955e-05 -0.0045280211849665474 0 -0.00015460257629578374 -0.0045330599596085409 0 -0.00017093474711468175 -0.004549407203294809 0 -0.00014900720838455575 -0.0045326816857948638 0 -0.00014712395178574338 -0.0045334257886276673 0 -0.00012884881496757754 -0.0045268888896389612 0 -9.1344096134026763e-05 -0.0045229101498681715 0 -0.00012073753390475575 -0.0045161626599747396 0 -0.00010305379998762797 -0.0045245833934472648 0 -0.00015460257629578374 -0.0045330599596085409 0 -0.00015255807098239185 -0.0045310727128003749 0 -0.00014900720838455575 -0.0045326816857948638 0 -0.00015255807098239185 -0.0045310727128003749 0 -0.00014900720838455575 -0.0045326816857948638 0 -0.00016056959812585296 -0.0045035161874129688 0 -0.00010305379998762797 -0.0045245833934472648 0 -0.0001185110267722186 -0.0044899964816728288 0 -0.00016056959812585296 -0.0045035161874129688 0 -0.00012884881496757754 -0.0045268888896389612 0 -0.00015940474638490021 -0.0045067364453976596 0 -0.0001185110267722186 -0.0044899964816728288 0 -0.00016056959812585296 -0.0045035161874129688 0 -0.0001502846925994722 -0.0044673337907606284 0 -9.1344096134026763e-05 -0.0045229101498681715 0 -0.00010305379998762797 -0.0045245833934472648 0 -0.0001185110267722186 -0.0044899964816728288 0 -9.1344096134026763e-05 -0.0045229101498681715 0 -0.0001185110267722186 -0.0044899964816728288 0 -7.6531499967625233e-05 -0.0044675093781086916 0 -0.0001185110267722186 -0.0044899964816728288 0 -0.00012031312432216885 -0.004435600766829236 0 -7.6531499967625233e-05 -0.0044675093781086916 0 -0.0001185110267722186 -0.0044899964816728288 0 -0.00012031312432216885 -0.004435600766829236 0 -0.0001502846925994722 -0.0044673337907606284 0 -0.00012031312432216885 -0.004435600766829236 0 -0.0001502846925994722 -0.0044673337907606284 0 -0.0001580990014906236 -0.0044282868780661927 0 -0.00012031312432216885 -0.004435600766829236 0 -0.00010003992330932172 -0.0043885109958900831 0 -0.00014581823238153974 -0.0043857983469464601 0 -0.00012031312432216885 -0.004435600766829236 0 -0.0001580990014906236 -0.0044282868780661927 0 -0.00014581823238153974 -0.0043857983469464601 0 -0.00012031312432216885 -0.004435600766829236 0 -8.5990208988266371e-05 -0.0044195557944611517 0 -7.6531499967625233e-05 -0.0044675093781086916 0 -0.00012031312432216885 -0.004435600766829236 0 -8.5990208988266371e-05 -0.0044195557944611517 0 -0.00010003992330932172 -0.0043885109958900831 0 -8.5990208988266371e-05 -0.0044195557944611517 0 -4.2854309635114193e-05 -0.0044307797663507582 0 -7.6531499967625233e-05 -0.0044675093781086916 0 -8.5990208988266371e-05 -0.0044195557944611517 0 -4.2854309635114193e-05 -0.0044307797663507582 0 -5.101420416437201e-05 -0.0043991705526818291 0 -4.2854309635114193e-05 -0.0044307797663507582 0 -1.7580874093354098e-05 -0.0044009199815080524 0 -5.101420416437201e-05 -0.0043991705526818291 0 -4.2854309635114193e-05 -0.0044307797663507582 0 -7.9106107006252937e-06 -0.0044268575414908558 0 -1.7580874093354098e-05 -0.0044009199815080524 0 2.3359546821608587e-05 -0.0044463814595744706 0 -7.9106107006252937e-06 -0.0044268575414908558 0 1.2082888121803549e-05 -0.0043924472480285741 0 -7.9106107006252937e-06 -0.0044268575414908558 0 1.2082888121803549e-05 -0.0043924472480285741 0 -1.7580874093354098e-05 -0.0044009199815080524 0 2.3359546821608587e-05 -0.0044463814595744706 0 -7.9106107006252937e-06 -0.0044268575414908558 0 -1.4155049754212929e-05 -0.0044636370644857643 0 -4.2854309635114193e-05 -0.0044307797663507582 0 -7.9106107006252937e-06 -0.0044268575414908558 0 -1.4155049754212929e-05 -0.0044636370644857643 0 3.4863737195884518e-05 -0.0045018665390107503 0 -2.1988079210704904e-05 -0.0045109708393881072 0 -1.4155049754212929e-05 -0.0044636370644857643 0 -4.2854309635114193e-05 -0.0044307797663507582 0 -1.4155049754212929e-05 -0.0044636370644857643 0 -7.6531499967625233e-05 -0.0044675093781086916 0 -2.1988079210704904e-05 -0.0045109708393881072 0 -1.4155049754212929e-05 -0.0044636370644857643 0 -7.6531499967625233e-05 -0.0044675093781086916 0 0.00035784469223367735 -0.0033285102226372895 0 0.00035484753502667589 -0.0032726703212139665 0 0.00033734724771069819 -0.0033190681157627892 0 -0.00024833000364126719 -0.0044873401551948407 0 -0.0002132458411738711 -0.0044663489440208487 0 -0.00024975351781176939 -0.0044304123898901157 0 0.00026286786707153221 -0.0040201397735812709 0 -3.3878632310345281e-05 -0.0033034076627200333 0 0.00026286786707153221 -0.0040201397735812709 0 0.00026415953048480986 -0.0035118811905612943 0 0.00037228198710505061 -0.0033311232465270779 0 0.00034700159284048167 -0.0033551296571661632 0 0.00033734724771069819 -0.0033190681157627892 0 0.00051060985940262977 -0.0044494896741615036 0 0.0005688459500801335 -0.0043970208550697032 0 0.00055334169522485615 -0.0046032653871606747 0 0.00049819628484611101 -0.003885916859968305 0 0.00026286786707153221 -0.0040201397735812709 0 0.00037763006241822397 -0.0034129885780450216 0 0.00037228198710505061 -0.0033311232465270779 0 0.00034700159284048167 -0.0033551296571661632 0 0.00026286786707153221 -0.0040201397735812709 0 6.8370208110035238e-05 -0.0046055999726220117 0 0.00051060985940262977 -0.0044494896741615036 0 0.00055334169522485615 -0.0046032653871606747 0 0.00035182319901784796 -0.0045462902660275807 0 -0.00024833000364126719 -0.0044873401551948407 0 -0.0002132458411738711 -0.0044663489440208487 0 -0.00019363818845827098 -0.0045151759577531092 0 -0.0002132458411738711 -0.0044663489440208487 0 -0.00016056959812585296 -0.0045035161874129688 0 -0.00018207215583198545 -0.0044449444076687496 0 -0.0002132458411738711 -0.0044663489440208487 0 -0.00019363818845827098 -0.0045151759577531092 0 -0.00016056959812585296 -0.0045035161874129688 0 1.0213051795449093e-05 -0.0045051961767847339 0 6.8370208110035238e-05 -0.0046055999726220117 0 -0.00015255807098239185 -0.0045310727128003749 0 -0.00019363818845827098 -0.0045151759577531092 0 -0.00016056959812585296 -0.0045035161874129688 0 -0.00016056959812585296 -0.0045035161874129688 0 -0.0001502846925994722 -0.0044673337907606284 0 -0.00018207215583198545 -0.0044449444076687496 0 -0.0001502846925994722 -0.0044673337907606284 0 -0.0001580990014906236 -0.0044282868780661927 0 -0.00018207215583198545 -0.0044449444076687496 0 -0.00018158908873594664 -0.0044058355957421538 0 -0.0001580990014906236 -0.0044282868780661927 0 -0.00014581823238153974 -0.0043857983469464601 0 -0.00018158908873594664 -0.0044058355957421538 0 -0.0001580990014906236 -0.0044282868780661927 0 -0.00018207215583198545 -0.0044449444076687496 0 -0.00018158908873594664 -0.0044058355957421538 0 -0.00018207215583198545 -0.0044449444076687496 0 -0.00021773291449848076 -0.0044021448612400595 0 -0.0002132458411738711 -0.0044663489440208487 0 -0.00018207215583198545 -0.0044449444076687496 0 -0.00021773291449848076 -0.0044021448612400595 0 -0.0002132458411738711 -0.0044663489440208487 0 -0.00021773291449848076 -0.0044021448612400595 0 -0.00024975351781176939 -0.0044304123898901157 0 -3.5433350472784303e-05 -0.0027866177713892193 0 -6.5045821565003309e-05 -0.0027912180194310096 0 -9.9865936958554817e-05 -0.0028671892872192926 0 -0.00017272007452960104 -0.0036558846769511465 0 -3.3878632310345281e-05 -0.0033034076627200333 0 -3.5433350472784303e-05 -0.0027866177713892193 0 -6.5045821565003309e-05 -0.0027912180194310096 0 -3.7568626438890944e-05 -0.0027964346605760652 0 -8.6060802703292791e-05 -0.0024325469844626809 0 -8.415854852751306e-05 -0.0025372752679700241 0 2.1495011201049013e-05 -0.0024596814647281158 0 -6.5045821565003309e-05 -0.0027912180194310096 0 -9.9865936958554817e-05 -0.0028671892872192926 0 -0.00010228697225024822 -0.00277219863523055 0 -3.3878632310345281e-05 -0.0033034076627200333 0 -9.4570439814487304e-05 -0.0025129997110008399 0 -7.6127390292490721e-05 -0.0026667276026447113 0 -6.8863818411752791e-05 -0.0026956009837480104 0 2.3313993946931029e-05 -0.002611753745873472 0 -3.7543599442704943e-05 -0.0025970914521424777 0 -8.415854852751306e-05 -0.0025372752679700241 0 6.973693358348065e-06 -0.002550647597861323 0 -8.0269257246032744e-05 -0.0027237572080760948 0 -9.4570439814487304e-05 -0.0025129997110008399 0 -7.6127390292490721e-05 -0.0026667276026447113 0 -3.7543599442704943e-05 -0.0025970914521424777 0 -8.415854852751306e-05 -0.0025372752679700241 0 -7.6127390292490721e-05 -0.0026667276026447113 0 -0.00010228697225024822 -0.00277219863523055 0 -6.8892664937694916e-05 -0.002748681676819725 0 -6.5045821565003309e-05 -0.0027912180194310096 0 -0.00010228697225024822 -0.00277219863523055 0 -6.8892664937694916e-05 -0.002748681676819725 0 -6.8892664937694916e-05 -0.002748681676819725 0 -3.7568626438890944e-05 -0.0027964346605760652 0 -5.7543707398925442e-05 -0.0027163862783363855 0 -6.5045821565003309e-05 -0.0027912180194310096 0 -6.8892664937694916e-05 -0.002748681676819725 0 -3.7568626438890944e-05 -0.0027964346605760652 0 -3.7568626438890944e-05 -0.0027964346605760652 0 -5.7543707398925442e-05 -0.0027163862783363855 0 -3.4989220571766974e-05 -0.0026897011519470392 0 -7.6127390292490721e-05 -0.0026667276026447113 0 -6.8892664937694916e-05 -0.002748681676819725 0 -5.7543707398925442e-05 -0.0027163862783363855 0 -7.6127390292490721e-05 -0.0026667276026447113 0 -5.7543707398925442e-05 -0.0027163862783363855 0 -6.3094717263125334e-05 -0.002684460151208511 0 -5.7543707398925442e-05 -0.0027163862783363855 0 -3.4989220571766974e-05 -0.0026897011519470392 0 -6.3094717263125334e-05 -0.002684460151208511 0 -6.8290007318831222e-05 -0.0029590790140405303 0 -0.00013168240298523258 -0.0028621325731814119 0 -0.00014964535448711583 -0.0029576076095675133 0 -0.00018158908873594664 -0.0044058355957421538 0 -0.00021773291449848076 -0.0044021448612400595 0 -0.00018544793538908031 -0.0043648709792719741 0 -4.0088204601026605e-05 -0.0028016376854365019 0 -5.0734678021678542e-05 -0.0028213798861293853 0 -3.7568626438890944e-05 -0.0027964346605760652 0 -6.8290007318831222e-05 -0.0029590790140405303 0 -0.00013168240298523258 -0.0028621325731814119 0 -0.00017272007452960104 -0.0036558846769511465 0 -0.00014557759472164569 -0.0036032417230279119 0 -3.5433350472784303e-05 -0.0027866177713892193 0 -3.7568626438890944e-05 -0.0027964346605760652 0 -0.00013168240298523258 -0.0028621325731814119 0 -0.00018544793538908031 -0.0043648709792719741 0 -0.00014581823238153974 -0.0043857983469464601 0 -0.0001460863450891968 -0.0043181273307810455 0 -0.00018158908873594664 -0.0044058355957421538 0 -0.00018544793538908031 -0.0043648709792719741 0 -0.00014581823238153974 -0.0043857983469464601 0 -0.00014557759472164569 -0.0036032417230279119 0 -0.00019979471788707711 -0.0036313695580591438 0 -0.00013168240298523258 -0.0028621325731814119 0 -0.00014964535448711583 -0.0029576076095675133 0 -0.0002329536807882624 -0.0029650214959483501 0 -0.00014964535448711583 -0.0029576076095675133 0 -0.00019448184763429349 -0.0030286526186401566 0 -0.0002329536807882624 -0.0029650214959483501 0 -0.00014964535448711583 -0.0029576076095675133 0 -0.00013996977875812273 -0.0030262876672725288 0 -0.00019448184763429349 -0.0030286526186401566 0 -0.00013996977875812273 -0.0030262876672725288 0 -0.00019448184763429349 -0.0030286526186401566 0 -0.00017675049819169082 -0.0030907854206634082 0 -0.00019448184763429349 -0.0030286526186401566 0 -0.00017675049819169082 -0.0030907854206634082 0 -0.00022297141391528055 -0.0030900429603881174 0 -0.00017675049819169082 -0.0030907854206634082 0 -0.00022297141391528055 -0.0030900429603881174 0 -0.00021440987753928913 -0.0031256645626200267 0 -0.00017675049819169082 -0.0030907854206634082 0 -0.00021440987753928913 -0.0031256645626200267 0 -0.00018354155141741819 -0.0031607190401809872 0 -0.00017675049819169082 -0.0030907854206634082 0 -0.00011394999472560698 -0.0031057535421604577 0 -0.00018354155141741819 -0.0031607190401809872 0 -0.00013996977875812273 -0.0030262876672725288 0 -0.00017675049819169082 -0.0030907854206634082 0 -0.00011394999472560698 -0.0031057535421604577 0 -4.9432093133247889e-05 -0.0026797793348932474 0 -5.3119033176023802e-05 -0.0026839400152293058 0 -5.0525070938510323e-05 -0.0026776601518417398 0 -3.4989220571766974e-05 -0.0026897011519470392 0 -4.9432093133247889e-05 -0.0026797793348932474 0 -5.3119033176023802e-05 -0.0026839400152293058 0 -5.0734678021678542e-05 -0.0028213798861293853 0 -8.9924291493780328e-05 -0.00291405930930418 0 -6.8290007318831222e-05 -0.0029590790140405303 0 -0.00013996977875812273 -0.0030262876672725288 0 -0.00011394999472560698 -0.0031057535421604577 0 -6.8290007318831222e-05 -0.0029590790140405303 0 -0.00014964535448711583 -0.0029576076095675133 0 -0.00013996977875812273 -0.0030262876672725288 0 -6.3094717263125334e-05 -0.002684460151208511 0 -5.3119033176023802e-05 -0.0026839400152293058 0 -6.8863818411752791e-05 -0.0026956009837480104 0 -3.4989220571766974e-05 -0.0026897011519470392 0 -6.3094717263125334e-05 -0.002684460151208511 0 -5.3119033176023802e-05 -0.0026839400152293058 0 1.3255361730500028e-05 -0.0026174560468872161 0 2.533032494388413e-05 -0.0026177108729794549 0 2.6424368822152255e-05 -0.0026137039816988743 0 -5.3119033176023802e-05 -0.0026839400152293058 0 -5.0525070938510323e-05 -0.0026776601518417398 0 -6.8863818411752791e-05 -0.0026956009837480104 0 -6.7458046452018637e-06 -0.0026109377801773535 0 -2.4011299900608468e-05 -0.0026603616245299295 0 2.533032494388413e-05 -0.0026177108729794549 0 2.6424368822152255e-05 -0.0026137039816988743 0 3.150513467499833e-05 -0.0026170163842368639 0 2.533032494388413e-05 -0.0026177108729794549 0 3.0544328519465826e-05 -0.0026201935338684636 0 3.150513467499833e-05 -0.0026170163842368639 0 -7.6127390292490721e-05 -0.0026667276026447113 0 -6.3094717263125334e-05 -0.002684460151208511 0 -6.8863818411752791e-05 -0.0026956009837480104 0 -6.2729127402763783e-05 -0.0043438620441685009 0 -2.8547834023107372e-05 -0.0043663633764157135 0 -6.8230526138227877e-05 -0.0043742153977434752 0 -5.4026352185916553e-05 -0.0044892536041705516 0 -3.4440551104891793e-05 -0.0044876984679491231 0 -3.3434112051554848e-05 -0.004502841212020459 0 -4.8080039837947083e-05 -0.0043885095085691474 0 -3.3662713965136446e-05 -0.0044319946240849511 0 -4.8080039837947083e-05 -0.0043885095085691474 0 -5.9934585485723548e-05 -0.0043571486580943125 0 -4.8080039837947083e-05 -0.0043885095085691474 0 -6.0177295644706351e-05 -0.0043734689539828642 0 -5.4026352185916553e-05 -0.0044892536041705516 0 -3.4440551104891793e-05 -0.0044876984679491231 0 -3.5518540651916555e-05 -0.0044730430728854732 0 -3.4440551104891793e-05 -0.0044876984679491231 0 -1.9372210073787532e-05 -0.0044858801291705946 0 -3.5518540651916555e-05 -0.0044730430728854732 0 -3.4440551104891793e-05 -0.0044876984679491231 0 -1.9372210073787532e-05 -0.0044858801291705946 0 -3.3434112051554848e-05 -0.004502841212020459 0 -1.4588405568092126e-05 -0.0044975757135243023 0 -4.1226872549140852e-05 -0.0045701529827274984 0 -1.9372210073787532e-05 -0.0044858801291705946 0 -3.3434112051554848e-05 -0.004502841212020459 0 -1.2582952630049671e-05 -0.0045169799948260583 0 -3.3662713965136446e-05 -0.0044319946240849511 0 -4.1226872549140852e-05 -0.0045701529827274984 0 -2.8547834023107372e-05 -0.0043663633764157135 0 1.2082888121803549e-05 -0.0043924472480285741 0 -1.7580874093354098e-05 -0.0044009199815080524 0 -8.5990208988266371e-05 -0.0044195557944611517 0 -5.101420416437201e-05 -0.0043991705526818291 0 -6.8230526138227877e-05 -0.0043742153977434752 0 -2.8547834023107372e-05 -0.0043663633764157135 0 -1.7580874093354098e-05 -0.0044009199815080524 0 -5.101420416437201e-05 -0.0043991705526818291 0 -2.8547834023107372e-05 -0.0043663633764157135 0 -5.101420416437201e-05 -0.0043991705526818291 0 -6.8230526138227877e-05 -0.0043742153977434752 0 -8.5990208988266371e-05 -0.0044195557944611517 0 -6.8230526138227877e-05 -0.0043742153977434752 0 -0.00010003992330932172 -0.0043885109958900831 0 -0.00010003992330932172 -0.0043885109958900831 0 -0.00011386632382752976 -0.0043544988931569677 0 -7.5775396228973418e-05 -0.0043512895043409956 0 -6.8230526138227877e-05 -0.0043742153977434752 0 -0.00010003992330932172 -0.0043885109958900831 0 -7.5775396228973418e-05 -0.0043512895043409956 0 -0.00010003992330932172 -0.0043885109958900831 0 -0.00014581823238153974 -0.0043857983469464601 0 -0.00011386632382752976 -0.0043544988931569677 0 -0.00014581823238153974 -0.0043857983469464601 0 -0.00011386632382752976 -0.0043544988931569677 0 -0.0001460863450891968 -0.0043181273307810455 0 -0.00011386632382752976 -0.0043544988931569677 0 -0.0001460863450891968 -0.0043181273307810455 0 -9.5454244592261644e-05 -0.0043197802669555944 0 -5.4744169611788749e-05 -0.0043336673082909382 0 -6.8230526138227877e-05 -0.0043742153977434752 0 -7.5775396228973418e-05 -0.0043512895043409956 0 -7.5775396228973418e-05 -0.0043512895043409956 0 -9.5454244592261644e-05 -0.0043197802669555944 0 -6.4010079229839085e-05 -0.0043266814184423734 0 -5.4744169611788749e-05 -0.0043336673082909382 0 -7.5775396228973418e-05 -0.0043512895043409956 0 -6.4010079229839085e-05 -0.0043266814184423734 0 -0.00011386632382752976 -0.0043544988931569677 0 -7.5775396228973418e-05 -0.0043512895043409956 0 -9.5454244592261644e-05 -0.0043197802669555944 0 -4.9230312804747756e-05 -0.0043377010790399241 0 -6.4010079229839085e-05 -0.0043266814184423734 0 -6.8308897424975475e-05 -0.0043014099669580171 0 -9.5454244592261644e-05 -0.0043197802669555944 0 -6.4010079229839085e-05 -0.0043266814184423734 0 -6.8308897424975475e-05 -0.0043014099669580171 0 -9.5454244592261644e-05 -0.0043197802669555944 0 -6.8308897424975475e-05 -0.0043014099669580171 0 -9.3523497183645252e-05 -0.004263050498464674 0 -6.8308897424975475e-05 -0.0043014099669580171 0 -0.00010903742418776423 -0.004238742657033636 0 -3.0434436763891479e-05 -0.0042530586836608082 0 1.4760025254549734e-05 -0.0043685537739111026 0 -0.00011662270781173676 -0.0037698639394751934 0 -0.00019448184763429349 -0.0030286526186401566 0 -0.0002329536807882624 -0.0029650214959483501 0 -0.00024661418722779233 -0.0030523586359196817 0 -0.0002329536807882624 -0.0029650214959483501 0 -0.00032508268817160892 -0.0030541016373705349 0 -0.00024661418722779233 -0.0030523586359196817 0 -0.00019979471788707711 -0.0036313695580591438 0 -0.00011662270781173676 -0.0037698639394751934 0 -0.0001460863450891968 -0.0043181273307810455 0 -9.5454244592261644e-05 -0.0043197802669555944 0 -9.3523497183645252e-05 -0.004263050498464674 0 -0.00019448184763429349 -0.0030286526186401566 0 -0.00024661418722779233 -0.0030523586359196817 0 -0.00022297141391528055 -0.0030900429603881174 0 -0.00032508268817160892 -0.0030541016373705349 0 -0.00025450148876065193 -0.0031206946640906885 0 -0.00025677184630502084 -0.0031518635133086221 0 -0.00011662270781173676 -0.0037698639394751934 0 -0.00013998159255254494 -0.0034018657285954778 0 -0.00024661418722779233 -0.0030523586359196817 0 -0.00022297141391528055 -0.0030900429603881174 0 -0.00025450148876065193 -0.0031206946640906885 0 -0.00032508268817160892 -0.0030541016373705349 0 -0.00024661418722779233 -0.0030523586359196817 0 -0.00025450148876065193 -0.0031206946640906885 0 -0.00016226896639776877 -0.0032101735334992844 0 -0.00013998159255254494 -0.0034018657285954778 0 -0.00025450148876065193 -0.0031206946640906885 0 -0.00021440987753928913 -0.0031256645626200267 0 -0.00025539898917053947 -0.0031489566706766423 0 -0.00021440987753928913 -0.0031256645626200267 0 -0.00025539898917053947 -0.0031489566706766423 0 -0.00018354155141741819 -0.0031607190401809872 0 -0.00022297141391528055 -0.0030900429603881174 0 -0.00025450148876065193 -0.0031206946640906885 0 -0.00021440987753928913 -0.0031256645626200267 0 -0.00011662270781173676 -0.0037698639394751934 0 -7.8163943942889399e-06 -0.0042044960172486706 0 -2.5244347856814047e-05 -0.0038212524808671202 0 -2.808833964269456e-05 -0.0038459421562947915 0 -1.1429991186122222e-05 -0.0038401502749177987 0 -2.5244347856814047e-05 -0.0038212524808671202 0 -4.3870889241979136e-05 -0.0038400978402764957 0 -2.808833964269456e-05 -0.0038459421562947915 0 -0.00010903742418776423 -0.004238742657033636 0 -1.4923488095456191e-05 -0.0041609561663825644 0 -3.0434436763891479e-05 -0.0042530586836608082 0 -7.8163943942889399e-06 -0.0042044960172486706 0 -4.4392354929762018e-05 -0.0043778460206117045 0 -4.7971872227578187e-05 -0.0044318255918959892 0 -3.7643886699461778e-05 -0.0044542095127471275 0 -5.0464330383959757e-05 -0.0044635137950053746 0 -4.7971872227578187e-05 -0.0044318255918959892 0 -3.1422576781219315e-05 -0.0044439159096087413 0 -3.7600159552809474e-05 -0.0044217065382851934 0 -7.8163943942889399e-06 -0.0042044960172486706 0 -2.8287504826997789e-06 -0.0044496722909700588 0 -4.7971872227578187e-05 -0.0044318255918959892 0 -3.7643886699461778e-05 -0.0044542095127471275 0 -3.1422576781219315e-05 -0.0044439159096087413 0 -4.8080039837947083e-05 -0.0043885095085691474 0 -4.4392354929762018e-05 -0.0043778460206117045 0 -5.4026352185916553e-05 -0.0044892536041705516 0 -5.0464330383959757e-05 -0.0044635137950053746 0 -3.5518540651916555e-05 -0.0044730430728854732 0 -4.9230312804747756e-05 -0.0043377010790399241 0 -6.8308897424975475e-05 -0.0043014099669580171 0 -3.0434436763891479e-05 -0.0042530586836608082 0 -3.7643886699461778e-05 -0.0044542095127471275 0 -5.0464330383959757e-05 -0.0044635137950053746 0 -3.5518540651916555e-05 -0.0044730430728854732 0 -1.4653451963358207e-05 -0.0045173227462383956 0 -4.3433793398220687e-06 -0.0044548991556570315 0 -2.3674655517253096e-05 -0.0044555106168474232 0 -1.4588405568092126e-05 -0.0044975757135243023 0 -2.3787512618816506e-05 -0.0044605560275341278 0 -1.9372210073787532e-05 -0.0044858801291705946 0 -3.5518540651916555e-05 -0.0044730430728854732 0 -2.3674655517253096e-05 -0.0044555106168474232 0 -3.7643886699461778e-05 -0.0044542095127471275 0 -3.5518540651916555e-05 -0.0044730430728854732 0 -2.3674655517253096e-05 -0.0044555106168474232 0 -4.3433793398220687e-06 -0.0044548991556570315 0 -3.1422576781219315e-05 -0.0044439159096087413 0 -3.7600159552809474e-05 -0.0044217065382851934 0 -1.0166877140376356e-05 -0.0046819305166859769 0 -6.1298159467120779e-06 -0.0046733244429041001 0 4.2434590169853091e-06 -0.0046834181183467204 0 -4.3480511286009135e-07 -0.0045681969605030088 0 -2.8287504826997789e-06 -0.0044496722909700588 0 -4.3433793398220687e-06 -0.0044548991556570315 0 -2.3674655517253096e-05 -0.0044555106168474232 0 -3.1422576781219315e-05 -0.0044439159096087413 0 -3.7643886699461778e-05 -0.0044542095127471275 0 -2.3674655517253096e-05 -0.0044555106168474232 0 -3.1422576781219315e-05 -0.0044439159096087413 0 -7.5113921628269861e-06 -0.0046871364909889046 0 -4.3687524096825485e-06 -0.0046917035026814704 0 4.2434590169853091e-06 -0.0046834181183467204 0 -1.0166877140376356e-05 -0.0046819305166859769 0 -7.5113921628269861e-06 -0.0046871364909889046 0 4.2434590169853091e-06 -0.0046834181183467204 0 -4.1977047418970024e-05 -0.0044927498412867233 0 4.0155460527466467e-05 -0.0045807760735983938 0 6.1301250721868873e-05 -0.0044542443936033075 0 -4.1977047418970024e-05 -0.0044927498412867233 0 6.1301250721868873e-05 -0.0044542443936033075 0 3.4785352359844678e-05 -0.00442694146424871 0 -2.7447572102332881e-05 -0.0045962220739137784 0 -2.8287504826997789e-06 -0.0044496722909700588 0 -4.1977047418970024e-05 -0.0044927498412867233 0 -3.6705483176410993e-05 -0.0045917042296927642 0 -0.0001179442738448273 -0.0045580597390879087 0 -4.1977047418970024e-05 -0.0044927498412867233 0 -3.6705483176410993e-05 -0.0045917042296927642 0 4.0155460527466467e-05 -0.0045807760735983938 0 4.4393803521596333e-05 -0.0043361063109831075 0 -9.3644736941977216e-06 -0.0041676869394047774 0 0.00013258403490886802 -0.0043142806664669747 0 -4.2635395736208567e-05 -0.0043636288637657738 0 4.4393803521596333e-05 -0.0043361063109831075 0 -9.3644736941977216e-06 -0.0041676869394047774 0 -4.5619579733113405e-07 -0.0044943266376095319 0 -3.5919951267948926e-05 -0.0041961673581926455 0 -4.2635395736208567e-05 -0.0043636288637657738 0 4.4393803521596333e-05 -0.0043361063109831075 0 7.563855623657695e-05 -0.0044221540135499938 0 4.4393803521596333e-05 -0.0043361063109831075 0 0.00013258403490886802 -0.0043142806664669747 0 7.563855623657695e-05 -0.0044221540135499938 0 -4.3870889241979136e-05 -0.0038400978402764957 0 -4.5129071574712616e-05 -0.0038502321167538248 0 -2.808833964269456e-05 -0.0038459421562947915 0 -3.5919951267948926e-05 -0.0041961673581926455 0 6.3817275136476918e-05 -0.0041099673224978287 0 -7.8163943942889399e-06 -0.0042044960172486706 0 -3.5919951267948926e-05 -0.0041961673581926455 0 -1.0835088831990748e-05 -0.004280826258750676 0 -1.6934482035041231e-05 -0.0043150378519504424 0 -3.2487960076544797e-05 -0.0042990501411805842 0 -3.5919951267948926e-05 -0.0041961673581926455 0 -2.8287504826997789e-06 -0.0044496722909700588 0 -2.808833964269456e-05 -0.0038459421562947915 0 -1.2136323112692503e-05 -0.0038601086008444438 0 -2.9040810041953849e-05 -0.0038645223476847768 0 -4.5129071574712616e-05 -0.0038502321167538248 0 -2.808833964269456e-05 -0.0038459421562947915 0 -2.9040810041953849e-05 -0.0038645223476847768 0 -3.9535027831982426e-05 -0.0033498549474571876 0 -4.6018663655382811e-05 -0.0034283549517985542 0 2.7009524328794245e-05 -0.0034480644536080598 0 -2.808833964269456e-05 -0.0038459421562947915 0 -1.1429991186122222e-05 -0.0038401502749177987 0 -1.2136323112692503e-05 -0.0038601086008444438 0 -0.00013998159255254494 -0.0034018657285954778 0 -3.0435161549492685e-05 -0.0036543077948973375 0 -0.00013998159255254494 -0.0034018657285954778 0 -3.5850166709236609e-05 -0.0030739615402989892 0 -4.6018663655382811e-05 -0.0034283549517985542 0 -5.2772943860949592e-05 -0.0035086232948991292 0 2.7009524328794245e-05 -0.0034480644536080598 0 -3.0435161549492685e-05 -0.0036543077948973375 0 0.00012010457597867853 -0.0038317675015014209 0 4.6915796168193406e-05 -0.00347393629213608 0 -3.5850166709236609e-05 -0.0030739615402989892 0 0.00013258403490886802 -0.0043142806664669747 0 0.00013229248774952648 -0.0044720145629363857 0 7.563855623657695e-05 -0.0044221540135499938 0 -1.2136323112692503e-05 -0.0038601086008444438 0 -2.9040810041953849e-05 -0.0038645223476847768 0 -1.2832893300311318e-05 -0.0038793461597365088 0 6.3817275136476918e-05 -0.0041099673224978287 0 0.00012010457597867853 -0.0038317675015014209 0 0.00013258403490886802 -0.0043142806664669747 0 0.00013229248774952648 -0.0044720145629363857 0 0.00019280451248414744 -0.0044715921147692253 0 0.00013229248774952648 -0.0044720145629363857 0 7.563855623657695e-05 -0.0044221540135499938 0 7.1511360288165676e-05 -0.0045398182459914661 0 0.00013258403490886802 -0.0043142806664669747 0 0.00019280451248414744 -0.0044715921147692253 0 0.00027332609557851115 -0.0044588647489540653 0 0.00026135953142589744 -0.0044909352408196825 0 0.00025607900510762085 -0.0045597588473873796 0 0.00014338599068295871 -0.0046089278530876488 0 6.8218298922637636e-05 -0.0039730118025417651 0 0.00011562036669833169 -0.0046291120020700823 0 0.00019280451248414744 -0.0044715921147692253 0 0.00026969138893207087 -0.0045011406490203217 0 0.0001559911043659637 -0.0046123146124529661 0 0.00013229248774952648 -0.0044720145629363857 0 0.00019280451248414744 -0.0044715921147692253 0 0.0001559911043659637 -0.0046123146124529661 0 0.00013229248774952648 -0.0044720145629363857 0 0.0001559911043659637 -0.0046123146124529661 0 7.1511360288165676e-05 -0.0045398182459914661 0 -4.3727295426707698e-05 -0.0035178068877491234 0 -5.2772943860949592e-05 -0.0035086232948991292 0 2.7009524328794245e-05 -0.0034480644536080598 0 0.00019280451248414744 -0.0044715921147692253 0 0.00027332609557851115 -0.0044588647489540653 0 0.00026969138893207087 -0.0045011406490203217 0 0.00015057596452536603 -0.0036722815037685099 0 0.00010869925607974246 -0.0036287682863994511 0 9.9768030507321005e-05 -0.0037198768876973189 0 4.6915796168193406e-05 -0.00347393629213608 0 0.00012010457597867853 -0.0038317675015014209 0 0.00012010457597867853 -0.0038317675015014209 0 6.8218298922637636e-05 -0.0039730118025417651 0 6.8218298922637636e-05 -0.0039730118025417651 0 6.7408600446312614e-05 -0.0041319511759790508 0 -8.0037519626497653e-05 -0.0036329620295193115 0 -6.0270305159093264e-05 -0.0036494764153785137 0 -8.6097506062255184e-05 -0.0036939192016819875 0 0.0001049275933441391 -0.0039002691528542892 0 6.7408600446312614e-05 -0.0041319511759790508 0 -5.8949274360154923e-05 -0.0036143552584785303 0 -8.0037519626497653e-05 -0.0036329620295193115 0 -6.0270305159093264e-05 -0.0036494764153785137 0 4.6915796168193406e-05 -0.00347393629213608 0 6.8218298922637636e-05 -0.0039730118025417651 0 -6.0270305159093264e-05 -0.0036494764153785137 0 -8.4891798509800868e-05 -0.0036879284674285876 0 4.6348212317324364e-05 -0.0037188611730332105 0 4.6915796168193406e-05 -0.00347393629213608 0 3.1891780235559223e-05 -0.0032093970757085316 0 -5.8949274360154923e-05 -0.0036143552584785303 0 -6.0270305159093264e-05 -0.0036494764153785137 0 4.6348212317324364e-05 -0.0037188611730332105 0 6.7408600446312614e-05 -0.0041319511759790508 0 2.4316618788097302e-05 -0.0041536346012952625 0 -8.4891798509800868e-05 -0.0036879284674285876 0 -3.2314261853778511e-05 -0.0037772132089952878 0 -0.00010520363530436747 -0.003861574321223314 0 -8.4891798509800868e-05 -0.0036879284674285876 0 -3.2314261853778511e-05 -0.0037772132089952878 0 4.6348212317324364e-05 -0.0037188611730332105 0 -3.2314261853778511e-05 -0.0037772132089952878 0 4.6348212317324364e-05 -0.0037188611730332105 0 1.4183612704570973e-05 -0.0038418364351364412 0 6.7408600446312614e-05 -0.0041319511759790508 0 0.00010322249760309846 -0.0046901607443237481 0 0.00016526256388714491 -0.0043528314930943229 0 7.4769369191347865e-05 -0.0045110479441688722 0 0.00015268811058224028 -0.0045043808253004787 0 0.00014338599068295871 -0.0046089278530876488 0 4.0443069979684955e-05 -0.0047210299823825666 0 0.00012658641627248714 -0.0047696603032332746 0 0.00025607900510762085 -0.0045597588473873796 0 0.00014338599068295871 -0.0046089278530876488 0 0.00012658641627248714 -0.0047696603032332746 0 0.00011562036669833169 -0.0046291120020700823 0 6.2088983970071213e-05 -0.00469729157693566 0 3.6196978857488247e-05 -0.0046254536323116543 0 -1.4931565153693905e-05 -0.0046892755448896444 0 4.0443069979684955e-05 -0.0047210299823825666 0 0.0001559911043659637 -0.0046123146124529661 0 3.6196978857488247e-05 -0.0046254536323116543 0 4.0443069979684955e-05 -0.0047210299823825666 0 0.0001559911043659637 -0.0046123146124529661 0 3.6196978857488247e-05 -0.0046254536323116543 0 7.1511360288165676e-05 -0.0045398182459914661 0 3.6196978857488247e-05 -0.0046254536323116543 0 -1.4931565153693905e-05 -0.0046892755448896444 0 -6.9313054544740027e-05 -0.00456288318942062 0 3.6196978857488247e-05 -0.0046254536323116543 0 -6.9313054544740027e-05 -0.00456288318942062 0 7.1511360288165676e-05 -0.0045398182459914661 0 -1.4931565153693905e-05 -0.0046892755448896444 0 -6.9313054544740027e-05 -0.00456288318942062 0 -9.2553289320589208e-05 -0.0047548014991595057 0 -3.0523474432864962e-05 -0.0046214935686977572 0 -4.712611623545666e-05 -0.0048142721204837407 0 -2.6528807227792982e-05 -0.0048247724294021698 0 -4.712611623545666e-05 -0.0048142721204837407 0 -7.1559988018022279e-05 -0.0047406506831612627 0 -1.592902400619434e-05 -0.0046897971585754521 0 -3.8240733653070349e-05 -0.0048203137423455692 0 -2.6528807227792982e-05 -0.0048247724294021698 0 -3.0523474432864962e-05 -0.0046214935686977572 0 -3.6705483176410993e-05 -0.0045917042296927642 0 1.8966798309616848e-05 -0.0047061856588264265 0 -7.6430071833355438e-05 -0.0046567669783486032 0 -2.6528807227792982e-05 -0.0048247724294021698 0 -1.865207129968966e-05 -0.0047763462846270952 0 -3.4955715583401982e-05 -0.0047557210231652831 0 1.8966798309616848e-05 -0.0047061856588264265 0 -7.6430071833355438e-05 -0.0046567669783486032 0 -3.6705483176410993e-05 -0.0045917042296927642 0 4.0155460527466467e-05 -0.0045807760735983938 0 1.8966798309616848e-05 -0.0047061856588264265 0 -3.0523474432864962e-05 -0.0046214935686977572 0 6.1448125840111672e-05 -0.0044245688718569263 0 -4.5619579733113405e-07 -0.0044943266376095319 0 -3.0523474432864962e-05 -0.0046214935686977572 0 -4.2635395736208567e-05 -0.0043636288637657738 0 -7.600960603215489e-05 -0.0045616901960268651 0 7.563855623657695e-05 -0.0044221540135499938 0 -6.9313054544740027e-05 -0.00456288318942062 0 7.563855623657695e-05 -0.0044221540135499938 0 7.1511360288165676e-05 -0.0045398182459914661 0 -7.178112635626235e-05 -0.0019559273756761825 0 -0.00010934614989023192 -0.0020324327685687931 0 -0.00018551532647660256 -0.0013535214023377958 0 -0.00021729605697343347 -0.0013651819803744689 0 -0.00019060801522457894 -0.0014008964422327433 0 -0.00018551532647660256 -0.0013535214023377958 0 -0.00018908919360553558 -0.0013193121564979639 0 -0.00021729605697343347 -0.0013651819803744689 0 3.0544328519465826e-05 -0.0026201935338684636 0 1.9644680389529382e-05 -0.0026285269671771313 0 2.6103718111277535e-05 -0.0026432090617281175 0 2.533032494388413e-05 -0.0026177108729794549 0 3.0544328519465826e-05 -0.0026201935338684636 0 1.9644680389529382e-05 -0.0026285269671771313 0 1.3255361730500028e-05 -0.0026174560468872161 0 2.533032494388413e-05 -0.0026177108729794549 0 1.9644680389529382e-05 -0.0026285269671771313 0 1.3255361730500028e-05 -0.0026174560468872161 0 1.9644680389529382e-05 -0.0026285269671771313 0 1.944335529190888e-06 -0.0026324812893869405 0 1.9644680389529382e-05 -0.0026285269671771313 0 2.6103718111277535e-05 -0.0026432090617281175 0 3.8012924676499273e-06 -0.002645741586728216 0 2.6103718111277535e-05 -0.0026432090617281175 0 3.8012924676499273e-06 -0.002645741586728216 0 4.8067347080826977e-06 -0.0026625681092654549 0 -6.1801878172345255e-06 -0.0026600914988064595 0 3.8012924676499273e-06 -0.002645741586728216 0 4.8067347080826977e-06 -0.0026625681092654549 0 -1.0303448843524589e-05 -0.0026479791632148752 0 -6.1801878172345255e-06 -0.0026600914988064595 0 3.8012924676499273e-06 -0.002645741586728216 0 -5.6600775064871318e-06 -0.0026415072801831418 0 1.944335529190888e-06 -0.0026324812893869405 0 -1.8714157330580436e-05 -0.0026397045715846807 0 -1.0303448843524589e-05 -0.0026479791632148752 0 -5.6600775064871318e-06 -0.0026415072801831418 0 3.8012924676499273e-06 -0.002645741586728216 0 -1.0303448843524589e-05 -0.0026479791632148752 0 -5.6600775064871318e-06 -0.0026415072801831418 0 -1.8714157330580436e-05 -0.0026397045715846807 0 -5.6600775064871318e-06 -0.0026415072801831418 0 3.8012924676499273e-06 -0.002645741586728216 0 1.944335529190888e-06 -0.0026324812893869405 0 -6.7458046452018637e-06 -0.0026109377801773535 0 -5.4466174633708153e-05 -0.0028675179661814547 0 -4.9432093133247889e-05 -0.0026797793348932474 0 -5.0525070938510323e-05 -0.0026776601518417398 0 -5.1796747747158744e-05 -0.0026855921641603798 0 1.3255361730500028e-05 -0.0026174560468872161 0 1.944335529190888e-06 -0.0026324812893869405 0 -1.8714157330580436e-05 -0.0026397045715846807 0 1.9644680389529382e-05 -0.0026285269671771313 0 3.8012924676499273e-06 -0.002645741586728216 0 1.944335529190888e-06 -0.0026324812893869405 0 -0.00025539898917053947 -0.0031489566706766423 0 -0.00018354155141741819 -0.0031607190401809872 0 -0.00017920546845527724 -0.0032569337116265073 0 -8.9924291493780328e-05 -0.00291405930930418 0 -5.4466174633708153e-05 -0.0028675179661814547 0 -0.00018354155141741819 -0.0031607190401809872 0 -0.00017920546845527724 -0.0032569337116265073 0 -0.00015426686316064364 -0.0032332342029101954 0 -0.00011394999472560698 -0.0031057535421604577 0 -0.00018354155141741819 -0.0031607190401809872 0 -0.00015426686316064364 -0.0032332342029101954 0 2.2068921518101975e-05 -0.0027034227751041658 0 3.6453106725315761e-06 -0.0027186698568733222 0 7.01934299111402e-07 -0.0027130505643362399 0 -1.0303448843524589e-05 -0.0026479791632148752 0 -1.8714157330580436e-05 -0.0026397045715846807 0 -2.4776089690386379e-05 -0.002653748121277649 0 -7.1514396413698992e-05 -0.0029289084974377807 0 -5.0183047924795382e-05 -0.002909137565083722 0 -6.1075917679757685e-05 -0.0029447920639214041 0 -5.4466174633708153e-05 -0.0028675179661814547 0 -6.4839602736235875e-05 -0.0027897823540416759 0 -3.5850166709236609e-05 -0.0030739615402989892 0 -5.4466174633708153e-05 -0.0028675179661814547 0 -1.0303448843524589e-05 -0.0026479791632148752 0 -6.1801878172345255e-06 -0.0026600914988064595 0 -2.4776089690386379e-05 -0.002653748121277649 0 -3.5850166709236609e-05 -0.0030739615402989892 0 -6.4839602736235875e-05 -0.0027897823540416759 0 7.01934299111402e-07 -0.0027130505643362399 0 3.1030487006223717e-06 -0.0026948732002804268 0 -3.7637696094105315e-06 -0.0026834892590974985 0 -6.4839602736235875e-05 -0.0027897823540416759 0 -1.0292548056986611e-05 -0.0026620900096873132 0 2.2068921518101975e-05 -0.0027034227751041658 0 3.1030487006223717e-06 -0.0026948732002804268 0 6.0231213896078778e-06 -0.0026876486429891987 0 2.2068921518101975e-05 -0.0027034227751041658 0 7.01934299111402e-07 -0.0027130505643362399 0 3.1030487006223717e-06 -0.0026948732002804268 0 3.1030487006223717e-06 -0.0026948732002804268 0 -3.7793170662592503e-09 -0.0026872167439340108 0 -3.7637696094105315e-06 -0.0026834892590974985 0 3.1030487006223717e-06 -0.0026948732002804268 0 6.0231213896078778e-06 -0.0026876486429891987 0 -3.7793170662592503e-09 -0.0026872167439340108 0 4.6348212317324364e-05 -0.0037188611730332105 0 0.00015716879243415119 -0.0038272247751808962 0 1.4183612704570973e-05 -0.0038418364351364412 0 -3.7793170662592503e-09 -0.0026872167439340108 0 -3.7637696094105315e-06 -0.0026834892590974985 0 -2.3490692145230302e-06 -0.0026884500108926932 0 6.0231213896078778e-06 -0.0026876486429891987 0 -3.7793170662592503e-09 -0.0026872167439340108 0 -2.3490692145230302e-06 -0.0026884500108926932 0 3.1891780235559223e-05 -0.0032093970757085316 0 -2.8991942384373032e-05 -0.0029253414579487732 0 -8.4864807010792332e-05 -0.0019051240446225921 0 -2.8991942384373032e-05 -0.0029253414579487732 0 -0.00024095742574385242 -0.0014137855869422388 0 -0.00021181286931564421 -0.001447243538486864 0 -0.00026529890814704906 -0.0014642207720620688 0 5.7193128552697641e-06 -0.0026805057592955892 0 -3.7637696094105315e-06 -0.0026834892590974985 0 -2.3490692145230302e-06 -0.0026884500108926932 0 -6.1801878172345255e-06 -0.0026600914988064595 0 -2.4776089690386379e-05 -0.002653748121277649 0 -3.7637696094105315e-06 -0.0026834892590974985 0 5.7193128552697641e-06 -0.0026805057592955892 0 -3.7637696094105315e-06 -0.0026834892590974985 0 4.8067347080826977e-06 -0.0026625681092654549 0 -6.1801878172345255e-06 -0.0026600914988064595 0 -3.7637696094105315e-06 -0.0026834892590974985 0 4.8067347080826977e-06 -0.0026625681092654549 0 -0.00021729605697343347 -0.0013651819803744689 0 -0.00024095742574385242 -0.0014137855869422388 0 -0.00019060801522457894 -0.0014008964422327433 0 -0.00010934614989023192 -0.0020324327685687931 0 -8.4864807010792332e-05 -0.0019051240446225921 0 2.6103718111277535e-05 -0.0026432090617281175 0 5.7193128552697641e-06 -0.0026805057592955892 0 4.8067347080826977e-06 -0.0026625681092654549 0 -0.00024095742574385242 -0.0014137855869422388 0 -0.00019060801522457894 -0.0014008964422327433 0 -0.00021181286931564421 -0.001447243538486864 0 -0.00019060801522457894 -0.0014008964422327433 0 -0.00021181286931564421 -0.001447243538486864 0 -0.00017207186439579733 -0.0014474736873044017 0 -0.00019314310017883469 -0.0014771244886881334 0 -0.00017207186439579733 -0.0014474736873044017 0 -0.00015920423904079511 -0.0014884783183208336 0 -0.00019314310017883469 -0.0014771244886881334 0 -0.00019493409006615905 -0.0015137062193993842 0 -0.00015920423904079511 -0.0014884783183208336 0 -0.00019314310017883469 -0.0014771244886881334 0 -0.00021181286931564421 -0.001447243538486864 0 -0.00017207186439579733 -0.0014474736873044017 0 -0.00019314310017883469 -0.0014771244886881334 0 -0.00021181286931564421 -0.001447243538486864 0 -0.00023035832076512318 -0.0014898126850648424 0 -9.0379015647701366e-05 -0.0026864958765959357 0 -6.8152865642199666e-05 -0.0027629362442583832 0 -0.00019314310017883469 -0.0014771244886881334 0 -0.00023035832076512318 -0.0014898126850648424 0 -0.00019493409006615905 -0.0015137062193993842 0 9.2975638336365479e-05 -0.0039612731765205104 0 8.7814681219609324e-05 -0.0040153878460294319 0 0.0001146522967085876 -0.0040050056749406249 0 9.2975638336365479e-05 -0.0039612731765205104 0 5.6921831342325058e-05 -0.0039138061196275576 0 2.3634871803649231e-05 -0.003978997634443638 0 9.2975638336365479e-05 -0.0039612731765205104 0 5.562041201810045e-05 -0.004017400839881502 0 2.3634871803649231e-05 -0.003978997634443638 0 -9.0379015647701366e-05 -0.0026864958765959357 0 -2.8991942384373032e-05 -0.0029253414579487732 0 -0.00021181286931564421 -0.001447243538486864 0 -0.00023035832076512318 -0.0014898126850648424 0 -0.00026529890814704906 -0.0014642207720620688 0 0.00015716879243415119 -0.0038272247751808962 0 1.4183612704570973e-05 -0.0038418364351364412 0 1.1746489884050962e-05 -0.0040293431418884076 0 -2.8991942384373032e-05 -0.0029253414579487732 0 -5.1429037572420391e-06 -0.0041486581827614478 0 5.562041201810045e-05 -0.004017400839881502 0 2.3634871803649231e-05 -0.003978997634443638 0 2.3970473845454095e-05 -0.0040402266533860086 0 5.562041201810045e-05 -0.004017400839881502 0 4.6163919407752966e-05 -0.0040589147757790125 0 2.3970473845454095e-05 -0.0040402266533860086 0 5.562041201810045e-05 -0.004017400839881502 0 4.6163919407752966e-05 -0.0040589147757790125 0 7.2126173422092151e-05 -0.0040508571302674719 0 4.6163919407752966e-05 -0.0040589147757790125 0 2.9813300781304503e-05 -0.0040856870214033688 0 5.749858929512438e-05 -0.0040839065893323503 0 4.6163919407752966e-05 -0.0040589147757790125 0 7.2126173422092151e-05 -0.0040508571302674719 0 5.749858929512438e-05 -0.0040839065893323503 0 7.2126173422092151e-05 -0.0040508571302674719 0 0.00010095844565486473 -0.0040416945357112004 0 8.373950971048559e-05 -0.0040746714886865619 0 7.2126173422092151e-05 -0.0040508571302674719 0 8.7814681219609324e-05 -0.0040153878460294319 0 0.00010095844565486473 -0.0040416945357112004 0 9.2975638336365479e-05 -0.0039612731765205104 0 5.562041201810045e-05 -0.004017400839881502 0 8.7814681219609324e-05 -0.0040153878460294319 0 5.562041201810045e-05 -0.004017400839881502 0 7.2126173422092151e-05 -0.0040508571302674719 0 8.7814681219609324e-05 -0.0040153878460294319 0 8.7814681219609324e-05 -0.0040153878460294319 0 0.00010095844565486473 -0.0040416945357112004 0 0.0001146522967085876 -0.0040050056749406249 0 0.00010095844565486473 -0.0040416945357112004 0 8.373950971048559e-05 -0.0040746714886865619 0 0.00010602700368697791 -0.0040650225289147234 0 0.00010095844565486473 -0.0040416945357112004 0 0.00012502915818584601 -0.0040402540797240712 0 0.00010602700368697791 -0.0040650225289147234 0 -0.00019493409006615905 -0.0015137062193993842 0 -0.00016382874552095753 -0.0015359539736553767 0 -0.00015920423904079511 -0.0014884783183208336 0 0.00010095844565486473 -0.0040416945357112004 0 0.0001146522967085876 -0.0040050056749406249 0 0.00012502915818584601 -0.0040402540797240712 0 -6.8152865642199666e-05 -0.0027629362442583832 0 0.00022617208945227072 -0.0027088588417265719 0 8.5255234533653704e-06 -0.0047660524385450716 0 0.00010322249760309846 -0.0046901607443237481 0 -2.8922346092919672e-05 -0.0048631609662238518 0 4.034232735974066e-06 -0.0049046545933706456 0 -3.2099841000488941e-05 -0.004897931338679184 0 -2.8922346092919672e-05 -0.0048631609662238518 0 4.034232735974066e-06 -0.0049046545933706456 0 2.535479444904521e-05 -0.0048140680751149068 0 -3.2099841000488941e-05 -0.004897931338679184 0 -4.0100780717597198e-05 -0.0049091531184831142 0 -3.8736238535518963e-05 -0.0048905211703021423 0 -3.2099841000488941e-05 -0.004897931338679184 0 -3.3580661689249834e-05 -0.0048790634002642023 0 -3.8736238535518963e-05 -0.0048905211703021423 0 -3.3580661689249834e-05 -0.0048790634002642023 0 -3.4417034657758887e-05 -0.0048761092957497138 0 -3.8736238535518963e-05 -0.0048905211703021423 0 -2.8922346092919672e-05 -0.0048631609662238518 0 -3.2099841000488941e-05 -0.004897931338679184 0 -3.3580661689249834e-05 -0.0048790634002642023 0 -2.8922346092919672e-05 -0.0048631609662238518 0 -3.3580661689249834e-05 -0.0048790634002642023 0 -3.0472302954237901e-05 -0.0048734319731354239 0 -3.2823760162370273e-05 -0.0048634857487940067 0 -3.4417034657758887e-05 -0.0048761092957497138 0 -2.9564812366282655e-05 -0.0048721812077432199 0 -3.6318622093463921e-05 -0.0048534236854645115 0 -4.712611623545666e-05 -0.0048142721204837407 0 -2.8922346092919672e-05 -0.0048631609662238518 0 -9.2553289320589208e-05 -0.0047548014991595057 0 -1.6685912710842289e-05 -0.0047738637254039042 0 -2.8922346092919672e-05 -0.0048631609662238518 0 -3.0472302954237901e-05 -0.0048734319731354239 0 -3.2778778093605399e-05 -0.004877743625501918 0 -3.3580661689249834e-05 -0.0048790634002642023 0 -3.0472302954237901e-05 -0.0048734319731354239 0 -3.4417034657758887e-05 -0.0048761092957497138 0 -3.0472302954237901e-05 -0.0048734319731354239 0 -3.4417034657758887e-05 -0.0048761092957497138 0 -2.9564812366282655e-05 -0.0048721812077432199 0 -4.7494083041464502e-05 -0.0048415627849788204 0 -4.712611623545666e-05 -0.0048142721204837407 0 -1.4931565153693905e-05 -0.0046892755448896444 0 -1.6685912710842289e-05 -0.0047738637254039042 0 4.0443069979684955e-05 -0.0047210299823825666 0 -1.4931565153693905e-05 -0.0046892755448896444 0 -9.2553289320589208e-05 -0.0047548014991595057 0 -1.6685912710842289e-05 -0.0047738637254039042 0 -1.6685912710842289e-05 -0.0047738637254039042 0 2.535479444904521e-05 -0.0048140680751149068 0 4.0443069979684955e-05 -0.0047210299823825666 0 4.034232735974066e-06 -0.0049046545933706456 0 2.535479444904521e-05 -0.0048140680751149068 0 0.00012658641627248714 -0.0047696603032332746 0 -2.8922346092919672e-05 -0.0048631609662238518 0 -1.6685912710842289e-05 -0.0047738637254039042 0 2.535479444904521e-05 -0.0048140680751149068 0 2.535479444904521e-05 -0.0048140680751149068 0 4.0443069979684955e-05 -0.0047210299823825666 0 0.00012658641627248714 -0.0047696603032332746 0 7.4769369191347865e-05 -0.0045110479441688722 0 0.00015268811058224028 -0.0045043808253004787 0 7.9214285327043491e-05 -0.0046042926526329601 0 1.4183612704570973e-05 -0.0038418364351364412 0 -0.00010520363530436747 -0.003861574321223314 0 1.1746489884050962e-05 -0.0040293431418884076 0 2.4316618788097302e-05 -0.0041536346012952625 0 2.416514468541047e-06 -0.0043907360170913354 0 -3.2314261853778511e-05 -0.0037772132089952878 0 1.4183612704570973e-05 -0.0038418364351364412 0 -0.00010520363530436747 -0.003861574321223314 0 -0.00010520363530436747 -0.003861574321223314 0 1.1746489884050962e-05 -0.0040293431418884076 0 -0.00012355440097691072 -0.004045964102049336 0 1.1746489884050962e-05 -0.0040293431418884076 0 -0.00012355440097691072 -0.004045964102049336 0 -0.00013930711215578211 -0.0042333090490820537 0 2.0475139722328089e-06 -0.0046539828961861315 0 7.4769369191347865e-05 -0.0045110479441688722 0 7.9214285327043491e-05 -0.0046042926526329601 0 0.00015268811058224028 -0.0045043808253004787 0 7.9214285327043491e-05 -0.0046042926526329601 0 0.00013514798201564489 -0.0046404254971692304 0 7.9214285327043491e-05 -0.0046042926526329601 0 0.00013514798201564489 -0.0046404254971692304 0 6.9434929117433692e-05 -0.0046878593465595458 0 2.0475139722328089e-06 -0.0046539828961861315 0 7.9214285327043491e-05 -0.0046042926526329601 0 6.9434929117433692e-05 -0.0046878593465595458 0 0.00013514798201564489 -0.0046404254971692304 0 6.9434929117433692e-05 -0.0046878593465595458 0 0.000114040267909086 -0.0047571383624035075 0 0.000114040267909086 -0.0047571383624035075 0 1.1057442422755887e-05 -0.0047959991648214894 0 2.5171010338283987e-05 -0.004736845532416485 0 2.416514468541047e-06 -0.0043907360170913354 0 -1.2947386696343774e-05 -0.0042637625152810565 0 6.9434929117433692e-05 -0.0046878593465595458 0 0.000114040267909086 -0.0047571383624035075 0 2.5171010338283987e-05 -0.004736845532416485 0 -5.1429037572420391e-06 -0.0041486581827614478 0 -1.2947386696343774e-05 -0.0042637625152810565 0 2.3634871803649231e-05 -0.003978997634443638 0 -6.2072327454378501e-06 -0.0040377777432982313 0 2.3970473845454095e-05 -0.0040402266533860086 0 4.6163919407752966e-05 -0.0040589147757790125 0 2.3970473845454095e-05 -0.0040402266533860086 0 2.9813300781304503e-05 -0.0040856870214033688 0 2.3970473845454095e-05 -0.0040402266533860086 0 -4.1996855155378217e-06 -0.0040707386948039201 0 2.9813300781304503e-05 -0.0040856870214033688 0 -6.2072327454378501e-06 -0.0040377777432982313 0 2.3970473845454095e-05 -0.0040402266533860086 0 -4.1996855155378217e-06 -0.0040707386948039201 0 -8.1918313862110656e-07 -0.0040318098122713933 0 -4.1996855155378217e-06 -0.0040707386948039201 0 -5.6825949275354617e-05 -0.0041098222673102633 0 0.000114040267909086 -0.0047571383624035075 0 1.1057442422755887e-05 -0.0047959991648214894 0 1.1582565868656085e-05 -0.0048599829145965666 0 -1.2947386696343774e-05 -0.0042637625152810565 0 -1.4942785024407313e-05 -0.0045057392179333362 0 -1.2947386696343774e-05 -0.0042637625152810565 0 2.3273053061805643e-06 -0.0040176386505638801 0 1.1057442422755887e-05 -0.0047959991648214894 0 2.5171010338283987e-05 -0.004736845532416485 0 -4.7531645420807202e-05 -0.004776570529022685 0 1.1057442422755887e-05 -0.0047959991648214894 0 -2.9781321091980964e-05 -0.0048402182308187785 0 1.1582565868656085e-05 -0.0048599829145965666 0 1.1057442422755887e-05 -0.0047959991648214894 0 -4.7531645420807202e-05 -0.004776570529022685 0 -2.9781321091980964e-05 -0.0048402182308187785 0 8.5255234533653704e-06 -0.0047660524385450716 0 -4.0603693077405503e-05 -0.0048457275246729086 0 2.0475139722328089e-06 -0.0046539828961861315 0 2.5171010338283987e-05 -0.004736845532416485 0 -4.7531645420807202e-05 -0.004776570529022685 0 2.0475139722328089e-06 -0.0046539828961861315 0 6.9434929117433692e-05 -0.0046878593465595458 0 2.5171010338283987e-05 -0.004736845532416485 0 4.034232735974066e-06 -0.0049046545933706456 0 -3.2099841000488941e-05 -0.004897931338679184 0 -3.7568247837897615e-05 -0.0049168397372444869 0 -3.2099841000488941e-05 -0.004897931338679184 0 -3.7568247837897615e-05 -0.0049168397372444869 0 -4.0100780717597198e-05 -0.0049091531184831142 0 -3.7568247837897615e-05 -0.0049168397372444869 0 -3.9831639768655742e-05 -0.0049050665098486906 0 -5.571804924751958e-05 -0.0048768172081700622 0 -4.7531645420807202e-05 -0.004776570529022685 0 -2.9781321091980964e-05 -0.0048402182308187785 0 -5.571804924751958e-05 -0.0048768172081700622 0 -3.7568247837897615e-05 -0.0049168397372444869 0 -3.9831639768655742e-05 -0.0049050665098486906 0 -4.0100780717597198e-05 -0.0049091531184831142 0 -4.0603693077405503e-05 -0.0048457275246729086 0 -5.2986254902648208e-05 -0.0048702099762622337 0 -3.9831639768655742e-05 -0.0049050665098486906 0 -4.1510171251836971e-05 -0.0049143969697469795 0 -4.0100780717597198e-05 -0.0049091531184831142 0 -3.9831639768655742e-05 -0.0049050665098486906 0 -4.1510171251836971e-05 -0.0049143969697469795 0 -4.3427488282221523e-05 -0.0049228949871931377 0 -4.1510171251836971e-05 -0.0049143969697469795 0 -4.4133378980876879e-05 -0.004926146812540555 0 -4.541848629764521e-05 -0.0049195843559273833 0 -4.1510171251836971e-05 -0.0049143969697469795 0 -4.4133378980876879e-05 -0.004926146812540555 0 -4.3427488282221523e-05 -0.0049228949871931377 0 -4.1510171251836971e-05 -0.0049143969697469795 0 -4.3315043980583824e-05 -0.0049110381441857904 0 -4.541848629764521e-05 -0.0049195843559273833 0 -4.3315043980583824e-05 -0.0049110381441857904 0 -5.019059476149415e-05 -0.0049044669468818565 0 -4.541848629764521e-05 -0.0049195843559273833 0 -4.1510171251836971e-05 -0.0049143969697469795 0 -4.3315043980583824e-05 -0.0049110381441857904 0 -4.0100780717597198e-05 -0.0049091531184831142 0 -4.3315043980583824e-05 -0.0049110381441857904 0 -4.0100780717597198e-05 -0.0049091531184831142 0 -4.3888447253713886e-05 -0.0048993885775846201 0 -4.0100780717597198e-05 -0.0049091531184831142 0 -3.8736238535518963e-05 -0.0048905211703021423 0 -4.3888447253713886e-05 -0.0048993885775846201 0 -3.8736238535518963e-05 -0.0048905211703021423 0 -4.3888447253713886e-05 -0.0048993885775846201 0 -4.5006158759412892e-05 -0.0048803281799557072 0 -4.3888447253713886e-05 -0.0048993885775846201 0 -5.019059476149415e-05 -0.0049044669468818565 0 -4.5006158759412892e-05 -0.0048803281799557072 0 -4.3315043980583824e-05 -0.0049110381441857904 0 -4.3888447253713886e-05 -0.0048993885775846201 0 -5.019059476149415e-05 -0.0049044669468818565 0 -1.89482106714784e-05 -0.0049283228587857142 0 -6.6825454395467515e-06 -0.0049183993413733995 0 2.6979152982542978e-05 -0.0049395640136670436 0 5.2890704376071127e-06 -0.0049374902684805374 0 1.8687751993838448e-05 -0.0049234397875865185 0 1.0161281466381235e-05 -0.0049556316793724553 0 2.6979152982542978e-05 -0.0049395640136670436 0 5.2890704376071127e-06 -0.0049374902684805374 0 -3.2823760162370273e-05 -0.0048634857487940067 0 -3.4417034657758887e-05 -0.0048761092957497138 0 -4.5006158759412892e-05 -0.0048803281799557072 0 -3.4417034657758887e-05 -0.0048761092957497138 0 -3.8736238535518963e-05 -0.0048905211703021423 0 -4.5006158759412892e-05 -0.0048803281799557072 0 -1.583048708112757e-05 -0.0049355962196849217 0 5.2890704376071127e-06 -0.0049374902684805374 0 -1.1072134656631963e-05 -0.004954460910947805 0 1.0161281466381235e-05 -0.0049556316793724553 0 -1.1072134656631963e-05 -0.004954460910947805 0 -5.4641259643031206e-06 -0.0049701735609314563 0 1.0161281466381235e-05 -0.0049556316793724553 0 5.2890704376071127e-06 -0.0049374902684805374 0 -1.1072134656631963e-05 -0.004954460910947805 0 -1.1072134656631963e-05 -0.004954460910947805 0 -5.4641259643031206e-06 -0.0049701735609314563 0 -1.6562997044066454e-05 -0.0049733114947080881 0 -1.89482106714784e-05 -0.0049283228587857142 0 -2.4957018568462457e-05 -0.0049478092629157092 0 -5.019059476149415e-05 -0.0049044669468818565 0 -4.6058762029545745e-05 -0.0049265339379193692 0 -4.541848629764521e-05 -0.0049195843559273833 0 -4.4133378980876879e-05 -0.004926146812540555 0 -4.541848629764521e-05 -0.0049195843559273833 0 -4.0954006821897818e-05 -0.0049372570834304158 0 -4.6058762029545745e-05 -0.0049265339379193692 0 -4.541848629764521e-05 -0.0049195843559273833 0 -4.0954006821897818e-05 -0.0049372570834304158 0 -2.4957018568462457e-05 -0.0049478092629157092 0 -2.486768542918381e-05 -0.0049624176699823563 0 -4.6058762029545745e-05 -0.0049265339379193692 0 -4.0954006821897818e-05 -0.0049372570834304158 0 -3.439890500568267e-05 -0.0049469979334268669 0 -5.4641259643031206e-06 -0.0049701735609314563 0 -1.8447766285537222e-05 -0.004979967368933874 0 -1.6562997044066454e-05 -0.0049733114947080881 0 -1.8447766285537222e-05 -0.004979967368933874 0 -2.008904218841461e-05 -0.0049764843323359311 0 -1.9547731069735142e-05 -0.0049807185755520083 0 -1.8447766285537222e-05 -0.004979967368933874 0 -2.008904218841461e-05 -0.0049764843323359311 0 -1.6562997044066454e-05 -0.0049733114947080881 0 -1.9547731069735142e-05 -0.0049807185755520083 0 -1.3191669568764201e-05 -0.004989647712892265 0 -1.1397391444275388e-05 -0.0049828927602337805 0 -2.008904218841461e-05 -0.0049764843323359311 0 -1.9547731069735142e-05 -0.0049807185755520083 0 -2.50952291267585e-05 -0.0049772214917633058 0 -1.9974645051795916e-05 -0.004982262498941608 0 -2.3696640039703974e-05 -0.0049855281405603294 0 -2.856665534299624e-05 -0.0049665914637918368 0 -4.4627739747581379e-05 -0.0049782969117942201 0 -5.2863302734053563e-05 -0.00496990285992351 0 -2.5802995971752833e-05 -0.0049667461666511575 0 -2.3696640039703974e-05 -0.0049855281405603294 0 -2.856665534299624e-05 -0.0049665914637918368 0 -5.2863302734053563e-05 -0.00496990285992351 0 -3.48925206833436e-05 -0.0049538472947975899 0 -2.008904218841461e-05 -0.0049764843323359311 0 -2.0927229805334574e-05 -0.0049688126237991438 0 -2.50952291267585e-05 -0.0049772214917633058 0 -1.1072134656631963e-05 -0.004954460910947805 0 -2.0927229805334574e-05 -0.0049688126237991438 0 -1.6562997044066454e-05 -0.0049733114947080881 0 -2.008904218841461e-05 -0.0049764843323359311 0 -2.0927229805334574e-05 -0.0049688126237991438 0 -1.6562997044066454e-05 -0.0049733114947080881 0 1.2987993152962045e-08 -0.0050000062988227352 0 -1.9991202049157399e-05 -0.0049842580999698198 0 -1.7055391489698462e-09 -0.0050000001615676457 0 -1.6690247804253568e-06 -0.0049995956130575265 0 -2.3607773084539116e-06 -0.0050015269349814595 0 -6.333396870691107e-06 -0.0049891572737991458 0 -1.3191669568764201e-05 -0.004989647712892265 0 -1.1397391444275388e-05 -0.0049828927602337805 0 -1.6690247804253568e-06 -0.0049995956130575265 0 -3.4175240628344322e-06 -0.0050004767974232648 0 -2.3607773084539116e-06 -0.0050015269349814595 0 -2.1671817494307395e-06 -0.0049941883317318487 0 -2.3696640039703974e-05 -0.0049855281405603294 0 -2.3696640039703974e-05 -0.0049855281405603294 0 -1.9991202049157399e-05 -0.0049842580999698198 0 8.7113185353687244e-12 -0.0049999998353097083 0 -2.6955367638472387e-07 -0.0049998772701462923 0 -1.4042891973531688e-10 -0.004999999866800893 0 -2.6955367638472387e-07 -0.0049998772701462923 0 -1.4042891973531688e-10 -0.004999999866800893 0 -2.6971411411091075e-08 -0.0049999993167692608 0 -1.4042891973531688e-10 -0.004999999866800893 0 -2.6971411411091075e-08 -0.0049999993167692608 0 -1.0749232723083977e-10 -0.0050000000739306282 0 -1.9991202049157399e-05 -0.0049842580999698198 0 -6.2342798695320124e-06 -0.0049905633900564975 0 -6.0913599539339878e-09 -0.0049999843772649977 0 -6.2342798695320124e-06 -0.0049905633900564975 0 -6.2342798695320124e-06 -0.0049905633900564975 0 -2.3183824027066684e-08 -0.0049999642560660737 0 1.1044589430838249e-11 -0.0049999999760014999 0 2.5951339624938189e-11 -0.0049999891446037932 0 -7.0137723853560703e-12 -0.0049999999931055064 0 -2.7010083699796267e-05 -0.0049709880341954919 0 -2.5813341704721784e-05 -0.0049638653965568989 0 -1.8070180501159997e-05 -0.0049634109000797786 0 -2.7010083699796267e-05 -0.0049709880341954919 0 -3.4245502230952676e-05 -0.0049634579973086724 0 -2.5813341704721784e-05 -0.0049638653965568989 0 -3.4245502230952676e-05 -0.0049634579973086724 0 -2.5813341704721784e-05 -0.0049638653965568989 0 -2.6600500222021112e-05 -0.0049579614667833345 0 -2.5813341704721784e-05 -0.0049638653965568989 0 -2.6600500222021112e-05 -0.0049579614667833345 0 -2.2302643888487746e-05 -0.004960205944589245 0 -6.2342798695320124e-06 -0.0049905633900564975 0 -1.4882798561887676e-05 -0.00497891151563666 0 -1.6019364112472099e-10 -0.0049999998327664285 0 -7.9184257585976485e-09 -0.004999984692384594 0 -1.7466017210451966e-09 -0.0049998392574055819 0 -1.6019364112472099e-10 -0.0049999998327664285 0 -1.7466017210451966e-09 -0.0049998392574055819 0 1.2254385733056936e-10 -0.005000000009584127 0 -1.7466017210451966e-09 -0.0049998392574055819 0 1.2254385733056936e-10 -0.005000000009584127 0 -4.6769564084495611e-09 -0.0049998655361611641 0 -1.1025175793382857e-05 -0.0049554668440535332 0 -2.5802995971752833e-05 -0.0049667461666511575 0 -1.1072134656631963e-05 -0.004954460910947805 0 -2.856665534299624e-05 -0.0049665914637918368 0 -3.48925206833436e-05 -0.0049538472947975899 0 -1.9991202049157399e-05 -0.0049842580999698198 0 -2.9688299248179988e-05 -0.0049571110947647041 0 -2.5813341704721784e-05 -0.0049638653965568989 0 -1.8070180501159997e-05 -0.0049634109000797786 0 -2.2302643888487746e-05 -0.004960205944589245 0 -2.6600500222021112e-05 -0.0049579614667833345 0 -1.8415288805385784e-05 -0.0049547254926838435 0 -1.8538082185830194e-05 -0.0049519201131935668 0 -2.6600500222021112e-05 -0.0049579614667833345 0 -2.2302643888487746e-05 -0.004960205944589245 0 -1.8415288805385784e-05 -0.0049547254926838435 0 -1.8070180501159997e-05 -0.0049634109000797786 0 -2.2302643888487746e-05 -0.004960205944589245 0 -1.8415288805385784e-05 -0.0049547254926838435 0 -1.4882798561887676e-05 -0.00497891151563666 0 -9.5209051931913789e-06 -0.0049707194641698763 0 -1.8070180501159997e-05 -0.0049634109000797786 0 -1.8415288805385784e-05 -0.0049547254926838435 0 -1.3500810193770696e-05 -0.0049528939123909769 0 -1.583048708112757e-05 -0.0049355962196849217 0 -1.1072134656631963e-05 -0.004954460910947805 0 -3.48925206833436e-05 -0.0049538472947975899 0 -1.1133795123991134e-05 -0.0049442024030389225 0 -2.9688299248179988e-05 -0.0049571110947647041 0 -7.3733137477204746e-06 -0.0049545611767195909 0 -1.8070180501159997e-05 -0.0049634109000797786 0 -1.3500810193770696e-05 -0.0049528939123909769 0 -1.3500810193770696e-05 -0.0049528939123909769 0 -1.8861230763405107e-05 -0.0049512132218144335 0 -8.7146225659055307e-06 -0.0049431742349848665 0 -7.3733137477204746e-06 -0.0049545611767195909 0 -1.3500810193770696e-05 -0.0049528939123909769 0 -8.7146225659055307e-06 -0.0049431742349848665 0 -9.5209051931913789e-06 -0.0049707194641698763 0 -7.4981512929016577e-06 -0.004953052843461917 0 -1.8415288805385784e-05 -0.0049547254926838435 0 -1.3500810193770696e-05 -0.0049528939123909769 0 -1.8861230763405107e-05 -0.0049512132218144335 0 -1.3190415998695687e-05 -0.0049561696705258899 0 -9.5209051931913789e-06 -0.0049707194641698763 0 -9.5209051931913789e-06 -0.0049707194641698763 0 1.0757532368048663e-06 -0.0049889899699956872 0 2.0566241392969666e-07 -0.0049995889885910139 0 3.6888164378042575e-07 -0.0049994325107612656 0 9.1884780246719245e-08 -0.0049996836997504039 0 -1.009016575123222e-06 -0.0049646992432733506 0 -3.6702723640942698e-07 -0.004973482658266231 0 -8.6466801736352897e-06 -0.0049695790928492222 0 -3.6702723640942698e-07 -0.004973482658266231 0 -7.7866785286794318e-06 -0.0049750268506059681 0 -8.6466801736352897e-06 -0.0049695790928492222 0 1.2254385733056936e-10 -0.005000000009584127 0 -4.3002356068088991e-10 -0.0049999993110517249 0 -4.6769564084495611e-09 -0.0049998655361611641 0 -4.3002356068088991e-10 -0.0049999993110517249 0 -4.6769564084495611e-09 -0.0049998655361611641 0 -1.6910768778923197e-08 -0.0049997136088891815 0 -1.7466017210451966e-09 -0.0049998392574055819 0 -4.6769564084495611e-09 -0.0049998655361611641 0 9.1884780246719245e-08 -0.0049996836997504039 0 -1.7466017210451966e-09 -0.0049998392574055819 0 2.0566241392969666e-07 -0.0049995889885910139 0 9.1884780246719245e-08 -0.0049996836997504039 0 -4.6769564084495611e-09 -0.0049998655361611641 0 9.1884780246719245e-08 -0.0049996836997504039 0 -1.6910768778923197e-08 -0.0049997136088891815 0 4.5621170316645794e-08 -0.0049994870761705841 0 -1.6910768778923197e-08 -0.0049997136088891815 0 -2.010433026004689e-07 -0.004999389189876152 0 3.6888164378042575e-07 -0.0049994325107612656 0 9.1884780246719245e-08 -0.0049996836997504039 0 4.5621170316645794e-08 -0.0049994870761705841 0 9.1884780246719245e-08 -0.0049996836997504039 0 4.5621170316645794e-08 -0.0049994870761705841 0 -1.6910768778923197e-08 -0.0049997136088891815 0 3.9934726018426488e-11 -0.0050000001023474388 0 -5.7252278567422402e-11 -0.0049999998869566346 0 4.7062461719746103e-08 -0.0050000243295205068 0 5.7580469971733178e-12 -0.0049999998713114065 0 -1.1466143433768016e-07 -0.0049996554601620556 0 -4.3002356068088991e-10 -0.0049999993110517249 0 -1.6910768778923197e-08 -0.0049997136088891815 0 -2.010433026004689e-07 -0.004999389189876152 0 -5.7252278567422402e-11 -0.0049999998869566346 0 4.7062461719746103e-08 -0.0050000243295205068 0 -1.4946297738370914e-07 -0.0049995843682154604 0 -2.010433026004689e-07 -0.004999389189876152 0 6.6619518571357057e-08 -0.0049991955554819049 0 -3.5473515714162615e-07 -0.0049987723532033427 0 4.5621170316645794e-08 -0.0049994870761705841 0 -2.010433026004689e-07 -0.004999389189876152 0 6.6619518571357057e-08 -0.0049991955554819049 0 3.6888164378042575e-07 -0.0049994325107612656 0 4.5621170316645794e-08 -0.0049994870761705841 0 6.6619518571357057e-08 -0.0049991955554819049 0 6.6619518571357057e-08 -0.0049991955554819049 0 -3.5473515714162615e-07 -0.0049987723532033427 0 6.9217252428709883e-07 -0.0049986583921358893 0 -1.1466143433768016e-07 -0.0049996554601620556 0 -2.7232471946392424e-07 -0.0049989034120008378 0 4.7062461719746103e-08 -0.0050000243295205068 0 -3.5473515714162615e-07 -0.0049987723532033427 0 -1.4946297738370914e-07 -0.0049995843682154604 0 -8.039042576177266e-10 -0.0049999975593407004 0 -5.7252278567422402e-11 -0.0049999998869566346 0 -1.4946297738370914e-07 -0.0049995843682154604 0 -8.039042576177266e-10 -0.0049999975593407004 0 -3.5473515714162615e-07 -0.0049987723532033427 0 -1.4946297738370914e-07 -0.0049995843682154604 0 -3.6702723640942698e-07 -0.004973482658266231 0 -3.6183837362823803e-06 -0.0049783262855339298 0 -7.7866785286794318e-06 -0.0049750268506059681 0 -3.6183837362823803e-06 -0.0049783262855339298 0 -6.9369051883391497e-06 -0.004981610938695159 0 -7.7866785286794318e-06 -0.0049750268506059681 0 1.0757532368048663e-06 -0.0049889899699956872 0 2.4325190878262398e-07 -0.004990209329695322 0 -3.6702723640942698e-07 -0.004973482658266231 0 -3.6183837362823803e-06 -0.0049783262855339298 0 4.1501031771383092e-07 -0.0049828585423462345 0 3.6888164378042575e-07 -0.0049994325107612656 0 6.6619518571357057e-08 -0.0049991955554819049 0 6.9217252428709883e-07 -0.0049986583921358893 0 -3.6183837362823803e-06 -0.0049783262855339298 0 4.1501031771383092e-07 -0.0049828585423462345 0 -6.9369051883391497e-06 -0.004981610938695159 0 -6.4903310750351499e-06 -0.0049900351093326561 0 4.1501031771383092e-07 -0.0049828585423462345 0 -6.9369051883391497e-06 -0.004981610938695159 0 -1.2235482358039184e-05 -0.0049850650110467853 0 -6.9369051883391497e-06 -0.004981610938695159 0 -1.1244460205332492e-05 -0.0049788046118334796 0 -6.9369051883391497e-06 -0.004981610938695159 0 -1.1244460205332492e-05 -0.0049788046118334796 0 -7.7866785286794318e-06 -0.0049750268506059681 0 -1.1244460205332492e-05 -0.0049788046118334796 0 -7.7866785286794318e-06 -0.0049750268506059681 0 -1.2814017924598678e-05 -0.0049729955510657434 0 -1.1911089832962741e-05 -0.0049733311759735926 0 -1.2814017924598678e-05 -0.0049729955510657434 0 -8.7786563469112806e-06 -0.004954351749495752 0 -1.0404731164896383e-05 -0.0049666257315318816 0 -1.8827828207583655e-05 -0.0049823857792322549 0 -1.1911089832962741e-05 -0.0049733311759735926 0 -8.7786563469112806e-06 -0.004954351749495752 0 1.100874557061931e-05 -0.0049581090307298931 0 -1.1244460205332492e-05 -0.0049788046118334796 0 -1.2814017924598678e-05 -0.0049729955510657434 0 -1.6232477687085698e-05 -0.0049799111402235603 0 -1.9140412427451023e-05 -0.0048530681059842824 0 -1.8827828207583655e-05 -0.0049823857792322549 0 -1.8471033461388838e-05 -0.0049850188949841379 0 -1.2235482358039184e-05 -0.0049850650110467853 0 -1.6232477687085698e-05 -0.0049799111402235603 0 -1.2235482358039184e-05 -0.0049850650110467853 0 -1.1244460205332492e-05 -0.0049788046118334796 0 -1.6232477687085698e-05 -0.0049799111402235603 0 -2.0496991191593045e-05 -0.0046847682330112463 0 -1.0437357071186534e-05 -0.0047085370944913753 0 -2.1102683455191698e-05 -0.0047153486442782057 0 -2.0496991191593045e-05 -0.0046847682330112463 0 -3.310946182302026e-05 -0.004684627042565892 0 -2.1102683455191698e-05 -0.0047153486442782057 0 -1.9140412427451023e-05 -0.0048530681059842824 0 -1.2462189596584004e-05 -0.0048495370340631231 0 6.064993912833421e-07 -0.0049344534301406133 0 -8.7786563469112806e-06 -0.004954351749495752 0 1.100874557061931e-05 -0.0049581090307298931 0 -7.5113921628269861e-06 -0.0046871364909889046 0 -1.4110379991797409e-05 -0.0046874078918264757 0 -1.3046443007237223e-05 -0.0046910107502171625 0 -1.0166877140376356e-05 -0.0046819305166859769 0 -7.5113921628269861e-06 -0.0046871364909889046 0 -1.4110379991797409e-05 -0.0046874078918264757 0 -2.0496991191593045e-05 -0.0046847682330112463 0 -1.4110379991797409e-05 -0.0046874078918264757 0 -1.5227692633224916e-05 -0.0046924682275238695 0 -2.3194340100179287e-05 -0.0046772727747591003 0 1.5542325649092012e-06 -0.0047279939044817254 0 -1.5602883704191008e-05 -0.0046927268550280904 0 -1.3046443007237223e-05 -0.0046910107502171625 0 -1.2862526374630213e-05 -0.0046992179294717473 0 -1.4110379991797409e-05 -0.0046874078918264757 0 -1.5227692633224916e-05 -0.0046924682275238695 0 -1.3046443007237223e-05 -0.0046910107502171625 0 1.5542325649092012e-06 -0.0047279939044817254 0 -1.2462189596584004e-05 -0.0048495370340631231 0 1.5542325649092012e-06 -0.0047279939044817254 0 7.0257747403108979e-07 -0.0047200089888093846 0 -4.3687524096825485e-06 -0.0046917035026814704 0 -1.3046443007237223e-05 -0.0046910107502171625 0 -1.2862526374630213e-05 -0.0046992179294717473 0 -7.5113921628269861e-06 -0.0046871364909889046 0 -4.3687524096825485e-06 -0.0046917035026814704 0 -1.3046443007237223e-05 -0.0046910107502171625 0 2.6654667449004471e-05 -0.0048635772720845944 0 1.4159320278809915e-05 -0.0048746529508648471 0 4.0095074120049807e-05 -0.0048968052207872511 0 -3.6705483176410993e-05 -0.0045917042296927642 0 -0.0001179442738448273 -0.0045580597390879087 0 -7.6430071833355438e-05 -0.0046567669783486032 0 -3.4027830620968773e-06 -0.0047220147217961663 0 -1.865207129968966e-05 -0.0047763462846270952 0 -2.7447572102332881e-05 -0.0045962220739137784 0 -3.4027830620968773e-06 -0.0047220147217961663 0 1.0088910002617427e-05 -0.0047987586171983404 0 1.9252710744770155e-07 -0.0047924655898064026 0 -1.8953821042478886e-06 -0.0048090213827856731 0 1.9252710744770155e-07 -0.0047924655898064026 0 -1.8953821042478886e-06 -0.0048090213827856731 0 -1.1207771066784799e-05 -0.0047887118827194411 0 2.2086371708204923e-06 -0.0047799350283006595 0 1.0088910002617427e-05 -0.0047987586171983404 0 1.9252710744770155e-07 -0.0047924655898064026 0 1.5542325649092012e-06 -0.0047279939044817254 0 -3.4027830620968773e-06 -0.0047220147217961663 0 2.2086371708204923e-06 -0.0047799350283006595 0 1.9252710744770155e-07 -0.0047924655898064026 0 -1.1207771066784799e-05 -0.0047887118827194411 0 -3.4027830620968773e-06 -0.0047220147217961663 0 3.1935464203731145e-06 -0.004878541727116441 0 -4.1098836066298608e-06 -0.0049652338148106654 0 -1.2462189596584004e-05 -0.0048495370340631231 0 2.770239633659703e-06 -0.0049342309292249118 0 1.8518397523837637e-05 -0.0049313785089994495 0 1.5489574494146191e-05 -0.0049247566650440187 0 3.1935464203731145e-06 -0.004878541727116441 0 -1.2462189596584004e-05 -0.0048495370340631231 0 2.5117903506045083e-05 -0.004896273047571763 0 2.0507409329792889e-05 -0.0049122512033617609 0 4.0511539144702343e-06 -0.0049153348649652387 0 3.1935464203731145e-06 -0.004878541727116441 0 6.5728228320091918e-06 -0.0049349751624646401 0 2.770239633659703e-06 -0.0049342309292249118 0 1.8518397523837637e-05 -0.0049313785089994495 0 4.9720325151013935e-06 -0.0049437061439716315 0 2.5117903506045083e-05 -0.004896273047571763 0 2.0507409329792889e-05 -0.0049122512033617609 0 3.4117839964047134e-05 -0.0049142366064379404 0 1.4159320278809915e-05 -0.0048746529508648471 0 4.0095074120049807e-05 -0.0048968052207872511 0 3.4117839964047134e-05 -0.0049142366064379404 0 4.7079821848512619e-05 -0.0049223534583268452 0 4.0095074120049807e-05 -0.0048968052207872511 0 3.4117839964047134e-05 -0.0049142366064379404 0 3.1935464203731145e-06 -0.004878541727116441 0 3.6782602406299907e-05 -0.0049161950861461093 0 4.7079821848512619e-05 -0.0049223534583268452 0 2.6979152982542978e-05 -0.0049395640136670436 0 3.4117839964047134e-05 -0.0049142366064379404 0 -2.6528807227792982e-05 -0.0048247724294021698 0 -6.6825454395467515e-06 -0.0049183993413733995 0 2.0507409329792889e-05 -0.0049122512033617609 0 3.4117839964047134e-05 -0.0049142366064379404 0 1.8687751993838448e-05 -0.0049234397875865185 0 2.6979152982542978e-05 -0.0049395640136670436 0 3.4117839964047134e-05 -0.0049142366064379404 0 1.8687751993838448e-05 -0.0049234397875865185 0 5.2890704376071127e-06 -0.0049374902684805374 0 1.8687751993838448e-05 -0.0049234397875865185 0 4.0511539144702343e-06 -0.0049153348649652387 0 2.0507409329792889e-05 -0.0049122512033617609 0 1.8687751993838448e-05 -0.0049234397875865185 0 4.0511539144702343e-06 -0.0049153348649652387 0 -1.583048708112757e-05 -0.0049355962196849217 0 5.2890704376071127e-06 -0.0049374902684805374 0 4.0511539144702343e-06 -0.0049153348649652387 0 -7.3733137477204746e-06 -0.0049545611767195909 0 -8.7146225659055307e-06 -0.0049431742349848665 0 4.9720325151013935e-06 -0.0049437061439716315 0 -1.1133795123991134e-05 -0.0049442024030389225 0 6.5728228320091918e-06 -0.0049349751624646401 0 -1.1911089832962741e-05 -0.0049733311759735926 0 -1.2814017924598678e-05 -0.0049729955510657434 0 -8.6466801736352897e-06 -0.0049695790928492222 0 -4.1098836066298608e-06 -0.0049652338148106654 0 -7.4981512929016577e-06 -0.004953052843461917 0 -7.7866785286794318e-06 -0.0049750268506059681 0 -1.2814017924598678e-05 -0.0049729955510657434 0 -8.6466801736352897e-06 -0.0049695790928492222 0 2.770239633659703e-06 -0.0049342309292249118 0 -8.7146225659055307e-06 -0.0049431742349848665 0 4.9720325151013935e-06 -0.0049437061439716315 0 0.00026943431172982753 0.00025987571565354463 0 0.00014438913937375627 0.00030662305119484904 0 0.00028248609762043857 0.00035604532856298523 0 0.00026943431172982753 0.00025987571565354463 0 0.00021698454393555009 0.00019561290779232187 0 0.00014438913937375627 0.00030662305119484904 0 0.00026943431172982753 0.00025987571565354463 0 0.00038579782799808075 0.00026345614711183397 0 0.00028248609762043857 0.00035604532856298523 0 0.00015080149068970948 0.00094811441008216127 0 0.00025578051168412687 0.00058991167714349832 0 0.00038579782799808075 0.00026345614711183397 0 0.0003198737734437887 0.0001750157119990878 0 0.00038577083479238253 0.00015400316190343255 0 0.00026943431172982753 0.00025987571565354463 0 0.00038579782799808075 0.00026345614711183397 0 0.0003198737734437887 0.0001750157119990878 0 0.00026943431172982753 0.00025987571565354463 0 0.0003198737734437887 0.0001750157119990878 0 0.00021698454393555009 0.00019561290779232187 0 0.0003198737734437887 0.0001750157119990878 0 0.00021698454393555009 0.00019561290779232187 0 0.00027986767637693742 0.00010993883006366847 0 0.00021698454393555009 0.00019561290779232187 0 0.00014686278024297891 0.00015553246303202646 0 0.00020143266438510371 9.3791711862469454e-05 0 0.00014686278024297891 0.00015553246303202646 0 5.669343740070655e-05 0.00016905440266938977 0 0.0001034162633087527 9.4194334231442408e-05 0 0.00014686278024297891 0.00015553246303202646 0 0.00012651521048878117 0.00022402419610555258 0 5.669343740070655e-05 0.00016905440266938977 0 0.00021698454393555009 0.00019561290779232187 0 0.00014686278024297891 0.00015553246303202646 0 0.00012651521048878117 0.00022402419610555258 0 0.00012651521048878117 0.00022402419610555258 0 5.669343740070655e-05 0.00016905440266938977 0 -3.3598439881763623e-06 0.00027903593956126377 0 5.669343740070655e-05 0.00016905440266938977 0 1.6219654150821844e-05 0.00010075628765224279 0 -6.7860006449307062e-05 0.00014182754164470819 0 0.00012651521048878117 0.00022402419610555258 0 0.00014438913937375627 0.00030662305119484904 0 -3.3598439881763623e-06 0.00027903593956126377 0 0.00021698454393555009 0.00019561290779232187 0 0.00012651521048878117 0.00022402419610555258 0 0.00014438913937375627 0.00030662305119484904 0 0.00014438913937375627 0.00030662305119484904 0 0.00012508163569105647 0.00038100801224715875 0 0.00028248609762043857 0.00035604532856298523 0 0.00012508163569105647 0.00038100801224715875 0 5.2297910889487106e-05 0.00040298191354608731 0 -3.3598439881763623e-06 0.00027903593956126377 0 0.00028096739681485259 -0.0010059002992267923 0 0.00019910877891696498 -0.0012144817213456116 0 0.00017555030511581595 -0.00098385560227880176 0 0.00017730680571103312 -0.00026752762937844963 0 9.2944431372644849e-05 -0.00047886050512967605 0 0.00014438913937375627 0.00030662305119484904 0 0.00012508163569105647 0.00038100801224715875 0 -3.3598439881763623e-06 0.00027903593956126377 0 0.00017730680571103312 -0.00026752762937844963 0 0.00017578683671949085 -0.00027971423204906049 0 0.00028096739681485259 -0.0010059002992267923 0 0.00017555030511581595 -0.00098385560227880176 0 0.00035977870907362734 -0.00076188081273387579 0 7.0730192774013802e-05 -0.0012912209715238328 0 7.2478694843058965e-05 -0.0012468221424679871 0 0.00011812578713547927 -0.0012341693123068408 0 9.9065315048161158e-05 -0.0012586398499735475 0 0.00017578683671949085 -0.00027971423204906049 0 5.2297910889487106e-05 0.00040298191354608731 0 0.00011475679633890271 0.00043484946248591931 0 9.8258157343415837e-05 0.00051399568680428722 0 0.00012508163569105647 0.00038100801224715875 0 5.2297910889487106e-05 0.00040298191354608731 0 0.00011475679633890271 0.00043484946248591931 0 0.00019472159647547643 0.00074862624102346341 0 0.00017578683671949085 -0.00027971423204906049 0 0.00018360716152201171 0.00043944895470324961 0 0.00011475679633890271 0.00043484946248591931 0 9.8258157343415837e-05 0.00051399568680428722 0 0.00029079508602782722 0.00080716762714470218 0 0.00026860516539393005 0.00073036967290442069 0 0.00047101856742237349 0.0006148514803201036 0 0.00012508163569105647 0.00038100801224715875 0 0.00018360716152201171 0.00043944895470324961 0 0.00011475679633890271 0.00043484946248591931 0 0.00018291713289894402 0.00086652772870022914 0 0.00015535357755922834 0.00089359936802833233 0 2.5948742332492215e-05 0.0015112232403320166 0 0.00010175329931071005 0.0013413404183788042 0 0.00014387269244535325 0.00092273391824972768 0 0.00013419550631746681 0.00091140144085141261 0 0.00014687614615495771 0.0009283506824364435 0 0.00029079508602782722 0.00080716762714470218 0 0.00026860516539393005 0.00073036967290442069 0 0.00013966352996811203 0.00091684694395335474 0 0.00014387269244535325 0.00092273391824972768 0 0.00013419550631746681 0.00091140144085141261 0 0.00013966352996811203 0.00091684694395335474 0 -4.5665247800499876e-06 0.0018927307521676283 0 1.7537377308256434e-06 0.0018295535941579811 0 9.2367619385233388e-05 0.001781799084966493 0 0.00019472159647547643 0.00074862624102346341 0 0.00025578051168412687 0.00058991167714349832 0 0.00029079508602782722 0.00080716762714470218 0 0.00014747631586480275 0.00095895732740511515 0 0.00013966352996811203 0.00091684694395335474 0 0.00012508163569105647 0.00038100801224715875 0 0.00018360716152201171 0.00043944895470324961 0 0.00028248609762043857 0.00035604532856298523 0 5.1293918105684039e-05 0.0010550785099374715 0 0.00014747631586480275 0.00095895732740511515 0 0.00013419550631746681 0.00091140144085141261 0 -4.5665247800499876e-06 0.0018927307521676283 0 -4.877297832035226e-05 0.0018834034185203957 0 -4.5128631657896377e-05 0.0018967323395463914 0 -5.1563139292352345e-05 0.0018925699750192179 0 -4.5665247800499876e-06 0.0018927307521676283 0 -4.5128631657896377e-05 0.0018967323395463914 0 0.00015080149068970948 0.00094811441008216127 0 2.5948742332492215e-05 0.0015112232403320166 0 0.00014747631586480275 0.00095895732740511515 0 0.00013419550631746681 0.00091140144085141261 0 0.00013966352996811203 0.00091684694395335474 0 -4.5665247800499876e-06 0.0018927307521676283 0 1.7537377308256434e-06 0.0018295535941579811 0 -4.877297832035226e-05 0.0018834034185203957 0 -2.6445636903999828e-05 0.0018099061629287675 0 -8.029503988521399e-05 0.0019148575365374892 0 1.7537377308256434e-06 0.0018295535941579811 0 -4.877297832035226e-05 0.0018834034185203957 0 -9.3394944079625586e-05 0.001850623980740818 0 -4.877297832035226e-05 0.0018834034185203957 0 -3.1397745044608118e-05 0.001931050354223389 0 -3.7947385570546764e-05 0.0019137983692534024 0 -5.8353265774367075e-05 0.001873813599901263 0 -5.9628995135122661e-05 0.0019635550448511272 0 -4.877297832035226e-05 0.0018834034185203957 0 -0.00013467852717736833 0.0018799326596685274 0 -0.0001276389868581605 0.0018707297730631203 0 -4.877297832035226e-05 0.0018834034185203957 0 -9.3394944079625586e-05 0.001850623980740818 0 -0.0001276389868581605 0.0018707297730631203 0 -3.472345369145812e-05 0.0019571950593263963 0 -4.5882465965435364e-05 0.0019574157448682124 0 -5.4849437428016358e-05 0.0019691473314767632 0 -8.029503988521399e-05 0.0019148575365374892 0 -5.3936172581744035e-05 0.0019907762791570313 0 -8.029503988521399e-05 0.0019148575365374892 0 3.1050666722390698e-05 0.0020394741595987538 0 3.1050666722390698e-05 0.0020394741595987538 0 -5.3936172581744035e-05 0.0019907762791570313 0 -3.1397745044608118e-05 0.001931050354223389 0 -3.7947385570546764e-05 0.0019137983692534024 0 -3.2050162779428811e-05 0.0019242571216418153 0 -4.8553714892697395e-05 0.0020038291880971433 0 -4.2621982138531056e-05 0.0019962950618088995 0 -5.5204933721286909e-05 0.0020034055705414008 0 -5.3936172581744035e-05 0.0019907762791570313 0 -5.4036240505524502e-05 0.0020098277478197073 0 -5.9628995135122661e-05 0.0019635550448511272 0 -5.3936172581744035e-05 0.0019907762791570313 0 -3.1397745044608118e-05 0.001931050354223389 0 -2.9326876413890212e-05 0.001928214411570546 0 -3.2050162779428811e-05 0.0019242571216418153 0 -3.7947385570546764e-05 0.0019137983692534024 0 -3.5158746598445052e-05 0.0019137213300821252 0 -4.3689293000756769e-05 0.0019042409228173108 0 -3.2445867868496305e-05 0.0019201457583591347 0 -2.8014665693092778e-05 0.0019263731148934419 0 -2.7335810541344466e-05 0.0019223490362764676 0 -2.9326876413890212e-05 0.001928214411570546 0 -3.2050162779428811e-05 0.0019242571216418153 0 -2.8014665693092778e-05 0.0019263731148934419 0 -3.2050162779428811e-05 0.0019242571216418153 0 -3.2445867868496305e-05 0.0019201457583591347 0 -2.8014665693092778e-05 0.0019263731148934419 0 -3.7947385570546764e-05 0.0019137983692534024 0 -3.2050162779428811e-05 0.0019242571216418153 0 -3.2445867868496305e-05 0.0019201457583591347 0 -3.7947385570546764e-05 0.0019137983692534024 0 -3.2445867868496305e-05 0.0019201457583591347 0 -3.5158746598445052e-05 0.0019137213300821252 0 -3.2445867868496305e-05 0.0019201457583591347 0 -3.5158746598445052e-05 0.0019137213300821252 0 -2.7335810541344466e-05 0.0019223490362764676 0 -2.8473995281624565e-05 0.0019155942685957525 0 -3.5158746598445052e-05 0.0019137213300821252 0 -3.8304432573942288e-05 0.001903217214142444 0 -2.8473995281624565e-05 0.0019155942685957525 0 -3.5158746598445052e-05 0.0019137213300821252 0 -2.7335810541344466e-05 0.0019223490362764676 0 -2.8473995281624565e-05 0.0019155942685957525 0 -3.8304432573942288e-05 0.001903217214142444 0 -2.9809805974958667e-05 0.0019067875154899505 0 -4.3689293000756769e-05 0.0019042409228173108 0 -4.7459986729782694e-05 0.0018945804022599637 0 -3.8304432573942288e-05 0.001903217214142444 0 -3.5158746598445052e-05 0.0019137213300821252 0 -4.3689293000756769e-05 0.0019042409228173108 0 -3.8304432573942288e-05 0.001903217214142444 0 -4.877297832035226e-05 0.0018834034185203957 0 -3.7947385570546764e-05 0.0019137983692534024 0 -4.3689293000756769e-05 0.0019042409228173108 0 -4.3689293000756769e-05 0.0019042409228173108 0 -4.5128631657896377e-05 0.0018967323395463914 0 -4.7459986729782694e-05 0.0018945804022599637 0 -4.877297832035226e-05 0.0018834034185203957 0 -4.3689293000756769e-05 0.0019042409228173108 0 -4.5128631657896377e-05 0.0018967323395463914 0 0.00010124355817246718 0.0021901561421072374 0 9.5184531884510951e-05 0.0021705820265636323 0 4.1944740061901725e-05 0.0021226741807979553 0 -5.4036240505524502e-05 0.0020098277478197073 0 4.4210429223295915e-05 0.0021273183498433617 0 1.1825338960340349e-05 0.0021396674618041037 0 -1.3526699099051033e-05 0.0021213889270972654 0 4.286654765407984e-05 0.0020885125167200507 0 -0.00011741988382017997 0.0020820538243128783 0 2.1128244022954655e-06 0.0020539110388767866 0 4.4210429223295915e-05 0.0021273183498433617 0 1.1825338960340349e-05 0.0021396674618041037 0 5.9496003604802676e-05 0.0021445145823942606 0 4.286654765407984e-05 0.0020885125167200507 0 2.1128244022954655e-06 0.0020539110388767866 0 5.3542791135031608e-05 0.0020543111800043973 0 3.1050666722390698e-05 0.0020394741595987538 0 0.00010124355817246718 0.0021901561421072374 0 -3.1120971680239071e-05 0.0021372701772388288 0 -2.2245933001956504e-05 0.0021261306356951978 0 1.1825338960340349e-05 0.0021396674618041037 0 -2.2245933001956504e-05 0.0021261306356951978 0 1.1825338960340349e-05 0.0021396674618041037 0 -1.3526699099051033e-05 0.0021213889270972654 0 -5.4036240505524502e-05 0.0020098277478197073 0 -1.491240638724307e-05 0.0019912520209305522 0 -5.9628995135122661e-05 0.0019635550448511272 0 -5.4036240505524502e-05 0.0020098277478197073 0 -2.6186389695686388e-05 0.0019342738647521794 0 -2.5754799795712671e-05 0.0019313214387587673 0 -1.8253049200795872e-05 0.0019320150157263298 0 -2.9326876413890212e-05 0.001928214411570546 0 -2.5754799795712671e-05 0.0019313214387587673 0 -2.8014665693092778e-05 0.0019263731148934419 0 -2.8514370267707355e-05 0.0019341755005134788 0 -2.6186389695686388e-05 0.0019342738647521794 0 -2.5754799795712671e-05 0.0019313214387587673 0 -5.9628995135122661e-05 0.0019635550448511272 0 -4.7098290323887749e-05 0.0019488705718493577 0 -3.1397745044608118e-05 0.001931050354223389 0 -2.9326876413890212e-05 0.001928214411570546 0 -2.5754799795712671e-05 0.0019313214387587673 0 -0.00011741988382017997 0.0020820538243128783 0 -3.6877118131885465e-05 0.0020354730413771195 0 2.1128244022954655e-06 0.0020539110388767866 0 -2.8014665693092778e-05 0.0019263731148934419 0 -1.8253049200795872e-05 0.0019320150157263298 0 -2.7335810541344466e-05 0.0019223490362764676 0 -2.5754799795712671e-05 0.0019313214387587673 0 -2.8014665693092778e-05 0.0019263731148934419 0 -1.8253049200795872e-05 0.0019320150157263298 0 -1.8253049200795872e-05 0.0019320150157263298 0 -2.1664135686119019e-05 0.0019233182030659482 0 -1.2817590540196275e-05 0.0019286282083792736 0 -1.8253049200795872e-05 0.0019320150157263298 0 -2.7335810541344466e-05 0.0019223490362764676 0 -2.1664135686119019e-05 0.0019233182030659482 0 -2.8473995281624565e-05 0.0019155942685957525 0 -2.7335810541344466e-05 0.0019223490362764676 0 -2.1664135686119019e-05 0.0019233182030659482 0 -2.8473995281624565e-05 0.0019155942685957525 0 -2.1664135686119019e-05 0.0019233182030659482 0 -2.0338079889134452e-05 0.0019172385069771366 0 -2.8473995281624565e-05 0.0019155942685957525 0 -2.0338079889134452e-05 0.0019172385069771366 0 -2.9809805974958667e-05 0.0019067875154899505 0 -2.1664135686119019e-05 0.0019233182030659482 0 -2.0338079889134452e-05 0.0019172385069771366 0 -1.2817590540196275e-05 0.0019286282083792736 0 -1.2817590540196275e-05 0.0019286282083792736 0 1.9396000181217575e-06 0.0019467958161575065 0 -3.9846034458910029e-06 0.0019205792390890612 0 -2.0338079889134452e-05 0.0019172385069771366 0 -1.2817590540196275e-05 0.0019286282083792736 0 -3.9846034458910029e-06 0.0019205792390890612 0 -1.8253049200795872e-05 0.0019320150157263298 0 -1.2817590540196275e-05 0.0019286282083792736 0 1.9396000181217575e-06 0.0019467958161575065 0 -2.6186389695686388e-05 0.0019342738647521794 0 -1.8253049200795872e-05 0.0019320150157263298 0 1.9396000181217575e-06 0.0019467958161575065 0 1.9396000181217575e-06 0.0019467958161575065 0 2.0739897017255819e-05 0.0019386788176909446 0 -3.9846034458910029e-06 0.0019205792390890612 0 -1.491240638724307e-05 0.0019912520209305522 0 3.8841390718361239e-05 0.0019743258363008978 0 1.9396000181217575e-06 0.0019467958161575065 0 2.0739897017255819e-05 0.0019386788176909446 0 4.3711051485645983e-05 0.001979283281361442 0 2.1128244022954655e-06 0.0020539110388767866 0 4.3711051485645983e-05 0.001979283281361442 0 5.3542791135031608e-05 0.0020543111800043973 0 -3.6877118131885465e-05 0.0020354730413771195 0 2.1128244022954655e-06 0.0020539110388767866 0 4.3711051485645983e-05 0.001979283281361442 0 2.9388693232621115e-05 0.0019037040374385921 0 5.3156496323349041e-05 0.0019318681496631681 0 7.965739402879741e-05 0.0018908495237302217 0 2.9388693232621115e-05 0.0019037040374385921 0 2.0739897017255819e-05 0.0019386788176909446 0 5.3156496323349041e-05 0.0019318681496631681 0 2.0739897017255819e-05 0.0019386788176909446 0 4.3711051485645983e-05 0.001979283281361442 0 5.3156496323349041e-05 0.0019318681496631681 0 2.9388693232621115e-05 0.0019037040374385921 0 2.0739897017255819e-05 0.0019386788176909446 0 -3.9846034458910029e-06 0.0019205792390890612 0 2.9388693232621115e-05 0.0019037040374385921 0 2.6235066537706639e-06 0.0018898977005064352 0 -3.9846034458910029e-06 0.0019205792390890612 0 2.6235066537706639e-06 0.0018898977005064352 0 -1.7776501121421744e-05 0.001890107354439676 0 -6.1800514074009938e-06 0.0018689175784091579 0 2.6235066537706639e-06 0.0018898977005064352 0 -3.9846034458910029e-06 0.0019205792390890612 0 -1.7776501121421744e-05 0.001890107354439676 0 -3.9846034458910029e-06 0.0019205792390890612 0 -2.1901267956559782e-05 0.0019063309321695739 0 -1.7776501121421744e-05 0.001890107354439676 0 -2.0338079889134452e-05 0.0019172385069771366 0 -3.9846034458910029e-06 0.0019205792390890612 0 -2.1901267956559782e-05 0.0019063309321695739 0 -2.0338079889134452e-05 0.0019172385069771366 0 -2.1901267956559782e-05 0.0019063309321695739 0 -2.9809805974958667e-05 0.0019067875154899505 0 -2.1901267956559782e-05 0.0019063309321695739 0 -1.7776501121421744e-05 0.001890107354439676 0 -3.297515077999348e-05 0.001894888961323916 0 -1.7776501121421744e-05 0.001890107354439676 0 -2.324275178022031e-05 0.0018650519171955334 0 -6.1800514074009938e-06 0.0018689175784091579 0 -2.324275178022031e-05 0.0018650519171955334 0 -9.8452727716448928e-06 0.0018397068396731964 0 -6.1800514074009938e-06 0.0018689175784091579 0 -1.7776501121421744e-05 0.001890107354439676 0 -2.324275178022031e-05 0.0018650519171955334 0 -3.2457389303937216e-05 0.0018794810541994918 0 -2.324275178022031e-05 0.0018650519171955334 0 -9.8452727716448928e-06 0.0018397068396731964 0 -3.4936314833246881e-05 0.0018414541149369577 0 -9.8452727716448928e-06 0.0018397068396731964 0 1.5283094564255646e-05 0.0018607421525740182 0 1.3883941948519866e-05 0.0018238688599127449 0 -9.8452727716448928e-06 0.0018397068396731964 0 -6.1800514074009938e-06 0.0018689175784091579 0 1.5283094564255646e-05 0.0018607421525740182 0 2.6235066537706639e-06 0.0018898977005064352 0 -6.1800514074009938e-06 0.0018689175784091579 0 1.5283094564255646e-05 0.0018607421525740182 0 2.9388693232621115e-05 0.0019037040374385921 0 2.6235066537706639e-06 0.0018898977005064352 0 1.5283094564255646e-05 0.0018607421525740182 0 2.9388693232621115e-05 0.0019037040374385921 0 1.5283094564255646e-05 0.0018607421525740182 0 5.4704938388901987e-05 0.0018599380501173757 0 1.5283094564255646e-05 0.0018607421525740182 0 4.7535033120794747e-05 0.0018191253008951107 0 1.3883941948519866e-05 0.0018238688599127449 0 1.5283094564255646e-05 0.0018607421525740182 0 5.4704938388901987e-05 0.0018599380501173757 0 4.7535033120794747e-05 0.0018191253008951107 0 2.9388693232621115e-05 0.0019037040374385921 0 5.4704938388901987e-05 0.0018599380501173757 0 7.965739402879741e-05 0.0018908495237302217 0 -5.1563139292352345e-05 0.0018925699750192179 0 -4.7459986729782694e-05 0.0018945804022599637 0 -4.9437517374560797e-05 0.0018779150319340123 0 -5.1563139292352345e-05 0.0018925699750192179 0 -4.5128631657896377e-05 0.0018967323395463914 0 -4.7459986729782694e-05 0.0018945804022599637 0 -4.7459986729782694e-05 0.0018945804022599637 0 -3.8304432573942288e-05 0.001903217214142444 0 -4.2678989002067999e-05 0.0018871082151241635 0 -3.8304432573942288e-05 0.001903217214142444 0 -3.297515077999348e-05 0.001894888961323916 0 -4.2678989002067999e-05 0.0018871082151241635 0 -3.8304432573942288e-05 0.001903217214142444 0 -2.9809805974958667e-05 0.0019067875154899505 0 -3.297515077999348e-05 0.001894888961323916 0 -2.1901267956559782e-05 0.0019063309321695739 0 -2.9809805974958667e-05 0.0019067875154899505 0 -3.297515077999348e-05 0.001894888961323916 0 -3.2457389303937216e-05 0.0018794810541994918 0 -3.297515077999348e-05 0.001894888961323916 0 -4.2678989002067999e-05 0.0018871082151241635 0 -1.7776501121421744e-05 0.001890107354439676 0 -3.2457389303937216e-05 0.0018794810541994918 0 -3.297515077999348e-05 0.001894888961323916 0 -3.2457389303937216e-05 0.0018794810541994918 0 -4.2678989002067999e-05 0.0018871082151241635 0 -4.4653439900080312e-05 0.0018696374199023503 0 -4.7459986729782694e-05 0.0018945804022599637 0 -4.2678989002067999e-05 0.0018871082151241635 0 -4.9437517374560797e-05 0.0018779150319340123 0 -4.2678989002067999e-05 0.0018871082151241635 0 -4.4653439900080312e-05 0.0018696374199023503 0 -4.9437517374560797e-05 0.0018779150319340123 0 -4.4653439900080312e-05 0.0018696374199023503 0 -4.9437517374560797e-05 0.0018779150319340123 0 -5.7387046766476269e-05 0.0018375694144413003 0 -3.2457389303937216e-05 0.0018794810541994918 0 -4.4653439900080312e-05 0.0018696374199023503 0 -3.8564050238768175e-05 0.0018587902039386961 0 -2.324275178022031e-05 0.0018650519171955334 0 -3.2457389303937216e-05 0.0018794810541994918 0 -3.8564050238768175e-05 0.0018587902039386961 0 -3.8564050238768175e-05 0.0018587902039386961 0 -3.4936314833246881e-05 0.0018414541149369577 0 -5.7387046766476269e-05 0.0018375694144413003 0 -2.324275178022031e-05 0.0018650519171955334 0 -3.8564050238768175e-05 0.0018587902039386961 0 -3.4936314833246881e-05 0.0018414541149369577 0 -4.4653439900080312e-05 0.0018696374199023503 0 -3.8564050238768175e-05 0.0018587902039386961 0 -5.7387046766476269e-05 0.0018375694144413003 0 0.00015080149068970948 0.00094811441008216127 0 0.00047840468291600785 8.3116859020403972e-05 0 -5.1563139292352345e-05 0.0018925699750192179 0 -4.9437517374560797e-05 0.0018779150319340123 0 -5.7387046766476269e-05 0.0018375694144413003 0 0.00038579782799808075 0.00026345614711183397 0 0.00038577083479238253 0.00015400316190343255 0 0.00044195070134668552 0.00016547435166993792 0 0.00031684146226207839 0.00038988439897534946 0 0.00039980150215759033 0.00021238236634166948 0 0.00050165451548044493 0.00016721796170388232 0 0.00015080149068970948 0.00094811441008216127 0 0.00020724643372010791 0.0010392667549064319 0 0.00038577083479238253 0.00015400316190343255 0 0.00044195070134668552 0.00016547435166993792 0 0.00042212474554267329 9.886235872916675e-05 0 0.00047840468291600785 8.3116859020403972e-05 0 0.00045612897890632523 0.00013791900850796031 0 0.00044195070134668552 0.00016547435166993792 0 0.00042212474554267329 9.886235872916675e-05 0 0.00048509659570453146 9.0828525222077478e-05 0 0.00039980150215759033 0.00021238236634166948 0 0.00048509659570453146 9.0828525222077478e-05 0 0.00050165451548044493 0.00016721796170388232 0 0.00050165451548044493 0.00016721796170388232 0 0.00051804080478863037 8.0240389546010592e-05 0 0.00053006556083444445 6.075223377325396e-05 0 0.00020724643372010791 0.0010392667549064319 0 0.00026263243843354262 0.00089127630508402834 0 0.00048509659570453146 9.0828525222077478e-05 0 0.00050165451548044493 0.00016721796170388232 0 0.00051804080478863037 8.0240389546010592e-05 0 -3.4936314833246881e-05 0.0018414541149369577 0 -5.7387046766476269e-05 0.0018375694144413003 0 -2.2702166492594238e-05 0.0018080138311175561 0 -5.7387046766476269e-05 0.0018375694144413003 0 -2.2702166492594238e-05 0.0018080138311175561 0 -2.129092148895268e-05 0.0017419855089053963 0 0.00048509659570453146 9.0828525222077478e-05 0 0.00049722829261744249 1.1146095773059703e-05 0 0.00051804080478863037 8.0240389546010592e-05 0 0.00049722829261744249 1.1146095773059703e-05 0 0.00051804080478863037 8.0240389546010592e-05 0 0.00055166581281377138 8.2679924664530923e-05 0 0.00042212474554267329 9.886235872916675e-05 0 0.00043584253300684253 3.3147757284581394e-06 0 0.0003569196520042797 7.5803627991585226e-05 0 0.00042212474554267329 9.886235872916675e-05 0 0.00048509659570453146 9.0828525222077478e-05 0 0.00043584253300684253 3.3147757284581394e-06 0 0.00048509659570453146 9.0828525222077478e-05 0 0.00049722829261744249 1.1146095773059703e-05 0 0.00043584253300684253 3.3147757284581394e-06 0 4.5881480096534085e-05 0.001760797040758667 0 4.7535033120794747e-05 0.0018191253008951107 0 8.5039968006896384e-05 0.0017773308509286909 0 4.7535033120794747e-05 0.0018191253008951107 0 1.3883941948519866e-05 0.0018238688599127449 0 1.8837421925517412e-05 0.0017899838468268471 0 4.5881480096534085e-05 0.001760797040758667 0 1.8837421925517412e-05 0.0017899838468268471 0 1.4228653174702444e-05 0.0017563839103733399 0 4.5881480096534085e-05 0.001760797040758667 0 4.7535033120794747e-05 0.0018191253008951107 0 1.8837421925517412e-05 0.0017899838468268471 0 1.8837421925517412e-05 0.0017899838468268471 0 -3.1700512719147692e-06 0.0017807237751526607 0 1.4228653174702444e-05 0.0017563839103733399 0 1.8837421925517412e-05 0.0017899838468268471 0 -3.1700512719147692e-06 0.0017807237751526607 0 -1.2138528004906832e-06 0.0018088954718357465 0 1.3883941948519866e-05 0.0018238688599127449 0 1.8837421925517412e-05 0.0017899838468268471 0 -1.2138528004906832e-06 0.0018088954718357465 0 -9.8452727716448928e-06 0.0018397068396731964 0 1.3883941948519866e-05 0.0018238688599127449 0 -1.2138528004906832e-06 0.0018088954718357465 0 -9.8452727716448928e-06 0.0018397068396731964 0 -1.2138528004906832e-06 0.0018088954718357465 0 -2.2702166492594238e-05 0.0018080138311175561 0 -3.1700512719147692e-06 0.0017807237751526607 0 -1.2138528004906832e-06 0.0018088954718357465 0 -2.2702166492594238e-05 0.0018080138311175561 0 -9.8452727716448928e-06 0.0018397068396731964 0 -3.4936314833246881e-05 0.0018414541149369577 0 -2.2702166492594238e-05 0.0018080138311175561 0 -3.1700512719147692e-06 0.0017807237751526607 0 -2.2702166492594238e-05 0.0018080138311175561 0 -2.129092148895268e-05 0.0017419855089053963 0 0.00053006556083444445 6.075223377325396e-05 0 0.00055166581281377138 8.2679924664530923e-05 0 0.00050633665629259441 0.00028227763802713031 0 0.00051804080478863037 8.0240389546010592e-05 0 0.00053006556083444445 6.075223377325396e-05 0 0.00055166581281377138 8.2679924664530923e-05 0 -3.1700512719147692e-06 0.0017807237751526607 0 -2.129092148895268e-05 0.0017419855089053963 0 1.4228653174702444e-05 0.0017563839103733399 0 3.7188151012940898e-05 0.0017140124968515931 0 5.2987230664495716e-05 0.0016297565617110724 0 8.5473483870782797e-05 0.0017107879046529206 0 0.00026263243843354262 0.00089127630508402834 0 0.00016738419812790896 0.0010058452029339169 0 -2.129092148895268e-05 0.0017419855089053963 0 3.7188151012940898e-05 0.0017140124968515931 0 5.2987230664495716e-05 0.0016297565617110724 0 -2.129092148895268e-05 0.0017419855089053963 0 1.4228653174702444e-05 0.0017563839103733399 0 3.7188151012940898e-05 0.0017140124968515931 0 4.5881480096534085e-05 0.001760797040758667 0 1.4228653174702444e-05 0.0017563839103733399 0 3.7188151012940898e-05 0.0017140124968515931 0 4.5881480096534085e-05 0.001760797040758667 0 3.7188151012940898e-05 0.0017140124968515931 0 8.5473483870782797e-05 0.0017107879046529206 0 4.5881480096534085e-05 0.001760797040758667 0 8.5039968006896384e-05 0.0017773308509286909 0 8.5473483870782797e-05 0.0017107879046529206 0 0.00031176908988933864 0.00030085825414611359 0 0.00050633665629259441 0.00028227763802713031 0 0.00042105858904446011 0.00041824672103059135 0 0.00053006556083444445 6.075223377325396e-05 0 0.00031176908988933864 0.00030085825414611359 0 0.00050633665629259441 0.00028227763802713031 0 0.00050633665629259441 0.00028227763802713031 0 0.00054238974804034939 0.00045572940239345096 0 0.00042105858904446011 0.00041824672103059135 0 0.00054238974804034939 0.00045572940239345096 0 0.00042105858904446011 0.00041824672103059135 0 0.00042640681523581781 0.00055308058862204733 0 0.00031176908988933864 0.00030085825414611359 0 0.00042105858904446011 0.00041824672103059135 0 0.00031837514500039594 0.00048491187093416808 0 0.00042105858904446011 0.00041824672103059135 0 0.00031837514500039594 0.00048491187093416808 0 0.00042640681523581781 0.00055308058862204733 0 0.00043584253300684253 3.3147757284581394e-06 0 0.00049894928930912076 -0.00010191714588441793 0 0.00041114106649410082 -0.0001312788665960263 0 0.00049722829261744249 1.1146095773059703e-05 0 0.00043584253300684253 3.3147757284581394e-06 0 0.00049894928930912076 -0.00010191714588441793 0 0.00055166581281377138 8.2679924664530923e-05 0 0.00050633665629259441 0.00028227763802713031 0 0.00069801250082602423 0.000340712227800334 0 0.00049722829261744249 1.1146095773059703e-05 0 0.00055166581281377138 8.2679924664530923e-05 0 0.00049894928930912076 -0.00010191714588441793 0 0.00054752063021027526 7.3170512153868217e-05 0 0.00060169960961178773 0.0001290484364768386 0 0.00050633665629259441 0.00028227763802713031 0 0.00054238974804034939 0.00045572940239345096 0 0.00069801250082602423 0.000340712227800334 0 0.00054238974804034939 0.00045572940239345096 0 0.00069801250082602423 0.000340712227800334 0 0.00065619328583666229 0.00050573286009191506 0 0.00049894928930912076 -0.00010191714588441793 0 0.00041114106649410082 -0.0001312788665960263 0 0.00043112446011345793 -0.00020010201483750562 0 0.00060169960961178773 0.0001290484364768386 0 0.00058882983039028802 0.00011053781970254723 0 0.00069801250082602423 0.000340712227800334 0 0.0008105839675647162 0.0005305385216979999 0 0.00065619328583666229 0.00050573286009191506 0 0.00042629579432401497 -0.00028399041845688798 0 0.00058882983039028802 0.00011053781970254723 0 0.0003194764254888132 -0.000282733484702453 0 0.00041114106649410082 -0.0001312788665960263 0 0.00051391090236413731 -0.00035650415568538993 0 0.0003194764254888132 -0.000282733484702453 0 0.00029672167491956902 -0.00015163663615972494 0 0.00041114106649410082 -0.0001312788665960263 0 0.0003194764254888132 -0.000282733484702453 0 0.00019760711023799463 -0.00022907404094385937 0 0.00019849713609505919 -0.00038269627400004007 0 0.0003194764254888132 -0.000282733484702453 0 0.00029672167491956902 -0.00015163663615972494 0 0.00019760711023799463 -0.00022907404094385937 0 0.00029672167491956902 -0.00015163663615972494 0 0.00023442715541959754 -7.1986053473023127e-05 0 0.00019760711023799463 -0.00022907404094385937 0 0.00029672167491956902 -0.00015163663615972494 0 0.00023442715541959754 -7.1986053473023127e-05 0 0.00033833835097202969 -3.6337601570353435e-05 0 0.00043584253300684253 3.3147757284581394e-06 0 0.00041114106649410082 -0.0001312788665960263 0 0.00033833835097202969 -3.6337601570353435e-05 0 0.00029672167491956902 -0.00015163663615972494 0 0.00041114106649410082 -0.0001312788665960263 0 0.00033833835097202969 -3.6337601570353435e-05 0 0.00043584253300684253 3.3147757284581394e-06 0 0.00033833835097202969 -3.6337601570353435e-05 0 0.0003569196520042797 7.5803627991585226e-05 0 0.00033833835097202969 -3.6337601570353435e-05 0 0.00026762720680768349 3.1200601787780069e-05 0 0.0003569196520042797 7.5803627991585226e-05 0 0.00023442715541959754 -7.1986053473023127e-05 0 0.00026762720680768349 3.1200601787780069e-05 0 0.00015416475920237844 7.4357203476041446e-06 0 0.00023442715541959754 -7.1986053473023127e-05 0 0.00033833835097202969 -3.6337601570353435e-05 0 0.00026762720680768349 3.1200601787780069e-05 0 0.00026762720680768349 3.1200601787780069e-05 0 0.00020143266438510371 9.3791711862469454e-05 0 0.00015416475920237844 7.4357203476041446e-06 0 0.00026762720680768349 3.1200601787780069e-05 0 0.00027986767637693742 0.00010993883006366847 0 0.0003569196520042797 7.5803627991585226e-05 0 0.00021698454393555009 0.00019561290779232187 0 0.00027986767637693742 0.00010993883006366847 0 0.00020143266438510371 9.3791711862469454e-05 0 0.00026762720680768349 3.1200601787780069e-05 0 0.00027986767637693742 0.00010993883006366847 0 0.00020143266438510371 9.3791711862469454e-05 0 0.0003198737734437887 0.0001750157119990878 0 0.00027986767637693742 0.00010993883006366847 0 0.0003569196520042797 7.5803627991585226e-05 0 0.0003198737734437887 0.0001750157119990878 0 0.00038577083479238253 0.00015400316190343255 0 0.0003569196520042797 7.5803627991585226e-05 0 0.00038577083479238253 0.00015400316190343255 0 0.00042212474554267329 9.886235872916675e-05 0 0.0003569196520042797 7.5803627991585226e-05 0 1.6219654150821844e-05 0.00010075628765224279 0 0.0001034162633087527 9.4194334231442408e-05 0 4.1494858983362426e-05 1.7466889747952868e-05 0 1.6219654150821844e-05 0.00010075628765224279 0 4.1494858983362426e-05 1.7466889747952868e-05 0 -3.9444351159462345e-05 4.5087226666011282e-05 0 5.669343740070655e-05 0.00016905440266938977 0 1.6219654150821844e-05 0.00010075628765224279 0 0.0001034162633087527 9.4194334231442408e-05 0 0.0001034162633087527 9.4194334231442408e-05 0 0.00015416475920237844 7.4357203476041446e-06 0 4.1494858983362426e-05 1.7466889747952868e-05 0 0.00014686278024297891 0.00015553246303202646 0 0.0001034162633087527 9.4194334231442408e-05 0 0.00020143266438510371 9.3791711862469454e-05 0 0.0001034162633087527 9.4194334231442408e-05 0 0.00020143266438510371 9.3791711862469454e-05 0 0.00015416475920237844 7.4357203476041446e-06 0 0.00023442715541959754 -7.1986053473023127e-05 0 0.00015416475920237844 7.4357203476041446e-06 0 7.6299730129842093e-05 -0.00011712217172319124 0 0.00015416475920237844 7.4357203476041446e-06 0 4.1494858983362426e-05 1.7466889747952868e-05 0 7.6299730129842093e-05 -0.00011712217172319124 0 4.1494858983362426e-05 1.7466889747952868e-05 0 7.6299730129842093e-05 -0.00011712217172319124 0 -2.9768020638791085e-05 -5.267991362634129e-05 0 4.1494858983362426e-05 1.7466889747952868e-05 0 -3.9444351159462345e-05 4.5087226666011282e-05 0 -2.9768020638791085e-05 -5.267991362634129e-05 0 7.6299730129842093e-05 -0.00011712217172319124 0 -9.0608778235311586e-05 -0.00020871676378118732 0 -2.9768020638791085e-05 -5.267991362634129e-05 0 0.00023442715541959754 -7.1986053473023127e-05 0 7.6299730129842093e-05 -0.00011712217172319124 0 0.00019760711023799463 -0.00022907404094385937 0 0.00019760711023799463 -0.00022907404094385937 0 6.6258581201553927e-05 -0.00030771391006286452 0 0.00019849713609505919 -0.00038269627400004007 0 7.6299730129842093e-05 -0.00011712217172319124 0 0.00019760711023799463 -0.00022907404094385937 0 6.6258581201553927e-05 -0.00030771391006286452 0 6.6258581201553927e-05 -0.00030771391006286452 0 -9.0608778235311586e-05 -0.00020871676378118732 0 -3.5646597469815217e-05 -0.00044829951766842558 0 7.6299730129842093e-05 -0.00011712217172319124 0 6.6258581201553927e-05 -0.00030771391006286452 0 -9.0608778235311586e-05 -0.00020871676378118732 0 -0.00015260477685740778 -0.00086006997357191437 0 -0.00015848877793860503 -0.00086645948558012947 0 -0.00015639401750431586 -0.00087222289603493838 0 -0.00014093552880185413 -0.00042854401558791632 0 -0.00011674208021010074 -0.00073732087668039686 0 -9.0608778235311586e-05 -0.00020871676378118732 0 -2.9768020638791085e-05 -5.267991362634129e-05 0 -0.00013547297808617521 -8.2612831267107657e-06 0 -0.00014093552880185413 -0.00042854401558791632 0 -7.1179988846396209e-05 -0.00085834038508377365 0 -0.00015260477685740778 -0.00086006997357191437 0 -0.00016030992103555398 -0.00086059090060572568 0 -0.00015507007076219828 -0.00084903019771521754 0 1.0735713085137543e-05 -0.0014640332960240404 0 -1.0445161979979567e-05 -0.0014433205394333614 0 3.6734508739535576e-05 -0.0014215849261633147 0 -7.0271375852902775e-05 -0.001220362396911426 0 -7.1179988846396209e-05 -0.00085834038508377365 0 -0.00016030992103555398 -0.00086059090060572568 0 -0.00015848877793860503 -0.00086645948558012947 0 -0.00016504489196265168 -0.0008731535719819272 0 -0.00015260477685740778 -0.00086006997357191437 0 -0.00016030992103555398 -0.00086059090060572568 0 -0.00015848877793860503 -0.00086645948558012947 0 -7.0271375852902775e-05 -0.001220362396911426 0 -0.00018424517802722654 -0.0011516652579407882 0 -0.00011158590561666613 -0.0014930208088853923 0 -0.00015605764495077836 -0.0012863253083815077 0 1.0735713085137543e-05 -0.0014640332960240404 0 -2.9644924365002621e-05 -0.0014714907568620377 0 -9.9942132045612152e-06 -0.0014973193384359635 0 1.0735713085137543e-05 -0.0014640332960240404 0 -6.1106528076152494e-06 -0.0014977526981905882 0 -9.9942132045612152e-06 -0.0014973193384359635 0 -0.00021248927486521355 -0.00146235065175075 0 -0.00028028904845674667 -0.0013965500373641904 0 -0.00025603035769968636 -0.0013998836833106611 0 -0.00021248927486521355 -0.00146235065175075 0 -0.00025603035769968636 -0.0013998836833106611 0 -0.00021011022169013953 -0.0014158647162382976 0 -0.00016964761339718066 -0.0014556854131108265 0 -0.00016468427293010935 -0.0014217884582030835 0 -0.00021011022169013953 -0.0014158647162382976 0 -0.00021248927486521355 -0.00146235065175075 0 -0.00016964761339718066 -0.0014556854131108265 0 -0.00021011022169013953 -0.0014158647162382976 0 -2.9644924365002621e-05 -0.0014714907568620377 0 -1.0445161979979567e-05 -0.0014433205394333614 0 -5.6926678372768004e-05 -0.0014400642171090001 0 -0.00021248927486521355 -0.00146235065175075 0 -0.00014706359375249209 -0.0014898678267128117 0 -0.00016964761339718066 -0.0014556854131108265 0 -0.00011158590561666613 -0.0014930208088853923 0 -0.00010625936566760423 -0.0014564166099917495 0 1.0735713085137543e-05 -0.0014640332960240404 0 -2.9644924365002621e-05 -0.0014714907568620377 0 -1.0445161979979567e-05 -0.0014433205394333614 0 -1.0445161979979567e-05 -0.0014433205394333614 0 -2.4336579856317634e-05 -0.0014217497739521117 0 5.5614766136459878e-06 -0.0014168503558051224 0 -2.4336579856317634e-05 -0.0014217497739521117 0 -5.6926678372768004e-05 -0.0014400642171090001 0 -4.7302091348323019e-05 -0.0014025571617575661 0 -1.0445161979979567e-05 -0.0014433205394333614 0 -2.4336579856317634e-05 -0.0014217497739521117 0 -5.6926678372768004e-05 -0.0014400642171090001 0 -4.7302091348323019e-05 -0.0014025571617575661 0 -1.1336825280637207e-05 -0.0013981513723471373 0 -2.4979054597424298e-05 -0.0013572082545074767 0 -1.1336825280637207e-05 -0.0013981513723471373 0 4.0576052445275173e-05 -0.0013886329099673119 0 -2.4979054597424298e-05 -0.0013572082545074767 0 -2.4336579856317634e-05 -0.0014217497739521117 0 -4.7302091348323019e-05 -0.0014025571617575661 0 -1.1336825280637207e-05 -0.0013981513723471373 0 -2.4336579856317634e-05 -0.0014217497739521117 0 5.5614766136459878e-06 -0.0014168503558051224 0 -1.1336825280637207e-05 -0.0013981513723471373 0 0.000104666220376366 -0.0015773827592290035 0 -7.1179988846396209e-05 -0.00085834038508377365 0 5.5614766136459878e-06 -0.0014168503558051224 0 4.0576052445275173e-05 -0.0013886329099673119 0 3.6734508739535576e-05 -0.0014215849261633147 0 4.0576052445275173e-05 -0.0013886329099673119 0 6.7684277715401536e-05 -0.0014648907733049272 0 0.00012181330688751283 -0.0013587906665966868 0 5.5614766136459878e-06 -0.0014168503558051224 0 -1.1336825280637207e-05 -0.0013981513723471373 0 4.0576052445275173e-05 -0.0013886329099673119 0 -7.1179988846396209e-05 -0.00085834038508377365 0 3.6731134404977854e-05 -0.00058098095911035964 0 -3.9444351159462345e-05 4.5087226666011282e-05 0 -0.00013547297808617521 -8.2612831267107657e-06 0 -6.7860006449307062e-05 0.00014182754164470819 0 1.6219654150821844e-05 0.00010075628765224279 0 -3.9444351159462345e-05 4.5087226666011282e-05 0 -6.7860006449307062e-05 0.00014182754164470819 0 -3.9444351159462345e-05 4.5087226666011282e-05 0 -2.9768020638791085e-05 -5.267991362634129e-05 0 -0.00013547297808617521 -8.2612831267107657e-06 0 -1.0445161979979567e-05 -0.0014433205394333614 0 5.5614766136459878e-06 -0.0014168503558051224 0 3.6734508739535576e-05 -0.0014215849261633147 0 -0.00016382874552095753 -0.0015359539736553767 0 -0.00011557297291678445 -0.0015014512432360528 0 -0.00015920423904079511 -0.0014884783183208336 0 -0.00016382874552095753 -0.0015359539736553767 0 -0.00011557297291678445 -0.0015014512432360528 0 -0.00010668587380632191 -0.0015980761859612073 0 -0.00011557297291678445 -0.0015014512432360528 0 -0.00010668587380632191 -0.0015980761859612073 0 -6.3571875966378526e-05 -0.001572307700899341 0 -0.00011247769391494639 -0.0014977674446892927 0 -9.0602790301413556e-05 -0.0014984733655439501 0 -0.00011557297291678445 -0.0015014512432360528 0 -0.00013368402879804071 -0.0014707174285687906 0 -0.00012255131875960876 -0.0014837507766844889 0 -0.00011557297291678445 -0.0015014512432360528 0 -0.00013368402879804071 -0.0014707174285687906 0 -0.00011040611456328562 -0.0014280949270015584 0 -0.00013368402879804071 -0.0014707174285687906 0 -0.00016468427293010935 -0.0014217884582030835 0 -0.00011040611456328562 -0.0014280949270015584 0 -0.00016964761339718066 -0.0014556854131108265 0 -0.00013368402879804071 -0.0014707174285687906 0 -0.00016468427293010935 -0.0014217884582030835 0 -0.00014706359375249209 -0.0014898678267128117 0 -0.00013368402879804071 -0.0014707174285687906 0 -0.00012255131875960876 -0.0014837507766844889 0 -0.00014706359375249209 -0.0014898678267128117 0 -0.00016964761339718066 -0.0014556854131108265 0 -0.00013368402879804071 -0.0014707174285687906 0 -0.00010625936566760423 -0.0014564166099917495 0 -9.7790538241800302e-05 -0.0014365118856243179 0 -0.00014706359375249209 -0.0014898678267128117 0 -0.00010866126934580373 -0.0014649875747233948 0 -0.00012255131875960876 -0.0014837507766844889 0 -5.6926678372768004e-05 -0.0014400642171090001 0 -4.7302091348323019e-05 -0.0014025571617575661 0 -8.1742268315510724e-05 -0.0014104117152591055 0 -4.7302091348323019e-05 -0.0014025571617575661 0 -8.1742268315510724e-05 -0.0014104117152591055 0 -6.6196824784220103e-05 -0.0013823335285464877 0 -0.00010866126934580373 -0.0014649875747233948 0 -0.00013300045810183195 -0.0014658431333620832 0 -0.00011017581944604679 -0.0014029955531696381 0 -0.00010866126934580373 -0.0014649875747233948 0 -0.00012255131875960876 -0.0014837507766844889 0 -0.00013300045810183195 -0.0014658431333620832 0 -0.00011557297291678445 -0.0015014512432360528 0 -0.00013300045810183195 -0.0014658431333620832 0 -0.00015920423904079511 -0.0014884783183208336 0 -0.00011557297291678445 -0.0015014512432360528 0 -0.00012255131875960876 -0.0014837507766844889 0 -0.00013300045810183195 -0.0014658431333620832 0 -0.00013300045810183195 -0.0014658431333620832 0 -0.00017207186439579733 -0.0014474736873044017 0 -0.00014951506171744888 -0.0014082785388206008 0 -0.00013300045810183195 -0.0014658431333620832 0 -0.00017207186439579733 -0.0014474736873044017 0 -0.00015920423904079511 -0.0014884783183208336 0 -0.00018551532647660256 -0.0013535214023377958 0 -0.00019060801522457894 -0.0014008964422327433 0 -0.00016071719894711971 -0.0013652743356983642 0 -0.00019060801522457894 -0.0014008964422327433 0 -0.00014951506171744888 -0.0014082785388206008 0 -0.00016071719894711971 -0.0013652743356983642 0 -0.00019060801522457894 -0.0014008964422327433 0 -0.00017207186439579733 -0.0014474736873044017 0 -0.00014951506171744888 -0.0014082785388206008 0 -0.00013300045810183195 -0.0014658431333620832 0 -0.00014951506171744888 -0.0014082785388206008 0 -0.00011017581944604679 -0.0014029955531696381 0 -0.00014951506171744888 -0.0014082785388206008 0 -0.00012644458717836409 -0.0013657246093601921 0 -0.00016071719894711971 -0.0013652743356983642 0 -0.00014951506171744888 -0.0014082785388206008 0 -0.00012644458717836409 -0.0013657246093601921 0 -0.00011017581944604679 -0.0014029955531696381 0 -0.00012644458717836409 -0.0013657246093601921 0 -0.00011017581944604679 -0.0014029955531696381 0 -8.7318889478026139e-05 -0.0013594508839658405 0 -9.7790538241800302e-05 -0.0014365118856243179 0 -0.00011137250055829377 -0.0014031065143488852 0 -0.00011017581944604679 -0.0014029955531696381 0 -6.6196824784220103e-05 -0.0013823335285464877 0 -8.7318889478026139e-05 -0.0013594508839658405 0 -8.1742268315510724e-05 -0.0014104117152591055 0 -0.00011017581944604679 -0.0014029955531696381 0 -6.6196824784220103e-05 -0.0013823335285464877 0 -6.6196824784220103e-05 -0.0013823335285464877 0 -8.7318889478026139e-05 -0.0013594508839658405 0 -4.8277611251665141e-05 -0.0013483823730026535 0 -8.7318889478026139e-05 -0.0013594508839658405 0 -7.1957799413635063e-05 -0.0013188497900405731 0 -0.00010740222246991987 -0.0013319203330902757 0 -7.1957799413635063e-05 -0.0013188497900405731 0 -9.5001673237899478e-05 -0.001308004562159066 0 -0.00010740222246991987 -0.0013319203330902757 0 -8.7318889478026139e-05 -0.0013594508839658405 0 -7.1957799413635063e-05 -0.0013188497900405731 0 -4.8277611251665141e-05 -0.0013483823730026535 0 -7.1957799413635063e-05 -0.0013188497900405731 0 -9.5001673237899478e-05 -0.001308004562159066 0 -8.1564422165910784e-05 -0.0012848808762419546 0 -7.1957799413635063e-05 -0.0013188497900405731 0 -8.1564422165910784e-05 -0.0012848808762419546 0 -5.133978159891074e-05 -0.0012829529778930018 0 -9.5001673237899478e-05 -0.001308004562159066 0 -8.1564422165910784e-05 -0.0012848808762419546 0 -0.00011953041875809073 -0.0012958644856646707 0 -0.00011953041875809073 -0.0012958644856646707 0 -0.00010740222246991987 -0.0013319203330902757 0 -0.00014099276011923345 -0.0013278766285836313 0 -9.5001673237899478e-05 -0.001308004562159066 0 -0.00011953041875809073 -0.0012958644856646707 0 -0.00010740222246991987 -0.0013319203330902757 0 -0.00012644458717836409 -0.0013657246093601921 0 -8.7318889478026139e-05 -0.0013594508839658405 0 -0.00010740222246991987 -0.0013319203330902757 0 -0.00012644458717836409 -0.0013657246093601921 0 -0.00010740222246991987 -0.0013319203330902757 0 -0.00014099276011923345 -0.0013278766285836313 0 -0.00014099276011923345 -0.0013278766285836313 0 -0.00016775947939774797 -0.0013161387257198673 0 -0.00016071719894711971 -0.0013652743356983642 0 -0.00012644458717836409 -0.0013657246093601921 0 -0.00014099276011923345 -0.0013278766285836313 0 -0.00016071719894711971 -0.0013652743356983642 0 -0.00014099276011923345 -0.0013278766285836313 0 -0.00016775947939774797 -0.0013161387257198673 0 -0.00016097250973506175 -0.0012928908080758895 0 -0.00011953041875809073 -0.0012958644856646707 0 -0.00014099276011923345 -0.0013278766285836313 0 -0.00016097250973506175 -0.0012928908080758895 0 -0.00018908919360553558 -0.0013193121564979639 0 -0.00016775947939774797 -0.0013161387257198673 0 -0.00016301173009317018 -0.0012966322934726017 0 -0.00018551532647660256 -0.0013535214023377958 0 -0.00018908919360553558 -0.0013193121564979639 0 -0.00016775947939774797 -0.0013161387257198673 0 -0.00018551532647660256 -0.0013535214023377958 0 -0.00016775947939774797 -0.0013161387257198673 0 -0.00016071719894711971 -0.0013652743356983642 0 3.8937179231560857e-05 -0.0011846611064769484 0 5.7420309939331967e-05 -0.0013074271833973254 0 -2.4979054597424298e-05 -0.0013572082545074767 0 4.2587476846922839e-05 -0.001236657503745885 0 -2.7384087418344072e-05 -0.0013566636869671031 0 3.8937179231560857e-05 -0.0011846611064769484 0 0.00019910877891696498 -0.0012144817213456116 0 5.7420309939331967e-05 -0.0013074271833973254 0 0.00019910877891696498 -0.0012144817213456116 0 0.00012181330688751283 -0.0013587906665966868 0 5.7420309939331967e-05 -0.0013074271833973254 0 9.2944431372644849e-05 -0.00047886050512967605 0 3.6731134404977854e-05 -0.00058098095911035964 0 5.669343740070655e-05 0.00016905440266938977 0 -3.3598439881763623e-06 0.00027903593956126377 0 -6.7860006449307062e-05 0.00014182754164470819 0 4.0576052445275173e-05 -0.0013886329099673119 0 0.00012181330688751283 -0.0013587906665966868 0 5.7420309939331967e-05 -0.0013074271833973254 0 4.0576052445275173e-05 -0.0013886329099673119 0 5.7420309939331967e-05 -0.0013074271833973254 0 -2.4979054597424298e-05 -0.0013572082545074767 0 -6.6196824784220103e-05 -0.0013823335285464877 0 -2.4979054597424298e-05 -0.0013572082545074767 0 -4.8277611251665141e-05 -0.0013483823730026535 0 -4.7302091348323019e-05 -0.0014025571617575661 0 -6.6196824784220103e-05 -0.0013823335285464877 0 -2.4979054597424298e-05 -0.0013572082545074767 0 -2.4979054597424298e-05 -0.0013572082545074767 0 -4.8277611251665141e-05 -0.0013483823730026535 0 -1.8470799118091948e-05 -0.0013380337070058145 0 1.8490801272388346e-05 -0.0013396386344804014 0 -2.4979054597424298e-05 -0.0013572082545074767 0 -1.8470799118091948e-05 -0.0013380337070058145 0 1.8490801272388346e-05 -0.0013396386344804014 0 -1.8470799118091948e-05 -0.0013380337070058145 0 -9.195718733011999e-06 -0.0012994439670989276 0 -1.8470799118091948e-05 -0.0013380337070058145 0 -3.9588818573782096e-05 -0.001318518632969592 0 -9.195718733011999e-06 -0.0012994439670989276 0 -7.1957799413635063e-05 -0.0013188497900405731 0 -4.8277611251665141e-05 -0.0013483823730026535 0 -3.9588818573782096e-05 -0.001318518632969592 0 -4.8277611251665141e-05 -0.0013483823730026535 0 -1.8470799118091948e-05 -0.0013380337070058145 0 -3.9588818573782096e-05 -0.001318518632969592 0 -7.1957799413635063e-05 -0.0013188497900405731 0 -3.9588818573782096e-05 -0.001318518632969592 0 -5.133978159891074e-05 -0.0012829529778930018 0 -3.9588818573782096e-05 -0.001318518632969592 0 -5.133978159891074e-05 -0.0012829529778930018 0 -9.195718733011999e-06 -0.0012994439670989276 0 -5.133978159891074e-05 -0.0012829529778930018 0 -9.195718733011999e-06 -0.0012994439670989276 0 -2.0764146849703265e-05 -0.0012553483388230962 0 -9.195718733011999e-06 -0.0012994439670989276 0 1.4956669788210736e-05 -0.0012465695999269754 0 -2.0764146849703265e-05 -0.0012553483388230962 0 -9.195718733011999e-06 -0.0012994439670989276 0 2.8770899502924593e-05 -0.0012828217233226624 0 1.4956669788210736e-05 -0.0012465695999269754 0 2.8770899502924593e-05 -0.0012828217233226624 0 5.466081828743096e-05 -0.0012691117524411516 0 4.2971028422733181e-05 -0.0012433690593360285 0 1.8490801272388346e-05 -0.0013396386344804014 0 2.8770899502924593e-05 -0.0012828217233226624 0 7.0730192774013802e-05 -0.0012912209715238328 0 1.8490801272388346e-05 -0.0013396386344804014 0 -9.195718733011999e-06 -0.0012994439670989276 0 2.8770899502924593e-05 -0.0012828217233226624 0 3.8937179231560857e-05 -0.0011846611064769484 0 0.00019910877891696498 -0.0012144817213456116 0 0.00017555030511581595 -0.00098385560227880176 0 4.2587476846922839e-05 -0.001236657503745885 0 9.9065315048161158e-05 -0.0012586398499735475 0 2.8770899502924593e-05 -0.0012828217233226624 0 7.0730192774013802e-05 -0.0012912209715238328 0 5.466081828743096e-05 -0.0012691117524411516 0 7.0730192774013802e-05 -0.0012912209715238328 0 5.466081828743096e-05 -0.0012691117524411516 0 7.2478694843058965e-05 -0.0012468221424679871 0 7.2478694843058965e-05 -0.0012468221424679871 0 7.8851180614121662e-05 -0.0012008915443770833 0 4.2971028422733181e-05 -0.0012433690593360285 0 5.466081828743096e-05 -0.0012691117524411516 0 7.2478694843058965e-05 -0.0012468221424679871 0 4.2971028422733181e-05 -0.0012433690593360285 0 7.8851180614121662e-05 -0.0012008915443770833 0 3.0161796183520454e-05 -0.0012083637256927683 0 4.2971028422733181e-05 -0.0012433690593360285 0 7.8851180614121662e-05 -0.0012008915443770833 0 3.0161796183520454e-05 -0.0012083637256927683 0 4.566733476476173e-05 -0.0011692891701372025 0 0.000140166163360026 -0.00070495688995095935 0 0.00010535959186348897 -0.00062826904998654993 0 3.0161796183520454e-05 -0.0012083637256927683 0 1.4074131778323749e-06 -0.0011823313093981894 0 4.566733476476173e-05 -0.0011692891701372025 0 3.0161796183520454e-05 -0.0012083637256927683 0 1.4956669788210736e-05 -0.0012465695999269754 0 -3.9566072331518791e-07 -0.0012199083240829842 0 3.0161796183520454e-05 -0.0012083637256927683 0 4.2971028422733181e-05 -0.0012433690593360285 0 1.4956669788210736e-05 -0.0012465695999269754 0 2.8770899502924593e-05 -0.0012828217233226624 0 4.2971028422733181e-05 -0.0012433690593360285 0 1.4956669788210736e-05 -0.0012465695999269754 0 1.4956669788210736e-05 -0.0012465695999269754 0 -2.0764146849703265e-05 -0.0012553483388230962 0 -3.9566072331518791e-07 -0.0012199083240829842 0 -2.0764146849703265e-05 -0.0012553483388230962 0 -3.0267994185373617e-05 -0.0012188238767995871 0 -3.9566072331518791e-07 -0.0012199083240829842 0 -2.0764146849703265e-05 -0.0012553483388230962 0 -5.7050207709800698e-05 -0.0012505772669533226 0 -3.0267994185373617e-05 -0.0012188238767995871 0 -5.133978159891074e-05 -0.0012829529778930018 0 -2.0764146849703265e-05 -0.0012553483388230962 0 -5.7050207709800698e-05 -0.0012505772669533226 0 -5.7050207709800698e-05 -0.0012505772669533226 0 -3.0267994185373617e-05 -0.0012188238767995871 0 -5.9594820446247845e-05 -0.0012091265044006042 0 -3.0267994185373617e-05 -0.0012188238767995871 0 -5.9594820446247845e-05 -0.0012091265044006042 0 -2.970071213254846e-05 -0.0011810965840362089 0 -3.0267994185373617e-05 -0.0012188238767995871 0 1.4074131778323749e-06 -0.0011823313093981894 0 -2.970071213254846e-05 -0.0011810965840362089 0 -3.0267994185373617e-05 -0.0012188238767995871 0 -3.9566072331518791e-07 -0.0012199083240829842 0 1.4074131778323749e-06 -0.0011823313093981894 0 3.0161796183520454e-05 -0.0012083637256927683 0 -3.9566072331518791e-07 -0.0012199083240829842 0 1.4074131778323749e-06 -0.0011823313093981894 0 1.4074131778323749e-06 -0.0011823313093981894 0 -2.0388987733669234e-05 -0.001149704003346306 0 1.3784534816549961e-05 -0.0011360958963419401 0 1.4074131778323749e-06 -0.0011823313093981894 0 -2.970071213254846e-05 -0.0011810965840362089 0 -2.0388987733669234e-05 -0.001149704003346306 0 -5.9594820446247845e-05 -0.0012091265044006042 0 -2.970071213254846e-05 -0.0011810965840362089 0 -5.1315061499201001e-05 -0.0011570768638438876 0 -2.970071213254846e-05 -0.0011810965840362089 0 -5.1315061499201001e-05 -0.0011570768638438876 0 -2.0388987733669234e-05 -0.001149704003346306 0 -4.072800523437973e-05 -0.0011537912865392085 0 -1.3354569427904082e-05 -0.0011382324665709452 0 -3.0452245595098755e-05 -0.0010877812818949561 0 2.5344579634589956e-05 -0.0011323094862119272 0 3.3434888460604226e-05 -0.0010408183285345635 0 -5.1315061499201001e-05 -0.0011570768638438876 0 -3.0452245595098755e-05 -0.0010877812818949561 0 2.5344579634589956e-05 -0.0011323094862119272 0 -1.3354569427904082e-05 -0.0011382324665709452 0 1.4365682636664576e-05 -0.00073281684375278483 0 2.5344579634589956e-05 -0.0011323094862119272 0 9.7213379023956744e-05 -0.0011068491349959652 0 3.3434888460604226e-05 -0.0010408183285345635 0 1.4365682636664576e-05 -0.00073281684375278483 0 1.1785275073706497e-06 -0.0009890397754610846 0 0.00017767379789170135 -0.00013036556360798769 0 0.00017079151138466096 -0.00012964018218171089 0 0.00017018951095540421 -0.00011814252221476071 0 -0.00010999098407964114 -0.00080206984393853948 0 -0.00016975039784598975 -0.00081505648963166994 0 -9.6013809379746673e-05 -0.00091201011095956575 0 1.4365682636664576e-05 -0.00073281684375278483 0 0.00018022271657497471 0.00038962121054662716 0 0.00011321938989463901 0.001190315636570942 0 0.00030964637523780655 0.0011534141565006178 0 0.00040573685770170531 0.0012894009477628511 0 0.00018022271657497471 0.00038962121054662716 0 0.00051055146591007759 0.0014282813562013635 0 0.00011321938989463901 0.001190315636570942 0 0.00030964637523780655 0.0011534141565006178 0 0.00031727220047294224 0.0009508136572145663 0 0.00017079151138466096 -0.00012964018218171089 0 0.00016055127814936201 -0.00011383701065606117 0 0.00017018951095540421 -0.00011814252221476071 0 0.00018022271657497471 0.00038962121054662716 0 0.00023153989689729591 0.00041019705525237267 0 0.00016154451686354592 -0.00010440060397082373 0 0.00016055127814936201 -0.00011383701065606117 0 0.00017018951095540421 -0.00011814252221476071 0 1.4074131778323749e-06 -0.0011823313093981894 0 1.3784534816549961e-05 -0.0011360958963419401 0 4.566733476476173e-05 -0.0011692891701372025 0 1.4365682636664576e-05 -0.00073281684375278483 0 0.00010535959186348897 -0.00062826904998654993 0 -2.4011299900608468e-05 -0.0026603616245299295 0 2.3179326008213056e-05 -0.002611234973507316 0 2.6424368822152255e-05 -0.0026137039816988743 0 3.150513467499833e-05 -0.0026170163842368639 0 2.3313993946931029e-05 -0.002611753745873472 0 -7.178112635626235e-05 -0.0019559273756761825 0 -7.2355195405897634e-05 -0.0020144474807767877 0 -0.00016775947939774797 -0.0013161387257198673 0 -0.00016301173009317018 -0.0012966322934726017 0 -0.00016097250973506175 -0.0012928908080758895 0 -0.00011953041875809073 -0.0012958644856646707 0 -0.00016097250973506175 -0.0012928908080758895 0 -0.00013648412448927507 -0.001276934256415617 0 -0.00016097250973506175 -0.0012928908080758895 0 -0.00013890632499465017 -0.0012451620562202886 0 -0.00013648412448927507 -0.001276934256415617 0 -0.000157032305325537 -0.0011354809678201429 0 -0.00015098589682430435 -0.001609789462786937 0 3.150513467499833e-05 -0.0026170163842368639 0 5.4937581648255303e-05 -0.0026162459343451391 0 2.3313993946931029e-05 -0.002611753745873472 0 -0.00016301173009317018 -0.0012966322934726017 0 -0.00016097250973506175 -0.0012928908080758895 0 -0.00017059928550631286 -0.001313227635160267 0 -0.00016097250973506175 -0.0012928908080758895 0 -0.00013890632499465017 -0.0012451620562202886 0 -0.00016528198574089823 -0.0011929079770736741 0 -7.2355195405897634e-05 -0.0020144474807767877 0 -0.00015098589682430435 -0.001609789462786937 0 -0.00013039339665382995 -0.0012110373860607744 0 -0.00013890632499465017 -0.0012451620562202886 0 -0.00016528198574089823 -0.0011929079770736741 0 -0.00013039339665382995 -0.0012110373860607744 0 -0.00010323936594659488 -0.0012486032228648943 0 -9.8396592838076737e-05 -0.0011937661363649935 0 -0.00013039339665382995 -0.0012110373860607744 0 -0.00013890632499465017 -0.0012451620562202886 0 -0.00010323936594659488 -0.0012486032228648943 0 -8.1564422165910784e-05 -0.0012848808762419546 0 -0.00011953041875809073 -0.0012958644856646707 0 -0.00010323936594659488 -0.0012486032228648943 0 -0.00011953041875809073 -0.0012958644856646707 0 -0.00013648412448927507 -0.001276934256415617 0 -0.00010323936594659488 -0.0012486032228648943 0 -0.00013890632499465017 -0.0012451620562202886 0 -0.00013648412448927507 -0.001276934256415617 0 -0.00010323936594659488 -0.0012486032228648943 0 -8.1564422165910784e-05 -0.0012848808762419546 0 -5.7050207709800698e-05 -0.0012505772669533226 0 -0.00010323936594659488 -0.0012486032228648943 0 -8.1564422165910784e-05 -0.0012848808762419546 0 -5.133978159891074e-05 -0.0012829529778930018 0 -5.7050207709800698e-05 -0.0012505772669533226 0 -5.7050207709800698e-05 -0.0012505772669533226 0 -5.9594820446247845e-05 -0.0012091265044006042 0 -0.00010323936594659488 -0.0012486032228648943 0 -5.9594820446247845e-05 -0.0012091265044006042 0 -0.00010323936594659488 -0.0012486032228648943 0 -9.8396592838076737e-05 -0.0011937661363649935 0 -5.1315061499201001e-05 -0.0011570768638438876 0 -9.8396592838076737e-05 -0.0011937661363649935 0 -9.0176381061010083e-05 -0.0011270989088311538 0 -5.9594820446247845e-05 -0.0012091265044006042 0 -5.1315061499201001e-05 -0.0011570768638438876 0 -9.8396592838076737e-05 -0.0011937661363649935 0 -5.1315061499201001e-05 -0.0011570768638438876 0 -3.0452245595098755e-05 -0.0010877812818949561 0 -9.0176381061010083e-05 -0.0011270989088311538 0 -3.0452245595098755e-05 -0.0010877812818949561 0 -9.0176381061010083e-05 -0.0011270989088311538 0 -8.1644859668869585e-05 -0.0010599823990563027 0 -0.00012228531000010702 -0.0010924864388795294 0 -0.00012050316793628506 -0.001048209877872915 0 -8.1644859668869585e-05 -0.0010599823990563027 0 -9.0176381061010083e-05 -0.0011270989088311538 0 -0.00012228531000010702 -0.0010924864388795294 0 -8.1644859668869585e-05 -0.0010599823990563027 0 -9.0176381061010083e-05 -0.0011270989088311538 0 -0.00012228531000010702 -0.0010924864388795294 0 -0.00014840928237119466 -0.0011569178287570618 0 -0.00012228531000010702 -0.0010924864388795294 0 -0.00016876526306953607 -0.0010973306602622588 0 -0.00012050316793628506 -0.001048209877872915 0 -0.00012228531000010702 -0.0010924864388795294 0 -0.00016876526306953607 -0.0010973306602622588 0 -0.00014840928237119466 -0.0011569178287570618 0 -9.8396592838076737e-05 -0.0011937661363649935 0 -9.0176381061010083e-05 -0.0011270989088311538 0 -0.00014840928237119466 -0.0011569178287570618 0 -0.00013039339665382995 -0.0012110373860607744 0 -9.8396592838076737e-05 -0.0011937661363649935 0 -0.00014840928237119466 -0.0011569178287570618 0 -0.00013039339665382995 -0.0012110373860607744 0 -0.00014840928237119466 -0.0011569178287570618 0 -0.00016528198574089823 -0.0011929079770736741 0 -0.00016876526306953607 -0.0010973306602622588 0 -0.00014840928237119466 -0.0011569178287570618 0 -0.0001862567775563912 -0.0012102651844852969 0 -6.7074968862879128e-05 -0.0011368278193467545 0 -0.00015098589682430435 -0.001609789462786937 0 -3.347271319755829e-05 -0.0018780668494026956 0 -0.00015098589682430435 -0.001609789462786937 0 9.7736238731469693e-05 -0.0025437027380514139 0 5.4937581648255303e-05 -0.0026162459343451391 0 2.3313993946931029e-05 -0.002611753745873472 0 9.7736238731469693e-05 -0.0025437027380514139 0 6.973693358348065e-06 -0.002550647597861323 0 2.1495011201049013e-05 -0.0024596814647281158 0 9.7736238731469693e-05 -0.0025437027380514139 0 6.973693358348065e-06 -0.002550647597861323 0 2.3313993946931029e-05 -0.002611753745873472 0 -3.7543599442704943e-05 -0.0025970914521424777 0 6.973693358348065e-06 -0.002550647597861323 0 2.3313993946931029e-05 -0.002611753745873472 0 -7.6127390292490721e-05 -0.0026667276026447113 0 -3.7543599442704943e-05 -0.0025970914521424777 0 2.3313993946931029e-05 -0.002611753745873472 0 -3.3878632310345281e-05 -0.0033034076627200333 0 0.0002303383718657106 -0.0027278583038084065 0 -8.6060802703292791e-05 -0.0024325469844626809 0 2.1495011201049013e-05 -0.0024596814647281158 0 -1.9300091878564279e-06 -0.0023519454488449792 0 -8.415854852751306e-05 -0.0025372752679700241 0 6.973693358348065e-06 -0.002550647597861323 0 2.1495011201049013e-05 -0.0024596814647281158 0 9.7736238731469693e-05 -0.0025437027380514139 0 2.1495011201049013e-05 -0.0024596814647281158 0 0.00013012968430833468 -0.0024279979540681928 0 2.1495011201049013e-05 -0.0024596814647281158 0 7.8560966403913633e-05 -0.0023635732792282147 0 -1.9300091878564279e-06 -0.0023519454488449792 0 2.1495011201049013e-05 -0.0024596814647281158 0 7.8560966403913633e-05 -0.0023635732792282147 0 0.00013012968430833468 -0.0024279979540681928 0 7.8560966403913633e-05 -0.0023635732792282147 0 0.00013012968430833468 -0.0024279979540681928 0 0.00016105095277698457 -0.0023061905313900041 0 -4.6507997245053168e-06 -0.0017098610100904402 0 9.0274172744755607e-06 -0.0015657405515908669 0 -0.00014314654654475341 -0.000994454372218376 0 -7.6235019414504771e-05 -0.00094755112118039117 0 -0.00011207995359958132 -0.00092304401318850664 0 -3.347271319755829e-05 -0.0018780668494026956 0 -4.6507997245053168e-06 -0.0017098610100904402 0 -0.00014314654654475341 -0.000994454372218376 0 -0.00012050316793628506 -0.001048209877872915 0 -8.6984708570046705e-05 -0.00099909010418803689 0 -0.00016876526306953607 -0.0010973306602622588 0 -0.00014314654654475341 -0.000994454372218376 0 -0.00012050316793628506 -0.001048209877872915 0 -0.00012050316793628506 -0.001048209877872915 0 -8.6984708570046705e-05 -0.00099909010418803689 0 -8.1644859668869585e-05 -0.0010599823990563027 0 -8.6984708570046705e-05 -0.00099909010418803689 0 -8.1644859668869585e-05 -0.0010599823990563027 0 -4.4281499447115398e-05 -0.00103006245809416 0 -3.0452245595098755e-05 -0.0010877812818949561 0 -8.1644859668869585e-05 -0.0010599823990563027 0 -4.4281499447115398e-05 -0.00103006245809416 0 -8.6984708570046705e-05 -0.00099909010418803689 0 -4.4281499447115398e-05 -0.00103006245809416 0 -4.0736243555104691e-05 -0.00096349880902482177 0 -8.6984708570046705e-05 -0.00099909010418803689 0 -7.6235019414504771e-05 -0.00094755112118039117 0 -4.0736243555104691e-05 -0.00096349880902482177 0 -0.00014314654654475341 -0.000994454372218376 0 -8.6984708570046705e-05 -0.00099909010418803689 0 -7.6235019414504771e-05 -0.00094755112118039117 0 -7.6235019414504771e-05 -0.00094755112118039117 0 -6.819359238055054e-05 -0.00090738853954842413 0 -0.00011207995359958132 -0.00092304401318850664 0 -3.8290068264143274e-05 0.00063912020952059279 0 0.00024665395677681018 -0.001796716210119497 0 0.0002903073020260898 0.0014980344450530013 0 0.00026872603127734324 0.0015010876785027517 0 0.00030649943311209394 0.0015260411690003724 0 -6.819359238055054e-05 -0.00090738853954842413 0 -0.00011207995359958132 -0.00092304401318850664 0 -9.567663611323481e-05 -0.00088429353860855627 0 0.00010017511957131355 -0.0029540289526411973 0 0.00024665395677681018 -0.001796716210119497 0 9.0274172744755607e-06 -0.0015657405515908669 0 0.00024665395677681018 -0.001796716210119497 0 0.00016105095277698457 -0.0023061905313900041 0 8.6922467764917002e-05 -0.0022641430847340814 0 0.00019046159100367369 -0.0021703274135434995 0 0.00026688592797223526 -0.0033329871846574676 0 0.00026364671833768206 -0.0033871113749409775 0 0.00020715801940484601 -0.0033693770059101558 0 7.8560966403913633e-05 -0.0023635732792282147 0 0.00016105095277698457 -0.0023061905313900041 0 8.6922467764917002e-05 -0.0022641430847340814 0 0.00010017511957131355 -0.0029540289526411973 0 0.0002303383718657106 -0.0027278583038084065 0 7.8560966403913633e-05 -0.0023635732792282147 0 8.6922467764917002e-05 -0.0022641430847340814 0 -1.9300091878564279e-06 -0.0023519454488449792 0 0.00026688592797223526 -0.0033329871846574676 0 0.00031846968702707514 -0.0033742467570989729 0 0.00026364671833768206 -0.0033871113749409775 0 0.00031846968702707514 -0.0033742467570989729 0 0.00034700159284048167 -0.0033551296571661632 0 0.00033734724771069819 -0.0033190681157627892 0 0.00026688592797223526 -0.0033329871846574676 0 0.00031846968702707514 -0.0033742467570989729 0 0.00033734724771069819 -0.0033190681157627892 0 0.00035484753502667589 -0.0032726703212139665 0 0.00031968099697114272 -0.0032997366800810966 0 0.00033734724771069819 -0.0033190681157627892 0 0.00026688592797223526 -0.0033329871846574676 0 0.00031968099697114272 -0.0032997366800810966 0 0.00033734724771069819 -0.0033190681157627892 0 0.00040576069619925728 0.001428073314075575 0 0.00034236796727091364 0.0013910544929384397 0 0.00035588264975302831 0.0014895214622377285 0 0.00040576069619925728 0.001428073314075575 0 0.00035588264975302831 0.0014895214622377285 0 0.00046772254564655296 0.001479611336345064 0 0.00045597379230284446 0.0014183511448373209 0 0.00048727335397822773 0.0013880691477316015 0 0.00049411896840311983 0.0014294720256488981 0 0.00045597379230284446 0.0014183511448373209 0 0.00046772254564655296 0.001479611336345064 0 0.00049411896840311983 0.0014294720256488981 0 0.00040576069619925728 0.001428073314075575 0 0.00045597379230284446 0.0014183511448373209 0 0.00046772254564655296 0.001479611336345064 0 0.00040576069619925728 0.001428073314075575 0 0.00045597379230284446 0.0014183511448373209 0 0.00045080879770924498 0.0013665737724748283 0 0.00040663945204947184 0.0013012570436389613 0 0.00045080879770924498 0.0013665737724748283 0 0.00052007332113770228 0.0013406844237477565 0 0.00045597379230284446 0.0014183511448373209 0 0.00048727335397822773 0.0013880691477316015 0 0.00045080879770924498 0.0013665737724748283 0 0.00048727335397822773 0.0013880691477316015 0 0.00045080879770924498 0.0013665737724748283 0 0.00052007332113770228 0.0013406844237477565 0 0.00040663945204947184 0.0013012570436389613 0 0.00045080879770924498 0.0013665737724748283 0 0.00040138264310726421 0.0013720096753836578 0 0.00040663945204947184 0.0013012570436389613 0 0.00040138264310726421 0.0013720096753836578 0 0.00034236796727091364 0.0013910544929384397 0 0.00018022271657497471 0.00038962121054662716 0 0.00011620936125831505 0.0002331668189189362 0 0.00040576069619925728 0.001428073314075575 0 0.00045080879770924498 0.0013665737724748283 0 0.00040138264310726421 0.0013720096753836578 0 0.00040576069619925728 0.001428073314075575 0 0.00040138264310726421 0.0013720096753836578 0 0.00034236796727091364 0.0013910544929384397 0 -0.00010999098407964114 -0.00080206984393853948 0 -5.0739594806165798e-05 -0.0008849162273470325 0 -9.6013809379746673e-05 -0.00091201011095956575 0 -5.0739594806165798e-05 -0.0008849162273470325 0 -9.6013809379746673e-05 -0.00091201011095956575 0 -5.3754147811438593e-05 -0.00093057169407454279 0 3.3434888460604226e-05 -0.0010408183285345635 0 -4.4281499447115398e-05 -0.00103006245809416 0 -4.0736243555104691e-05 -0.00096349880902482177 0 -3.0452245595098755e-05 -0.0010877812818949561 0 3.3434888460604226e-05 -0.0010408183285345635 0 -4.4281499447115398e-05 -0.00103006245809416 0 -5.0739594806165798e-05 -0.0008849162273470325 0 -4.0736243555104691e-05 -0.00096349880902482177 0 -5.3754147811438593e-05 -0.00093057169407454279 0 1.1785275073706497e-06 -0.0009890397754610846 0 -4.3752969731910769e-05 -0.00094983844265826242 0 -7.6235019414504771e-05 -0.00094755112118039117 0 -4.0736243555104691e-05 -0.00096349880902482177 0 -3.9168468720852958e-05 -0.00094971127378809593 0 -4.0736243555104691e-05 -0.00096349880902482177 0 -3.9168468720852958e-05 -0.00094971127378809593 0 -5.3754147811438593e-05 -0.00093057169407454279 0 0.00034236796727091364 0.0013910544929384397 0 0.00030620730825260879 0.0014717270645073768 0 0.00035588264975302831 0.0014895214622377285 0 -9.6013809379746673e-05 -0.00091201011095956575 0 -3.9168468720852958e-05 -0.00094971127378809593 0 -5.3754147811438593e-05 -0.00093057169407454279 0 0.00011620936125831505 0.0002331668189189362 0 0.00017181916828654738 0.00019967500395359685 0 0.00030620730825260879 0.0014717270645073768 0 0.00033460376058311688 0.0015236591658432861 0 0.00035588264975302831 0.0014895214622377285 0 -7.6235019414504771e-05 -0.00094755112118039117 0 -6.819359238055054e-05 -0.00090738853954842413 0 -3.9168468720852958e-05 -0.00094971127378809593 0 -3.8290068264143274e-05 0.00063912020952059279 0 0.00017181916828654738 0.00019967500395359685 0 0.0002903073020260898 0.0014980344450530013 0 0.00030620730825260879 0.0014717270645073768 0 0.00033460376058311688 0.0015236591658432861 0 0.0002903073020260898 0.0014980344450530013 0 0.00033460376058311688 0.0015236591658432861 0 0.00030649943311209394 0.0015260411690003724 0 0.00033460376058311688 0.0015236591658432861 0 0.00030649943311209394 0.0015260411690003724 0 0.00034596655141840092 0.0015613153412337923 0 0.00033460376058311688 0.0015236591658432861 0 0.00037043721731263164 0.001559789026062335 0 0.00037477878518788919 0.0015363109939590008 0 0.00033460376058311688 0.0015236591658432861 0 0.00037043721731263164 0.001559789026062335 0 0.00034596655141840092 0.0015613153412337923 0 0.00035588264975302831 0.0014895214622377285 0 0.00037477878518788919 0.0015363109939590008 0 0.00039034934919836436 0.0015470675733520495 0 0.00033460376058311688 0.0015236591658432861 0 0.00035588264975302831 0.0014895214622377285 0 0.00037477878518788919 0.0015363109939590008 0 0.00035775743875518062 0.0014940180590402824 0 0.00042299426730937564 0.0015139784459675374 0 0.00037477878518788919 0.0015363109939590008 0 0.00039034934919836436 0.0015470675733520495 0 0.0003891108518879292 0.0015643161989240069 0 0.00039034934919836436 0.0015470675733520495 0 0.0003891108518879292 0.0015643161989240069 0 0.00039938772569495445 0.0015780435147740729 0 0.00037043721731263164 0.001559789026062335 0 0.0003891108518879292 0.0015643161989240069 0 0.00039328459535185558 0.0015886135099600109 0 0.0003891108518879292 0.0015643161989240069 0 0.00039328459535185558 0.0015886135099600109 0 0.00040075075513511444 0.0015901293040885547 0 0.00037043721731263164 0.001559789026062335 0 0.00037477878518788919 0.0015363109939590008 0 0.0003891108518879292 0.0015643161989240069 0 0.00039328459535185558 0.0015886135099600109 0 0.00040075075513511444 0.0015901293040885547 0 0.00041011699493949817 0.0016185626119100082 0 0.00040075075513511444 0.0015901293040885547 0 0.00041011699493949817 0.0016185626119100082 0 0.00040993025864860294 0.0016048772122123525 0 0.00041011699493949817 0.0016185626119100082 0 0.00042301857957138323 0.0016445664432304175 0 0.00040993025864860294 0.0016048772122123525 0 0.00042301857957138323 0.0016445664432304175 0 0.00040993025864860294 0.0016048772122123525 0 0.00042314986892067201 0.001621794151165088 0 0.00040993025864860294 0.0016048772122123525 0 0.00042314986892067201 0.001621794151165088 0 0.00040778620739370354 0.0015855896969838828 0 0.00039034934919836436 0.0015470675733520495 0 0.00040778620739370354 0.0015855896969838828 0 0.00039938772569495445 0.0015780435147740729 0 0.00042299426730937564 0.0015139784459675374 0 0.00048661887029616762 0.0015121112750192606 0 0.0003891108518879292 0.0015643161989240069 0 0.00040075075513511444 0.0015901293040885547 0 0.00039938772569495445 0.0015780435147740729 0 0.00040993025864860294 0.0016048772122123525 0 0.00040778620739370354 0.0015855896969838828 0 0.00039938772569495445 0.0015780435147740729 0 0.00040075075513511444 0.0015901293040885547 0 0.00040993025864860294 0.0016048772122123525 0 0.00039938772569495445 0.0015780435147740729 0 0.00045734261446305554 0.0017254255478639481 0 0.00043807391607272541 0.0018576305909559733 0 0.00037241576316970052 0.0018114072304635893 0 0.00045734261446305554 0.0017254255478639481 0 0.00037241576316970052 0.0018114072304635893 0 0.00041985420038566026 0.001710915815813096 0 0.00045734261446305554 0.0017254255478639481 0 0.00043486013460269397 0.001668835353480198 0 0.00045709870948108068 0.0015949158772881893 0 0.00042301857957138323 0.0016445664432304175 0 0.00042314986892067201 0.001621794151165088 0 0.00043486013460269397 0.001668835353480198 0 0.00042314986892067201 0.001621794151165088 0 0.00040778620739370354 0.0015855896969838828 0 0.00045709870948108068 0.0015949158772881893 0 0.00042314986892067201 0.001621794151165088 0 0.00043486013460269397 0.001668835353480198 0 0.00045709870948108068 0.0015949158772881893 0 0.00048661887029616762 0.0015121112750192606 0 0.00051352727319907627 0.0016946887159707191 0 0.00056229686255737687 0.0019544322258322282 0 0.00043807391607272541 0.0018576305909559733 0 0.00039216724364061123 0.0019559272116397015 0 0.0004661749114772334 0.0017581957310658564 0 0.00051352727319907627 0.0016946887159707191 0 0.00045734261446305554 0.0017254255478639481 0 0.00056229686255737687 0.0019544322258322282 0 0.00043807391607272541 0.0018576305909559733 0 0.00051352727319907627 0.0016946887159707191 0 0.00039295066913584866 0.0018848017138383276 0 0.00045106988431366479 0.001784863811155765 0 0.00043173572887254385 0.0018023430655774518 0 0.00039412004263785161 0.0017854969328533262 0 0.00041869403565918947 0.0018160220305223492 0 0.00043173572887254385 0.0018023430655774518 0 0.00039412004263785161 0.0017854969328533262 0 0.00041869403565918947 0.0018160220305223492 0 0.00043173572887254385 0.0018023430655774518 0 0.00043893554340619358 0.0018179587195413542 0 0.00043173572887254385 0.0018023430655774518 0 0.00043893554340619358 0.0018179587195413542 0 0.00045424817850295545 0.0018057095967334608 0 0.00041869403565918947 0.0018160220305223492 0 0.00043893554340619358 0.0018179587195413542 0 0.000445432844674059 0.0018381473522154105 0 0.00055498870029199331 0.0014740056872869533 0 0.00062476855926315807 0.0014750323919906806 0 0.00058538457948492607 0.0014485567514851811 0 0.00062476855926315807 0.0014750323919906806 0 0.0006062704717882954 0.0014189482593842697 0 0.00058538457948492607 0.0014485567514851811 0 0.00045106988431366479 0.001784863811155765 0 0.00045424817850295545 0.0018057095967334608 0 0.00046651704751524153 0.0018274184194965464 0 0.00051352727319907627 0.0016946887159707191 0 0.00054097925209746814 0.0015713517137569666 0 0.00044456417090419704 0.0018184358998609741 0 0.00043474956520759645 0.0017854413242018442 0 0.00043893554340619358 0.0018179587195413542 0 0.00045424817850295545 0.0018057095967334608 0 0.000445432844674059 0.0018381473522154105 0 0.00045106988431366479 0.001784863811155765 0 0.00043173572887254385 0.0018023430655774518 0 0.00045424817850295545 0.0018057095967334608 0 0.00042656625563581549 0.0016629454654278179 0 0.00041448099587465932 0.0016891238272059201 0 0.00043784170076685195 0.001697039913119856 0 0.00054097925209746814 0.0015713517137569666 0 0.00044040985919630205 0.0014896612323482062 0 0.00064535117379780282 0.0013674645218231152 0 0.00068305752655109129 0.0013898709348270008 0 0.00065769333636853057 0.0012742397512034223 0 0.00041448099587465932 0.0016891238272059201 0 0.0004028404153732027 0.0016682007112090794 0 0.00039291361737142058 0.0017006599185606592 0 0.00054097925209746814 0.0015713517137569666 0 0.00043474956520759645 0.0017854413242018442 0 0.00045424817850295545 0.0018057095967334608 0 0.00046651704751524153 0.0018274184194965464 0 0.00044723688661545678 0.0018309157220732588 0 0.00042656625563581549 0.0016629454654278179 0 0.00041448099587465932 0.0016891238272059201 0 0.0004028404153732027 0.0016682007112090794 0 0.00043474956520759645 0.0017854413242018442 0 0.00033908149092561399 0.0019929967805780674 0 0.00043474956520759645 0.0017854413242018442 0 0.00035252634875451136 0.0019027046560080923 0 0.00039046333116313285 0.001882465724024493 0 0.00034929184305494291 0.0018913274442540155 0 0.00038001626825252593 0.0019173115718171053 0 0.00033908149092561399 0.0019929967805780674 0 0.00035252634875451136 0.0019027046560080923 0 0.00027758745140459267 0.002109130743141075 0 0.00029699367224199282 0.002123512338510583 0 0.00027323310816112389 0.0021318752395365383 0 0.00041869403565918947 0.0018160220305223492 0 0.000445432844674059 0.0018381473522154105 0 0.00040848969310391204 0.0018462930659714739 0 0.00046772254564655296 0.001479611336345064 0 0.00055498870029199331 0.0014740056872869533 0 0.00051905073407767176 0.0014507828773926959 0 0.00049411896840311983 0.0014294720256488981 0 0.00051905073407767176 0.0014507828773926959 0 0.00055426079829704717 0.0014258644680832876 0 0.00049411896840311983 0.0014294720256488981 0 0.00058066002211225114 0.0014067900491718049 0 0.00052171289248757453 0.0013875441498491486 0 0.00049206089097901605 0.0014305027819515746 0 0.00059008949821452185 0.0014088776839974479 0 0.00046772254564655296 0.001479611336345064 0 0.00049411896840311983 0.0014294720256488981 0 0.00051905073407767176 0.0014507828773926959 0 0.00055498870029199331 0.0014740056872869533 0 0.00051905073407767176 0.0014507828773926959 0 0.00055426079829704717 0.0014258644680832876 0 0.0006062704717882954 0.0014189482593842697 0 0.00058538457948492607 0.0014485567514851811 0 0.00055426079829704717 0.0014258644680832876 0 0.00055498870029199331 0.0014740056872869533 0 0.00058538457948492607 0.0014485567514851811 0 0.00055426079829704717 0.0014258644680832876 0 0.00064535117379780282 0.0013674645218231152 0 0.00058619424629518179 0.0013031059536516762 0 0.00040573685770170531 0.0012894009477628511 0 0.00064535117379780282 0.0013674645218231152 0 0.00068305752655109129 0.0013898709348270008 0 0.00058066002211225114 0.0014067900491718049 0 0.00058619424629518179 0.0013031059536516762 0 0.00040573685770170531 0.0012894009477628511 0 0.0005312618700673387 0.0012672048869767105 0 0.00064535117379780282 0.0013674645218231152 0 0.00058066002211225114 0.0014067900491718049 0 0.00052007332113770228 0.0013406844237477565 0 0.00061116954238018466 0.0013347877401296959 0 0.00051055146591007759 0.0014282813562013635 0 0.00054097925209746814 0.0015713517137569666 0 0.00059008949821452185 0.0014088776839974479 0 0.00064535117379780282 0.0013674645218231152 0 0.00058619424629518179 0.0013031059536516762 0 0.00065769333636853057 0.0012742397512034223 0 0.00058066002211225114 0.0014067900491718049 0 0.00052171289248757453 0.0013875441498491486 0 0.00052007332113770228 0.0013406844237477565 0 0.00048727335397822773 0.0013880691477316015 0 0.00052171289248757453 0.0013875441498491486 0 0.00052007332113770228 0.0013406844237477565 0 0.00048727335397822773 0.0013880691477316015 0 0.00049411896840311983 0.0014294720256488981 0 0.00052171289248757453 0.0013875441498491486 0 0.00030964637523780655 0.0011534141565006178 0 0.00040573685770170531 0.0012894009477628511 0 0.00041408686418066884 0.0012085391696687446 0 0.00040573685770170531 0.0012894009477628511 0 0.00046389914723451802 0.0012362854439705543 0 0.0005312618700673387 0.0012672048869767105 0 0.00041408686418066884 0.0012085391696687446 0 0.00046389914723451802 0.0012362854439705543 0 0.000501529736231072 0.0011834399007019819 0 0.00040573685770170531 0.0012894009477628511 0 0.00041408686418066884 0.0012085391696687446 0 0.00046389914723451802 0.0012362854439705543 0 0.00041408686418066884 0.0012085391696687446 0 0.00038910050017618159 0.0010642765423554848 0 0.00050026018002523158 0.0010443741115476037 0 0.00041408686418066884 0.0012085391696687446 0 0.00048588396275115532 0.0010978022998844625 0 0.000501529736231072 0.0011834399007019819 0 0.00041754871942958574 0.0012045115855285778 0 0.00051636451471167449 0.0010229980012553589 0 0.00030964637523780655 0.0011534141565006178 0 0.00041408686418066884 0.0012085391696687446 0 0.00038910050017618159 0.0010642765423554848 0 0.00030964637523780655 0.0011534141565006178 0 0.00031727220047294224 0.0009508136572145663 0 0.00038910050017618159 0.0010642765423554848 0 0.00038910050017618159 0.0010642765423554848 0 0.00050026018002523158 0.0010443741115476037 0 0.00045188653658479659 0.00093706636500554951 0 0.00050026018002523158 0.0010443741115476037 0 0.00045188653658479659 0.00093706636500554951 0 0.00055102501554267567 0.0009061234897114707 0 0.00031727220047294224 0.0009508136572145663 0 0.00038910050017618159 0.0010642765423554848 0 0.00045188653658479659 0.00093706636500554951 0 0.00036234291182728982 0.0016002223625623904 0 0.00030534918935965595 0.0016921204464679241 0 0.00040438093666610891 0.0017199830363131005 0 0.00048314420976849106 0.0013702877945985302 0 0.00034887433297428226 0.0012522677029208091 0 0.00048588396275115532 0.0010978022998844625 0 0.00059997163857458311 0.0011209552832318159 0 0.00054874575038656734 0.00098415676681042541 0 0.00051636451471167449 0.0010229980012553589 0 0.00034887433297428226 0.0012522677029208091 0 0.00050026018002523158 0.0010443741115476037 0 0.00055102501554267567 0.0009061234897114707 0 0.00058183714931424725 0.00088858531532516247 0 0.00048314420976849106 0.0013702877945985302 0 0.00044040985919630205 0.0014896612323482062 0 0.00059997163857458311 0.0011209552832318159 0 0.00057694154637097221 0.0012154164836781815 0 0.00065769333636853057 0.0012742397512034223 0 0.00048588396275115532 0.0010978022998844625 0 0.00059997163857458311 0.0011209552832318159 0 0.000501529736231072 0.0011834399007019819 0 0.00059997163857458311 0.0011209552832318159 0 0.000501529736231072 0.0011834399007019819 0 0.00057694154637097221 0.0012154164836781815 0 0.000501529736231072 0.0011834399007019819 0 0.0005312618700673387 0.0012672048869767105 0 0.00057694154637097221 0.0012154164836781815 0 0.00046389914723451802 0.0012362854439705543 0 0.000501529736231072 0.0011834399007019819 0 0.0005312618700673387 0.0012672048869767105 0 0.00058619424629518179 0.0013031059536516762 0 0.0005312618700673387 0.0012672048869767105 0 0.00057694154637097221 0.0012154164836781815 0 0.00058619424629518179 0.0013031059536516762 0 0.00057694154637097221 0.0012154164836781815 0 0.00065769333636853057 0.0012742397512034223 0 0.00036234291182728982 0.0016002223625623904 0 0.00032314778273778092 0.0014906431492063856 0 0.0003168173947802951 0.0015556738906935157 0 0.00032314778273778092 0.0014906431492063856 0 0.0002574518440627932 0.0015407862778734835 0 0.0003168173947802951 0.0015556738906935157 0 0.00044040985919630205 0.0014896612323482062 0 0.00030807888003067007 0.0016938442930903817 0 0.00041448099587465932 0.0016891238272059201 0 0.00041219171871591221 0.0017167631310128243 0 0.00039291361737142058 0.0017006599185606592 0 0.00041448099587465932 0.0016891238272059201 0 0.00043784170076685195 0.001697039913119856 0 0.00041219171871591221 0.0017167631310128243 0 0.00030807888003067007 0.0016938442930903817 0 0.00035252634875451136 0.0019027046560080923 0 0.00030807888003067007 0.0016938442930903817 0 0.00028094495844892682 0.0015783399924539432 0 0.0002574518440627932 0.0015407862778734835 0 0.0003168173947802951 0.0015556738906935157 0 0.00032936862547299758 0.0016038917746300353 0 0.00024768672550105062 0.0015347869466924599 0 0.00032936862547299758 0.0016038917746300353 0 0.00027547045511806557 0.0016051250214680311 0 0.00036234291182728982 0.0016002223625623904 0 0.0003168173947802951 0.0015556738906935157 0 0.00032936862547299758 0.0016038917746300353 0 0.00030807888003067007 0.0016938442930903817 0 0.00025408249955123939 0.0020329810721748738 0 0.00035252634875451136 0.0019027046560080923 0 0.00025408249955123939 0.0020329810721748738 0 0.00035844567129853546 0.0018670488103756555 0 0.0002979150845578921 0.0018153756533953638 0 0.00026032880300912869 0.0019416704722400422 0 0.00029699367224199282 0.002123512338510583 0 0.00028955254189619312 0.002152644808217489 0 0.00027323310816112389 0.0021318752395365383 0 0.00030807888003067007 0.0016938442930903817 0 0.0001662829657376146 0.0018698362531097831 0 0.00024768672550105062 0.0015347869466924599 0 0.00012436353340694302 0.0017089198525119251 0 0.00022995261205769758 0.0016535084451294345 0 0.00029902692765485146 0.0017688857575444618 0 0.00021323363008037094 0.0018331689795244856 0 0.00018358917097203732 0.001930968273974792 0 0.00012436353340694302 0.0017089198525119251 0 0.00022995261205769758 0.0016535084451294345 0 0.00020454675538190904 0.0017354843969384476 0 0.00025408249955123939 0.0020329810721748738 0 0.0001662829657376146 0.0018698362531097831 0 0.00036234291182728982 0.0016002223625623904 0 0.00032936862547299758 0.0016038917746300353 0 0.00030534918935965595 0.0016921204464679241 0 0.00028529452867796096 0.001640308223433402 0 0.00032936862547299758 0.0016038917746300353 0 0.00030534918935965595 0.0016921204464679241 0 0.00028529452867796096 0.001640308223433402 0 0.00032936862547299758 0.0016038917746300353 0 0.00027547045511806557 0.0016051250214680311 0 0.00024768672550105062 0.0015347869466924599 0 0.00027547045511806557 0.0016051250214680311 0 0.00022995261205769758 0.0016535084451294345 0 0.00028529452867796096 0.001640308223433402 0 0.00027547045511806557 0.0016051250214680311 0 0.00022995261205769758 0.0016535084451294345 0 0.00022995261205769758 0.0016535084451294345 0 0.00030534918935965595 0.0016921204464679241 0 0.00020454675538190904 0.0017354843969384476 0 0.00028529452867796096 0.001640308223433402 0 0.00022995261205769758 0.0016535084451294345 0 0.00030534918935965595 0.0016921204464679241 0 0.00030534918935965595 0.0016921204464679241 0 0.00025630932862659266 0.0018077886562303884 0 0.00040438093666610891 0.0017199830363131005 0 5.2975303842818805e-05 0.0016876348101889131 0 9.2367619385233388e-05 0.001781799084966493 0 0.00019929708060147089 0.0016007422934916006 0 0.00012485785028254161 0.0017938260043528242 0 0.00034887433297428226 0.0012522677029208091 0 0.00030534918935965595 0.0016921204464679241 0 0.00025630932862659266 0.0018077886562303884 0 0.00020454675538190904 0.0017354843969384476 0 0.00012436353340694302 0.0017089198525119251 0 0.00015732386129356277 0.0018066797468259265 0 8.0582649351370087e-05 0.001868536328367207 0 0.0001662829657376146 0.0018698362531097831 0 8.6434960166954929e-05 0.0018103015915562932 0 0.00012436353340694302 0.0017089198525119251 0 0.00020454675538190904 0.0017354843969384476 0 0.00015732386129356277 0.0018066797468259265 0 0.00025630932862659266 0.0018077886562303884 0 0.00020454675538190904 0.0017354843969384476 0 0.00015732386129356277 0.0018066797468259265 0 0.00012485785028254161 0.0017938260043528242 0 2.8925164955688853e-05 0.0018197187044993626 0 5.2975303842818805e-05 0.0016876348101889131 0 -6.2584038288826248e-05 0.0017648242210385968 0 2.0482317731845955e-05 0.0017665925763570756 0 0.00025630932862659266 0.0018077886562303884 0 0.00015732386129356277 0.0018066797468259265 0 0.00010724136812936362 0.0018919279743799026 0 0.00015732386129356277 0.0018066797468259265 0 0.00010724136812936362 0.0018919279743799026 0 8.0582649351370087e-05 0.001868536328367207 0 1.7537377308256434e-06 0.0018295535941579811 0 -6.2584038288826248e-05 0.0017648242210385968 0 2.0482317731845955e-05 0.0017665925763570756 0 5.2975303842818805e-05 0.0016876348101889131 0 2.0482317731845955e-05 0.0017665925763570756 0 9.2367619385233388e-05 0.001781799084966493 0 1.7537377308256434e-06 0.0018295535941579811 0 2.0482317731845955e-05 0.0017665925763570756 0 9.2367619385233388e-05 0.001781799084966493 0 0.00026860516539393005 0.00073036967290442069 0 0.00043661890077977613 0.00055564799011467096 0 0.00047101856742237349 0.0006148514803201036 0 0.00026860516539393005 0.00073036967290442069 0 0.00043707274583763443 0.00051703076582970751 0 0.00043661890077977613 0.00055564799011467096 0 0.00018291713289894402 0.00086652772870022914 0 0.0003593118089539035 0.00051034656588464433 0 0.00014387269244535325 0.00092273391824972768 0 0.00014687614615495771 0.0009283506824364435 0 0.0001394484652910083 0.00093384502590723099 0 0.00043707274583763443 0.00051703076582970751 0 0.00043661890077977613 0.00055564799011467096 0 0.00046067937673399055 0.00058273147113027429 0 0.0003593118089539035 0.00051034656588464433 0 0.00030937955674118357 0.00016179483328406893 0 0.00037710492939855135 0.0002625970642694255 0 0.00030937955674118357 0.00016179483328406893 0 0.000140166163360026 -0.00070495688995095935 0 0.00017578683671949085 -0.00027971423204906049 0 7.2478694843058965e-05 -0.0012468221424679871 0 7.8851180614121662e-05 -0.0012008915443770833 0 0.00011812578713547927 -0.0012341693123068408 0 0.00016154451686354592 -0.00010440060397082373 0 0.00014983820479544377 -8.8837187891314747e-05 0 0.00014904443011010544 -9.0860221467158896e-05 0 0.00016154451686354592 -0.00010440060397082373 0 0.00014760713526641882 -9.4774325443645161e-05 0 0.00014904443011010544 -9.0860221467158896e-05 0 0.00043661890077977613 0.00055564799011467096 0 0.00047101856742237349 0.0006148514803201036 0 0.00046017907075976812 0.00058284741184264403 0 0.00017578683671949085 -0.00027971423204906049 0 0.00030937955674118357 0.00016179483328406893 0 0.00023153989689729591 0.00041019705525237267 0 0.0003593118089539035 0.00051034656588464433 0 0.00016154451686354592 -0.00010440060397082373 0 0.00016055127814936201 -0.00011383701065606117 0 0.00014760713526641882 -9.4774325443645161e-05 0 0.00031727220047294224 0.0009508136572145663 0 0.00045188653658479659 0.00093706636500554951 0 0.00052051447033409754 0.00070937764061796338 0 0.00055102501554267567 0.0009061234897114707 0 0.00052051447033409754 0.00070937764061796338 0 0.00058245823199360456 0.00088847821082133581 0 0.00010175329931071005 0.0013413404183788042 0 0.00034887433297428226 0.0012522677029208091 0 0.00045188653658479659 0.00093706636500554951 0 0.00055102501554267567 0.0009061234897114707 0 0.00052051447033409754 0.00070937764061796338 0 0.00014687614615495771 0.0009283506824364435 0 0.0001394484652910083 0.00093384502590723099 0 0.00014444093363701844 0.00094607529403242839 0 0.00043565159747187802 0.0011824919137182715 0 0.00034887433297428226 0.0012522677029208091 0 0.0003593118089539035 0.00051034656588464433 0 0.00034887433297428226 0.0012522677029208091 0 0.00016775430447660411 0.0021874214350840067 0 0.00018326523426258112 0.0022015359372161247 0 0.00020043547543940261 0.0021769505682127793 0 0.00016775430447660411 0.0021874214350840067 0 0.00016333672367244812 0.0022005082521822433 0 0.00018326523426258112 0.0022015359372161247 0 0.00016775430447660411 0.0021874214350840067 0 0.00014488944050763302 0.0021924768993412851 0 0.00014491192565948459 0.0021825700862742109 0 0.00016775430447660411 0.0021874214350840067 0 0.00014488944050763302 0.0021924768993412851 0 0.00016333672367244812 0.0022005082521822433 0 0.00016714410247830507 0.0022200985517814419 0 0.00014742927550556362 0.0022017705494427361 0 0.00012859877555653271 0.0022030122478542968 0 0.00014488944050763302 0.0021924768993412851 0 0.00014742927550556362 0.0022017705494427361 0 0.000134500067755073 0.0021953505826502028 0 0.00014488944050763302 0.0021924768993412851 0 0.00016333672367244812 0.0022005082521822433 0 0.00014742927550556362 0.0022017705494427361 0 0.00016714410247830507 0.0022200985517814419 0 0.00016333672367244812 0.0022005082521822433 0 0.00014742927550556362 0.0022017705494427361 0 0.00020339649767441026 0.0022227534785479622 0 0.00016714410247830507 0.0022200985517814419 0 0.00018326523426258112 0.0022015359372161247 0 0.00016714410247830507 0.0022200985517814419 0 0.00016333672367244812 0.0022005082521822433 0 0.00018326523426258112 0.0022015359372161247 0 -1.5125805032442916e-05 0.0019604481408513137 0 -5.2282314460150212e-05 0.0019606770688977977 0 3.4879008647401733e-05 0.0018511577556629549 0 0.00020339649767441026 0.0022227534785479622 0 0.00020989353578982592 0.0021949918498894378 0 0.00023203941265701554 0.0021916758042617749 0 3.1050666722390698e-05 0.0020394741595987538 0 0.00013392513784611063 0.002037358918718651 0 0.00020339649767441026 0.0022227534785479622 0 0.00018326523426258112 0.0022015359372161247 0 0.00020989353578982592 0.0021949918498894378 0 -1.5125805032442916e-05 0.0019604481408513137 0 0.00010724136812936362 0.0018919279743799026 0 8.0582649351370087e-05 0.001868536328367207 0 1.7537377308256434e-06 0.0018295535941579811 0 -0.00017596848571705667 0.0018305990954157669 0 -6.2584038288826248e-05 0.0017648242210385968 0 -8.029503988521399e-05 0.0019148575365374892 0 2.8925164955688853e-05 0.0018197187044993626 0 -1.5125805032442916e-05 0.0019604481408513137 0 3.4879008647401733e-05 0.0018511577556629549 0 8.0582649351370087e-05 0.001868536328367207 0 0.0001662829657376146 0.0018698362531097831 0 0.00013392513784611063 0.002037358918718651 0 0.0001162341635950787 0.0017536495380072565 0 3.4879008647401733e-05 0.0018511577556629549 0 8.0582649351370087e-05 0.001868536328367207 0 0.00020989353578982592 0.0021949918498894378 0 0.00023203941265701554 0.0021916758042617749 0 0.00022159791597736004 0.0021591239714689936 0 0.00026629160766766352 0.0021487527183724079 0 0.00023203941265701554 0.0021916758042617749 0 0.00022159791597736004 0.0021591239714689936 0 0.00018846509025807797 0.0021948199313284685 0 0.00023152914965267484 0.0021877041693379173 0 0.00018326523426258112 0.0022015359372161247 0 0.00020989353578982592 0.0021949918498894378 0 0.00022159791597736004 0.0021591239714689936 0 0.00018326523426258112 0.0022015359372161247 0 0.00023983475075910451 0.0021868064276644827 0 0.00020043547543940261 0.0021769505682127793 0 0.00023983475075910451 0.0021868064276644827 0 0.00022700707249511071 0.0021653336530390271 0 0.00020043547543940261 0.0021769505682127793 0 0.00022700707249511071 0.0021653336530390271 0 0.00021751451692285004 0.0021502675341622448 0 0.00020043547543940261 0.0021769505682127793 0 0.00022700707249511071 0.0021653336530390271 0 0.00025136648867140639 0.0021488962597833892 0 0.00021751451692285004 0.0021502675341622448 0 0.00023983475075910451 0.0021868064276644827 0 0.00022700707249511071 0.0021653336530390271 0 0.00025136648867140639 0.0021488962597833892 0 0.00027616501283105429 0.0021127293826607996 0 0.00026629160766766352 0.0021487527183724079 0 0.00022159791597736004 0.0021591239714689936 0 0.00028955254189619312 0.002152644808217489 0 0.00023983475075910451 0.0021868064276644827 0 0.00025136648867140639 0.0021488962597833892 0 0.00025408249955123939 0.0020329810721748738 0 0.00023152914965267484 0.0021877041693379173 0 0.00028955254189619312 0.002152644808217489 0 0.00025136648867140639 0.0021488962597833892 0 0.00027323310816112389 0.0021318752395365383 0 0.00025136648867140639 0.0021488962597833892 0 0.00027323310816112389 0.0021318752395365383 0 0.00024643777348014556 0.002116377155563572 0 0.00025136648867140639 0.0021488962597833892 0 0.00021751451692285004 0.0021502675341622448 0 0.00024643777348014556 0.002116377155563572 0 0.00021751451692285004 0.0021502675341622448 0 0.00020156798985301091 0.0021215215594687122 0 0.00024643777348014556 0.002116377155563572 0 0.00021751451692285004 0.0021502675341622448 0 0.00017446257032816819 0.0021649249743606915 0 0.00020156798985301091 0.0021215215594687122 0 0.00016775430447660411 0.0021874214350840067 0 0.00020043547543940261 0.0021769505682127793 0 0.00017446257032816819 0.0021649249743606915 0 0.00021751451692285004 0.0021502675341622448 0 0.00020043547543940261 0.0021769505682127793 0 0.00017446257032816819 0.0021649249743606915 0 0.00016775430447660411 0.0021874214350840067 0 0.00014491192565948459 0.0021825700862742109 0 0.00017446257032816819 0.0021649249743606915 0 0.00014491192565948459 0.0021825700862742109 0 0.00017446257032816819 0.0021649249743606915 0 0.00013723379903456928 0.002171579649299584 0 0.00017446257032816819 0.0021649249743606915 0 0.00015896972403020251 0.0021336640471029174 0 0.00013723379903456928 0.002171579649299584 0 0.00017446257032816819 0.0021649249743606915 0 0.00015896972403020251 0.0021336640471029174 0 0.00020156798985301091 0.0021215215594687122 0 0.00015896972403020251 0.0021336640471029174 0 0.00017724763276028284 0.0020771679676918021 0 0.00014033593883324308 0.0021016141760534339 0 0.00015896972403020251 0.0021336640471029174 0 0.00020156798985301091 0.0021215215594687122 0 0.00017724763276028284 0.0020771679676918021 0 0.00020156798985301091 0.0021215215594687122 0 0.00020972926833916911 0.0020779728368652156 0 0.00017724763276028284 0.0020771679676918021 0 0.00020156798985301091 0.0021215215594687122 0 0.00020972926833916911 0.0020779728368652156 0 0.00023253413739856858 0.0020891177561986347 0 0.00020972926833916911 0.0020779728368652156 0 0.00020452530473053293 0.0020431046407199255 0 0.00017724763276028284 0.0020771679676918021 0 0.00020972926833916911 0.0020779728368652156 0 0.00023253413739856858 0.0020891177561986347 0 0.00023545755831480761 0.0020498642299306268 0 0.00020972926833916911 0.0020779728368652156 0 0.00020452530473053293 0.0020431046407199255 0 0.00023545755831480761 0.0020498642299306268 0 0.00022208751530498758 0.0020247453513935957 0 0.00020452530473053293 0.0020431046407199255 0 0.00023545755831480761 0.0020498642299306268 0 0.00022208751530498758 0.0020247453513935957 0 0.00020452530473053293 0.0020431046407199255 0 0.00019543258737409546 0.0020109092867193618 0 0.00020452530473053293 0.0020431046407199255 0 0.00017724763276028284 0.0020771679676918021 0 0.00019543258737409546 0.0020109092867193618 0 0.00017724763276028284 0.0020771679676918021 0 0.00014716483387528436 0.0020250045321223119 0 0.00014033593883324308 0.0021016141760534339 0 0.00033908149092561399 0.0019929967805780674 0 0.00022967861123607375 0.0021341616177250142 0 0.0003197611742289879 0.0021033073595077456 0 0.00024643777348014556 0.002116377155563572 0 0.00027603740406267018 0.0020658178352525999 0 0.00027758745140459267 0.002109130743141075 0 0.00027323310816112389 0.0021318752395365383 0 0.00024643777348014556 0.002116377155563572 0 0.00033908149092561399 0.0019929967805780674 0 0.00032569282398763961 0.0019395308255399767 0 0.00024643777348014556 0.002116377155563572 0 0.00023253413739856858 0.0020891177561986347 0 0.00027603740406267018 0.0020658178352525999 0 0.00020156798985301091 0.0021215215594687122 0 0.00024643777348014556 0.002116377155563572 0 0.00023253413739856858 0.0020891177561986347 0 0.00023545755831480761 0.0020498642299306268 0 0.00027603740406267018 0.0020658178352525999 0 0.00024872095655172088 0.0020219661495269291 0 0.00023253413739856858 0.0020891177561986347 0 0.00023545755831480761 0.0020498642299306268 0 0.00027603740406267018 0.0020658178352525999 0 0.00023545755831480761 0.0020498642299306268 0 0.00024872095655172088 0.0020219661495269291 0 0.00024558372806098309 0.0020197900827346443 0 0.00022208751530498758 0.0020247453513935957 0 0.00023545755831480761 0.0020498642299306268 0 0.00024558372806098309 0.0020197900827346443 0 0.00032569282398763961 0.0019395308255399767 0 0.00029177162635467984 0.0019126682111511321 0 0.00041869403565918947 0.0018160220305223492 0 0.00037293453446215656 0.0018163662090328102 0 0.00039412004263785161 0.0017854969328533262 0 0.00041869403565918947 0.0018160220305223492 0 0.00040848969310391204 0.0018462930659714739 0 0.00037293453446215656 0.0018163662090328102 0 0.00037293453446215656 0.0018163662090328102 0 0.00039412004263785161 0.0017854969328533262 0 0.00033690875913934283 0.0017871951453256444 0 0.00039295066913584866 0.0018848017138383276 0 0.00029177162635467984 0.0019126682111511321 0 0.00043807391607272541 0.0018576305909559733 0 0.00039216724364061123 0.0019559272116397015 0 0.00037241576316970052 0.0018114072304635893 0 0.00039216724364061123 0.0019559272116397015 0 0.00030462148086281195 0.0019058341396488471 0 0.00037241576316970052 0.0018114072304635893 0 0.00039216724364061123 0.0019559272116397015 0 0.00030462148086281195 0.0019058341396488471 0 0.00026537574404915886 0.001994264236954727 0 0.00026537574404915886 0.001994264236954727 0 0.00025564884322294668 0.0019487251656439724 0 0.00023750400475028554 0.0019865640879253941 0 0.00029177162635467984 0.0019126682111511321 0 0.00028053343635917196 0.0019393677598834216 0 0.00025543204896097085 0.002021308268660951 0 0.00024558372806098309 0.0020197900827346443 0 0.00023750400475028554 0.0019865640879253941 0 0.00029177162635467984 0.0019126682111511321 0 0.00028624210669393686 0.0019162437696003463 0 0.00030462148086281195 0.0019058341396488471 0 0.00026537574404915886 0.001994264236954727 0 0.00025564884322294668 0.0019487251656439724 0 0.00030462148086281195 0.0019058341396488471 0 0.00025564884322294668 0.0019487251656439724 0 0.00021312198101347942 0.0019326849263550138 0 0.00037241576316970052 0.0018114072304635893 0 0.00032262363031771807 0.0018832789035970097 0 0.00033422337537121678 0.0018142192178049925 0 0.00030462148086281195 0.0019058341396488471 0 0.00037241576316970052 0.0018114072304635893 0 0.00021312198101347942 0.0019326849263550138 0 0.00036924798444360396 0.001824959803768592 0 0.00027098759301917726 0.0019060636564215744 0 0.00019079682746484032 0.0019991780135061735 0 0.00027098759301917726 0.0019060636564215744 0 0.00017724763276028284 0.0020771679676918021 0 0.00014716483387528436 0.0020250045321223119 0 0.00019543258737409546 0.0020109092867193618 0 0.00014716483387528436 0.0020250045321223119 0 0.00019543258737409546 0.0020109092867193618 0 0.00021312198101347942 0.0019326849263550138 0 0.00022208751530498758 0.0020247453513935957 0 0.00019543258737409546 0.0020109092867193618 0 0.00023750400475028554 0.0019865640879253941 0 0.00022208751530498758 0.0020247453513935957 0 0.00024558372806098309 0.0020197900827346443 0 0.00023750400475028554 0.0019865640879253941 0 0.00025564884322294668 0.0019487251656439724 0 0.00023750400475028554 0.0019865640879253941 0 0.00021312198101347942 0.0019326849263550138 0 0.00019543258737409546 0.0020109092867193618 0 0.00023750400475028554 0.0019865640879253941 0 0.00021312198101347942 0.0019326849263550138 0 0.00032262363031771807 0.0018832789035970097 0 0.00029345968090447542 0.0018648900198046769 0 0.00033422337537121678 0.0018142192178049925 0 0.00023923633817607491 0.0019744875165786193 0 0.00032262363031771807 0.0018832789035970097 0 0.00029345968090447542 0.0018648900198046769 0 0.00023923633817607491 0.0019744875165786193 0 0.00029345968090447542 0.0018648900198046769 0 0.00024955877205599404 0.0018502701271887584 0 0.00029345968090447542 0.0018648900198046769 0 0.00024955877205599404 0.0018502701271887584 0 0.00030528943825592822 0.0018133421978078444 0 0.00024955877205599404 0.0018502701271887584 0 0.00028882933789049059 0.0017762959505708816 0 0.00024032231992020318 0.0017806577687732254 0 0.00024955877205599404 0.0018502701271887584 0 0.00030528943825592822 0.0018133421978078444 0 0.00028882933789049059 0.0017762959505708816 0 0.00030528943825592822 0.0018133421978078444 0 0.00033122379259225714 0.001766012394307288 0 0.00033422337537121678 0.0018142192178049925 0 0.00029345968090447542 0.0018648900198046769 0 0.00030528943825592822 0.0018133421978078444 0 0.00033422337537121678 0.0018142192178049925 0 0.00030528943825592822 0.0018133421978078444 0 0.00028882933789049059 0.0017762959505708816 0 0.00033122379259225714 0.001766012394307288 0 0.00028882933789049059 0.0017762959505708816 0 0.00032547549981423078 0.0017258043021043641 0 0.00028098223911804268 0.0017304889319306462 0 0.00028882933789049059 0.0017762959505708816 0 0.00032547549981423078 0.0017258043021043641 0 0.00033122379259225714 0.001766012394307288 0 0.00024032231992020318 0.0017806577687732254 0 0.00028098223911804268 0.0017304889319306462 0 0.00023676177608196913 0.0017203115192821841 0 0.00028882933789049059 0.0017762959505708816 0 0.00024032231992020318 0.0017806577687732254 0 0.00028098223911804268 0.0017304889319306462 0 0.00028098223911804268 0.0017304889319306462 0 0.00027317391124676515 0.0016952612230739647 0 0.00023676177608196913 0.0017203115192821841 0 0.00027317391124676515 0.0016952612230739647 0 0.00024667407209492503 0.0016828145046251864 0 0.00023676177608196913 0.0017203115192821841 0 0.00028098223911804268 0.0017304889319306462 0 0.00027317391124676515 0.0016952612230739647 0 0.00031514827897908686 0.0016894317536357833 0 0.00032547549981423078 0.0017258043021043641 0 0.00028098223911804268 0.0017304889319306462 0 0.00031514827897908686 0.0016894317536357833 0 0.00031514827897908686 0.0016894317536357833 0 0.00029885635873908245 0.0016571008768364206 0 0.0003409507574217833 0.0016553131481790433 0 0.00027317391124676515 0.0016952612230739647 0 0.00031514827897908686 0.0016894317536357833 0 0.00029885635873908245 0.0016571008768364206 0 0.00029885635873908245 0.0016571008768364206 0 0.0003409507574217833 0.0016553131481790433 0 0.00034822637651215575 0.0016158371905922082 0 0.00029885635873908245 0.0016571008768364206 0 0.00024667407209492503 0.0016828145046251864 0 0.00024932858327278093 0.0016538869788096536 0 0.00027317391124676515 0.0016952612230739647 0 0.00029885635873908245 0.0016571008768364206 0 0.00024667407209492503 0.0016828145046251864 0 0.00037538741620481831 0.0016352080412664483 0 0.00036215685816974998 0.0016802960974255966 0 0.00039949013877896397 0.0016557626241479467 0 0.00037538741620481831 0.0016352080412664483 0 0.0003409507574217833 0.0016553131481790433 0 0.00036215685816974998 0.0016802960974255966 0 0.00037538741620481831 0.0016352080412664483 0 0.0003409507574217833 0.0016553131481790433 0 0.00034822637651215575 0.0016158371905922082 0 0.00031514827897908686 0.0016894317536357833 0 0.0003409507574217833 0.0016553131481790433 0 0.00036215685816974998 0.0016802960974255966 0 0.00032547549981423078 0.0017258043021043641 0 0.00031514827897908686 0.0016894317536357833 0 0.00036215685816974998 0.0016802960974255966 0 0.00036215685816974998 0.0016802960974255966 0 0.00039394679337374745 0.0016952784934452865 0 0.00039949013877896397 0.0016557626241479467 0 0.00039394679337374745 0.0016952784934452865 0 0.00036325580110759681 0.0017550401529620755 0 0.00041985420038566026 0.001710915815813096 0 0.00036215685816974998 0.0016802960974255966 0 0.00039394679337374745 0.0016952784934452865 0 0.00036052115390159447 0.0017175914599432368 0 0.00039394679337374745 0.0016952784934452865 0 0.00036052115390159447 0.0017175914599432368 0 0.00036325580110759681 0.0017550401529620755 0 0.00032547549981423078 0.0017258043021043641 0 0.00036215685816974998 0.0016802960974255966 0 0.00036052115390159447 0.0017175914599432368 0 0.00036052115390159447 0.0017175914599432368 0 0.00033122379259225714 0.001766012394307288 0 0.00036325580110759681 0.0017550401529620755 0 0.00032547549981423078 0.0017258043021043641 0 0.00036052115390159447 0.0017175914599432368 0 0.00033122379259225714 0.001766012394307288 0 0.00037241576316970052 0.0018114072304635893 0 0.00036325580110759681 0.0017550401529620755 0 0.00033422337537121678 0.0018142192178049925 0 0.00033122379259225714 0.001766012394307288 0 0.00036325580110759681 0.0017550401529620755 0 0.00033422337537121678 0.0018142192178049925 0 0.00037241576316970052 0.0018114072304635893 0 0.00036325580110759681 0.0017550401529620755 0 0.00041985420038566026 0.001710915815813096 0 0.00045734261446305554 0.0017254255478639481 0 0.00041985420038566026 0.001710915815813096 0 0.00043022477013871554 0.0016737359032640941 0 0.00042301857957138323 0.0016445664432304175 0 0.00043486013460269397 0.001668835353480198 0 0.00043022477013871554 0.0016737359032640941 0 0.00045734261446305554 0.0017254255478639481 0 0.00043486013460269397 0.001668835353480198 0 0.00043022477013871554 0.0016737359032640941 0 0.00043022477013871554 0.0016737359032640941 0 0.0004145786228039006 0.0016765028824571781 0 0.00041674518811329913 0.0016459749852158045 0 0.00043022477013871554 0.0016737359032640941 0 0.00041726803861819126 0.0016376152884159821 0 0.00041674518811329913 0.0016459749852158045 0 0.00041985420038566026 0.001710915815813096 0 0.00043022477013871554 0.0016737359032640941 0 0.0004145786228039006 0.0016765028824571781 0 0.00039394679337374745 0.0016952784934452865 0 0.00041985420038566026 0.001710915815813096 0 0.0004145786228039006 0.0016765028824571781 0 0.00039328459535185558 0.0015886135099600109 0 0.00041011699493949817 0.0016185626119100082 0 0.00040495225866606793 0.0016147655021538172 0 0.00041011699493949817 0.0016185626119100082 0 0.00040495225866606793 0.0016147655021538172 0 0.00041762778451678102 0.0016390087289080782 0 0.00042301857957138323 0.0016445664432304175 0 0.00043022477013871554 0.0016737359032640941 0 0.00041762778451678102 0.0016390087289080782 0 0.00040495225866606793 0.0016147655021538172 0 0.00041762778451678102 0.0016390087289080782 0 0.00041726803861819126 0.0016376152884159821 0 0.00041011699493949817 0.0016185626119100082 0 0.00042301857957138323 0.0016445664432304175 0 0.00041762778451678102 0.0016390087289080782 0 0.00043022477013871554 0.0016737359032640941 0 0.00041762778451678102 0.0016390087289080782 0 0.00041726803861819126 0.0016376152884159821 0 0.00041726803861819126 0.0016376152884159821 0 0.00040031992887302776 0.0016126195033446882 0 0.00040895699441030934 0.0016216410897590622 0 0.00040495225866606793 0.0016147655021538172 0 0.00041726803861819126 0.0016376152884159821 0 0.00040031992887302776 0.0016126195033446882 0 0.00040895699441030934 0.0016216410897590622 0 0.00040988548856328789 0.0016186595390335833 0 0.00040301036613229482 0.0016139095228616686 0 0.00040895699441030934 0.0016216410897590622 0 0.00039519769051859962 0.0016097098781825087 0 0.00040301036613229482 0.0016139095228616686 0 0.00040031992887302776 0.0016126195033446882 0 0.00040895699441030934 0.0016216410897590622 0 0.00039519769051859962 0.0016097098781825087 0 0.00040895699441030934 0.0016216410897590622 0 0.00041462787077230619 0.0016286329153730461 0 0.00040988548856328789 0.0016186595390335833 0 0.00041726803861819126 0.0016376152884159821 0 0.00040895699441030934 0.0016216410897590622 0 0.00041462787077230619 0.0016286329153730461 0 0.00041726803861819126 0.0016376152884159821 0 0.00041462787077230619 0.0016286329153730461 0 0.00041674518811329913 0.0016459749852158045 0 0.00041462787077230619 0.0016286329153730461 0 0.00041366929674983621 0.0016216257184096157 0 0.00041674518811329913 0.0016459749852158045 0 0.00041462787077230619 0.0016286329153730461 0 0.00041366929674983621 0.0016216257184096157 0 0.00041292693161065584 0.0016145142121674848 0 0.00041462787077230619 0.0016286329153730461 0 0.00040988548856328789 0.0016186595390335833 0 0.00041292693161065584 0.0016145142121674848 0 0.00040988548856328789 0.0016186595390335833 0 0.00041292693161065584 0.0016145142121674848 0 0.00040807746211498036 0.0016119339944164384 0 0.00041292693161065584 0.0016145142121674848 0 0.00040807746211498036 0.0016119339944164384 0 0.00040773611795091001 0.0016056613060444096 0 0.00040988548856328789 0.0016186595390335833 0 0.00040807746211498036 0.0016119339944164384 0 0.00040301036613229482 0.0016139095228616686 0 0.00039394679337374745 0.0016952784934452865 0 0.0004145786228039006 0.0016765028824571781 0 0.00039949013877896397 0.0016557626241479467 0 0.0004145786228039006 0.0016765028824571781 0 0.00039949013877896397 0.0016557626241479467 0 0.00041674518811329913 0.0016459749852158045 0 0.00041366929674983621 0.0016216257184096157 0 0.00041674518811329913 0.0016459749852158045 0 0.00040470923757955803 0.0016171630474496959 0 0.00039949013877896397 0.0016557626241479467 0 0.00041674518811329913 0.0016459749852158045 0 0.00040470923757955803 0.0016171630474496959 0 0.00037538741620481831 0.0016352080412664483 0 0.00039949013877896397 0.0016557626241479467 0 0.00040470923757955803 0.0016171630474496959 0 0.00040470923757955803 0.0016171630474496959 0 0.00040825507285389165 0.001568760682595458 0 0.0003818084483138778 0.0015946928291250954 0 0.00040470923757955803 0.0016171630474496959 0 0.0004193703777907875 0.0015942858977354853 0 0.00040825507285389165 0.001568760682595458 0 0.00037538741620481831 0.0016352080412664483 0 0.00040470923757955803 0.0016171630474496959 0 0.0003818084483138778 0.0015946928291250954 0 0.00041292693161065584 0.0016145142121674848 0 0.0004193703777907875 0.0015942858977354853 0 0.00040773611795091001 0.0016056613060444096 0 0.00036187256055953218 -0.0019963208164424213 0 0.00038948453221372898 -0.00053760501449953788 0 0.00044412822465816264 0.00069622993175034716 0 0.00038948453221372898 -0.00053760501449953788 0 0.00040807746211498036 0.0016119339944164384 0 0.00040528344441670368 0.0016081527875249 0 0.00040773611795091001 0.0016056613060444096 0 0.00041366929674983621 0.0016216257184096157 0 0.00040470923757955803 0.0016171630474496959 0 0.0004193703777907875 0.0015942858977354853 0 0.00041366929674983621 0.0016216257184096157 0 0.00041292693161065584 0.0016145142121674848 0 0.0004193703777907875 0.0015942858977354853 0 0.00035511297419650925 -0.00055331705619851926 0 0.00034305348845753956 -0.00054674893759363479 0 0.00037483591424068382 -0.00049434100709908686 0 0.00044412822465816264 0.00069622993175034716 0 0.00036004991871707272 0.00043411103493434024 0 0.0004706835661976265 -0.003042351450787067 0 0.00052244239946961388 -0.0030169282352481594 0 0.00051420392764324626 -0.0030424932088496206 0 0.00035511297419650925 -0.00055331705619851926 0 0.00034305348845753956 -0.00054674893759363479 0 0.00031622983962164766 -0.00058083107433015192 0 0.0004706835661976265 -0.003042351450787067 0 0.00047845563988277749 -0.0031012248703798269 0 0.00051420392764324626 -0.0030424932088496206 0 0.0004706835661976265 -0.003042351450787067 0 0.00047845563988277749 -0.0031012248703798269 0 0.00043759946074715993 -0.0031022874865894914 0 0.00035511297419650925 -0.00055331705619851926 0 0.00037483591424068382 -0.00049434100709908686 0 0.00040393882822329231 -0.00051036851198440613 0 0.00036187256055953218 -0.0019963208164424213 0 0.00038439406945778559 -0.0019183200829106309 0 0.00043759946074715993 -0.0031022874865894914 0 0.00042534248112121009 -0.0031341098342415742 0 0.00045801108283782772 -0.0031493384883734886 0 0.00047845563988277749 -0.0031012248703798269 0 0.00043759946074715993 -0.0031022874865894914 0 0.00045801108283782772 -0.0031493384883734886 0 0.00047845563988277749 -0.0031012248703798269 0 0.00048195801631776696 -0.0031924708849530577 0 0.00045801108283782772 -0.0031493384883734886 0 0.00040825507285389165 0.001568760682595458 0 0.00038561590956459726 0.0015414396404335349 0 0.0003818084483138778 0.0015946928291250954 0 0.00036004991871707272 0.00043411103493434024 0 0.00046272482750705785 0.00095415057368413824 0 0.00037483591424068382 -0.00049434100709908686 0 0.00040393882822329231 -0.00051036851198440613 0 0.00041089702302241082 -0.00047288571529421718 0 0.00038439406945778559 -0.0019183200829106309 0 0.00039300458496350924 -0.00088250989294910774 0 0.00040393882822329231 -0.00051036851198440613 0 0.00041089702302241082 -0.00047288571529421718 0 0.00045582925629052005 -0.00045953052083852599 0 0.00037483591424068382 -0.00049434100709908686 0 0.00041089702302241082 -0.00047288571529421718 0 0.00041118951016402573 -0.00043406125304308493 0 0.00041089702302241082 -0.00047288571529421718 0 0.00045582925629052005 -0.00045953052083852599 0 0.00041118951016402573 -0.00043406125304308493 0 0.00046272482750705785 0.00095415057368413824 0 0.00039300458496350924 -0.00088250989294910774 0 0.00060747819862958657 0.0014030644600374633 0 0.00044792823839576938 0.0014046855345305699 0 0.00048989175844949614 0.001292630125382249 0 0.00038561590956459726 0.0015414396404335349 0 0.00035353169786697501 0.001572071718241159 0 0.0003818084483138778 0.0015946928291250954 0 0.00060747819862958657 0.0014030644600374633 0 0.00045213319102786829 0.0015165163621569438 0 0.00044792823839576938 0.0014046855345305699 0 0.00046272482750705785 0.00095415057368413824 0 0.00038544588605814666 0.0016381197235477765 0 0.00045213319102786829 0.0015165163621569438 0 0.00044792823839576938 0.0014046855345305699 0 0.00036116462445194428 0.0014230167916203897 0 0.00044792823839576938 0.0014046855345305699 0 0.00036116462445194428 0.0014230167916203897 0 0.00037043474139454986 0.0013272094756178374 0 0.00036116462445194428 0.0014230167916203897 0 0.00027507534388609143 0.0013862991828582781 0 0.00030695074863286567 0.0014943015586226336 0 0.00036116462445194428 0.0014230167916203897 0 0.00027507534388609143 0.0013862991828582781 0 0.00037043474139454986 0.0013272094756178374 0 0.00027507534388609143 0.0013862991828582781 0 0.00024139735289108896 0.0014752563882334689 0 0.00030695074863286567 0.0014943015586226336 0 0.00027507534388609143 0.0013862991828582781 0 0.00024139735289108896 0.0014752563882334689 0 0.00018758142056807083 0.0014321069220026316 0 0.00024139735289108896 0.0014752563882334689 0 0.00030695074863286567 0.0014943015586226336 0 0.00023796330882337369 0.0015427708535195846 0 0.00045213319102786829 0.0015165163621569438 0 0.00036116462445194428 0.0014230167916203897 0 0.00030695074863286567 0.0014943015586226336 0 0.00045213319102786829 0.0015165163621569438 0 0.00030695074863286567 0.0014943015586226336 0 0.0003153867514163834 0.0016031486906254648 0 0.0003153867514163834 0.0016031486906254648 0 0.00023796330882337369 0.0015427708535195846 0 0.00023449878264816327 0.0016025365072433713 0 0.00030695074863286567 0.0014943015586226336 0 0.0003153867514163834 0.0016031486906254648 0 0.00023796330882337369 0.0015427708535195846 0 0.0003153867514163834 0.0016031486906254648 0 0.00024932858327278093 0.0016538869788096536 0 0.00023449878264816327 0.0016025365072433713 0 0.00029885635873908245 0.0016571008768364206 0 0.0003153867514163834 0.0016031486906254648 0 0.00024932858327278093 0.0016538869788096536 0 0.00029885635873908245 0.0016571008768364206 0 0.0003153867514163834 0.0016031486906254648 0 0.00034822637651215575 0.0016158371905922082 0 0.00037538741620481831 0.0016352080412664483 0 0.00034822637651215575 0.0016158371905922082 0 0.0003818084483138778 0.0015946928291250954 0 0.00035353169786697501 0.001572071718241159 0 0.00034822637651215575 0.0016158371905922082 0 0.0003818084483138778 0.0015946928291250954 0 0.00035353169786697501 0.001572071718241159 0 0.0003153867514163834 0.0016031486906254648 0 0.00034822637651215575 0.0016158371905922082 0 0.00038544588605814666 0.0016381197235477765 0 0.00033394890532485196 0.0015671405654203261 0 0.00040573311096733919 -0.0033172212678364084 0 0.00042910998471872599 -0.0032999867863766656 0 0.00040580164300545543 -0.0033726964207777027 0 0.00043772965582073028 -0.003375742087207219 0 0.00042910998471872599 -0.0032999867863766656 0 0.00040580164300545543 -0.0033726964207777027 0 0.00044518107746690779 -0.0036118711953290502 0 0.00033590378178929094 -0.0033345376339098806 0 0.00040573311096733919 -0.0033172212678364084 0 0.00042910998471872599 -0.0032999867863766656 0 0.00042063683006592089 -0.0032290322165580265 0 0.00040573311096733919 -0.0033172212678364084 0 0.00042063683006592089 -0.0032290322165580265 0 0.0003963916875096858 -0.00328593258519113 0 0.00033590378178929094 -0.0033345376339098806 0 0.00042272726598670523 -0.0036154419321622858 0 0.00038161596609423236 -0.0035037389846790845 0 0.00031908758100081106 -0.0035246935140160808 0 0.00032445806384688895 -0.0034475235721220391 0 0.00037763006241822397 -0.0034129885780450216 0 0.00031846968702707514 -0.0033742467570989729 0 0.00034700159284048167 -0.0033551296571661632 0 0.00037763006241822397 -0.0034129885780450216 0 0.00031846968702707514 -0.0033742467570989729 0 0.00032445806384688895 -0.0034475235721220391 0 0.00031846968702707514 -0.0033742467570989729 0 0.00032445806384688895 -0.0034475235721220391 0 0.00026364671833768206 -0.0033871113749409775 0 0.00032445806384688895 -0.0034475235721220391 0 0.00026364671833768206 -0.0033871113749409775 0 0.00026179795524602516 -0.0034495391202714462 0 0.00031908758100081106 -0.0035246935140160808 0 0.00032445806384688895 -0.0034475235721220391 0 0.00026179795524602516 -0.0034495391202714462 0 0.00042063683006592089 -0.0032290322165580265 0 0.0003863296791785929 -0.0032110836206106757 0 0.00038692095282132159 -0.0032429211090921057 0 0.00042063683006592089 -0.0032290322165580265 0 0.00039125790909697662 -0.0031606309199061428 0 0.0003863296791785929 -0.0032110836206106757 0 0.00026364671833768206 -0.0033871113749409775 0 0.00026179795524602516 -0.0034495391202714462 0 0.00020715801940484601 -0.0033693770059101558 0 0.00042272726598670523 -0.0036154419321622858 0 0.00024665395677681018 -0.001796716210119497 0 0.00026872603127734324 0.0015010876785027517 0 0.00029960206898246568 0.0015478402337397456 0 0.00030649943311209394 0.0015260411690003724 0 0.00024665395677681018 -0.001796716210119497 0 0.00040497275774656609 -0.00067297695131433204 0 0.00039726017028699775 -0.0031412705498668372 0 0.0003863296791785929 -0.0032110836206106757 0 0.00036698244810030872 -0.0032077684207979188 0 0.00024665395677681018 -0.001796716210119497 0 0.00032655977967576934 -0.003681073686896753 0 0.0003863296791785929 -0.0032110836206106757 0 0.00036784118139444281 -0.0032061159618904196 0 0.00036698244810030872 -0.0032077684207979188 0 0.0003863296791785929 -0.0032110836206106757 0 0.00038692095282132159 -0.0032429211090921057 0 0.00036784118139444281 -0.0032061159618904196 0 0.00038692095282132159 -0.0032429211090921057 0 0.00037848317996985921 -0.0032923658463839354 0 0.00036784118139444281 -0.0032061159618904196 0 0.00038692095282132159 -0.0032429211090921057 0 0.0003963916875096858 -0.00328593258519113 0 0.00037848317996985921 -0.0032923658463839354 0 0.00042063683006592089 -0.0032290322165580265 0 0.00038692095282132159 -0.0032429211090921057 0 0.0003963916875096858 -0.00328593258519113 0 0.00040573311096733919 -0.0033172212678364084 0 0.0003963916875096858 -0.00328593258519113 0 0.00039158748784016441 -0.0033333469266089676 0 0.0003963916875096858 -0.00328593258519113 0 0.00037848317996985921 -0.0032923658463839354 0 0.00039158748784016441 -0.0033333469266089676 0 0.00037848317996985921 -0.0032923658463839354 0 0.0003553099050927283 -0.0033074353425181758 0 0.00037494172068288029 -0.0033284129615379476 0 0.00037848317996985921 -0.0032923658463839354 0 0.0003553099050927283 -0.0033074353425181758 0 0.00036784118139444281 -0.0032061159618904196 0 0.0004528408084396924 -0.0030569925075354444 0 0.00046046612269621184 -0.0031649051591506705 0 0.0005285401978507091 -0.0030535260780434597 0 0.00040603631724681072 -0.0031824055188440252 0 0.00037241898209785802 -0.0032034855437710376 0 0.0004528408084396924 -0.0030569925075354444 0 0.00046046612269621184 -0.0031649051591506705 0 0.00036784118139444281 -0.0032061159618904196 0 0.00046046612269621184 -0.0031649051591506705 0 0.00036784118139444281 -0.0032061159618904196 0 0.00036698244810030872 -0.0032077684207979188 0 0.00037837767634171337 -0.00081203671285148859 0 0.00040497275774656609 -0.00067297695131433204 0 0.00029960206898246568 0.0015478402337397456 0 0.00030649943311209394 0.0015260411690003724 0 0.00034596655141840092 0.0015613153412337923 0 0.00033988513070904326 0.001585514895729523 0 0.00034596655141840092 0.0015613153412337923 0 0.00037631182266392618 0.0015947601532693791 0 0.00033988513070904326 0.001585514895729523 0 0.00029960206898246568 0.0015478402337397456 0 0.00034596655141840092 0.0015613153412337923 0 0.00034596655141840092 0.0015613153412337923 0 0.00037631182266392618 0.0015947601532693791 0 0.00038400804543451111 0.0015892900132734697 0 0.00037043721731263164 0.001559789026062335 0 0.00034596655141840092 0.0015613153412337923 0 0.00038400804543451111 0.0015892900132734697 0 0.00040495225866606793 0.0016147655021538172 0 0.00040031992887302776 0.0016126195033446882 0 0.00038400804543451111 0.0015892900132734697 0 0.00037043721731263164 0.001559789026062335 0 0.00039328459535185558 0.0015886135099600109 0 0.00038400804543451111 0.0015892900132734697 0 0.00039328459535185558 0.0015886135099600109 0 0.00040495225866606793 0.0016147655021538172 0 0.00038400804543451111 0.0015892900132734697 0 0.00040031992887302776 0.0016126195033446882 0 0.00037631182266392618 0.0015947601532693791 0 0.00039519769051859962 0.0016097098781825087 0 0.00040031992887302776 0.0016126195033446882 0 0.00037631182266392618 0.0015947601532693791 0 0.00038400804543451111 0.0015892900132734697 0 0.00037631182266392618 0.0015947601532693791 0 0.00039519769051859962 0.0016097098781825087 0 0.00037889164978611572 0.0016066647384977788 0 0.00039519769051859962 0.0016097098781825087 0 0.00040301036613229482 0.0016139095228616686 0 0.00039469768695325693 0.001610003609206974 0 0.00039519769051859962 0.0016097098781825087 0 0.00037889164978611572 0.0016066647384977788 0 0.00039469768695325693 0.001610003609206974 0 0.00033988513070904326 0.001585514895729523 0 0.00037631182266392618 0.0015947601532693791 0 0.00037889164978611572 0.0016066647384977788 0 0.00037837767634171337 -0.00081203671285148859 0 0.00045921716763739197 -0.0007444216187423179 0 0.00037889164978611572 0.0016066647384977788 0 0.00040015102601547424 0.0016091997103016833 0 0.00039469768695325693 0.001610003609206974 0 0.00037889164978611572 0.0016066647384977788 0 0.00040725064500097457 0.001605700387740637 0 0.00040533865694239446 0.0016060072220883544 0 0.00045921716763739197 -0.0007444216187423179 0 0.00038948453221372898 -0.00053760501449953788 0 0.00037889164978611572 0.0016066647384977788 0 0.00040015102601547424 0.0016091997103016833 0 0.00040533865694239446 0.0016060072220883544 0 0.00040807746211498036 0.0016119339944164384 0 0.00040015102601547424 0.0016091997103016833 0 0.00040528344441670368 0.0016081527875249 0 0.00040015102601547424 0.0016091997103016833 0 0.00040528344441670368 0.0016081527875249 0 0.00040533865694239446 0.0016060072220883544 0 0.00040015102601547424 0.0016091997103016833 0 0.00040301036613229482 0.0016139095228616686 0 0.00039469768695325693 0.001610003609206974 0 0.00040807746211498036 0.0016119339944164384 0 0.00040015102601547424 0.0016091997103016833 0 0.00040301036613229482 0.0016139095228616686 0 0.00040528344441670368 0.0016081527875249 0 0.00040773611795091001 0.0016056613060444096 0 0.00040533865694239446 0.0016060072220883544 0 0.00038948453221372898 -0.00053760501449953788 0 0.00050092651172977038 -0.00028535245985393591 0 0.0005285401978507091 -0.0030535260780434597 0 0.00052244239946961388 -0.0030169282352481594 0 0.0005210541995686219 -0.003023819166040026 0 0.00045560530027899149 -0.0031774693834379451 0 0.00048051464273823013 -0.0031903587779313161 0 0.0005210541995686219 -0.003023819166040026 0 0.00051420392764324626 -0.0030424932088496206 0 0.00053610919276351175 -0.0030831009817871547 0 0.00052244239946961388 -0.0030169282352481594 0 0.0005210541995686219 -0.003023819166040026 0 0.00051420392764324626 -0.0030424932088496206 0 0.00047845563988277749 -0.0031012248703798269 0 0.00051420392764324626 -0.0030424932088496206 0 0.00053610919276351175 -0.0030831009817871547 0 0.00043029349047783304 -0.0032978307178768026 0 0.00041157029895624891 -0.0032221040015722601 0 0.00048195801631776696 -0.0031924708849530577 0 0.00043029349047783304 -0.0032978307178768026 0 0.00040037662223768795 -0.0032856394048632566 0 0.00041157029895624891 -0.0032221040015722601 0 0.00047845563988277749 -0.0031012248703798269 0 0.00053610919276351175 -0.0030831009817871547 0 0.00048195801631776696 -0.0031924708849530577 0 0.00048051464273823013 -0.0031903587779313161 0 0.00048201351503989706 -0.0031935100953466465 0 0.00043029349047783304 -0.0032978307178768026 0 0.00040037662223768795 -0.0032856394048632566 0 0.00038460233335049543 -0.0033225915393511958 0 0.00039333822361122228 -0.0033296974369431739 0 0.00043029349047783304 -0.0032978307178768026 0 0.00038460233335049543 -0.0033225915393511958 0 0.00040037662223768795 -0.0032856394048632566 0 0.00038460233335049543 -0.0033225915393511958 0 0.00039626640635644441 -0.0033218730347241749 0 0.00038460233335049543 -0.0033225915393511958 0 0.00038898434930800682 -0.0033398709322752791 0 0.00039626640635644441 -0.0033218730347241749 0 0.00038460233335049543 -0.0033225915393511958 0 0.00037494172068288029 -0.0033284129615379476 0 0.00038422269041544393 -0.0033385911983379187 0 0.00039333822361122228 -0.0033296974369431739 0 0.00038460233335049543 -0.0033225915393511958 0 0.00037494172068288029 -0.0033284129615379476 0 0.00040603631724681072 -0.0031824055188440252 0 0.00045560530027899149 -0.0031774693834379451 0 0.0004528408084396924 -0.0030569925075354444 0 0.0005285401978507091 -0.0030535260780434597 0 0.0005210541995686219 -0.003023819166040026 0 0.0003553099050927283 -0.0033074353425181758 0 0.00039333822361122228 -0.0033296974369431739 0 0.00037494172068288029 -0.0033284129615379476 0 0.00037848317996985921 -0.0032923658463839354 0 0.00037494172068288029 -0.0033284129615379476 0 0.00038422269041544393 -0.0033385911983379187 0 0.00037848317996985921 -0.0032923658463839354 0 0.00039158748784016441 -0.0033333469266089676 0 0.00038422269041544393 -0.0033385911983379187 0 0.00039158748784016441 -0.0033333469266089676 0 0.00039176112663870562 -0.0033645510047225296 0 0.00039410953702453922 -0.00336946534106907 0 0.00039158748784016441 -0.0033333469266089676 0 0.00039176112663870562 -0.0033645510047225296 0 0.00038422269041544393 -0.0033385911983379187 0 0.00039176112663870562 -0.0033645510047225296 0 0.00038422269041544393 -0.0033385911983379187 0 0.00038898434930800682 -0.0033398709322752791 0 0.00038460233335049543 -0.0033225915393511958 0 0.00038422269041544393 -0.0033385911983379187 0 0.00038898434930800682 -0.0033398709322752791 0 0.00039626640635644441 -0.0033218730347241749 0 0.00037647650627188015 -0.003404214282200585 0 0.00037633996935557807 -0.003348161105838081 0 0.00038898434930800682 -0.0033398709322752791 0 0.00039626640635644441 -0.0033218730347241749 0 0.00038812458275623438 -0.0033443816945256145 0 0.00039555616924045155 -0.0033311633592763451 0 0.00038049201893790053 -0.0033732497987478834 0 0.00037647650627188015 -0.003404214282200585 0 0.00035346895388758465 -0.0034006597699394524 0 0.00037633996935557807 -0.003348161105838081 0 0.00039176112663870562 -0.0033645510047225296 0 0.00038898434930800682 -0.0033398709322752791 0 0.00038812458275623438 -0.0033443816945256145 0 0.00039176112663870562 -0.0033645510047225296 0 0.00038812458275623438 -0.0033443816945256145 0 0.00038928056847362585 -0.0033789668645673745 0 0.00038049201893790053 -0.0033732497987478834 0 0.0003714059740811018 -0.0034225570243566509 0 0.00034781793214137477 -0.0034617054612357981 0 0.00035346895388758465 -0.0034006597699394524 0 0.0003283772950790965 -0.0034244714438982672 0 0.00037647650627188015 -0.003404214282200585 0 0.00034781793214137477 -0.0034617054612357981 0 0.00035346895388758465 -0.0034006597699394524 0 0.0003547608799226164 -0.0034796333267392457 0 0.00034781793214137477 -0.0034617054612357981 0 0.0003283772950790965 -0.0034244714438982672 0 0.00037803409917459418 -0.0034647081101913863 0 0.0003714059740811018 -0.0034225570243566509 0 0.00037942025845348978 -0.0034763437784232523 0 0.0003547608799226164 -0.0034796333267392457 0 0.00034781793214137477 -0.0034617054612357981 0 0.00037942025845348978 -0.0034763437784232523 0 0.00038928056847362585 -0.0033789668645673745 0 0.00039089118747981025 -0.0034167063911940483 0 0.00039176112663870562 -0.0033645510047225296 0 0.00038928056847362585 -0.0033789668645673745 0 0.00039089118747981025 -0.0034167063911940483 0 0.00039176112663870562 -0.0033645510047225296 0 0.00039089118747981025 -0.0034167063911940483 0 0.00039410953702453922 -0.00336946534106907 0 0.00040573311096733919 -0.0033172212678364084 0 0.00039410953702453922 -0.00336946534106907 0 0.00040580164300545543 -0.0033726964207777027 0 0.00040573311096733919 -0.0033172212678364084 0 0.00039158748784016441 -0.0033333469266089676 0 0.00039410953702453922 -0.00336946534106907 0 0.00039089118747981025 -0.0034167063911940483 0 0.00039410953702453922 -0.00336946534106907 0 0.00040580164300545543 -0.0033726964207777027 0 0.00039513245049005371 -0.0034643351327524169 0 0.00039089118747981025 -0.0034167063911940483 0 0.00040580164300545543 -0.0033726964207777027 0 0.00024875934328320967 -0.0032565979439952543 0 0.00029868826266069584 -0.003235539930460538 0 0.00030371034986246978 -0.0032914796888161512 0 0.00024875934328320967 -0.0032565979439952543 0 0.00029868826266069584 -0.003235539930460538 0 0.00025850705048346262 -0.0032024708592844828 0 0.00029868826266069584 -0.003235539930460538 0 0.00033165049968629962 -0.0032194093772851544 0 0.00030288947376558772 -0.003189357557656662 0 0.00033165049968629962 -0.0032194093772851544 0 0.00033727153674826339 -0.0032564746751685687 0 0.00036128740417867107 -0.003235397546506496 0 0.00029868826266069584 -0.003235539930460538 0 0.00033165049968629962 -0.0032194093772851544 0 0.00033727153674826339 -0.0032564746751685687 0 0.00029868826266069584 -0.003235539930460538 0 0.00033727153674826339 -0.0032564746751685687 0 0.00030371034986246978 -0.0032914796888161512 0 0.00033727153674826339 -0.0032564746751685687 0 0.00030371034986246978 -0.0032914796888161512 0 0.00036352192943052322 -0.003289904616887644 0 0.00030371034986246978 -0.0032914796888161512 0 0.00028404235200037045 -0.0033477820865002806 0 0.00034194516785786012 -0.0033453660531859324 0 0.00021075547764218839 -0.003304638888426293 0 0.00030371034986246978 -0.0032914796888161512 0 0.00028404235200037045 -0.0033477820865002806 0 0.00028404235200037045 -0.0033477820865002806 0 0.0003283772950790965 -0.0034244714438982672 0 0.00034194516785786012 -0.0033453660531859324 0 0.00035346895388758465 -0.0034006597699394524 0 0.0003283772950790965 -0.0034244714438982672 0 0.00034194516785786012 -0.0033453660531859324 0 0.00035346895388758465 -0.0034006597699394524 0 0.00034194516785786012 -0.0033453660531859324 0 0.00037633996935557807 -0.003348161105838081 0 0.00030371034986246978 -0.0032914796888161512 0 0.00034194516785786012 -0.0033453660531859324 0 0.00036352192943052322 -0.003289904616887644 0 0.00034194516785786012 -0.0033453660531859324 0 0.00037633996935557807 -0.003348161105838081 0 0.00036352192943052322 -0.003289904616887644 0 0.00037633996935557807 -0.003348161105838081 0 0.00039128706976209897 -0.003297811642033481 0 0.00036352192943052322 -0.003289904616887644 0 0.00039626640635644441 -0.0033218730347241749 0 0.00037633996935557807 -0.003348161105838081 0 0.00039128706976209897 -0.003297811642033481 0 0.00039626640635644441 -0.0033218730347241749 0 0.00039128706976209897 -0.003297811642033481 0 0.00041000500803977551 -0.0032762394130607881 0 0.00039128706976209897 -0.003297811642033481 0 0.00040262197654625161 -0.0032689211664666544 0 0.00041000500803977551 -0.0032762394130607881 0 0.00039128706976209897 -0.003297811642033481 0 0.00040262197654625161 -0.0032689211664666544 0 0.00038097018133131179 -0.0032646964343257586 0 0.00040262197654625161 -0.0032689211664666544 0 0.00038097018133131179 -0.0032646964343257586 0 0.00038818484163712471 -0.0032419964527305146 0 0.00039128706976209897 -0.003297811642033481 0 0.00038097018133131179 -0.0032646964343257586 0 0.00036352192943052322 -0.003289904616887644 0 0.00033727153674826339 -0.0032564746751685687 0 0.00036352192943052322 -0.003289904616887644 0 0.00036193632024219966 -0.0032615250611576457 0 0.00038097018133131179 -0.0032646964343257586 0 0.00036352192943052322 -0.003289904616887644 0 0.00036193632024219966 -0.0032615250611576457 0 0.00038097018133131179 -0.0032646964343257586 0 0.00036193632024219966 -0.0032615250611576457 0 0.00036128740417867107 -0.003235397546506496 0 0.00038097018133131179 -0.0032646964343257586 0 0.00036128740417867107 -0.003235397546506496 0 0.00038818484163712471 -0.0032419964527305146 0 0.00033727153674826339 -0.0032564746751685687 0 0.00036193632024219966 -0.0032615250611576457 0 0.00036128740417867107 -0.003235397546506496 0 0.00033165049968629962 -0.0032194093772851544 0 0.00036128740417867107 -0.003235397546506496 0 0.00035350146630277183 -0.0032057290754656728 0 0.00036128740417867107 -0.003235397546506496 0 0.00036556976197787999 -0.0032166296962179248 0 0.00035350146630277183 -0.0032057290754656728 0 0.00036128740417867107 -0.003235397546506496 0 0.00036556976197787999 -0.0032166296962179248 0 0.00037959297449615418 -0.0032197732076761124 0 0.00036128740417867107 -0.003235397546506496 0 0.00037959297449615418 -0.0032197732076761124 0 0.00038818484163712471 -0.0032419964527305146 0 0.00037959297449615418 -0.0032197732076761124 0 0.00039587896803948858 -0.0032177892257783487 0 0.00038818484163712471 -0.0032419964527305146 0 0.00039587896803948858 -0.0032177892257783487 0 0.00040636406654634188 -0.0032423338805088889 0 0.00040976352283462076 -0.0032253390829727053 0 0.00039587896803948858 -0.0032177892257783487 0 0.00038818484163712471 -0.0032419964527305146 0 0.00040636406654634188 -0.0032423338805088889 0 0.00040262197654625161 -0.0032689211664666544 0 0.00038818484163712471 -0.0032419964527305146 0 0.00040636406654634188 -0.0032423338805088889 0 0.00041520115506127748 -0.0032381532996163089 0 0.00042941441528324619 -0.0032267322726909496 0 0.00041608420495205142 -0.0032544754440641211 0 0.00040636406654634188 -0.0032423338805088889 0 0.00041520115506127748 -0.0032381532996163089 0 0.00041608420495205142 -0.0032544754440641211 0 0.00041520115506127748 -0.0032381532996163089 0 0.00040976352283462076 -0.0032253390829727053 0 0.00042941441528324619 -0.0032267322726909496 0 0.00040636406654634188 -0.0032423338805088889 0 0.00041520115506127748 -0.0032381532996163089 0 0.00040976352283462076 -0.0032253390829727053 0 0.00027949139278057086 -0.0029764411721242717 0 0.00030436326305073521 -0.0031019712843894506 0 0.00040058081209639088 -0.002995517702534427 0 0.00042941441528324619 -0.0032267322726909496 0 0.00041935514876099723 -0.0032616888258992687 0 0.00041608420495205142 -0.0032544754440641211 0 0.00028121583567351441 -0.0030997280168722123 0 0.00036895481921274761 -0.0031774378329112183 0 0.00027949139278057086 -0.0029764411721242717 0 0.00038929479378998648 -0.0029840967337360137 0 0.00026809184302504466 -0.0028728309266795168 0 0.00021484227210341573 -0.0029521303178191433 0 0.00027949139278057086 -0.0029764411721242717 0 0.00030436326305073521 -0.0031019712843894506 0 0.00040262197654625161 -0.0032689211664666544 0 0.00041608420495205142 -0.0032544754440641211 0 0.00041000500803977551 -0.0032762394130607881 0 0.00041935514876099723 -0.0032616888258992687 0 0.00041608420495205142 -0.0032544754440641211 0 0.00041000500803977551 -0.0032762394130607881 0 0.00040262197654625161 -0.0032689211664666544 0 0.00040636406654634188 -0.0032423338805088889 0 0.00041608420495205142 -0.0032544754440641211 0 0.00040037662223768795 -0.0032856394048632566 0 0.00039626640635644441 -0.0033218730347241749 0 0.00041000500803977551 -0.0032762394130607881 0 0.00040037662223768795 -0.0032856394048632566 0 0.00041000500803977551 -0.0032762394130607881 0 0.00041157029895624891 -0.0032221040015722601 0 0.00041935514876099723 -0.0032616888258992687 0 0.00041000500803977551 -0.0032762394130607881 0 0.00041157029895624891 -0.0032221040015722601 0 0.00036895481921274761 -0.0031774378329112183 0 0.00040458591359430953 -0.0032216600541411467 0 0.00030436326305073521 -0.0031019712843894506 0 0.00041157029895624891 -0.0032221040015722601 0 0.00041488342913659551 -0.0031240943036530242 0 0.00041157029895624891 -0.0032221040015722601 0 0.00046591035241123988 -0.0031705737640119621 0 0.00041488342913659551 -0.0031240943036530242 0 0.00041157029895624891 -0.0032221040015722601 0 0.00048195801631776696 -0.0031924708849530577 0 0.00046591035241123988 -0.0031705737640119621 0 0.00046591035241123988 -0.0031705737640119621 0 0.00047936751298155271 -0.0031133687583609487 0 0.00041488342913659551 -0.0031240943036530242 0 0.00047936751298155271 -0.0031133687583609487 0 0.00041488342913659551 -0.0031240943036530242 0 0.00040058081209639088 -0.002995517702534427 0 0.00027155166413767663 -0.0018965551411410039 0 0.00033411470120409424 -0.0016579023087896578 0 0.00030436326305073521 -0.0031019712843894506 0 0.00041488342913659551 -0.0031240943036530242 0 0.00040058081209639088 -0.002995517702534427 0 0.00027949139278057086 -0.0029764411721242717 0 0.00040058081209639088 -0.002995517702534427 0 0.00038929479378998648 -0.0029840967337360137 0 0.00012095877304744464 -0.00070071241544145807 0 0.00012283094934848268 -0.00070270413434375776 0 0.00010039868530196262 -0.00070435018747737961 0 0.00033411470120409424 -0.0016579023087896578 0 0.00029464407518188816 -0.0014861043084304771 0 0.00029464407518188816 -0.0014861043084304771 0 9.1731888822241305e-05 -0.00072227619365243837 0 0.00010027802604189929 -0.00068058563905115871 0 0.00012095877304744464 -0.00070071241544145807 0 0.00010039868530196262 -0.00070435018747737961 0 0.00014658705546176151 -0.00085351141117239967 0 6.258093300724003e-05 -0.00089263606729118069 0 0.00013537036735997141 -0.00092129786405615156 0 6.258093300724003e-05 -0.00089263606729118069 0 0.00013537036735997141 -0.00092129786405615156 0 7.3405408177721379e-05 -0.00096364192226513188 0 0.00014658705546176151 -0.00085351141117239967 0 0.00013537036735997141 -0.00092129786405615156 0 0.00022377931406980693 -0.00091853484308948 0 0.00013537036735997141 -0.00092129786405615156 0 0.00017643070789210896 -0.00098395864233648159 0 7.3405408177721379e-05 -0.00096364192226513188 0 0.00013537036735997141 -0.00092129786405615156 0 0.00017643070789210896 -0.00098395864233648159 0 0.00022377931406980693 -0.00091853484308948 0 7.3405408177721379e-05 -0.00096364192226513188 0 0.00012852093642000189 -0.0010741701748808649 0 -2.13545610093355e-05 -0.0010055128195872545 0 3.0100961892473959e-08 -0.001287735897807419 0 5.7118441101143585e-05 -0.0013682236061087368 0 2.7444557252354318e-07 -0.0012871534167826894 0 0.00012852093642000189 -0.0010741701748808649 0 -2.13545610093355e-05 -0.0010055128195872545 0 2.3367827559520275e-07 -0.0012880631162397254 0 -8.5713321536619097e-08 -0.0015517384053718353 0 3.7863072479146992e-05 -0.0016118934626037933 0 -8.5713321536619097e-08 -0.0015517384053718353 0 3.7863072479146992e-05 -0.0016118934626037933 0 -2.6406766820610977e-05 -0.0017227859776536725 0 0.00017643070789210896 -0.00098395864233648159 0 7.3405408177721379e-05 -0.00096364192226513188 0 0.00012852093642000189 -0.0010741701748808649 0 0.00012423893243644109 -0.0012512453479572741 0 5.7118441101143585e-05 -0.0013682236061087368 0 2.7097290009938998e-06 -0.0017549073169732823 0 3.7863072479146992e-05 -0.0016118934626037933 0 -2.6406766820610977e-05 -0.0017227859776536725 0 2.7097290009938998e-06 -0.0017549073169732823 0 -2.6406766820610977e-05 -0.0017227859776536725 0 -2.8698247688456868e-05 -0.0017738145200955431 0 -8.5713321536619097e-08 -0.0015517384053718353 0 -2.6406766820610977e-05 -0.0017227859776536725 0 -7.0867978798667428e-08 -0.0018157229826729264 0 -2.6406766820610977e-05 -0.0017227859776536725 0 -7.0867978798667428e-08 -0.0018157229826729264 0 -2.4293983734751976e-05 -0.0018391950756478947 0 -2.6406766820610977e-05 -0.0017227859776536725 0 -2.4293983734751976e-05 -0.0018391950756478947 0 -2.8698247688456868e-05 -0.0017738145200955431 0 -2.4293983734751976e-05 -0.0018391950756478947 0 -2.8698247688456868e-05 -0.0017738145200955431 0 -2.056355241943786e-05 -0.0017939130668801935 0 -2.8698247688456868e-05 -0.0017738145200955431 0 -2.4596108906084379e-05 -0.0017850930511381245 0 -2.056355241943786e-05 -0.0017939130668801935 0 0.00020861056522920345 -0.0021244690389641504 0 0.00017725556768300981 -0.0025221467692598059 0 0.00029335993914310685 -0.0030836487578452315 0 0.00035912356215475052 -0.0031059447963037849 0 0.0003960260743614004 -0.0031535513429469491 0 0.00035912356215475052 -0.0031059447963037849 0 0.00039883359026719333 -0.0031452631539422762 0 0.0003960260743614004 -0.0031535513429469491 0 2.7097290009938998e-06 -0.0017549073169732823 0 -2.8698247688456868e-05 -0.0017738145200955431 0 -2.4596108906084379e-05 -0.0017850930511381245 0 0.00012423893243644109 -0.0012512453479572741 0 0.00020861056522920345 -0.0021244690389641504 0 0.00029464407518188816 -0.0014861043084304771 0 0.00020861056522920345 -0.0021244690389641504 0 0.00021484227210341573 -0.0029521303178191433 0 0.00027949139278057086 -0.0029764411721242717 0 0.00026809184302504466 -0.0028728309266795168 0 0.00028121583567351441 -0.0030997280168722123 0 0.00020861056522920345 -0.0021244690389641504 0 0.00036450001596275469 -0.0031393879577446288 0 0.00039961375771721042 -0.0031434941054417488 0 0.00042546829133955011 -0.003208470499924166 0 0.00040463731741749188 -0.0031994841899055256 0 0.00039883359026719333 -0.0031452631539422762 0 0.00033108904329538183 -0.003027100338369719 0 0.00029335993914310685 -0.0030836487578452315 0 0.00033759472207001086 -0.0030430328712339771 0 0.00035051296348705255 -0.0030555057304225918 0 0.00035912356215475052 -0.0031059447963037849 0 0.00039883359026719333 -0.0031452631539422762 0 0.00029335993914310685 -0.0030836487578452315 0 0.00035051296348705255 -0.0030555057304225918 0 0.00033759472207001086 -0.0030430328712339771 0 0.00033108904329538183 -0.003027100338369719 0 0.00035051296348705255 -0.0030555057304225918 0 0.00033759472207001086 -0.0030430328712339771 0 0.00028121583567351441 -0.0030997280168722123 0 0.00036450001596275469 -0.0031393879577446288 0 0.00042941441528324619 -0.0032267322726909496 0 0.00042546829133955011 -0.003208470499924166 0 0.00040463731741749188 -0.0031994841899055256 0 0.00040976352283462076 -0.0032253390829727053 0 0.00042941441528324619 -0.0032267322726909496 0 0.00040463731741749188 -0.0031994841899055256 0 0.00029335993914310685 -0.0030836487578452315 0 0.00035051296348705255 -0.0030555057304225918 0 0.00035912356215475052 -0.0031059447963037849 0 0.00037726010394021101 -0.003180259324400993 0 0.00039125749389580468 -0.0031793442891123562 0 0.00038511914158621195 -0.0031991298056161382 0 0.00037726010394021101 -0.003180259324400993 0 0.00039125749389580468 -0.0031793442891123562 0 0.00038224463648614526 -0.0031588504408346673 0 0.00039125749389580468 -0.0031793442891123562 0 0.00040463731741749188 -0.0031994841899055256 0 0.00039883359026719333 -0.0031452631539422762 0 0.00039587896803948858 -0.0032177892257783487 0 0.00040976352283462076 -0.0032253390829727053 0 0.00040463731741749188 -0.0031994841899055256 0 0.00039125749389580468 -0.0031793442891123562 0 0.00039418614866984112 -0.003196811061688125 0 0.00038511914158621195 -0.0031991298056161382 0 0.00039125749389580468 -0.0031793442891123562 0 0.00039418614866984112 -0.003196811061688125 0 0.00040463731741749188 -0.0031994841899055256 0 0.00039587896803948858 -0.0032177892257783487 0 0.00039418614866984112 -0.003196811061688125 0 0.00040463731741749188 -0.0031994841899055256 0 0.00039587896803948858 -0.0032177892257783487 0 0.00039418614866984112 -0.003196811061688125 0 0.00038511914158621195 -0.0031991298056161382 0 0.00037959297449615418 -0.0032197732076761124 0 0.00039587896803948858 -0.0032177892257783487 0 0.00038511914158621195 -0.0031991298056161382 0 0.00037726010394021101 -0.003180259324400993 0 0.00038511914158621195 -0.0031991298056161382 0 0.00037056625824868097 -0.0032004941796807363 0 0.00037959297449615418 -0.0032197732076761124 0 0.00038511914158621195 -0.0031991298056161382 0 0.00037056625824868097 -0.0032004941796807363 0 0.00037056625824868097 -0.0032004941796807363 0 0.00035350146630277183 -0.0032057290754656728 0 0.00036037992930758501 -0.0031837576557171071 0 0.00036556976197787999 -0.0032166296962179248 0 0.00037959297449615418 -0.0032197732076761124 0 0.00037056625824868097 -0.0032004941796807363 0 0.00036556976197787999 -0.0032166296962179248 0 0.00037056625824868097 -0.0032004941796807363 0 0.00035350146630277183 -0.0032057290754656728 0 0.00035350146630277183 -0.0032057290754656728 0 0.00036037992930758501 -0.0031837576557171071 0 0.00033811914719960847 -0.0031861969437516728 0 0.00033165049968629962 -0.0032194093772851544 0 0.00035350146630277183 -0.0032057290754656728 0 0.00033811914719960847 -0.0031861969437516728 0 0.00036037992930758501 -0.0031837576557171071 0 0.00035176894098344565 -0.0031656762158618502 0 0.00033811914719960847 -0.0031861969437516728 0 0.00037726010394021101 -0.003180259324400993 0 0.00037056625824868097 -0.0032004941796807363 0 0.00036037992930758501 -0.0031837576557171071 0 0.00036037992930758501 -0.0031837576557171071 0 0.00036827849319519653 -0.0031633517180370808 0 0.00035176894098344565 -0.0031656762158618502 0 0.00037726010394021101 -0.003180259324400993 0 0.00036037992930758501 -0.0031837576557171071 0 0.00036827849319519653 -0.0031633517180370808 0 0.00036827849319519653 -0.0031633517180370808 0 0.00035176894098344565 -0.0031656762158618502 0 0.00035636423493205208 -0.0031439921472947168 0 0.00036827849319519653 -0.0031633517180370808 0 0.00037207595703089966 -0.0031464301418134984 0 0.00035636423493205208 -0.0031439921472947168 0 0.00035176894098344565 -0.0031656762158618502 0 0.00034005454921086489 -0.0031468906889231059 0 0.00035636423493205208 -0.0031439921472947168 0 0.00035176894098344565 -0.0031656762158618502 0 0.00034005454921086489 -0.0031468906889231059 0 0.00032365243282261912 -0.0031565819945680979 0 0.00034005454921086489 -0.0031468906889231059 0 0.00034256195680651587 -0.003131805596398733 0 0.00035636423493205208 -0.0031439921472947168 0 0.00036827849319519653 -0.0031633517180370808 0 0.00037207595703089966 -0.0031464301418134984 0 0.00038224463648614526 -0.0031588504408346673 0 0.00037207595703089966 -0.0031464301418134984 0 0.00038250808179468853 -0.0031452701681107293 0 0.00038224463648614526 -0.0031588504408346673 0 0.00037726010394021101 -0.003180259324400993 0 0.00036827849319519653 -0.0031633517180370808 0 0.00038224463648614526 -0.0031588504408346673 0 0.00039125749389580468 -0.0031793442891123562 0 0.00038224463648614526 -0.0031588504408346673 0 0.00039883359026719333 -0.0031452631539422762 0 0.00038250808179468853 -0.0031452701681107293 0 0.00038224463648614526 -0.0031588504408346673 0 0.00039883359026719333 -0.0031452631539422762 0 0.00038250808179468853 -0.0031452701681107293 0 0.00039883359026719333 -0.0031452631539422762 0 0.0003960260743614004 -0.0031535513429469491 0 -2.4293983734751976e-05 -0.0018391950756478947 0 -2.056355241943786e-05 -0.0017939130668801935 0 6.2681197426611346e-06 -0.0019230350503084907 0 0.00038250808179468853 -0.0031452701681107293 0 0.0003960260743614004 -0.0031535513429469491 0 0.00036054482341074624 -0.0031024554894636199 0 0.00017725556768300981 -0.0025221467692598059 0 0.00023297106941575686 -0.0024733925128966111 0 -2.056355241943786e-05 -0.0017939130668801935 0 6.2681197426611346e-06 -0.0019230350503084907 0 1.9047068601570722e-05 -0.0019187608882171503 0 -7.0867978798667428e-08 -0.0018157229826729264 0 -2.4293983734751976e-05 -0.0018391950756478947 0 -1.2515085702319927e-05 -0.0019388644584391317 0 -2.4293983734751976e-05 -0.0018391950756478947 0 -1.2515085702319927e-05 -0.0019388644584391317 0 6.2681197426611346e-06 -0.0019230350503084907 0 -7.0867978798667428e-08 -0.0018157229826729264 0 -1.2515085702319927e-05 -0.0019388644584391317 0 -2.4322667615506707e-08 -0.0020796784252283145 0 -2.4322667615506707e-08 -0.0020796784252283145 0 9.8722729959482465e-06 -0.0020028894461607055 0 2.5927878264552265e-05 -0.0021059985333490932 0 -1.2515085702319927e-05 -0.0019388644584391317 0 -2.4322667615506707e-08 -0.0020796784252283145 0 9.8722729959482465e-06 -0.0020028894461607055 0 -1.2515085702319927e-05 -0.0019388644584391317 0 9.8722729959482465e-06 -0.0020028894461607055 0 6.2681197426611346e-06 -0.0019230350503084907 0 9.8722729959482465e-06 -0.0020028894461607055 0 2.1858230622043187e-05 -0.0019302283063708781 0 2.5927878264552265e-05 -0.0021059985333490932 0 0.00023297106941575686 -0.0024733925128966111 0 0.00013531687405654317 -0.0023144401222730841 0 0.00037207595703089966 -0.0031464301418134984 0 0.00035636423493205208 -0.0031439921472947168 0 0.00036054482341074624 -0.0031024554894636199 0 0.00034256195680651587 -0.003131805596398733 0 0.00035636423493205208 -0.0031439921472947168 0 0.00036054482341074624 -0.0031024554894636199 0 0.00037207595703089966 -0.0031464301418134984 0 0.00038250808179468853 -0.0031452701681107293 0 0.00036054482341074624 -0.0031024554894636199 0 9.8722729959482465e-06 -0.0020028894461607055 0 6.2681197426611346e-06 -0.0019230350503084907 0 2.1858230622043187e-05 -0.0019302283063708781 0 0.00021492849155158928 -0.0023975617694379147 0 0.00023297106941575686 -0.0024733925128966111 0 0.00050793905229394695 -0.0027039088138873027 0 0.00016349632963932165 -0.0028749274246785477 0 0.0001694356483604275 -0.0026737387560527509 0 0.00023297106941575686 -0.0024733925128966111 0 0.00025739493983971661 -0.0030444958051329242 0 0.00034256195680651587 -0.003131805596398733 0 0.00036054482341074624 -0.0031024554894636199 0 0.00030899125973503599 -0.0031274466186549353 0 0.00050793905229394695 -0.0027039088138873027 0 0.0001694356483604275 -0.0026737387560527509 0 0.00030830424285685699 -0.0025371203731622484 0 0.00016349632963932165 -0.0028749274246785477 0 0.0001694356483604275 -0.0026737387560527509 0 9.617062796967307e-05 -0.0028657868067964499 0 -2.4322667615506707e-08 -0.0020796784252283145 0 2.5927878264552265e-05 -0.0021059985333490932 0 1.5040606018127107e-07 -0.0023435424067192578 0 0.0001694356483604275 -0.0026737387560527509 0 0.00030830424285685699 -0.0025371203731622484 0 5.3221036658662916e-07 -0.0023441548580751563 0 0.00013531687405654317 -0.0023144401222730841 0 6.0894183385717223e-08 -0.0023437242938102584 0 -2.8148353411352201e-07 -0.0025513947188570423 0 5.3221036658662916e-07 -0.0023441548580751563 0 1.9216375826763845e-05 -0.002583819250257443 0 0.0001694356483604275 -0.0026737387560527509 0 5.3221036658662916e-07 -0.0023441548580751563 0 1.9216375826763845e-05 -0.002583819250257443 0 -4.7921564958891936e-05 -0.0025879518941897858 0 1.9216375826763845e-05 -0.002583819250257443 0 9.617062796967307e-05 -0.0028657868067964499 0 3.6241839709570887e-05 -0.0027760246488526784 0 0.00010759471007278842 -0.0028616325862015645 0 0.0001694356483604275 -0.0026737387560527509 0 1.9216375826763845e-05 -0.002583819250257443 0 9.617062796967307e-05 -0.0028657868067964499 0 0.00016658159235196453 -0.0030716772429006342 0 0.00025739493983971661 -0.0030444958051329242 0 0.0002505850520783785 -0.0031492924549177035 0 0.00030899125973503599 -0.0031274466186549353 0 0.0002926265316076104 -0.0031589169276816341 0 9.474866785122271e-05 -0.0029960348407616975 0 0.00010138115779239743 -0.0029591368602489851 0 9.617062796967307e-05 -0.0028657868067964499 0 9.474866785122271e-05 -0.0029960348407616975 0 0.00016349632963932165 -0.0028749274246785477 0 9.617062796967307e-05 -0.0028657868067964499 0 0.0002505850520783785 -0.0031492924549177035 0 0.0002926265316076104 -0.0031589169276816341 0 0.00027637505278021708 -0.0031749870434409949 0 0.00030899125973503599 -0.0031274466186549353 0 0.0002926265316076104 -0.0031589169276816341 0 0.00032365243282261912 -0.0031565819945680979 0 0.00034256195680651587 -0.003131805596398733 0 0.00030899125973503599 -0.0031274466186549353 0 0.00032884926209404962 -0.0031407092418349308 0 0.00030899125973503599 -0.0031274466186549353 0 0.00032884926209404962 -0.0031407092418349308 0 0.00032365243282261912 -0.0031565819945680979 0 0.00034005454921086489 -0.0031468906889231059 0 0.00034256195680651587 -0.003131805596398733 0 0.00032884926209404962 -0.0031407092418349308 0 0.00034005454921086489 -0.0031468906889231059 0 0.00032884926209404962 -0.0031407092418349308 0 0.00032365243282261912 -0.0031565819945680979 0 0.00035176894098344565 -0.0031656762158618502 0 0.00032365243282261912 -0.0031565819945680979 0 0.00033811914719960847 -0.0031861969437516728 0 0.0002926265316076104 -0.0031589169276816341 0 0.00032365243282261912 -0.0031565819945680979 0 0.00030288947376558772 -0.003189357557656662 0 0.00032365243282261912 -0.0031565819945680979 0 0.00030288947376558772 -0.003189357557656662 0 0.00033811914719960847 -0.0031861969437516728 0 0.00033165049968629962 -0.0032194093772851544 0 0.00030288947376558772 -0.003189357557656662 0 0.00033811914719960847 -0.0031861969437516728 0 0.00030288947376558772 -0.003189357557656662 0 0.00025850705048346262 -0.0032024708592844828 0 0.00027637505278021708 -0.0031749870434409949 0 0.0002505850520783785 -0.0031492924549177035 0 0.00025850705048346262 -0.0032024708592844828 0 0.00027637505278021708 -0.0031749870434409949 0 0.00029868826266069584 -0.003235539930460538 0 0.00030288947376558772 -0.003189357557656662 0 0.00025850705048346262 -0.0032024708592844828 0 0.0002926265316076104 -0.0031589169276816341 0 0.00030288947376558772 -0.003189357557656662 0 0.00027637505278021708 -0.0031749870434409949 0 0.00046830179551537256 0.0010147771017402728 0 0.00038202619507217905 0.00093396767333493226 0 0.00035683356401824658 0.0010968588468672552 0 0.00046830179551537256 0.0010147771017402728 0 0.00052479911885938105 0.0010889485117315228 0 0.00053133460158788406 0.0010010759886237783 0 0.00046830179551537256 0.0010147771017402728 0 0.00044495165953235344 0.0011019346148579809 0 0.00035683356401824658 0.0010968588468672552 0 0.00044495165953235344 0.0011019346148579809 0 0.00052479911885938105 0.0010889485117315228 0 0.00048415803906117367 0.0011545744847220461 0 0.00046830179551537256 0.0010147771017402728 0 0.00044495165953235344 0.0011019346148579809 0 0.00052479911885938105 0.0010889485117315228 0 0.00052479911885938105 0.0010889485117315228 0 0.00058662795405126339 0.0011136701538991961 0 0.00054544285591624536 0.0011548517357385796 0 0.00052479911885938105 0.0010889485117315228 0 0.00058662795405126339 0.0011136701538991961 0 0.00059964380612822577 0.0010394565564583226 0 0.00052479911885938105 0.0010889485117315228 0 0.00059964380612822577 0.0010394565564583226 0 0.00053133460158788406 0.0010010759886237783 0 0.00054747065609066789 0.00068773753114692875 0 0.00052597707941192773 0.00066726518243739646 0 0.00054218188537330069 0.00061547085924482678 0 0.00060813754051904437 0.00093075815791627994 0 0.00051188781320529438 0.00073657637492078416 0 0.00059964380612822577 0.0010394565564583226 0 0.00053133460158788406 0.0010010759886237783 0 0.00053359551784517689 0.00084971294586139124 0 0.00054576340249456057 0.00069123093878665988 0 0.00054747065609066789 0.00068773753114692875 0 0.00052597707941192773 0.00066726518243739646 0 0.00024432215867061646 -0.00011392252383731964 0 0.0002943435194487559 -1.4016121962010799e-05 0 0.00053359551784517689 0.00084971294586139124 0 0.00038202619507217905 0.00093396767333493226 0 0.00035650660241606428 0.00077840159909041418 0 0.00046830179551537256 0.0010147771017402728 0 0.00053359551784517689 0.00084971294586139124 0 0.00038202619507217905 0.00093396767333493226 0 0.00046830179551537256 0.0010147771017402728 0 0.00053133460158788406 0.0010010759886237783 0 0.00053359551784517689 0.00084971294586139124 0 0.00038202619507217905 0.00093396767333493226 0 0.000259895343222138 0.0008617635159488471 0 0.00035650660241606428 0.00077840159909041418 0 0.00038202619507217905 0.00093396767333493226 0 0.000259895343222138 0.0008617635159488471 0 0.00023197623463351875 0.0010409405717574877 0 0.000259895343222138 0.0008617635159488471 0 0.00012084707443527816 0.00089206864470410367 0 0.00023197623463351875 0.0010409405717574877 0 0.00023197623463351875 0.0010409405717574877 0 0.00024157035342660144 0.0012248303411986233 0 8.119705022459067e-05 0.0011616042080034102 0 0.00012084707443527816 0.00089206864470410367 0 0.00023197623463351875 0.0010409405717574877 0 8.119705022459067e-05 0.0011616042080034102 0 0.00023197623463351875 0.0010409405717574877 0 0.00035683356401824658 0.0010968588468672552 0 0.00024157035342660144 0.0012248303411986233 0 0.00038202619507217905 0.00093396767333493226 0 0.00023197623463351875 0.0010409405717574877 0 0.00035683356401824658 0.0010968588468672552 0 0.00024157035342660144 0.0012248303411986233 0 0.00037043474139454986 0.0013272094756178374 0 0.00042193865611559036 0.0012055691936517898 0 0.00035683356401824658 0.0010968588468672552 0 0.00024157035342660144 0.0012248303411986233 0 0.00042193865611559036 0.0012055691936517898 0 0.00024157035342660144 0.0012248303411986233 0 8.119705022459067e-05 0.0011616042080034102 0 0.00010001386440425497 0.0013044366566748744 0 0.00020534726476148041 0.0013761939071350638 0 0.00024157035342660144 0.0012248303411986233 0 0.00010001386440425497 0.0013044366566748744 0 0.00024557547466385769 0.0013781091931327025 0 0.00036165769342999543 0.0013319616692870004 0 0.00020534726476148041 0.0013761939071350638 0 0.00024157035342660144 0.0012248303411986233 0 0.00037043474139454986 0.0013272094756178374 0 0.00044792823839576938 0.0014046855345305699 0 0.00037043474139454986 0.0013272094756178374 0 0.00048989175844949614 0.001292630125382249 0 0.00037043474139454986 0.0013272094756178374 0 0.00048989175844949614 0.001292630125382249 0 0.00042193865611559036 0.0012055691936517898 0 0.00048989175844949614 0.001292630125382249 0 0.00042193865611559036 0.0012055691936517898 0 0.00052242673337517601 0.0012064922333451401 0 0.00042193865611559036 0.0012055691936517898 0 0.00048415803906117367 0.0011545744847220461 0 0.00052242673337517601 0.0012064922333451401 0 0.00044495165953235344 0.0011019346148579809 0 0.00042193865611559036 0.0012055691936517898 0 0.00048415803906117367 0.0011545744847220461 0 0.00044495165953235344 0.0011019346148579809 0 0.00035683356401824658 0.0010968588468672552 0 0.00042193865611559036 0.0012055691936517898 0 0.00058662795405126339 0.0011136701538991961 0 0.00054544285591624536 0.0011548517357385796 0 0.00059350950408142589 0.00118050533291079 0 0.00052479911885938105 0.0010889485117315228 0 0.00048415803906117367 0.0011545744847220461 0 0.00054544285591624536 0.0011548517357385796 0 0.00048415803906117367 0.0011545744847220461 0 0.00054544285591624536 0.0011548517357385796 0 0.00052242673337517601 0.0012064922333451401 0 0.00054544285591624536 0.0011548517357385796 0 0.00052242673337517601 0.0012064922333451401 0 0.00059350950408142589 0.00118050533291079 0 0.00059350950408142589 0.00118050533291079 0 0.0005879369850075658 0.0012478753753801543 0 0.00062501042901190788 0.0012067345840616208 0 0.00052242673337517601 0.0012064922333451401 0 0.00059350950408142589 0.00118050533291079 0 0.0005879369850075658 0.0012478753753801543 0 0.00046272482750705785 0.00095415057368413824 0 0.0005891129478799729 0.001441313914048339 0 0.00062691786816122721 0.0013657482431978616 0 0.00048989175844949614 0.001292630125382249 0 0.0005879369850075658 0.0012478753753801543 0 0.00048989175844949614 0.001292630125382249 0 0.00052242673337517601 0.0012064922333451401 0 0.0005879369850075658 0.0012478753753801543 0 0.00062691786816122721 0.0013657482431978616 0 0.0005879369850075658 0.0012478753753801543 0 0.00065571218008611716 0.0012698224642728104 0 0.00062691786816122721 0.0013657482431978616 0 0.00065571218008611716 0.0012698224642728104 0 0.00072566696729190209 0.0012740663338144905 0 0.00039300458496350924 -0.00088250989294910774 0 0.00047879679485519146 0.0005710942907328039 0 0.0005879369850075658 0.0012478753753801543 0 0.00065571218008611716 0.0012698224642728104 0 0.00062501042901190788 0.0012067345840616208 0 0.00065571218008611716 0.0012698224642728104 0 0.00062501042901190788 0.0012067345840616208 0 0.00066567870375204335 0.001194824368997405 0 0.00065571218008611716 0.0012698224642728104 0 0.00072566696729190209 0.0012740663338144905 0 0.00066567870375204335 0.001194824368997405 0 6.6312023112694468e-05 -0.0006433667632847204 0 5.3604633932998757e-05 -0.00064981835902374599 0 6.5332916360211958e-05 -0.00066327866954698665 0 6.6312023112694468e-05 -0.0006433667632847204 0 8.1363616754427857e-05 -0.00066217257709507305 0 6.5332916360211958e-05 -0.00066327866954698665 0 0.00072566696729190209 0.0012740663338144905 0 0.00065561028303756728 0.0011722861968247668 0 0.00066567870375204335 0.001194824368997405 0 0.00058662795405126339 0.0011136701538991961 0 0.00059350950408142589 0.00118050533291079 0 0.00065881421416177216 0.0011737817508864427 0 0.00065881421416177216 0.0011737817508864427 0 0.00062501042901190788 0.0012067345840616208 0 0.00066567870375204335 0.001194824368997405 0 0.00059350950408142589 0.00118050533291079 0 0.00065881421416177216 0.0011737817508864427 0 0.00062501042901190788 0.0012067345840616208 0 0.00047879679485519146 0.0005710942907328039 0 0.00059768899226281204 0.00087142314377415227 0 0.00048195801631776696 -0.0031924708849530577 0 0.00046591035241123988 -0.0031705737640119621 0 0.00047125028228828611 -0.0031611937178581463 0 0.00048195801631776696 -0.0031924708849530577 0 0.00045801108283782772 -0.0031493384883734886 0 0.00047125028228828611 -0.0031611937178581463 0 0.00042534248112121009 -0.0031341098342415742 0 0.00045801108283782772 -0.0031493384883734886 0 0.00047125028228828611 -0.0031611937178581463 0 0.00039300458496350924 -0.00088250989294910774 0 0.00029806815334107689 -0.00205890793735023 0 0.00046591035241123988 -0.0031705737640119621 0 0.00047936751298155271 -0.0031133687583609487 0 0.00047125028228828611 -0.0031611937178581463 0 0.00027155166413767663 -0.0018965551411410039 0 0.00029806815334107689 -0.00205890793735023 0 0.00010027802604189929 -0.00068058563905115871 0 7.7378393939168656e-05 -0.00067482342455273613 0 8.1085834655348309e-05 -0.00069133559025435815 0 0.00010027802604189929 -0.00068058563905115871 0 8.1363616754427857e-05 -0.00066217257709507305 0 7.7378393939168656e-05 -0.00067482342455273613 0 8.1363616754427857e-05 -0.00066217257709507305 0 7.7378393939168656e-05 -0.00067482342455273613 0 6.5332916360211958e-05 -0.00066327866954698665 0 8.1085834655348309e-05 -0.00069133559025435815 0 5.8755106198752289e-05 -0.00067941865170036196 0 6.0113451426575481e-05 -0.00069449898405062591 0 7.7378393939168656e-05 -0.00067482342455273613 0 8.1085834655348309e-05 -0.00069133559025435815 0 5.8755106198752289e-05 -0.00067941865170036196 0 0.00010027802604189929 -0.00068058563905115871 0 0.00010039868530196262 -0.00070435018747737961 0 8.1085834655348309e-05 -0.00069133559025435815 0 0.00024432215867061646 -0.00011392252383731964 0 0.00047879679485519146 0.0005710942907328039 0 0.00054576340249456057 0.00069123093878665988 0 0.00054747065609066789 0.00068773753114692875 0 0.00053638613288661092 0.00069170888432823767 0 0.00058662795405126339 0.0011136701538991961 0 0.00059964380612822577 0.0010394565564583226 0 0.00065881421416177216 0.0011737817508864427 0 0.00060813754051904437 0.00093075815791627994 0 0.00047879679485519146 0.0005710942907328039 0 3.4716556971636581e-05 -0.00066854747031613643 0 5.3604633932998757e-05 -0.00064981835902374599 0 6.5332916360211958e-05 -0.00066327866954698665 0 3.4716556971636581e-05 -0.00066854747031613643 0 6.5332916360211958e-05 -0.00066327866954698665 0 5.8755106198752289e-05 -0.00067941865170036196 0 7.7378393939168656e-05 -0.00067482342455273613 0 6.5332916360211958e-05 -0.00066327866954698665 0 5.8755106198752289e-05 -0.00067941865170036196 0 3.4716556971636581e-05 -0.00066854747031613643 0 5.8755106198752289e-05 -0.00067941865170036196 0 3.5259316410312003e-05 -0.00068712980019322394 0 5.8755106198752289e-05 -0.00067941865170036196 0 3.5259316410312003e-05 -0.00068712980019322394 0 6.0113451426575481e-05 -0.00069449898405062591 0 3.5259316410312003e-05 -0.00068712980019322394 0 6.0113451426575481e-05 -0.00069449898405062591 0 4.9621217820609265e-05 -0.00071297833744462505 0 3.5259316410312003e-05 -0.00068712980019322394 0 4.9621217820609265e-05 -0.00071297833744462505 0 1.068536431410244e-05 -0.00069265164612319202 0 0.00010039868530196262 -0.00070435018747737961 0 8.1085834655348309e-05 -0.00069133559025435815 0 7.7129926938264223e-05 -0.00070765506551953962 0 9.1731888822241305e-05 -0.00072227619365243837 0 2.5246622115642911e-05 -0.0008277542807583431 0 8.1085834655348309e-05 -0.00069133559025435815 0 6.0113451426575481e-05 -0.00069449898405062591 0 7.7129926938264223e-05 -0.00070765506551953962 0 5.7039429484231752e-06 -0.00080482104121931274 0 2.5246622115642911e-05 -0.0008277542807583431 0 -2.9716836402957779e-05 -0.00091165425569721614 0 -1.6714782576232735e-05 -0.00093002995434149274 0 -2.13545610093355e-05 -0.0010055128195872545 0 6.0113451426575481e-05 -0.00069449898405062591 0 4.9621217820609265e-05 -0.00071297833744462505 0 7.7129926938264223e-05 -0.00070765506551953962 0 6.258093300724003e-05 -0.00089263606729118069 0 7.3405408177721379e-05 -0.00096364192226513188 0 -1.6714782576232735e-05 -0.00093002995434149274 0 7.3405408177721379e-05 -0.00096364192226513188 0 -1.6714782576232735e-05 -0.00093002995434149274 0 -2.13545610093355e-05 -0.0010055128195872545 0 -2.9716836402957779e-05 -0.00091165425569721614 0 -2.13545610093355e-05 -0.0010055128195872545 0 -2.1538038630919247e-05 -0.00088692181295983046 0 -2.13545610093355e-05 -0.0010055128195872545 0 -1.5247839807628846e-07 -0.0010304137090966393 0 -2.1538038630919247e-05 -0.00088692181295983046 0 2.7444557252354318e-07 -0.0012871534167826894 0 -2.13545610093355e-05 -0.0010055128195872545 0 -1.5247839807628846e-07 -0.0010304137090966393 0 4.9621217820609265e-05 -0.00071297833744462505 0 1.068536431410244e-05 -0.00069265164612319202 0 -3.4777878771718536e-06 -0.00073126006907653308 0 -2.9716836402957779e-05 -0.00091165425569721614 0 -3.4777878771718536e-06 -0.00073126006907653308 0 -2.1538038630919247e-05 -0.00088692181295983046 0 5.7039429484231752e-06 -0.00080482104121931274 0 -4.2355045668699513e-06 -0.00075303399302629808 0 -1.5247839807628846e-07 -0.0010304137090966393 0 -2.1538038630919247e-05 -0.00088692181295983046 0 1.7701989726657636e-08 -0.00077294815279480976 0 -3.4777878771718536e-06 -0.00073126006907653308 0 -2.1538038630919247e-05 -0.00088692181295983046 0 1.7701989726657636e-08 -0.00077294815279480976 0 -3.4777878771718536e-06 -0.00073126006907653308 0 1.7701989726657636e-08 -0.00077294815279480976 0 -1.095091257216008e-07 -0.00051557725789854315 0 -3.4777878771718536e-06 -0.00073126006907653308 0 -1.095091257216008e-07 -0.00051557725789854315 0 3.4905924624632534e-05 -0.00061653654727175156 0 1.068536431410244e-05 -0.00069265164612319202 0 -3.4777878771718536e-06 -0.00073126006907653308 0 3.4905924624632534e-05 -0.00061653654727175156 0 -1.095091257216008e-07 -0.00051557725789854315 0 3.4905924624632534e-05 -0.00061653654727175156 0 2.691702164687464e-07 -0.00025872882798818442 0 0.00022863284006539262 -0.00016437568531731296 0 9.2998456821744735e-08 -0.00025821948185638846 0 1.068536431410244e-05 -0.00069265164612319202 0 3.4905924624632534e-05 -0.00061653654727175156 0 2.2540807663521601e-05 -0.00068713170277889194 0 0.00046066255581401713 0.00028923947612378336 0 0.00040168980912150379 0.00057363705701502703 0 0.00054218188537330069 0.00061547085924482678 0 0.00046066255581401713 0.00028923947612378336 0 0.00040168980912150379 0.00057363705701502703 0 0.00028133392356998886 0.00040952805955672141 0 0.00022863284006539262 -0.00016437568531731296 0 0.0002943435194487559 -1.4016121962010799e-05 0 0.00053359551784517689 0.00084971294586139124 0 0.00040168980912150379 0.00057363705701502703 0 0.00035650660241606428 0.00077840159909041418 0 0.00051188781320529438 0.00073657637492078416 0 0.00041329135894098732 0.00058897276729202375 0 0.00052597707941192773 0.00066726518243739646 0 0.00040168980912150379 0.00057363705701502703 0 0.00054218188537330069 0.00061547085924482678 0 3.4716556971636581e-05 -0.00066854747031613643 0 3.5259316410312003e-05 -0.00068712980019322394 0 2.2540807663521601e-05 -0.00068713170277889194 0 3.5259316410312003e-05 -0.00068712980019322394 0 1.068536431410244e-05 -0.00069265164612319202 0 2.2540807663521601e-05 -0.00068713170277889194 0 0.00012084707443527816 0.00089206864470410367 0 0.00020235108306718874 0.00065140911867180907 0 5.2507519314264353e-06 0.00066254442375844049 0 0.000259895343222138 0.0008617635159488471 0 0.00012084707443527816 0.00089206864470410367 0 0.00020235108306718874 0.00065140911867180907 0 0.00040168980912150379 0.00057363705701502703 0 0.00020235108306718874 0.00065140911867180907 0 0.00035650660241606428 0.00077840159909041418 0 0.000259895343222138 0.0008617635159488471 0 0.00020235108306718874 0.00065140911867180907 0 0.00035650660241606428 0.00077840159909041418 0 0.00020235108306718874 0.00065140911867180907 0 0.00028133392356998886 0.00040952805955672141 0 0.00011253356253184182 0.0003654526133590627 0 0.00040168980912150379 0.00057363705701502703 0 0.00020235108306718874 0.00065140911867180907 0 0.00028133392356998886 0.00040952805955672141 0 0.00011253356253184182 0.0003654526133590627 0 -2.2129596749249968e-05 0.00035114787199926685 0 5.2507519314264353e-06 0.00066254442375844049 0 0.00020235108306718874 0.00065140911867180907 0 0.00011253356253184182 0.0003654526133590627 0 5.2507519314264353e-06 0.00066254442375844049 0 0.00011253356253184182 0.0003654526133590627 0 2.5140452203676654e-05 0.0001433214398533104 0 -2.2129596749249968e-05 0.00035114787199926685 0 0.00011253356253184182 0.0003654526133590627 0 0.00013073892157970429 0.00010998727085281431 0 2.5140452203676654e-05 0.0001433214398533104 0 0.00028133392356998886 0.00040952805955672141 0 0.00011253356253184182 0.0003654526133590627 0 0.00013073892157970429 0.00010998727085281431 0 0.00046066255581401713 0.00028923947612378336 0 0.00028133392356998886 0.00040952805955672141 0 0.00013073892157970429 0.00010998727085281431 0 0.00046066255581401713 0.00028923947612378336 0 0.00013073892157970429 0.00010998727085281431 0 7.8996995889877303e-07 -0.00025770933964446149 0 0.00013073892157970429 0.00010998727085281431 0 7.8996995889877303e-07 -0.00025770933964446149 0 2.5140452203676654e-05 0.0001433214398533104 0 7.8996995889877303e-07 -0.00025770933964446149 0 2.5140452203676654e-05 0.0001433214398533104 0 -2.1647940393098839e-07 -1.4175348118180072e-05 0 2.5140452203676654e-05 0.0001433214398533104 0 -2.1647940393098839e-07 -1.4175348118180072e-05 0 -6.4645965950359591e-05 0.00023691458570862043 0 -2.1647940393098839e-07 -1.4175348118180072e-05 0 -6.4645965950359591e-05 0.00023691458570862043 0 -6.5740358091299293e-08 0.00022987680045349795 0 -6.4645965950359591e-05 0.00023691458570862043 0 -2.0908299628922494e-05 0.00037066549948607696 0 -2.9693391313759684e-05 0.00040394547902068977 0 -6.4645965950359591e-05 0.00023691458570862043 0 -6.5740358091299293e-08 0.00022987680045349795 0 -2.0908299628922494e-05 0.00037066549948607696 0 -6.4645965950359591e-05 0.00023691458570862043 0 -0.00034585354795974363 0.00035292390216166405 0 -0.0001567957803513134 0.00049325253404805156 0 -8.0006221605657116e-05 0.00026500850902687296 0 -0.00018888212195276578 0.00037385477145174983 0 -6.4645965950359591e-05 0.00023691458570862043 0 -2.2129596749249968e-05 0.00035114787199926685 0 -0.0001567957803513134 0.00049325253404805156 0 2.5140452203676654e-05 0.0001433214398533104 0 -6.4645965950359591e-05 0.00023691458570862043 0 -2.2129596749249968e-05 0.00035114787199926685 0 -2.2132704944007317e-05 0.000492868120487142 0 -1.2963364361686165e-07 0.00047392860451758582 0 2.0916285039113008e-07 0.00071747551527991647 0 -6.5740358091299293e-08 0.00022987680045349795 0 -1.2963364361686165e-07 0.00047392860451758582 0 -2.0908299628922494e-05 0.00037066549948607696 0 -2.2132704944007317e-05 0.000492868120487142 0 -1.2963364361686165e-07 0.00047392860451758582 0 -2.0908299628922494e-05 0.00037066549948607696 0 -2.2132704944007317e-05 0.000492868120487142 0 -2.0908299628922494e-05 0.00037066549948607696 0 -2.9693391313759684e-05 0.00040394547902068977 0 -0.00034585354795974363 0.00035292390216166405 0 -0.00063422880356341679 0.00047758552701842932 0 -0.00040461694751735722 0.00061297637852869243 0 -0.00018888212195276578 0.00037385477145174983 0 -0.00035409932639302749 0.00042157672955439232 0 -2.2132704944007317e-05 0.000492868120487142 0 -2.9693391313759684e-05 0.00040394547902068977 0 -8.2157904743547384e-06 0.00044272803466236177 0 -0.00063422880356341679 0.00047758552701842932 0 -0.00040461694751735722 0.00061297637852869243 0 -0.00072272616916973804 0.00070844080778148012 0 -0.00034585354795974363 0.00035292390216166405 0 -0.00040461694751735722 0.00061297637852869243 0 -0.0001567957803513134 0.00049325253404805156 0 -0.00038036013172636928 0.00092579384572955361 0 -0.00019191170722907124 0.00078226562317637246 0 -0.00022432661436320254 0.0010525609435059408 0 -0.00040461694751735722 0.00061297637852869243 0 -0.00038036013172636928 0.00092579384572955361 0 -0.00019191170722907124 0.00078226562317637246 0 -0.00036327298927949403 0.00094807354518337762 0 -0.00064004965050731854 0.0010197337989146845 0 -0.00038036013172636928 0.00092579384572955361 0 -0.00070404883538707059 0.00096024418803266167 0 -0.00072272616916973804 0.00070844080778148012 0 -0.00040461694751735722 0.00061297637852869243 0 -0.00038036013172636928 0.00092579384572955361 0 -0.00072272616916973804 0.00070844080778148012 0 -2.2129596749249968e-05 0.00035114787199926685 0 -0.0001567957803513134 0.00049325253404805156 0 5.2507519314264353e-06 0.00066254442375844049 0 -0.0001567957803513134 0.00049325253404805156 0 -0.00019191170722907124 0.00078226562317637246 0 5.2507519314264353e-06 0.00066254442375844049 0 -0.00040461694751735722 0.00061297637852869243 0 -0.0001567957803513134 0.00049325253404805156 0 -0.00019191170722907124 0.00078226562317637246 0 0.00012084707443527816 0.00089206864470410367 0 5.2507519314264353e-06 0.00066254442375844049 0 -5.4779495696315909e-05 0.00094273574433707526 0 -0.00019191170722907124 0.00078226562317637246 0 5.2507519314264353e-06 0.00066254442375844049 0 -5.4779495696315909e-05 0.00094273574433707526 0 0.00012084707443527816 0.00089206864470410367 0 -5.4779495696315909e-05 0.00094273574433707526 0 8.119705022459067e-05 0.0011616042080034102 0 -5.4779495696315909e-05 0.00094273574433707526 0 8.119705022459067e-05 0.0011616042080034102 0 -0.00013068150082104856 0.0011429531211207484 0 7.4588845353767359e-05 0.0011805352525486074 0 -7.4745789035780835e-05 0.0013028547070465326 0 -0.00013068150082104856 0.0011429531211207484 0 -0.00025499796516034235 0.0012322897082221779 0 -0.0001948185180368378 0.001360881209722014 0 8.119705022459067e-05 0.0011616042080034102 0 -0.00013068150082104856 0.0011429531211207484 0 -0.0001948185180368378 0.001360881209722014 0 -0.00013068150082104856 0.0011429531211207484 0 -0.00022432661436320254 0.0010525609435059408 0 -0.00025499796516034235 0.0012322897082221779 0 -5.4779495696315909e-05 0.00094273574433707526 0 -0.00013068150082104856 0.0011429531211207484 0 -0.00022432661436320254 0.0010525609435059408 0 -0.00019191170722907124 0.00078226562317637246 0 -5.4779495696315909e-05 0.00094273574433707526 0 -0.00022432661436320254 0.0010525609435059408 0 -0.00038036013172636928 0.00092579384572955361 0 -0.00022432661436320254 0.0010525609435059408 0 -0.00036815393056967229 0.0012190369940380513 0 -0.00043899839156141774 0.0011581030948338491 0 -0.0004794338195240327 0.0013032617010587646 0 -0.00048847659712746277 0.0011235939332988516 0 -0.00038036013172636928 0.00092579384572955361 0 -0.00043899839156141774 0.0011581030948338491 0 -0.00048847659712746277 0.0011235939332988516 0 -0.00038036013172636928 0.00092579384572955361 0 -0.00043899839156141774 0.0011581030948338491 0 -0.00036815393056967229 0.0012190369940380513 0 -0.0004794338195240327 0.0013032617010587646 0 -0.00042895948764782563 0.0013665068471985656 0 -0.00050471705677157628 0.0014422420165008912 0 -0.0004794338195240327 0.0013032617010587646 0 -0.00042895948764782563 0.0013665068471985656 0 -0.00036815393056967229 0.0012190369940380513 0 -0.00043899839156141774 0.0011581030948338491 0 -0.0004794338195240327 0.0013032617010587646 0 -0.00036815393056967229 0.0012190369940380513 0 -0.00042895948764782563 0.0013665068471985656 0 -0.00036815393056967229 0.0012190369940380513 0 -0.00034020396598294248 0.0013368956814291402 0 -0.00022432661436320254 0.0010525609435059408 0 -0.00036815393056967229 0.0012190369940380513 0 -0.00025499796516034235 0.0012322897082221779 0 -0.00036815393056967229 0.0012190369940380513 0 -0.00025499796516034235 0.0012322897082221779 0 -0.00034020396598294248 0.0013368956814291402 0 -0.00025499796516034235 0.0012322897082221779 0 -0.00034020396598294248 0.0013368956814291402 0 -0.0001948185180368378 0.001360881209722014 0 -0.00020497467786952003 0.0014010494517592948 0 -7.4745789035780835e-05 0.0013028547070465326 0 3.0430245563488846e-05 0.0012851239214625076 0 2.3967423003323207e-06 0.0013337400273491845 0 3.9573369745215004e-05 0.001257545443501374 0 3.0430245563488846e-05 0.0012851239214625076 0 2.3967423003323207e-06 0.0013337400273491845 0 3.5856120693335863e-05 0.0013449019403590215 0 -0.00034020396598294248 0.0013368956814291402 0 -0.00041276795782445861 0.0014746636657754285 0 -0.0001948185180368378 0.001360881209722014 0 -0.00042895948764782563 0.0013665068471985656 0 -0.00041276795782445861 0.0014746636657754285 0 -0.00050471705677157628 0.0014422420165008912 0 -0.00042895948764782563 0.0013665068471985656 0 -0.00034020396598294248 0.0013368956814291402 0 -0.00041276795782445861 0.0014746636657754285 0 2.3967423003323207e-06 0.0013337400273491845 0 3.5856120693335863e-05 0.0013449019403590215 0 -3.8548138411530907e-06 0.0014135118748123479 0 2.3967423003323207e-06 0.0013337400273491845 0 -8.9853569779008299e-05 0.0013904546127507412 0 -3.8548138411530907e-06 0.0014135118748123479 0 -0.00020497467786952003 0.0014010494517592948 0 -0.00030465031873795834 0.0014496067466116215 0 3.0430245563488846e-05 0.0012851239214625076 0 8.6861939927110774e-05 0.0013960592362395974 0 3.5856120693335863e-05 0.0013449019403590215 0 3.5856120693335863e-05 0.0013449019403590215 0 5.2006485829275833e-05 0.0014428890699103533 0 -3.8548138411530907e-06 0.0014135118748123479 0 3.5019923496490669e-05 0.0012984971861010918 0 4.6413323256700505e-05 0.0013662459782632086 0 8.6861939927110774e-05 0.0013960592362395974 0 3.5856120693335863e-05 0.0013449019403590215 0 5.2006485829275833e-05 0.0014428890699103533 0 4.1821045606923015e-05 0.0012981569889813553 0 0.00010001386440425497 0.0013044366566748744 0 4.6547709952759152e-05 0.0013638552501291136 0 3.0430245563488846e-05 0.0012851239214625076 0 1.0050411291650018e-05 0.0013363090210753849 0 4.1821045606923015e-05 0.0012981569889813553 0 1.0050411291650018e-05 0.0013363090210753849 0 4.1821045606923015e-05 0.0012981569889813553 0 4.6547709952759152e-05 0.0013638552501291136 0 4.1821045606923015e-05 0.0012981569889813553 0 0.00010001386440425497 0.0013044366566748744 0 6.3472512937443162e-05 0.001254760333708124 0 8.119705022459067e-05 0.0011616042080034102 0 6.3472512937443162e-05 0.001254760333708124 0 3.9573369745215004e-05 0.001257545443501374 0 8.119705022459067e-05 0.0011616042080034102 0 0.00010001386440425497 0.0013044366566748744 0 6.3472512937443162e-05 0.001254760333708124 0 3.0430245563488846e-05 0.0012851239214625076 0 4.1821045606923015e-05 0.0012981569889813553 0 3.9573369745215004e-05 0.001257545443501374 0 4.1821045606923015e-05 0.0012981569889813553 0 6.3472512937443162e-05 0.001254760333708124 0 3.9573369745215004e-05 0.001257545443501374 0 -0.00037937623537984887 0.0016992244721006668 0 -0.0004412993977521148 0.0016383927539865141 0 -0.00053653393583639715 0.0015412537949731622 0 -0.00043857030147305648 0.0016221084707841616 0 -0.00051732500637543448 0.0015707270687801867 0 -0.00044878645973717857 0.0015452762616929411 0 -0.00050348819435083617 0.0015269173378826555 0 -0.00053653393583639715 0.0015412537949731622 0 -0.00044878645973717857 0.0015452762616929411 0 -0.0004708877917264417 0.0015392121639017152 0 -0.00050348819435083617 0.0015269173378826555 0 -0.0004708877917264417 0.0015392121639017152 0 -0.00049342251445721335 0.0015197542806888117 0 -0.00050348819435083617 0.0015269173378826555 0 -0.00037937623537984887 0.0016992244721006668 0 -0.0004412993977521148 0.0016383927539865141 0 -0.00039466271503166804 0.0016847719594340893 0 -0.00044878645973717857 0.0015452762616929411 0 -0.0004708877917264417 0.0015392121639017152 0 -0.00039688295721677794 0.001509742683213243 0 -0.00037937623537984887 0.0016992244721006668 0 -0.00034978910854106051 0.0017429161193765607 0 -0.00033430942044598589 0.0017625194083211344 0 -0.00039466271503166804 0.0016847719594340893 0 -0.00037205021238218174 0.0017190531009109394 0 -0.00036765648237133152 0.0017206574127778735 0 -0.00037937623537984887 0.0016992244721006668 0 -0.00039466271503166804 0.0016847719594340893 0 -0.00036765648237133152 0.0017206574127778735 0 -0.00037205021238218174 0.0017190531009109394 0 -0.00036765648237133152 0.0017206574127778735 0 -0.00033992360023005457 0.0017624684169513681 0 -0.00036765648237133152 0.0017206574127778735 0 -0.00034978910854106051 0.0017429161193765607 0 -0.00033992360023005457 0.0017624684169513681 0 -0.00037937623537984887 0.0016992244721006668 0 -0.00036765648237133152 0.0017206574127778735 0 -0.00034978910854106051 0.0017429161193765607 0 -0.0004708877917264417 0.0015392121639017152 0 -0.00037599363010745263 0.0015312818945500228 0 -0.00026564686277968697 0.0015529161334318987 0 -0.0004549743851045339 0.0015206890056088649 0 -0.0003231275308661292 0.0016100478701708307 0 -0.00043857030147305648 0.0016221084707841616 0 -0.0003231275308661292 0.0016100478701708307 0 -0.00037599363010745263 0.0015312818945500228 0 -0.00031958456876990279 0.0015283345356563811 0 -0.00026564686277968697 0.0015529161334318987 0 -0.00031958456876990279 0.0015283345356563811 0 -0.00026564686277968697 0.0015529161334318987 0 -0.00027237017168254451 0.0015210549852260396 0 -0.00031958456876990279 0.0015283345356563811 0 -0.00037268052696108671 0.0014996644253739643 0 -0.00027237017168254451 0.0015210549852260396 0 -0.00037599363010745263 0.0015312818945500228 0 -0.00031958456876990279 0.0015283345356563811 0 -0.00037268052696108671 0.0014996644253739643 0 -0.00037599363010745263 0.0015312818945500228 0 -0.00037268052696108671 0.0014996644253739643 0 -0.00045729102125839898 0.0015122838220273467 0 -0.00037268052696108671 0.0014996644253739643 0 -0.00045729102125839898 0.0015122838220273467 0 -0.00048201463508708379 0.0014612832409672824 0 -0.0004708877917264417 0.0015392121639017152 0 -0.00037599363010745263 0.0015312818945500228 0 -0.00045729102125839898 0.0015122838220273467 0 -0.00049342251445721335 0.0015197542806888117 0 -0.00045729102125839898 0.0015122838220273467 0 -0.00050005120482897122 0.0015040752349720758 0 -0.0004708877917264417 0.0015392121639017152 0 -0.00049342251445721335 0.0015197542806888117 0 -0.00045729102125839898 0.0015122838220273467 0 -0.00045729102125839898 0.0015122838220273467 0 -0.00050005120482897122 0.0015040752349720758 0 -0.00048201463508708379 0.0014612832409672824 0 -0.00050005120482897122 0.0015040752349720758 0 -0.00052737308263590976 0.0015116715002889422 0 -0.0005234947661542827 0.0015059290381143652 0 -0.00030465031873795834 0.0014496067466116215 0 -0.00034019028981981862 0.0014412155297822075 0 -0.00050005120482897122 0.0015040752349720758 0 -0.00052737308263590976 0.0015116715002889422 0 -0.00048201463508708379 0.0014612832409672824 0 -0.00049342251445721335 0.0015197542806888117 0 -0.00050005120482897122 0.0015040752349720758 0 -0.0005234947661542827 0.0015059290381143652 0 -0.00052737308263590976 0.0015116715002889422 0 -0.00053158787474795726 0.0014833140867604911 0 -0.00050471705677157628 0.0014422420165008912 0 -0.00041276795782445861 0.0014746636657754285 0 -0.00052737308263590976 0.0015116715002889422 0 -0.00050471705677157628 0.0014422420165008912 0 -0.00053158787474795726 0.0014833140867604911 0 -0.00050471705677157628 0.0014422420165008912 0 -0.00054508754604216145 0.0014674845948922674 0 -0.00052737308263590976 0.0015116715002889422 0 -0.00053158787474795726 0.0014833140867604911 0 -0.0005234947661542827 0.0015059290381143652 0 -0.00049342251445721335 0.0015197542806888117 0 -0.00050348819435083617 0.0015269173378826555 0 -0.0005234947661542827 0.0015059290381143652 0 -0.00053158787474795726 0.0014833140867604911 0 -0.0005234947661542827 0.0015059290381143652 0 -0.00054129692818831844 0.0015061968341903253 0 -0.00053158787474795726 0.0014833140867604911 0 -0.00054129692818831844 0.0015061968341903253 0 -0.00054508754604216145 0.0014674845948922674 0 -0.00050348819435083617 0.0015269173378826555 0 -0.00054129692818831844 0.0015061968341903253 0 -0.00053653393583639715 0.0015412537949731622 0 -0.00050348819435083617 0.0015269173378826555 0 -0.0005234947661542827 0.0015059290381143652 0 -0.00054129692818831844 0.0015061968341903253 0 -0.00053653393583639715 0.0015412537949731622 0 -0.00058477812080658294 0.0015355276657519376 0 -0.00051915413556756658 0.0016004252440779345 0 -0.00053653393583639715 0.0015412537949731622 0 -0.00058477812080658294 0.0015355276657519376 0 -0.00055994788292851804 0.00150436664653136 0 -0.00054129692818831844 0.0015061968341903253 0 -0.00053653393583639715 0.0015412537949731622 0 -0.00055994788292851804 0.00150436664653136 0 -0.00054129692818831844 0.0015061968341903253 0 -0.00055994788292851804 0.00150436664653136 0 -0.00054508754604216145 0.0014674845948922674 0 -0.00058477812080658294 0.0015355276657519376 0 -0.00055994788292851804 0.00150436664653136 0 -0.00055421146707477131 0.0014527337554226985 0 -0.00055994788292851804 0.00150436664653136 0 -0.00054508754604216145 0.0014674845948922674 0 -0.00055421146707477131 0.0014527337554226985 0 -0.00058477812080658294 0.0015355276657519376 0 -0.00055421146707477131 0.0014527337554226985 0 -0.00054811245043857599 0.0013412309770844751 0 -0.00058477812080658294 0.0015355276657519376 0 -0.00052418058850906208 0.0017216725538331532 0 -0.00051915413556756658 0.0016004252440779345 0 -0.0004794338195240327 0.0013032617010587646 0 -0.00050471705677157628 0.0014422420165008912 0 -0.00052338968531773916 0.0013952035014768119 0 -0.00054508754604216145 0.0014674845948922674 0 -0.00055421146707477131 0.0014527337554226985 0 -0.00052338968531773916 0.0013952035014768119 0 -0.00050471705677157628 0.0014422420165008912 0 -0.00054508754604216145 0.0014674845948922674 0 -0.00052338968531773916 0.0013952035014768119 0 -0.00055421146707477131 0.0014527337554226985 0 -0.00052338968531773916 0.0013952035014768119 0 -0.00054811245043857599 0.0013412309770844751 0 -0.0004794338195240327 0.0013032617010587646 0 -0.00052338968531773916 0.0013952035014768119 0 -0.00054811245043857599 0.0013412309770844751 0 -0.0004794338195240327 0.0013032617010587646 0 -0.00054811245043857599 0.0013412309770844751 0 -0.00048847659712746277 0.0011235939332988516 0 -0.00054811245043857599 0.0013412309770844751 0 -0.00063615719838389724 0.0012123200931843604 0 -0.00048847659712746277 0.0011235939332988516 0 -0.00053944731567385129 0.0013789823162799043 0 -0.00064004965050731854 0.0010197337989146845 0 -0.00058477812080658294 0.0015355276657519376 0 -0.00054811245043857599 0.0013412309770844751 0 -0.00063615719838389724 0.0012123200931843604 0 -0.00058477812080658294 0.0015355276657519376 0 -0.00062910116334607112 0.001857488661011581 0 -0.00052418058850906208 0.0017216725538331532 0 -0.00061461164266261815 0.0015860333323716716 0 -0.00053944731567385129 0.0013789823162799043 0 -0.00062910116334607112 0.001857488661011581 0 -0.00052418058850906208 0.0017216725538331532 0 -0.00038422018250270761 0.0017971602778080146 0 -0.00053944731567385129 0.0013789823162799043 0 -0.00011906012911696476 0.0017802218091702126 0 -0.00052418058850906208 0.0017216725538331532 0 -0.00038422018250270761 0.0017971602778080146 0 -0.00042006427383667994 0.0017241777325845494 0 -0.00052418058850906208 0.0017216725538331532 0 -0.00046800428984106066 0.0016522997140988481 0 -0.00042006427383667994 0.0017241777325845494 0 -0.00052418058850906208 0.0017216725538331532 0 -0.00051915413556756658 0.0016004252440779345 0 -0.00046800428984106066 0.0016522997140988481 0 -0.00051915413556756658 0.0016004252440779345 0 -0.00046800428984106066 0.0016522997140988481 0 -0.00047226658165888295 0.0016200456434657538 0 -0.00046800428984106066 0.0016522997140988481 0 -0.00042006427383667994 0.0017241777325845494 0 -0.00041169644921586624 0.0016821240637266226 0 -0.0004412993977521148 0.0016383927539865141 0 -0.00041169644921586624 0.0016821240637266226 0 -0.00047226658165888295 0.0016200456434657538 0 -0.0004412993977521148 0.0016383927539865141 0 -0.00039466271503166804 0.0016847719594340893 0 -0.00041169644921586624 0.0016821240637266226 0 -0.00046800428984106066 0.0016522997140988481 0 -0.00041169644921586624 0.0016821240637266226 0 -0.00047226658165888295 0.0016200456434657538 0 -0.0004412993977521148 0.0016383927539865141 0 -0.00053653393583639715 0.0015412537949731622 0 -0.00047226658165888295 0.0016200456434657538 0 -0.00053653393583639715 0.0015412537949731622 0 -0.00051915413556756658 0.0016004252440779345 0 -0.00047226658165888295 0.0016200456434657538 0 -0.00037205021238218174 0.0017190531009109394 0 -0.00035256692250370099 0.001766743035901359 0 -0.00033992360023005457 0.0017624684169513681 0 -0.00039466271503166804 0.0016847719594340893 0 -0.00037205021238218174 0.0017190531009109394 0 -0.00041169644921586624 0.0016821240637266226 0 -0.00037205021238218174 0.0017190531009109394 0 -0.00041169644921586624 0.0016821240637266226 0 -0.00035256692250370099 0.001766743035901359 0 -0.00042006427383667994 0.0017241777325845494 0 -0.00041169644921586624 0.0016821240637266226 0 -0.00035256692250370099 0.001766743035901359 0 -0.00038422018250270761 0.0017971602778080146 0 -0.00035256692250370099 0.001766743035901359 0 -0.00031416859391272415 0.0018408883783776521 0 -0.00011906012911696476 0.0017802218091702126 0 -0.00017657334707913398 0.001792557331522318 0 4.8290971512870911e-05 0.0016876143037667199 0 6.2792705277146329e-06 0.0016393153503054512 0 -2.3156716419936318e-05 0.0017417021036373679 0 -0.00038422018250270761 0.0017971602778080146 0 -0.00042006427383667994 0.0017241777325845494 0 -0.00035256692250370099 0.001766743035901359 0 4.8290971512870911e-05 0.0016876143037667199 0 6.2792705277146329e-06 0.0016393153503054512 0 7.0130149972277389e-05 0.0016135586323127804 0 6.2792705277146329e-06 0.0016393153503054512 0 6.4452953112069885e-05 0.0014827588956566359 0 -1.7950805260336963e-05 0.0015282192541439929 0 -9.7411414951183517e-06 0.0016236377512778247 0 9.6063139413263924e-05 0.0015805192336859981 0 0.00011273289898275308 0.0016679745820117743 0 4.8290971512870911e-05 0.0016876143037667199 0 7.0130149972277389e-05 0.0016135586323127804 0 6.4452953112069885e-05 0.0014827588956566359 0 -3.5081421977932527e-06 0.001348601428264638 0 6.3149498638594013e-05 0.0012645861466624886 0 6.4452953112069885e-05 0.0014827588956566359 0 -1.7950805260336963e-05 0.0015282192541439929 0 -3.5081421977932527e-06 0.001348601428264638 0 -0.0010174696330610973 0.0010054228502144635 0 -0.00070404883538707059 0.00096024418803266167 0 -0.00072272616916973804 0.00070844080778148012 0 -0.0010174696330610973 0.0010054228502144635 0 -0.00093906496901207943 0.0006085304545225275 0 -0.00072272616916973804 0.00070844080778148012 0 -0.00053944731567385129 0.0013789823162799043 0 -0.00013524986444013849 0.0010394893175939513 0 0.00011273289898275308 0.0016679745820117743 0 7.0130149972277389e-05 0.0016135586323127804 0 0.00012811452925780352 0.0015834061648895843 0 6.4452953112069885e-05 0.0014827588956566359 0 0.00016783608502337661 0.0013526677622015691 0 6.3149498638594013e-05 0.0012645861466624886 0 9.6063139413263924e-05 0.0015805192336859981 0 -0.00013524986444013849 0.0010394893175939513 0 -0.00035409932639302749 0.00042157672955439232 0 -0.00013524986444013849 0.0010394893175939513 0 -0.00063422880356341679 0.00047758552701842932 0 -0.00093906496901207943 0.0006085304545225275 0 -0.00072272616916973804 0.00070844080778148012 0 -2.2132704944007317e-05 0.000492868120487142 0 -8.2157904743547384e-06 0.00044272803466236177 0 6.4192719999061902e-05 0.00049584152702660293 0 -8.2157904743547384e-06 0.00044272803466236177 0 7.5743792330209197e-05 0.00041941303834134951 0 6.4192719999061902e-05 0.00049584152702660293 0 -0.00013524986444013849 0.0010394893175939513 0 0.0001022491252736168 0.00077577318012314188 0 0.00016783608502337661 0.0013526677622015691 0 0.00012982170138901343 0.0011040805118727522 0 6.3149498638594013e-05 0.0012645861466624886 0 0.00012982170138901343 0.0011040805118727522 0 6.3149498638594013e-05 0.0012645861466624886 0 -1.3925330690645065e-07 0.0010057287838935187 0 0.00012982170138901343 0.0011040805118727522 0 5.7549645102231485e-07 0.00071851368575010215 0 -1.3925330690645065e-07 0.0010057287838935187 0 -2.2132704944007317e-05 0.000492868120487142 0 6.4192719999061902e-05 0.00049584152702660293 0 2.0916285039113008e-07 0.00071747551527991647 0 0.0001022491252736168 0.00077577318012314188 0 3.7667967336442442e-08 0.00071799849824331961 0 -3.5081421977932527e-06 0.001348601428264638 0 6.3149498638594013e-05 0.0012645861466624886 0 -1.3925330690645065e-07 0.0010057287838935187 0 -3.5081421977932527e-06 0.001348601428264638 0 -1.3925330690645065e-07 0.0010057287838935187 0 -1.295584855374145e-08 0.0012936557592231014 0 -1.7950805260336963e-05 0.0015282192541439929 0 -3.5081421977932527e-06 0.001348601428264638 0 -4.355490966140402e-05 0.0015519091153836225 0 -3.5081421977932527e-06 0.001348601428264638 0 -1.295584855374145e-08 0.0012936557592231014 0 -4.355490966140402e-05 0.0015519091153836225 0 -4.355490966140402e-05 0.0015519091153836225 0 -1.0163002152461011e-07 0.0015813439637396532 0 -5.1973758154435098e-05 0.0016881856968513805 0 -1.295584855374145e-08 0.0012936557592231014 0 -4.355490966140402e-05 0.0015519091153836225 0 -1.0163002152461011e-07 0.0015813439637396532 0 -1.0163002152461011e-07 0.0015813439637396532 0 -5.5860068135324711e-05 0.0018289239343088392 0 -5.1973758154435098e-05 0.0016881856968513805 0 -1.0163002152461011e-07 0.0015813439637396532 0 -9.4511664295055766e-08 0.0018691742328980077 0 -5.5860068135324711e-05 0.0018289239343088392 0 -5.5860068135324711e-05 0.0018289239343088392 0 -5.1973758154435098e-05 0.0016881856968513805 0 -9.7949201086884754e-05 0.001820569366130626 0 -5.1973758154435098e-05 0.0016881856968513805 0 -9.7949201086884754e-05 0.001820569366130626 0 -7.4545776184686591e-05 0.0017339087492909289 0 -9.7949201086884754e-05 0.001820569366130626 0 -0.00012947508748930073 0.0018786421907373216 0 -0.00010180874678447067 0.0018333249030385349 0 -9.7949201086884754e-05 0.001820569366130626 0 -7.4545776184686591e-05 0.0017339087492909289 0 -0.00010180874678447067 0.0018333249030385349 0 -7.4545776184686591e-05 0.0017339087492909289 0 -0.00010180874678447067 0.0018333249030385349 0 -6.6393635891592758e-05 0.0018353025725907494 0 -7.4545776184686591e-05 0.0017339087492909289 0 -4.3202897483166822e-05 0.0016774406153703153 0 -6.6393635891592758e-05 0.0018353025725907494 0 6.2792705277146329e-06 0.0016393153503054512 0 -4.3202897483166822e-05 0.0016774406153703153 0 -2.3156716419936318e-05 0.0017417021036373679 0 6.2792705277146329e-06 0.0016393153503054512 0 -1.7950805260336963e-05 0.0015282192541439929 0 -4.3202897483166822e-05 0.0016774406153703153 0 -1.7950805260336963e-05 0.0015282192541439929 0 -4.355490966140402e-05 0.0015519091153836225 0 -4.3202897483166822e-05 0.0016774406153703153 0 -4.355490966140402e-05 0.0015519091153836225 0 -7.4545776184686591e-05 0.0017339087492909289 0 -4.3202897483166822e-05 0.0016774406153703153 0 -4.355490966140402e-05 0.0015519091153836225 0 -5.1973758154435098e-05 0.0016881856968513805 0 -7.4545776184686591e-05 0.0017339087492909289 0 -2.9873850621265116e-05 0.002187086632587099 0 2.2388657311265218e-05 0.0021757174603257465 0 8.2895345181190057e-06 0.0024091855079110191 0 -5.1292234741325931e-08 0.0024448498237808749 0 -2.9873850621265116e-05 0.002187086632587099 0 8.2895345181190057e-06 0.0024091855079110191 0 -5.1292234741325931e-08 0.0024448498237808749 0 -2.9873850621265116e-05 0.002187086632587099 0 -8.4072152986702336e-08 0.0021568714832757825 0 -2.9873850621265116e-05 0.002187086632587099 0 -8.4072152986702336e-08 0.0021568714832757825 0 -7.7278239847761594e-05 0.0019851997355936754 0 -9.4511664295055766e-08 0.0018691742328980077 0 -5.5860068135324711e-05 0.0018289239343088392 0 -7.7278239847761594e-05 0.0019851997355936754 0 -9.4511664295055766e-08 0.0018691742328980077 0 -8.4072152986702336e-08 0.0021568714832757825 0 -7.7278239847761594e-05 0.0019851997355936754 0 -5.5860068135324711e-05 0.0018289239343088392 0 -9.7949201086884754e-05 0.001820569366130626 0 -7.7278239847761594e-05 0.0019851997355936754 0 -9.7949201086884754e-05 0.001820569366130626 0 -7.7278239847761594e-05 0.0019851997355936754 0 -0.000112872973987669 0.0019132469939628558 0 -9.7949201086884754e-05 0.001820569366130626 0 -0.00012947508748930073 0.0018786421907373216 0 -0.000112872973987669 0.0019132469939628558 0 -0.00012947508748930073 0.0018786421907373216 0 -0.000112872973987669 0.0019132469939628558 0 -0.00013791578101485539 0.0019003948399552205 0 -0.000112872973987669 0.0019132469939628558 0 -5.5814362373078462e-05 0.0019811340211653441 0 -0.00013791578101485539 0.0019003948399552205 0 3.8695464942987742e-06 0.0022444736640673895 0 -6.2001038142046289e-05 0.0021564666469171675 0 -7.7278239847761594e-05 0.0019851997355936754 0 -0.000112872973987669 0.0019132469939628558 0 -5.5814362373078462e-05 0.0019811340211653441 0 -2.9873850621265116e-05 0.002187086632587099 0 -7.7278239847761594e-05 0.0019851997355936754 0 -5.5814362373078462e-05 0.0019811340211653441 0 -2.9873850621265116e-05 0.002187086632587099 0 -5.5814362373078462e-05 0.0019811340211653441 0 2.2388657311265218e-05 0.0021757174603257465 0 7.0590446809711016e-05 0.0025055045691709009 0 8.474893394172327e-05 0.0024313691838597062 0 6.2304015880823056e-05 0.0025395018725327219 0 7.0590446809711016e-05 0.0025055045691709009 0 6.8134958688747008e-05 0.0025330782110984072 0 6.2304015880823056e-05 0.0025395018725327219 0 3.8695464942987742e-06 0.0022444736640673895 0 3.4741330931254857e-05 0.0023552644300725723 0 5.2271006309052139e-05 0.0025171401841039632 0 6.7405553067974254e-05 0.0024571444204707304 0 3.3776163202010923e-05 0.002534958958692525 0 5.2271006309052139e-05 0.0025171401841039632 0 8.474893394172327e-05 0.0024313691838597062 0 6.2304015880823056e-05 0.0025395018725327219 0 5.2271006309052139e-05 0.0025171401841039632 0 8.474893394172327e-05 0.0024313691838597062 0 6.7405553067974254e-05 0.0024571444204707304 0 8.474893394172327e-05 0.0024313691838597062 0 0.00011182626839997971 0.0023125497267081248 0 6.7405553067974254e-05 0.0024571444204707304 0 8.474893394172327e-05 0.0024313691838597062 0 0.00011182626839997971 0.0023125497267081248 0 3.2339668093941379e-05 0.0022534304548162327 0 0.00011182626839997971 0.0023125497267081248 0 3.2339668093941379e-05 0.0022534304548162327 0 3.6074481987403928e-05 0.0021391077669141285 0 7.0590446809711016e-05 0.0025055045691709009 0 8.474893394172327e-05 0.0024313691838597062 0 1.8250774038418764e-06 0.0024098995564875445 0 8.474893394172327e-05 0.0024313691838597062 0 3.2339668093941379e-05 0.0022534304548162327 0 1.8250774038418764e-06 0.0024098995564875445 0 -0.00013791578101485539 0.0019003948399552205 0 -0.00015837704365639346 0.0020378522534404298 0 -0.0001406161397669754 0.0019712579433544962 0 -6.2001038142046289e-05 0.0021564666469171675 0 -0.00014162959873396515 0.0020597879897725469 0 -0.00012947508748930073 0.0018786421907373216 0 -0.00013791578101485539 0.0019003948399552205 0 -0.0001406161397669754 0.0019712579433544962 0 3.2339668093941379e-05 0.0022534304548162327 0 1.8250774038418764e-06 0.0024098995564875445 0 -7.621332313657316e-05 0.0021534897630233001 0 1.8250774038418764e-06 0.0024098995564875445 0 -7.621332313657316e-05 0.0021534897630233001 0 -0.00015837704365639346 0.0020378522534404298 0 3.2339668093941379e-05 0.0022534304548162327 0 -6.071717494473867e-05 0.002108801005128883 0 -2.4435186946334371e-05 0.0020850495474247642 0 3.2339668093941379e-05 0.0022534304548162327 0 -7.621332313657316e-05 0.0021534897630233001 0 -6.071717494473867e-05 0.002108801005128883 0 -9.6875356983024762e-05 0.0020823655245821838 0 -7.621332313657316e-05 0.0021534897630233001 0 -6.071717494473867e-05 0.002108801005128883 0 -9.6875356983024762e-05 0.0020823655245821838 0 -7.621332313657316e-05 0.0021534897630233001 0 -0.00013561911917482966 0.0020528198987224506 0 -9.6875356983024762e-05 0.0020823655245821838 0 -0.00013561911917482966 0.0020528198987224506 0 -0.00012794860264796383 0.0020387366833337999 0 -7.2862281786852012e-05 0.0020310698005779611 0 -0.00010271520153226904 0.0020415432172049166 0 -0.00011108406767073945 0.001990508316739221 0 -0.00010271520153226904 0.0020415432172049166 0 -0.00011108406767073945 0.001990508316739221 0 -0.00013926318323452649 0.0019981510672561443 0 -0.00010271520153226904 0.0020415432172049166 0 -0.00013926318323452649 0.0019981510672561443 0 -0.00012794860264796383 0.0020387366833337999 0 -9.6875356983024762e-05 0.0020823655245821838 0 -0.00010271520153226904 0.0020415432172049166 0 -0.00012794860264796383 0.0020387366833337999 0 -7.2862281786852012e-05 0.0020310698005779611 0 -0.00010271520153226904 0.0020415432172049166 0 -6.071717494473867e-05 0.002108801005128883 0 -9.6875356983024762e-05 0.0020823655245821838 0 -0.00010271520153226904 0.0020415432172049166 0 -6.071717494473867e-05 0.002108801005128883 0 -2.4435186946334371e-05 0.0020850495474247642 0 6.3944993712506733e-07 0.0020123433171444576 0 3.6074481987403928e-05 0.0021391077669141285 0 -7.2862281786852012e-05 0.0020310698005779611 0 -6.071717494473867e-05 0.002108801005128883 0 -2.4435186946334371e-05 0.0020850495474247642 0 -7.2862281786852012e-05 0.0020310698005779611 0 -2.4435186946334371e-05 0.0020850495474247642 0 -3.8941572164497834e-05 0.0020047591454825982 0 -7.2862281786852012e-05 0.0020310698005779611 0 -3.8941572164497834e-05 0.0020047591454825982 0 -7.7154852666081201e-05 0.0019666234725120449 0 -2.4435186946334371e-05 0.0020850495474247642 0 -3.8941572164497834e-05 0.0020047591454825982 0 6.3944993712506733e-07 0.0020123433171444576 0 -3.8941572164497834e-05 0.0020047591454825982 0 6.3944993712506733e-07 0.0020123433171444576 0 -2.4362792311958133e-05 0.0019323671836757636 0 6.3944993712506733e-07 0.0020123433171444576 0 -2.4362792311958133e-05 0.0019323671836757636 0 6.7646205644053716e-05 0.001952797873163262 0 -3.8941572164497834e-05 0.0020047591454825982 0 -7.7154852666081201e-05 0.0019666234725120449 0 -2.4362792311958133e-05 0.0019323671836757636 0 -7.2862281786852012e-05 0.0020310698005779611 0 -7.7154852666081201e-05 0.0019666234725120449 0 -0.00011108406767073945 0.001990508316739221 0 -0.00011108406767073945 0.001990508316739221 0 -0.00011645163548545648 0.0019309455941940007 0 -0.00014296983884942051 0.0019511722015221073 0 -7.7154852666081201e-05 0.0019666234725120449 0 -0.00011108406767073945 0.001990508316739221 0 -0.00011645163548545648 0.0019309455941940007 0 -0.00011645163548545648 0.0019309455941940007 0 -0.00011831457555033481 0.0018696636553790782 0 -7.70450677232986e-05 0.001903375005808618 0 -7.7154852666081201e-05 0.0019666234725120449 0 -0.00011645163548545648 0.0019309455941940007 0 -7.70450677232986e-05 0.001903375005808618 0 -0.00011831457555033481 0.0018696636553790782 0 -7.70450677232986e-05 0.001903375005808618 0 -5.5299492666035071e-05 0.0018236858481299511 0 -0.00011831457555033481 0.0018696636553790782 0 -5.5299492666035071e-05 0.0018236858481299511 0 -0.00012210403893646966 0.0018227156621226132 0 -8.5987104717300297e-06 0.0018449553169736211 0 2.5072709577948357e-05 0.0021367873183805188 0 2.5072709577948357e-05 0.0021367873183805188 0 0.00014000140364971216 0.0022434800683294501 0 -7.70450677232986e-05 0.001903375005808618 0 -3.5390154993290004e-05 0.0017763816871109825 0 -2.4362792311958133e-05 0.0019323671836757636 0 -3.5390154993290004e-05 0.0017763816871109825 0 -2.4362792311958133e-05 0.0019323671836757636 0 6.7646205644053716e-05 0.001952797873163262 0 -7.7154852666081201e-05 0.0019666234725120449 0 -7.70450677232986e-05 0.001903375005808618 0 -2.4362792311958133e-05 0.0019323671836757636 0 0.00026146587651832716 0.002588524861114043 0 0.00020029327640040282 0.0025141288818504746 0 0.0002234426825613697 0.0025012517580357964 0 0.00019942741514756513 0.0024985323895000606 0 0.00018588204883121585 0.0027032477119142929 0 0.00020029327640040282 0.0025141288818504746 0 0.00016609217905827109 0.0025657147393439222 0 0.00018786282125786441 0.002652866642048076 0 0.00026146587651832716 0.002588524861114043 0 0.00020029327640040282 0.0025141288818504746 0 0.00020770684856906624 0.002634265087842709 0 0.00014784690429920161 0.0025888652356349292 0 0.00016609217905827109 0.0025657147393439222 0 0.00018786282125786441 0.002652866642048076 0 0.00014784690429920161 0.0025888652356349292 0 0.00016609217905827109 0.0025657147393439222 0 0.00012749440318192599 0.002541167182403332 0 0.00016609217905827109 0.0025657147393439222 0 0.00015880102439080172 0.0025253124559674448 0 0.00012749440318192599 0.002541167182403332 0 0.00020029327640040282 0.0025141288818504746 0 0.00016609217905827109 0.0025657147393439222 0 0.00015880102439080172 0.0025253124559674448 0 0.00020029327640040282 0.0025141288818504746 0 0.00015880102439080172 0.0025253124559674448 0 0.00014653932410459773 0.0024866726818210359 0 0.00015880102439080172 0.0025253124559674448 0 0.00014653932410459773 0.0024866726818210359 0 0.00012749440318192599 0.002541167182403332 0 0.00011182626839997971 0.0023125497267081248 0 0.00014653932410459773 0.0024866726818210359 0 0.0002234426825613697 0.0025012517580357964 0 0.00011182626839997971 0.0023125497267081248 0 0.00014653932410459773 0.0024866726818210359 0 8.597969897534387e-05 0.0024943820022515456 0 0.00020029327640040282 0.0025141288818504746 0 0.00014653932410459773 0.0024866726818210359 0 0.0002234426825613697 0.0025012517580357964 0 6.3944993712506733e-07 0.0020123433171444576 0 6.7646205644053716e-05 0.001952797873163262 0 3.6074481987403928e-05 0.0021391077669141285 0 0.00011182626839997971 0.0023125497267081248 0 6.7646205644053716e-05 0.001952797873163262 0 3.6074481987403928e-05 0.0021391077669141285 0 3.2339668093941379e-05 0.0022534304548162327 0 -2.4435186946334371e-05 0.0020850495474247642 0 3.6074481987403928e-05 0.0021391077669141285 0 0.00012173573389640312 0.0022820421863528526 0 0.00014000140364971216 0.0022434800683294501 0 0.00011182626839997971 0.0023125497267081248 0 6.7405553067974254e-05 0.0024571444204707304 0 8.597969897534387e-05 0.0024943820022515456 0 6.7405553067974254e-05 0.0024571444204707304 0 8.597969897534387e-05 0.0024943820022515456 0 3.9633892719563167e-05 0.0025673928002219212 0 8.597969897534387e-05 0.0024943820022515456 0 9.9731230410468873e-05 0.0026000944658438972 0 3.9633892719563167e-05 0.0025673928002219212 0 8.597969897534387e-05 0.0024943820022515456 0 0.00012749440318192599 0.002541167182403332 0 9.9731230410468873e-05 0.0026000944658438972 0 0.00014653932410459773 0.0024866726818210359 0 8.597969897534387e-05 0.0024943820022515456 0 0.00012749440318192599 0.002541167182403332 0 0.00014784690429920161 0.0025888652356349292 0 0.00012749440318192599 0.002541167182403332 0 9.9731230410468873e-05 0.0026000944658438972 0 9.9731230410468873e-05 0.0026000944658438972 0 3.9633892719563167e-05 0.0025673928002219212 0 5.8011990042919131e-05 0.0026268551970308482 0 3.9633892719563167e-05 0.0025673928002219212 0 2.1949554693560418e-05 0.0026365972675680815 0 5.8011990042919131e-05 0.0026268551970308482 0 3.9633892719563167e-05 0.0025673928002219212 0 2.1949554693560418e-05 0.0026365972675680815 0 1.1110434621626546e-05 0.00261292987486306 0 6.7405553067974254e-05 0.0024571444204707304 0 3.9633892719563167e-05 0.0025673928002219212 0 3.3776163202010923e-05 0.002534958958692525 0 3.9633892719563167e-05 0.0025673928002219212 0 3.3776163202010923e-05 0.002534958958692525 0 3.3303529374345831e-06 0.0026004989358717539 0 -0.00030236707366376606 0.0018290564278108819 0 -0.00031416859391272415 0.0018408883783776521 0 -0.00024483322181087519 0.0019252242206814914 0 -0.00025739167346428221 0.0018774059681177654 0 -0.00030236707366376606 0.0018290564278108819 0 -0.00024483322181087519 0.0019252242206814914 0 -0.00035256692250370099 0.001766743035901359 0 -0.00030236707366376606 0.0018290564278108819 0 -0.00031416859391272415 0.0018408883783776521 0 -0.00035256692250370099 0.001766743035901359 0 -0.00030236707366376606 0.0018290564278108819 0 -0.00033992360023005457 0.0017624684169513681 0 -0.00017657334707913398 0.001792557331522318 0 -0.0001547396025564924 0.0018822069330686132 0 -4.3202897483166822e-05 0.0016774406153703153 0 -2.3156716419936318e-05 0.0017417021036373679 0 -6.6393635891592758e-05 0.0018353025725907494 0 -0.00010180874678447067 0.0018333249030385349 0 -6.6393635891592758e-05 0.0018353025725907494 0 -0.0001406161397669754 0.0019712579433544962 0 -0.0001547396025564924 0.0018822069330686132 0 -0.00014846848783776475 0.0019523400788283472 0 -0.00012947508748930073 0.0018786421907373216 0 -0.00010180874678447067 0.0018333249030385349 0 -0.0001406161397669754 0.0019712579433544962 0 -0.00015837704365639346 0.0020378522534404298 0 -0.0001406161397669754 0.0019712579433544962 0 -0.00017426053525362441 0.0019633564094776374 0 -0.00015837704365639346 0.0020378522534404298 0 -0.00017426053525362441 0.0019633564094776374 0 -0.00016637295997638571 0.0019982379627174075 0 -0.00017426053525362441 0.0019633564094776374 0 -0.00018395627299237641 0.0019580535973536864 0 -0.00016637295997638571 0.0019982379627174075 0 -0.00015837704365639346 0.0020378522534404298 0 -0.00016637295997638571 0.0019982379627174075 0 -0.00013561911917482966 0.0020528198987224506 0 -7.621332313657316e-05 0.0021534897630233001 0 -0.00015837704365639346 0.0020378522534404298 0 -0.00013561911917482966 0.0020528198987224506 0 -0.00016637295997638571 0.0019982379627174075 0 -0.00013561911917482966 0.0020528198987224506 0 -0.00012794860264796383 0.0020387366833337999 0 -0.00024483322181087519 0.0019252242206814914 0 -0.0001406161397669754 0.0019712579433544962 0 -0.00017426053525362441 0.0019633564094776374 0 -0.00024483322181087519 0.0019252242206814914 0 -0.00017426053525362441 0.0019633564094776374 0 -0.00021141519257096539 0.0019259425848343139 0 -0.00025739167346428221 0.0018774059681177654 0 -0.00024483322181087519 0.0019252242206814914 0 -0.00021141519257096539 0.0019259425848343139 0 -0.00018395627299237641 0.0019580535973536864 0 -0.00021141519257096539 0.0019259425848343139 0 -0.00019577621204555754 0.0019336281641808724 0 -0.00017426053525362441 0.0019633564094776374 0 -0.00018395627299237641 0.0019580535973536864 0 -0.00021141519257096539 0.0019259425848343139 0 -0.00025739167346428221 0.0018774059681177654 0 -0.00021141519257096539 0.0019259425848343139 0 -0.00022766993528155143 0.0018963743399485853 0 -0.00025739167346428221 0.0018774059681177654 0 -0.00022766993528155143 0.0018963743399485853 0 -0.00025385179317883748 0.0018586012254922812 0 -0.00021141519257096539 0.0019259425848343139 0 -0.00022766993528155143 0.0018963743399485853 0 -0.00019577621204555754 0.0019336281641808724 0 -0.00022766993528155143 0.0018963743399485853 0 -0.00019577621204555754 0.0019336281641808724 0 -0.00021976656759067277 0.0018809066257912421 0 -0.00021976656759067277 0.0018809066257912421 0 -0.00018689311584299027 0.0019073523421098532 0 -0.00020385638246520643 0.0018775713780783731 0 -0.00019577621204555754 0.0019336281641808724 0 -0.00021976656759067277 0.0018809066257912421 0 -0.00018689311584299027 0.0019073523421098532 0 -0.00022766993528155143 0.0018963743399485853 0 -0.00021976656759067277 0.0018809066257912421 0 -0.00025385179317883748 0.0018586012254922812 0 -0.00021976656759067277 0.0018809066257912421 0 -0.00024787724092628839 0.0018385165879185126 0 -0.00025385179317883748 0.0018586012254922812 0 -0.00016637295997638571 0.0019982379627174075 0 -0.00013926318323452649 0.0019981510672561443 0 -0.00012794860264796383 0.0020387366833337999 0 -0.00016637295997638571 0.0019982379627174075 0 -0.00013926318323452649 0.0019981510672561443 0 -0.00016798951323078879 0.0019589365643325929 0 -0.00013926318323452649 0.0019981510672561443 0 -0.00016798951323078879 0.0019589365643325929 0 -0.00014296983884942051 0.0019511722015221073 0 -0.00016637295997638571 0.0019982379627174075 0 -0.00019577621204555754 0.0019336281641808724 0 -0.00016798951323078879 0.0019589365643325929 0 -0.00018395627299237641 0.0019580535973536864 0 -0.00016637295997638571 0.0019982379627174075 0 -0.00019577621204555754 0.0019336281641808724 0 -0.00016798951323078879 0.0019589365643325929 0 -0.00018689311584299027 0.0019073523421098532 0 -0.00014296983884942051 0.0019511722015221073 0 -0.00019577621204555754 0.0019336281641808724 0 -0.00016798951323078879 0.0019589365643325929 0 -0.00018689311584299027 0.0019073523421098532 0 -0.00018689311584299027 0.0019073523421098532 0 -0.00014296983884942051 0.0019511722015221073 0 -0.00015629017238689272 0.0018967227186536713 0 -0.00011645163548545648 0.0019309455941940007 0 -0.00014296983884942051 0.0019511722015221073 0 -0.00015629017238689272 0.0018967227186536713 0 -0.00011108406767073945 0.001990508316739221 0 -0.00013926318323452649 0.0019981510672561443 0 -0.00014296983884942051 0.0019511722015221073 0 -0.00011645163548545648 0.0019309455941940007 0 -0.00011831457555033481 0.0018696636553790782 0 -0.00015629017238689272 0.0018967227186536713 0 -0.00011831457555033481 0.0018696636553790782 0 -0.00015629017238689272 0.0018967227186536713 0 -0.00017233570653066535 0.0018449443732615172 0 -0.00018714975505598904 0.0018734574491781073 0 -0.00017233570653066535 0.0018449443732615172 0 -0.00021543238120011864 0.0018494075287022584 0 -0.00015629017238689272 0.0018967227186536713 0 -0.00018714975505598904 0.0018734574491781073 0 -0.00017233570653066535 0.0018449443732615172 0 -0.00018689311584299027 0.0019073523421098532 0 -0.00015629017238689272 0.0018967227186536713 0 -0.00018714975505598904 0.0018734574491781073 0 -0.00018689311584299027 0.0019073523421098532 0 -0.00018714975505598904 0.0018734574491781073 0 -0.00020385638246520643 0.0018775713780783731 0 -0.00017233570653066535 0.0018449443732615172 0 -0.00020669035801091466 0.0018155276051461293 0 -0.00017077296323053429 0.0017974517178526177 0 -0.00017233570653066535 0.0018449443732615172 0 -0.00021543238120011864 0.0018494075287022584 0 -0.00020669035801091466 0.0018155276051461293 0 -0.00017233570653066535 0.0018449443732615172 0 -0.00012210403893646966 0.0018227156621226132 0 -0.00017077296323053429 0.0017974517178526177 0 -0.00011831457555033481 0.0018696636553790782 0 -0.00017233570653066535 0.0018449443732615172 0 -0.00012210403893646966 0.0018227156621226132 0 -0.00024787724092628839 0.0018385165879185126 0 -0.00021543238120011864 0.0018494075287022584 0 -0.00024416831284047484 0.00181118960998677 0 -0.00021976656759067277 0.0018809066257912421 0 -0.00020385638246520643 0.0018775713780783731 0 -0.00021543238120011864 0.0018494075287022584 0 -0.00021976656759067277 0.0018809066257912421 0 -0.00024787724092628839 0.0018385165879185126 0 -0.00021543238120011864 0.0018494075287022584 0 -0.00018714975505598904 0.0018734574491781073 0 -0.00020385638246520643 0.0018775713780783731 0 -0.00021543238120011864 0.0018494075287022584 0 -0.00021543238120011864 0.0018494075287022584 0 -0.00020669035801091466 0.0018155276051461293 0 -0.00024416831284047484 0.00181118960998677 0 -0.00024787724092628839 0.0018385165879185126 0 -0.00024416831284047484 0.00181118960998677 0 -0.00026975705141996412 0.0018115184934905605 0 -0.00026975705141996412 0.0018115184934905605 0 -0.00028794777582683993 0.0017897229064365527 0 -0.00028715611452547379 0.0018015972365222901 0 -0.00024416831284047484 0.00181118960998677 0 -0.00026975705141996412 0.0018115184934905605 0 -0.00028794777582683993 0.0017897229064365527 0 -0.00028794777582683993 0.0017897229064365527 0 -0.00028715611452547379 0.0018015972365222901 0 -0.00030736935334657248 0.0017866379194102467 0 -0.00029656593150313097 0.001802997194928091 0 -0.00028715611452547379 0.0018015972365222901 0 -0.00027465398230638334 0.0018227137511619795 0 -0.00029656593150313097 0.001802997194928091 0 -0.00028715611452547379 0.0018015972365222901 0 -0.00030736935334657248 0.0017866379194102467 0 -0.00024787724092628839 0.0018385165879185126 0 -0.00026975705141996412 0.0018115184934905605 0 -0.00027465398230638334 0.0018227137511619795 0 -0.00026975705141996412 0.0018115184934905605 0 -0.00028715611452547379 0.0018015972365222901 0 -0.00027465398230638334 0.0018227137511619795 0 -0.00027465398230638334 0.0018227137511619795 0 -0.00025385179317883748 0.0018586012254922812 0 -0.00029041750076413281 0.0018224339482654759 0 -0.00024787724092628839 0.0018385165879185126 0 -0.00027465398230638334 0.0018227137511619795 0 -0.00025385179317883748 0.0018586012254922812 0 -0.00029656593150313097 0.001802997194928091 0 -0.00027465398230638334 0.0018227137511619795 0 -0.00029041750076413281 0.0018224339482654759 0 -0.00025739167346428221 0.0018774059681177654 0 -0.00030236707366376606 0.0018290564278108819 0 -0.00029041750076413281 0.0018224339482654759 0 -0.00025739167346428221 0.0018774059681177654 0 -0.00025385179317883748 0.0018586012254922812 0 -0.00029041750076413281 0.0018224339482654759 0 -0.00033992360023005457 0.0017624684169513681 0 -0.00031372510361446282 0.0017980269161278824 0 -0.00032051991575777773 0.0017816967335206569 0 -0.00030236707366376606 0.0018290564278108819 0 -0.00033992360023005457 0.0017624684169513681 0 -0.00031372510361446282 0.0017980269161278824 0 -0.00030236707366376606 0.0018290564278108819 0 -0.00029041750076413281 0.0018224339482654759 0 -0.00031372510361446282 0.0017980269161278824 0 -0.00029656593150313097 0.001802997194928091 0 -0.00029041750076413281 0.0018224339482654759 0 -0.00032051991575777773 0.0017816967335206569 0 -0.00029041750076413281 0.0018224339482654759 0 -0.00031372510361446282 0.0017980269161278824 0 -0.00032051991575777773 0.0017816967335206569 0 -0.00034978910854106051 0.0017429161193765607 0 -0.00033992360023005457 0.0017624684169513681 0 -0.00032051991575777773 0.0017816967335206569 0 -0.00034978910854106051 0.0017429161193765607 0 -0.00032051991575777773 0.0017816967335206569 0 -0.00033430942044598589 0.0017625194083211344 0 -0.0003231275308661292 0.0016100478701708307 0 -0.00028920105447183801 0.0016199201440818575 0 -0.00032859007286916331 0.0016567876517712906 0 -0.00026718780621152956 0.001631540834361233 0 -0.000319339021129875 0.0016703990694869693 0 -0.00028794777582683993 0.0017897229064365527 0 -0.00033430942044598589 0.0017625194083211344 0 -0.00030736935334657248 0.0017866379194102467 0 -0.00026564686277968697 0.0015529161334318987 0 -0.00026743334663927444 0.0015640479385200397 0 -0.00028050507227746945 0.00157893474853167 0 -0.00031174499907977228 0.0017318069903335613 0 -0.0003231275308661292 0.0016100478701708307 0 -0.00029656593150313097 0.001802997194928091 0 -0.00032051991575777773 0.0017816967335206569 0 -0.00030736935334657248 0.0017866379194102467 0 -0.00032051991575777773 0.0017816967335206569 0 -0.00033430942044598589 0.0017625194083211344 0 -0.00030736935334657248 0.0017866379194102467 0 -0.00026564686277968697 0.0015529161334318987 0 -0.00026743334663927444 0.0015640479385200397 0 -0.00027237017168254451 0.0015210549852260396 0 -0.00025434597873604962 0.0015735742654005289 0 -0.00026743334663927444 0.0015640479385200397 0 -0.00025958018531232937 0.0015968524585920263 0 -0.00025434597873604962 0.0015735742654005289 0 -0.00026743334663927444 0.0015640479385200397 0 -0.00027237017168254451 0.0015210549852260396 0 -0.00026743334663927444 0.0015640479385200397 0 -0.00026905331679699613 0.0015843712543646478 0 -0.00025958018531232937 0.0015968524585920263 0 -0.00026743334663927444 0.0015640479385200397 0 -0.00026905331679699613 0.0015843712543646478 0 -0.00028050507227746945 0.00157893474853167 0 -0.00025958018531232937 0.0015968524585920263 0 -0.00023301609136334387 0.0016578509851431875 0 -0.00027088888408438561 0.0016138265569232908 0 -0.00026905331679699613 0.0015843712543646478 0 -0.00025958018531232937 0.0015968524585920263 0 -0.00027088888408438561 0.0016138265569232908 0 -0.00025434597873604962 0.0015735742654005289 0 -0.00025958018531232937 0.0015968524585920263 0 -0.00023301609136334387 0.0016578509851431875 0 -0.00025434597873604962 0.0015735742654005289 0 -0.00023301609136334387 0.0016578509851431875 0 -0.00021669306382619632 0.0016047054333841776 0 -0.00022583300944342883 0.0016351666752089837 0 -0.00024874663549068264 0.0015402952830178818 0 -0.00023301609136334387 0.0016578509851431875 0 -0.0002692089898443244 0.0017231474818628974 0 -0.00021269428460176238 0.0017735971543794864 0 -0.00023301609136334387 0.0016578509851431875 0 -0.00029333275037123595 0.0016618799976840506 0 -0.00027088888408438561 0.0016138265569232908 0 -0.00031402512021251806 0.0017247066489296495 0 -0.0002692089898443244 0.0017231474818628974 0 -0.00029333275037123595 0.0016618799976840506 0 -0.00023301609136334387 0.0016578509851431875 0 -0.0002692089898443244 0.0017231474818628974 0 -0.00029333275037123595 0.0016618799976840506 0 -0.00031402512021251806 0.0017247066489296495 0 -0.00029333275037123595 0.0016618799976840506 0 -0.00035620767650178145 0.0016705075456978555 0 -0.00032859007286916331 0.0016567876517712906 0 -0.000319339021129875 0.0016703990694869693 0 -0.00037648592530150423 0.0017127772158834766 0 -0.00029333275037123595 0.0016618799976840506 0 -0.00028050507227746945 0.00157893474853167 0 -0.00035620767650178145 0.0016705075456978555 0 -0.00028920105447183801 0.0016199201440818575 0 -0.00036833317783847738 0.0016927159131235733 0 -0.00029333275037123595 0.0016618799976840506 0 -0.00027088888408438561 0.0016138265569232908 0 -0.00028050507227746945 0.00157893474853167 0 -0.00026905331679699613 0.0015843712543646478 0 -0.00027088888408438561 0.0016138265569232908 0 -0.00028050507227746945 0.00157893474853167 0 -0.00031174499907977228 0.0017318069903335613 0 -0.00030315300441113592 0.0017112987014397919 0 -0.00032859007286916331 0.0016567876517712906 0 -0.00039641309831714016 0.0016837588766569539 0 -0.00037648592530150423 0.0017127772158834766 0 -0.00024416831284047484 0.00181118960998677 0 -0.00028794777582683993 0.0017897229064365527 0 -0.00022082902935954309 0.0017755552117817276 0 -0.00020669035801091466 0.0018155276051461293 0 -0.00024416831284047484 0.00181118960998677 0 -0.00022082902935954309 0.0017755552117817276 0 -0.00039641309831714016 0.0016837588766569539 0 -0.00041990502392435434 0.0017196946572440109 0 -0.00037648592530150423 0.0017127772158834766 0 -0.00030315300441113592 0.0017112987014397919 0 -0.00027627655704585838 0.0018948155105127677 0 -0.00022082902935954309 0.0017755552117817276 0 -0.00017077296323053429 0.0017974517178526177 0 -0.00011516958714531645 0.0017279467834026238 0 -0.00012210403893646966 0.0018227156621226132 0 -0.00017077296323053429 0.0017974517178526177 0 -0.00011516958714531645 0.0017279467834026238 0 -0.00039641309831714016 0.0016837588766569539 0 -0.00041990502392435434 0.0017196946572440109 0 -0.00046787918808127282 0.0017125050611327219 0 -0.00020669035801091466 0.0018155276051461293 0 -0.00022082902935954309 0.0017755552117817276 0 -0.00017077296323053429 0.0017974517178526177 0 -0.00041990502392435434 0.0017196946572440109 0 -0.00043735596638291662 0.001758474572302423 0 -0.00037648592530150423 0.0017127772158834766 0 -0.00042191241357673447 0.0017816592312896865 0 -0.00027627655704585838 0.0018948155105127677 0 -0.00041990502392435434 0.0017196946572440109 0 -0.00044356882627858665 0.0017369411027227644 0 -0.00046787918808127282 0.0017125050611327219 0 -0.00041990502392435434 0.0017196946572440109 0 -0.00044356882627858665 0.0017369411027227644 0 -0.00043735596638291662 0.001758474572302423 0 -0.00044356882627858665 0.0017369411027227644 0 -0.00044823915524545475 0.00175896104708569 0 -0.00046787918808127282 0.0017125050611327219 0 -0.00044356882627858665 0.0017369411027227644 0 -0.00043735596638291662 0.001758474572302423 0 -0.00044823915524545475 0.00175896104708569 0 -0.00043135716701532263 0.0017505811788193456 0 -0.00036833317783847738 0.0016927159131235733 0 -0.00043735596638291662 0.001758474572302423 0 -0.00035620767650178145 0.0016705075456978555 0 -0.00036079795685551642 0.001763145204626533 0 -0.00031402512021251806 0.0017247066489296495 0 -0.00035620767650178145 0.0016705075456978555 0 -0.00036079795685551642 0.001763145204626533 0 -0.00036079795685551642 0.001763145204626533 0 -0.00034226623563925668 0.001833555530649866 0 -0.00028744494137248412 0.001799442493876944 0 -0.00043735596638291662 0.001758474572302423 0 -0.00037968074062766485 0.0018045163548126156 0 -0.00036079795685551642 0.001763145204626533 0 -0.00037968074062766485 0.0018045163548126156 0 -0.00036079795685551642 0.001763145204626533 0 -0.00034226623563925668 0.001833555530649866 0 -0.00037968074062766485 0.0018045163548126156 0 -0.00034226623563925668 0.001833555530649866 0 -0.00039129303716318038 0.0018518728809705908 0 -0.00037663368682934163 0.0018570996704224685 0 -0.00038130436214114591 0.0018596913633153447 0 -0.00039129303716318038 0.0018518728809705908 0 -0.00038130436214114591 0.0018596913633153447 0 -0.00038492516364435712 0.0018606116826146064 0 -0.00037982447479040167 0.0018647496607216893 0 -0.00037663368682934163 0.0018570996704224685 0 -0.00038130436214114591 0.0018596913633153447 0 -0.00038492516364435712 0.0018606116826146064 0 -0.00042191241357673447 0.0017816592312896865 0 -0.00039042206337724504 0.0018509538712815686 0 -0.00043735596638291662 0.001758474572302423 0 -0.00044823915524545475 0.00175896104708569 0 -0.00039129303716318038 0.0018518728809705908 0 -0.00043735596638291662 0.001758474572302423 0 -0.00037968074062766485 0.0018045163548126156 0 -0.00039129303716318038 0.0018518728809705908 0 -0.00038130436214114591 0.0018596913633153447 0 -0.00039129303716318038 0.0018518728809705908 0 -0.00037982447479040167 0.0018647496607216893 0 -0.00039129303716318038 0.0018518728809705908 0 -0.00037982447479040167 0.0018647496607216893 0 -0.00040877019930518095 0.001924677166818865 0 -0.00037659669064183787 0.0018743896144482509 0 -0.00032982674677647559 0.001987821574024007 0 -0.00037982447479040167 0.0018647496607216893 0 -0.00035724998628057172 0.0019824306388752204 0 -0.0002509949541451625 0.0020478195509811715 0 -0.00034226623563925668 0.001833555530649866 0 -0.00029815237341324356 0.0019062354400785297 0 -0.00040877019930518095 0.001924677166818865 0 -0.00034226623563925668 0.001833555530649866 0 -0.00039129303716318038 0.0018518728809705908 0 -0.00040877019930518095 0.001924677166818865 0 -0.00029815237341324356 0.0019062354400785297 0 -0.00018584126214231646 0.0018849870786129485 0 -0.00028744494137248412 0.001799442493876944 0 -0.00034226623563925668 0.001833555530649866 0 -0.00029815237341324356 0.0019062354400785297 0 -0.00028744494137248412 0.001799442493876944 0 -0.00018584126214231646 0.0018849870786129485 0 -0.00021269428460176238 0.0017735971543794864 0 -0.00028744494137248412 0.001799442493876944 0 -0.00018584126214231646 0.0018849870786129485 0 -0.00021269428460176238 0.0017735971543794864 0 -0.00011984105933179098 0.0017883658317733332 0 -0.00023301609136334387 0.0016578509851431875 0 -0.00021269428460176238 0.0017735971543794864 0 -0.00011984105933179098 0.0017883658317733332 0 -0.0002692089898443244 0.0017231474818628974 0 -0.00021269428460176238 0.0017735971543794864 0 -0.00028744494137248412 0.001799442493876944 0 -0.00031402512021251806 0.0017247066489296495 0 -0.00036079795685551642 0.001763145204626533 0 -0.00028744494137248412 0.001799442493876944 0 -0.00031402512021251806 0.0017247066489296495 0 -0.0002692089898443244 0.0017231474818628974 0 -0.00028744494137248412 0.001799442493876944 0 0.00011755747144220628 0.0028583738549002942 0 5.3657355725625901e-05 0.0028647809685179884 0 6.2687819521157023e-05 0.002684797032993398 0 -6.3837826261637993e-06 0.0026993107420615458 0 1.9341399230623591e-07 0.002669061576273469 0 0.00016723459722000098 0.0030047385661049874 0 0.00016986874347221516 0.0030477301721026002 0 0.00011170621376111015 0.0030326381349004717 0 2.1949554693560418e-05 0.0026365972675680815 0 6.2687819521157023e-05 0.002684797032993398 0 1.9341399230623591e-07 0.002669061576273469 0 2.1949554693560418e-05 0.0026365972675680815 0 5.8011990042919131e-05 0.0026268551970308482 0 6.2687819521157023e-05 0.002684797032993398 0 9.9731230410468873e-05 0.0026000944658438972 0 6.2687819521157023e-05 0.002684797032993398 0 0.00018786282125786441 0.002652866642048076 0 0.00011755747144220628 0.0028583738549002942 0 0.00018588204883121585 0.0027032477119142929 0 9.9731230410468873e-05 0.0026000944658438972 0 5.8011990042919131e-05 0.0026268551970308482 0 6.2687819521157023e-05 0.002684797032993398 0 -1.5256311790840646e-05 0.0026528953840348115 0 0.00013532135004436127 0.0031388614264301557 0 0.00016723459722000098 0.0030047385661049874 0 0.00022813585630705217 0.0030179710691805805 0 0.00016986874347221516 0.0030477301721026002 0 -1.5256311790840646e-05 0.0026528953840348115 0 0.00018588204883121585 0.0027032477119142929 0 0.00016723459722000098 0.0030047385661049874 0 0.00022813585630705217 0.0030179710691805805 0 0.00022614616720537345 0.0029775536816199532 0 -1.5256311790840646e-05 0.0026528953840348115 0 5.165893994088466e-05 0.00241695480872446 0 0.00014784690429920161 0.0025888652356349292 0 9.9731230410468873e-05 0.0026000944658438972 0 0.00018786282125786441 0.002652866642048076 0 3.1761379405969278e-05 0.0026568120474957106 0 2.6434251610391699e-05 0.0025468101459518895 0 7.7764727862686785e-05 0.002530563350818043 0 0.00018588204883121585 0.0027032477119142929 0 5.165893994088466e-05 0.00241695480872446 0 -7.8482925507722542e-05 0.002198365950638821 0 -9.0381992170685156e-05 0.0022309520353001283 0 -2.9643729762881066e-05 0.0022906335985495934 0 -0.00012694989892932028 0.0023336701709346353 0 -9.0381992170685156e-05 0.0022309520353001283 0 -2.9643729762881066e-05 0.0022906335985495934 0 2.5072709577948357e-05 0.0021367873183805188 0 -0.00027627655704585838 0.0018948155105127677 0 -5.5299492666035071e-05 0.0018236858481299511 0 -0.00012210403893646966 0.0018227156621226132 0 -0.00011516958714531645 0.0017279467834026238 0 0.00026146587651832716 0.002588524861114043 0 0.00020770684856906624 0.002634265087842709 0 0.00024918828265579966 0.0026209942986005416 0 2.5072709577948357e-05 0.0021367873183805188 0 5.165893994088466e-05 0.00241695480872446 0 -1.5256311790840646e-05 0.0026528953840348115 0 -0.00027627655704585838 0.0018948155105127677 0 -0.00044088467273044693 0.0018321291823427716 0 -0.00038606401881285924 0.0018197293946945188 0 -0.00039681898678036625 0.0018481552856637552 0 -0.00044088467273044693 0.0018321291823427716 0 -0.00039681898678036625 0.0018481552856637552 0 -0.00040575805264333781 0.001874987517705912 0 -0.00037663368682934163 0.0018570996704224685 0 -0.00038606401881285924 0.0018197293946945188 0 -0.00039681898678036625 0.0018481552856637552 0 -0.00037663368682934163 0.0018570996704224685 0 -0.00039681898678036625 0.0018481552856637552 0 -0.00038492516364435712 0.0018606116826146064 0 -0.00038492516364435712 0.0018606116826146064 0 -0.00040575805264333781 0.001874987517705912 0 -0.00037982447479040167 0.0018647496607216893 0 -0.00039681898678036625 0.0018481552856637552 0 -0.00038492516364435712 0.0018606116826146064 0 -0.00040575805264333781 0.001874987517705912 0 -0.00040575805264333781 0.001874987517705912 0 -0.0004015612956746158 0.0019227921466755456 0 -0.00045271843075456338 0.0019457660700128157 0 -0.00040575805264333781 0.001874987517705912 0 -0.00037982447479040167 0.0018647496607216893 0 -0.0004015612956746158 0.0019227921466755456 0 -0.00035724998628057172 0.0019824306388752204 0 -0.0004015612956746158 0.0019227921466755456 0 -0.00045271843075456338 0.0019457660700128157 0 -0.00037982447479040167 0.0018647496607216893 0 -0.00035724998628057172 0.0019824306388752204 0 -0.0004015612956746158 0.0019227921466755456 0 -0.00035724998628057172 0.0019824306388752204 0 -0.00045271843075456338 0.0019457660700128157 0 -0.0003473595814017329 0.0020794264642315704 0 2.7072774546742842e-05 0.0031536213894080025 0 3.9422694219702594e-05 0.0030936221283897609 0 3.6802568376582376e-05 0.0030642074510224011 0 1.2116528605295987e-05 0.0030423137082674838 0 1.392725868016954e-05 0.0030972562301496108 0 3.9711942681791026e-05 0.0029634062539887719 0 3.6802568376582376e-05 0.0030642074510224011 0 1.2116528605295987e-05 0.0030423137082674838 0 -1.5256311790840646e-05 0.0026528953840348115 0 2.7072774546742842e-05 0.0031536213894080025 0 -0.00044088467273044693 0.0018321291823427716 0 -0.00040575805264333781 0.001874987517705912 0 -0.00045271843075456338 0.0019457660700128157 0 6.2906360492980123e-05 0.0031189831829859208 0 6.1350044878168063e-05 0.0031258161148893559 0 6.1707949511449132e-05 0.0031271117455725231 0 -1.5256311790840646e-05 0.0026528953840348115 0 -0.00023183028979232396 0.0024465597128442607 0 6.1707949511449132e-05 0.0031271117455725231 0 6.071926877659246e-05 0.0031263107939686662 0 6.5440156651983401e-05 0.0031256659333520494 0 6.1350044878168063e-05 0.0031258161148893559 0 6.1707949511449132e-05 0.0031271117455725231 0 6.071926877659246e-05 0.0031263107939686662 0 6.071926877659246e-05 0.0031263107939686662 0 6.5440156651983401e-05 0.0031256659333520494 0 5.4995471872830982e-05 0.0031250221173015173 0 6.1350044878168063e-05 0.0031258161148893559 0 6.071926877659246e-05 0.0031263107939686662 0 5.4995471872830982e-05 0.0031250221173015173 0 6.5440156651983401e-05 0.0031256659333520494 0 6.4057898568185083e-05 0.0031242672342074273 0 7.3779392264279665e-05 0.0031247106715270173 0 6.5440156651983401e-05 0.0031256659333520494 0 7.4434081184420595e-05 0.0031243610389713717 0 7.3779392264279665e-05 0.0031247106715270173 0 0.00013532135004436127 0.0031388614264301557 0 9.0759323793796438e-05 0.0030939337293572271 0 0.00016986874347221516 0.0030477301721026002 0 0.00011170621376111015 0.0030326381349004717 0 0.00011503496832046836 0.0030772814814088141 0 6.1707949511449132e-05 0.0031271117455725231 0 6.5440156651983401e-05 0.0031256659333520494 0 7.4434081184420595e-05 0.0031243610389713717 0 7.621728033817778e-05 0.0031051852536890614 0 6.4057898568185083e-05 0.0031242672342074273 0 3.9786482931325248e-05 0.0031093594683543856 0 7.621728033817778e-05 0.0031051852536890614 0 6.4057898568185083e-05 0.0031242672342074273 0 8.2177617476390897e-05 0.0031264971186140233 0 6.5440156651983401e-05 0.0031256659333520494 0 6.4057898568185083e-05 0.0031242672342074273 0 5.4995471872830982e-05 0.0031250221173015173 0 3.9422694219702594e-05 0.0030936221283897609 0 3.7768901582915463e-05 0.0031123745911627895 0 6.4057898568185083e-05 0.0031242672342074273 0 5.4995471872830982e-05 0.0031250221173015173 0 3.9786482931325248e-05 0.0031093594683543856 0 7.621728033817778e-05 0.0031051852536890614 0 3.9786482931325248e-05 0.0031093594683543856 0 2.4093140218808686e-05 0.0030943410375358976 0 3.9786482931325248e-05 0.0031093594683543856 0 1.6723262380899568e-05 0.0031095855954117717 0 2.4093140218808686e-05 0.0030943410375358976 0 -0.00019833597373388029 0.0026294314119782156 0 -0.00020125779571744524 0.0026767494836786587 0 1.392725868016954e-05 0.0030972562301496108 0 3.9786482931325248e-05 0.0031093594683543856 0 1.6723262380899568e-05 0.0031095855954117717 0 -0.00023183028979232396 0.0024465597128442607 0 -0.00019833597373388029 0.0026294314119782156 0 3.6802568376582376e-05 0.0030642074510224011 0 1.392725868016954e-05 0.0030972562301496108 0 1.6723262380899568e-05 0.0031095855954117717 0 -0.00045271843075456338 0.0019457660700128157 0 -0.00042035039817254631 0.0021311292640139421 0 -0.0003473595814017329 0.0020794264642315704 0 -0.00042035039817254631 0.0021311292640139421 0 -0.00037562929037384145 0.0022740619517894272 0 -0.00029522717453700866 0.0021719768417730765 0 -0.00042035039817254631 0.0021311292640139421 0 -0.0003473595814017329 0.0020794264642315704 0 -0.00029522717453700866 0.0021719768417730765 0 -0.00037562929037384145 0.0022740619517894272 0 -0.00029522717453700866 0.0021719768417730765 0 -0.00025790542401862106 0.0022838635884688046 0 -0.00037562929037384145 0.0022740619517894272 0 -0.00025790542401862106 0.0022838635884688046 0 -0.00033169989321776583 0.0024109457029789253 0 -0.00020125779571744524 0.0026767494836786587 0 -0.00021933986295771848 0.00270278666022727 0 -2.0362547590617316e-05 0.0030936193787185835 0 2.4093140218808686e-05 0.0030943410375358976 0 1.2413240747499352e-05 0.0030531684404851655 0 -2.0362547590617316e-05 0.0030936193787185835 0 1.2413240747499352e-05 0.0030531684404851655 0 -0.00011174179909362874 0.0030135709016411096 0 1.6723262380899568e-05 0.0031095855954117717 0 -2.0362547590617316e-05 0.0030936193787185835 0 2.4093140218808686e-05 0.0030943410375358976 0 2.4093140218808686e-05 0.0030943410375358976 0 1.2413240747499352e-05 0.0030531684404851655 0 7.8992760984778683e-05 0.0030663055582780853 0 7.621728033817778e-05 0.0031051852536890614 0 2.4093140218808686e-05 0.0030943410375358976 0 7.8992760984778683e-05 0.0030663055582780853 0 -0.00019409487998701093 0.0020968377691749085 0 -0.00021463208125500121 0.0019997674871368707 0 -0.00032820319277880768 0.0021076477247928922 0 -0.00019409487998701093 0.0020968377691749085 0 -0.00010008518599860263 0.0020820967198623679 0 -0.00016114341297853327 0.0021900677473304518 0 -0.00019409487998701093 0.0020968377691749085 0 -0.00010008518599860263 0.0020820967198623679 0 -0.00021463208125500121 0.0019997674871368707 0 -0.00018071822027036842 0.0018936853373306124 0 -0.00014702660055400914 0.0020168487815625646 0 -0.00018584126214231646 0.0018849870786129485 0 -0.00010008518599860263 0.0020820967198623679 0 -0.00021463208125500121 0.0019997674871368707 0 -0.00029815237341324356 0.0019062354400785297 0 -0.00021463208125500121 0.0019997674871368707 0 -0.00032820319277880768 0.0021076477247928922 0 -0.00029815237341324356 0.0019062354400785297 0 -0.00018584126214231646 0.0018849870786129485 0 -0.00021463208125500121 0.0019997674871368707 0 -0.00029815237341324356 0.0019062354400785297 0 -0.00040877019930518095 0.001924677166818865 0 -0.00032820319277880768 0.0021076477247928922 0 -0.0003473595814017329 0.0020794264642315704 0 -0.0002509949541451625 0.0020478195509811715 0 -0.00029522717453700866 0.0021719768417730765 0 -0.00035724998628057172 0.0019824306388752204 0 -0.0003473595814017329 0.0020794264642315704 0 -0.0002509949541451625 0.0020478195509811715 0 -0.0002509949541451625 0.0020478195509811715 0 -0.00029522717453700866 0.0021719768417730765 0 -0.0001956937063277138 0.0022052627978932241 0 -0.00032982674677647559 0.001987821574024007 0 -0.00025994791433480336 0.0021539233946128548 0 -0.0001956937063277138 0.0022052627978932241 0 -0.00025790542401862106 0.0022838635884688046 0 -0.00018008549826570571 0.0022829077873758111 0 -0.00029522717453700866 0.0021719768417730765 0 -0.0001956937063277138 0.0022052627978932241 0 -0.00025790542401862106 0.0022838635884688046 0 -0.00025790542401862106 0.0022838635884688046 0 -0.00018008549826570571 0.0022829077873758111 0 -0.00021475012820298026 0.0023729243781738939 0 -0.00019409487998701093 0.0020968377691749085 0 -0.00032820319277880768 0.0021076477247928922 0 -0.00016114341297853327 0.0021900677473304518 0 -0.00025994791433480336 0.0021539233946128548 0 -0.00018742601274857653 0.0022751851368616768 0 -0.00032820319277880768 0.0021076477247928922 0 -0.00018008549826570571 0.0022829077873758111 0 -0.00016114341297853327 0.0021900677473304518 0 -0.00010008518599860263 0.0020820967198623679 0 -0.00016114341297853327 0.0021900677473304518 0 -9.0657120916502935e-05 0.0022545319342195036 0 -0.00014076756110433661 0.0022602624204208863 0 -9.0657120916502935e-05 0.0022545319342195036 0 -0.00013413123360942169 0.0022894699152647235 0 -0.00016114341297853327 0.0021900677473304518 0 -0.00014076756110433661 0.0022602624204208863 0 -9.0657120916502935e-05 0.0022545319342195036 0 -0.00018008549826570571 0.0022829077873758111 0 -0.00016114341297853327 0.0021900677473304518 0 -0.00014076756110433661 0.0022602624204208863 0 -0.00018008549826570571 0.0022829077873758111 0 -0.00014076756110433661 0.0022602624204208863 0 -0.00013413123360942169 0.0022894699152647235 0 -0.00020861868415641179 0.0020206207064865627 0 -0.00014269508699548363 0.0020954876121795081 0 -0.00016021509556503392 0.0020162306075921996 0 -0.00011932272063689103 0.0020758268464677741 0 -0.00016021509556503392 0.0020162306075921996 0 -9.6528886316448709e-05 0.002027525126699872 0 -0.00011932272063689103 0.0020758268464677741 0 -0.00014269508699548363 0.0020954876121795081 0 -0.00016021509556503392 0.0020162306075921996 0 -0.00016021509556503392 0.0020162306075921996 0 -0.00014358149959142307 0.0019387283266317247 0 -9.6528886316448709e-05 0.002027525126699872 0 -0.0001651622434630485 0.0020063553236646576 0 -0.00018762264596369974 0.0019114310068714456 0 -0.00016021509556503392 0.0020162306075921996 0 -0.00014358149959142307 0.0019387283266317247 0 -0.00022747778317869322 0.0018715018184373479 0 -0.00018496020811654772 0.0019506646436520114 0 -0.00020861868415641179 0.0020206207064865627 0 -0.00017577517727652769 0.001986199512530944 0 -0.00016021509556503392 0.0020162306075921996 0 -0.00017577517727652769 0.001986199512530944 0 -0.00015282752446927237 0.0019531064780692411 0 -0.00014702660055400914 0.0020168487815625646 0 -0.00014653079171574369 0.0021363734052089901 0 -0.00020861868415641179 0.0020206207064865627 0 -0.00016021509556503392 0.0020162306075921996 0 -0.00017577517727652769 0.001986199512530944 0 -0.00018496020811654772 0.0019506646436520114 0 -0.00017577517727652769 0.001986199512530944 0 -0.00015282752446927237 0.0019531064780692411 0 -0.00018496020811654772 0.0019506646436520114 0 -0.00015282752446927237 0.0019531064780692411 0 -0.0001326114938709435 0.0018950983648900951 0 -0.00022747778317869322 0.0018715018184373479 0 -0.00015133156056327106 0.0018389899495694045 0 -0.00018810794548306198 0.0017679670938910365 0 -0.00014358149959142307 0.0019387283266317247 0 -0.00022747778317869322 0.0018715018184373479 0 -0.00015133156056327106 0.0018389899495694045 0 -0.00015133156056327106 0.0018389899495694045 0 -0.00018810794548306198 0.0017679670938910365 0 -0.00012791348250546842 0.0017468210283188347 0 -0.00022747778317869322 0.0018715018184373479 0 -0.00018810794548306198 0.0017679670938910365 0 -0.00025931010096248046 0.0017356121846446874 0 -0.00018762264596369974 0.0019114310068714456 0 -0.00019650522378042112 0.0018119187748068314 0 -0.00018584126214231646 0.0018849870786129485 0 -0.00018496020811654772 0.0019506646436520114 0 -0.0001326114938709435 0.0018950983648900951 0 -4.7037429654232999e-05 0.0017465681601799674 0 -2.8716964722315709e-05 0.0018329636132622263 0 2.2924178147955595e-05 0.0017776282762826769 0 -4.7037429654232999e-05 0.0017465681601799674 0 -8.8513819207785955e-05 0.0018295516600661216 0 -2.8716964722315709e-05 0.0018329636132622263 0 -4.7037429654232999e-05 0.0017465681601799674 0 -0.00012791348250546842 0.0017468210283188347 0 -8.8513819207785955e-05 0.0018295516600661216 0 -0.00015133156056327106 0.0018389899495694045 0 -0.00012791348250546842 0.0017468210283188347 0 -8.8513819207785955e-05 0.0018295516600661216 0 -0.00014358149959142307 0.0019387283266317247 0 -0.00015133156056327106 0.0018389899495694045 0 -0.0001087251498695379 0.0018997076285884283 0 -8.8513819207785955e-05 0.0018295516600661216 0 -0.0001087251498695379 0.0018997076285884283 0 -4.3103356895366542e-05 0.0019131896218519773 0 -0.00015133156056327106 0.0018389899495694045 0 -8.8513819207785955e-05 0.0018295516600661216 0 -0.0001087251498695379 0.0018997076285884283 0 -8.8513819207785955e-05 0.0018295516600661216 0 -2.8716964722315709e-05 0.0018329636132622263 0 -4.3103356895366542e-05 0.0019131896218519773 0 -2.8716964722315709e-05 0.0018329636132622263 0 -4.3103356895366542e-05 0.0019131896218519773 0 -5.331706699434966e-07 0.0018757944428389041 0 -4.3103356895366542e-05 0.0019131896218519773 0 2.5986936640020999e-06 0.0019588773944104096 0 -5.331706699434966e-07 0.0018757944428389041 0 -4.3103356895366542e-05 0.0019131896218519773 0 -8.8187316912759775e-05 0.001961323956091427 0 -4.8558750195372544e-05 0.0019940451006146566 0 -4.3103356895366542e-05 0.0019131896218519773 0 -4.8558750195372544e-05 0.0019940451006146566 0 2.5986936640020999e-06 0.0019588773944104096 0 -0.00014358149959142307 0.0019387283266317247 0 -8.8187316912759775e-05 0.001961323956091427 0 -9.6528886316448709e-05 0.002027525126699872 0 -0.00014358149959142307 0.0019387283266317247 0 -0.0001087251498695379 0.0018997076285884283 0 -8.8187316912759775e-05 0.001961323956091427 0 -0.0001087251498695379 0.0018997076285884283 0 -4.3103356895366542e-05 0.0019131896218519773 0 -8.8187316912759775e-05 0.001961323956091427 0 -0.00011932272063689103 0.0020758268464677741 0 -9.6528886316448709e-05 0.002027525126699872 0 -8.7607985100626224e-05 0.0021101151725476551 0 -9.6528886316448709e-05 0.002027525126699872 0 -5.1125893808168018e-05 0.0020649946936182255 0 -8.7607985100626224e-05 0.0021101151725476551 0 -8.8187316912759775e-05 0.001961323956091427 0 -9.6528886316448709e-05 0.002027525126699872 0 -4.8558750195372544e-05 0.0019940451006146566 0 -9.6528886316448709e-05 0.002027525126699872 0 -4.8558750195372544e-05 0.0019940451006146566 0 -5.1125893808168018e-05 0.0020649946936182255 0 -4.8558750195372544e-05 0.0019940451006146566 0 -1.7050410289706714e-05 0.0020277068594279132 0 2.5986936640020999e-06 0.0019588773944104096 0 -4.8558750195372544e-05 0.0019940451006146566 0 -1.7050410289706714e-05 0.0020277068594279132 0 -5.1125893808168018e-05 0.0020649946936182255 0 1.7862177452325928e-05 0.0020099994979266558 0 6.2149773311423432e-05 0.0020072595309816167 0 -1.7451763691771242e-05 0.0020734985940868552 0 -1.7050410289706714e-05 0.0020277068594279132 0 1.7862177452325928e-05 0.0020099994979266558 0 2.5986936640020999e-06 0.0019588773944104096 0 1.7862177452325928e-05 0.0020099994979266558 0 6.2149773311423432e-05 0.0020072595309816167 0 5.6825347264006903e-05 0.0019373276098721306 0 0.00012090203918621851 0.0018380188620381538 0 6.1518299684871662e-05 0.001953006696938727 0 3.6392392545928319e-05 0.0019179133427779207 0 0.00012108673164199016 0.0018776679186153155 0 5.8601180598962621e-05 0.0019636535021454139 0 5.6825347264006903e-05 0.0019373276098721306 0 0.0001446213311082072 0.0018793408959918755 0 8.048177839619432e-05 0.0018617975906952151 0 3.6392392545928319e-05 0.0019179133427779207 0 0.00012108673164199016 0.0018776679186153155 0 0.00011777573950911673 0.0018323412346652609 0 6.2149773311423432e-05 0.0020072595309816167 0 5.6825347264006903e-05 0.0019373276098721306 0 0.0001446213311082072 0.0018793408959918755 0 5.0277010572840949e-05 0.0019641564583382995 0 0.00012964985220522541 0.0018544323128704804 0 4.2231970216470609e-05 0.0018956896031378282 0 5.6825347264006903e-05 0.0019373276098721306 0 8.048177839619432e-05 0.0018617975906952151 0 4.2231970216470609e-05 0.0018956896031378282 0 2.5986936640020999e-06 0.0019588773944104096 0 -5.331706699434966e-07 0.0018757944428389041 0 1.7862177452325928e-05 0.0020099994979266558 0 2.5986936640020999e-06 0.0019588773944104096 0 5.6825347264006903e-05 0.0019373276098721306 0 4.2231970216470609e-05 0.0018956896031378282 0 2.5986936640020999e-06 0.0019588773944104096 0 5.6825347264006903e-05 0.0019373276098721306 0 0.00024955877205599404 0.0018502701271887584 0 0.00024032231992020318 0.0017806577687732254 0 0.00018689702483073908 0.0018334911434877512 0 0.00024955877205599404 0.0018502701271887584 0 0.00018689702483073908 0.0018334911434877512 0 0.00017242609710163741 0.0019304209538441449 0 0.00013071048814286242 0.001897842581192523 0 0.00011660341379497681 0.0017930789454655832 0 5.8601180598962621e-05 0.0019636535021454139 0 0.00018689702483073908 0.0018334911434877512 0 0.00013071048814286242 0.001897842581192523 0 0.00011660341379497681 0.0017930789454655832 0 0.00018689702483073908 0.0018334911434877512 0 0.00013071048814286242 0.001897842581192523 0 0.00017242609710163741 0.0019304209538441449 0 0.00012108673164199016 0.0018776679186153155 0 0.00011777573950911673 0.0018323412346652609 0 0.00019485466768803407 0.0017835906020294866 0 0.00018689702483073908 0.0018334911434877512 0 0.00011660341379497681 0.0017930789454655832 0 0.00019561995235231529 0.0017615257949686238 0 0.00011660341379497681 0.0017930789454655832 0 0.00019561995235231529 0.0017615257949686238 0 0.00019541969582752679 0.0016942592259031883 0 0.00012090203918621851 0.0018380188620381538 0 0.00019379321920675463 0.0017382728079159944 0 0.00024032231992020318 0.0017806577687732254 0 0.00019561995235231529 0.0017615257949686238 0 0.00023676177608196913 0.0017203115192821841 0 0.00024032231992020318 0.0017806577687732254 0 0.00018689702483073908 0.0018334911434877512 0 0.00019561995235231529 0.0017615257949686238 0 0.00019561995235231529 0.0017615257949686238 0 0.00023676177608196913 0.0017203115192821841 0 0.00019541969582752679 0.0016942592259031883 0 0.00024667407209492503 0.0016828145046251864 0 0.00023676177608196913 0.0017203115192821841 0 0.00019541969582752679 0.0016942592259031883 0 0.00011777573950911673 0.0018323412346652609 0 0.00019485466768803407 0.0017835906020294866 0 0.00020640288543020602 0.0017274419770281146 0 0.0001446213311082072 0.0018793408959918755 0 0.00013115439237221301 0.0018019609035401099 0 0.00020640288543020602 0.0017274419770281146 0 0.00012964985220522541 0.0018544323128704804 0 0.00020322239364795175 0.001737021917104579 0 0.00013120279246381166 0.0017309456097445012 0 0.00020640288543020602 0.0017274419770281146 0 0.00018426510184363614 0.0016461282915428718 0 0.00013115439237221301 0.0018019609035401099 0 0.00013120279246381166 0.0017309456097445012 0 0.00020640288543020602 0.0017274419770281146 0 0.00024932858327278093 0.0016538869788096536 0 0.00019485466768803407 0.0017835906020294866 0 0.00020640288543020602 0.0017274419770281146 0 0.00024667407209492503 0.0016828145046251864 0 0.00024932858327278093 0.0016538869788096536 0 0.00019541969582752679 0.0016942592259031883 0 0.00024498545635345288 0.0016605471361216184 0 0.00019379321920675463 0.0017382728079159944 0 3.5155370374186613e-05 0.0018390994743793774 0 8.2793703737578172e-05 0.0018014316809096661 0 2.2924178147955595e-05 0.0017776282762826769 0 -2.8716964722315709e-05 0.0018329636132622263 0 3.5155370374186613e-05 0.0018390994743793774 0 -5.331706699434966e-07 0.0018757944428389041 0 -2.8716964722315709e-05 0.0018329636132622263 0 3.5155370374186613e-05 0.0018390994743793774 0 2.2924178147955595e-05 0.0017776282762826769 0 4.2231970216470609e-05 0.0018956896031378282 0 3.5155370374186613e-05 0.0018390994743793774 0 8.048177839619432e-05 0.0018617975906952151 0 4.2231970216470609e-05 0.0018956896031378282 0 3.5155370374186613e-05 0.0018390994743793774 0 -5.331706699434966e-07 0.0018757944428389041 0 0.0001446213311082072 0.0018793408959918755 0 0.00013115439237221301 0.0018019609035401099 0 8.048177839619432e-05 0.0018617975906952151 0 0.00013115439237221301 0.0018019609035401099 0 8.048177839619432e-05 0.0018617975906952151 0 8.2793703737578172e-05 0.0018014316809096661 0 3.5155370374186613e-05 0.0018390994743793774 0 8.048177839619432e-05 0.0018617975906952151 0 8.2793703737578172e-05 0.0018014316809096661 0 8.2793703737578172e-05 0.0018014316809096661 0 6.4594559278468655e-05 0.0017321443491398233 0 2.2924178147955595e-05 0.0017776282762826769 0 0.00013120279246381166 0.0017309456097445012 0 8.2793703737578172e-05 0.0018014316809096661 0 6.4594559278468655e-05 0.0017321443491398233 0 0.00013115439237221301 0.0018019609035401099 0 0.00013120279246381166 0.0017309456097445012 0 8.2793703737578172e-05 0.0018014316809096661 0 6.4594559278468655e-05 0.0017321443491398233 0 2.2924178147955595e-05 0.0017776282762826769 0 2.1080137120780064e-05 0.0017062468585952997 0 -4.7037429654232999e-05 0.0017465681601799674 0 2.2924178147955595e-05 0.0017776282762826769 0 2.1080137120780064e-05 0.0017062468585952997 0 2.1080137120780064e-05 0.0017062468585952997 0 5.95180250432372e-05 0.0016591501444931907 0 -2.5146225372853361e-05 0.0016569785912406271 0 -4.7037429654232999e-05 0.0017465681601799674 0 2.1080137120780064e-05 0.0017062468585952997 0 -2.5146225372853361e-05 0.0016569785912406271 0 6.4594559278468655e-05 0.0017321443491398233 0 2.1080137120780064e-05 0.0017062468585952997 0 5.95180250432372e-05 0.0016591501444931907 0 0.00013120279246381166 0.0017309456097445012 0 6.4594559278468655e-05 0.0017321443491398233 0 5.95180250432372e-05 0.0016591501444931907 0 0.00013120279246381166 0.0017309456097445012 0 5.95180250432372e-05 0.0016591501444931907 0 0.000125120381037933 0.0016285637240225934 0 5.3166503310212076e-05 0.0015873772587322228 0 0.000125120381037933 0.0016285637240225934 0 6.4627526480132713e-05 0.001516691321428857 0 5.95180250432372e-05 0.0016591501444931907 0 5.3166503310212076e-05 0.0015873772587322228 0 0.000125120381037933 0.0016285637240225934 0 5.3166503310212076e-05 0.0015873772587322228 0 8.1311654725700746e-06 0.0016006310187112935 0 5.7750019526509923e-06 0.0015380822166288321 0 8.1311654725700746e-06 0.0016006310187112935 0 -2.5146225372853361e-05 0.0016569785912406271 0 -4.9795796039382307e-05 0.001573056750453187 0 5.95180250432372e-05 0.0016591501444931907 0 8.1311654725700746e-06 0.0016006310187112935 0 -2.5146225372853361e-05 0.0016569785912406271 0 5.95180250432372e-05 0.0016591501444931907 0 5.3166503310212076e-05 0.0015873772587322228 0 8.1311654725700746e-06 0.0016006310187112935 0 0.00024932858327278093 0.0016538869788096536 0 0.00020640288543020602 0.0017274419770281146 0 0.00018426510184363614 0.0016461282915428718 0 0.00024932858327278093 0.0016538869788096536 0 0.00018426510184363614 0.0016461282915428718 0 0.00023449878264816327 0.0016025365072433713 0 0.00013120279246381166 0.0017309456097445012 0 0.00018426510184363614 0.0016461282915428718 0 0.00010691913415302378 0.0015858126434427459 0 0.00012839895007183964 0.0017210583656174264 0 0.00012024133017428917 0.0016120256825212646 0 0.00010691913415302378 0.0015858126434427459 0 0.000186763841495973 0.001575369392375897 0 0.0001635438737175733 0.0015028393200929443 0 0.00018426510184363614 0.0016461282915428718 0 0.00010691913415302378 0.0015858126434427459 0 0.000186763841495973 0.001575369392375897 0 0.000186763841495973 0.001575369392375897 0 0.00023796330882337369 0.0015427708535195846 0 0.0001635438737175733 0.0015028393200929443 0 0.00018426510184363614 0.0016461282915428718 0 0.000186763841495973 0.001575369392375897 0 0.00023449878264816327 0.0016025365072433713 0 0.000186763841495973 0.001575369392375897 0 0.00023796330882337369 0.0015427708535195846 0 0.00023449878264816327 0.0016025365072433713 0 0.00024139735289108896 0.0014752563882334689 0 0.0001635438737175733 0.0015028393200929443 0 0.00018758142056807083 0.0014321069220026316 0 0.00024139735289108896 0.0014752563882334689 0 0.00023796330882337369 0.0015427708535195846 0 0.0001635438737175733 0.0015028393200929443 0 0.00012024133017428917 0.0016120256825212646 0 7.4676606469836022e-05 0.0014683862043212508 0 0.0001635438737175733 0.0015028393200929443 0 9.7019367200333278e-05 0.0014683333727418648 0 0.00018758142056807083 0.0014321069220026316 0 0.00010691913415302378 0.0015858126434427459 0 0.0001635438737175733 0.0015028393200929443 0 9.7019367200333278e-05 0.0014683333727418648 0 1.0462051708434635e-05 0.0014194981167179026 0 4.6547709952759152e-05 0.0013638552501291136 0 9.3422474394902214e-05 0.0013958707817164002 0 1.0050411291650018e-05 0.0013363090210753849 0 1.0462051708434635e-05 0.0014194981167179026 0 4.6547709952759152e-05 0.0013638552501291136 0 7.4676606469836022e-05 0.0014683862043212508 0 0.00013869500238452561 0.0014126544470680279 0 0.00020534726476148041 0.0013761939071350638 0 0.00010001386440425497 0.0013044366566748744 0 9.3422474394902214e-05 0.0013958707817164002 0 0.00024557547466385769 0.0013781091931327025 0 0.00013869500238452561 0.0014126544470680279 0 0.00010001386440425497 0.0013044366566748744 0 4.6547709952759152e-05 0.0013638552501291136 0 9.3422474394902214e-05 0.0013958707817164002 0 5.7750019526509923e-06 0.0015380822166288321 0 -5.3530882538472753e-05 0.0014857354980699065 0 -4.9795796039382307e-05 0.001573056750453187 0 5.7750019526509923e-06 0.0015380822166288321 0 1.5119994495170178e-05 0.0014801977923845889 0 -5.3530882538472753e-05 0.0014857354980699065 0 5.7750019526509923e-06 0.0015380822166288321 0 6.4627526480132713e-05 0.001516691321428857 0 1.5119994495170178e-05 0.0014801977923845889 0 8.1311654725700746e-06 0.0016006310187112935 0 5.7750019526509923e-06 0.0015380822166288321 0 -4.9795796039382307e-05 0.001573056750453187 0 0.000125120381037933 0.0016285637240225934 0 0.00011391623370553909 0.0014981651006279332 0 6.4627526480132713e-05 0.001516691321428857 0 5.3166503310212076e-05 0.0015873772587322228 0 5.7750019526509923e-06 0.0015380822166288321 0 6.4627526480132713e-05 0.001516691321428857 0 7.4676606469836022e-05 0.0014683862043212508 0 7.2808130575489614e-05 0.0014959440474500588 0 4.6413323256700505e-05 0.0013662459782632086 0 7.4676606469836022e-05 0.0014683862043212508 0 6.4627526480132713e-05 0.001516691321428857 0 5.2006485829275833e-05 0.0014428890699103533 0 1.5119994495170178e-05 0.0014801977923845889 0 8.6861939927110774e-05 0.0013960592362395974 0 0.00010587409602058952 0.0014979162908097391 0 5.2006485829275833e-05 0.0014428890699103533 0 0.00010587409602058952 0.0014979162908097391 0 6.4627526480132713e-05 0.001516691321428857 0 5.2006485829275833e-05 0.0014428890699103533 0 5.2006485829275833e-05 0.0014428890699103533 0 -3.8548138411530907e-06 0.0014135118748123479 0 1.5119994495170178e-05 0.0014801977923845889 0 -3.8548138411530907e-06 0.0014135118748123479 0 1.5119994495170178e-05 0.0014801977923845889 0 -5.3530882538472753e-05 0.0014857354980699065 0 -5.3530882538472753e-05 0.0014857354980699065 0 -0.00013498615880378262 0.0015368314926593174 0 -0.00011704826206214871 0.001463432871662101 0 -8.9853569779008299e-05 0.0013904546127507412 0 -5.3530882538472753e-05 0.0014857354980699065 0 -0.00011704826206214871 0.001463432871662101 0 -8.9853569779008299e-05 0.0013904546127507412 0 -3.8548138411530907e-06 0.0014135118748123479 0 -5.3530882538472753e-05 0.0014857354980699065 0 -5.3530882538472753e-05 0.0014857354980699065 0 -0.00013498615880378262 0.0015368314926593174 0 -4.9795796039382307e-05 0.001573056750453187 0 -8.9853569779008299e-05 0.0013904546127507412 0 -0.00011704826206214871 0.001463432871662101 0 -0.00019055830716024631 0.0014411010240202044 0 -0.00013498615880378262 0.0015368314926593174 0 -0.00011704826206214871 0.001463432871662101 0 -0.00019055830716024631 0.0014411010240202044 0 -0.00019055830716024631 0.0014411010240202044 0 -0.00029851504864956404 0.0014898294591043854 0 -0.00022427968491925383 0.0015413862163040674 0 -0.00034019028981981862 0.0014412155297822075 0 -0.00024874663549068264 0.0015402952830178818 0 -0.00037268052696108671 0.0014996644253739643 0 -0.00048201463508708379 0.0014612832409672824 0 -0.00030214621768574935 0.0013899344380233884 0 -0.00026572589643801141 0.0015115833811766911 0 -0.00024874663549068264 0.0015402952830178818 0 -0.00037268052696108671 0.0014996644253739643 0 -0.00027237017168254451 0.0015210549852260396 0 -0.00030214621768574935 0.0013899344380233884 0 -0.00025434597873604962 0.0015735742654005289 0 -0.00027237017168254451 0.0015210549852260396 0 -0.00021669306382619632 0.0016047054333841776 0 -0.00023301609136334387 0.0016578509851431875 0 -0.0001405718806478029 0.0016174061513917438 0 -0.00011984105933179098 0.0017883658317733332 0 -0.00029851504864956404 0.0014898294591043854 0 -0.00022427968491925383 0.0015413862163040674 0 -0.00028128904783885662 0.0016093601172614915 0 -0.00024874663549068264 0.0015402952830178818 0 -0.00019853129874177337 0.00170073315218428 0 -0.00013498615880378262 0.0015368314926593174 0 -0.00019055830716024631 0.0014411010240202044 0 -0.00022427968491925383 0.0015413862163040674 0 -0.00013498615880378262 0.0015368314926593174 0 -0.00022427968491925383 0.0015413862163040674 0 -0.00017614773689682143 0.0016531400795127651 0 -0.00022427968491925383 0.0015413862163040674 0 -0.00028128904783885662 0.0016093601172614915 0 -0.00017614773689682143 0.0016531400795127651 0 -0.00019650522378042112 0.0018119187748068314 0 -0.00019853129874177337 0.00170073315218428 0 -0.00018584126214231646 0.0018849870786129485 0 -0.0001326114938709435 0.0018950983648900951 0 -0.00011984105933179098 0.0017883658317733332 0 -0.00018810794548306198 0.0017679670938910365 0 -0.00012791348250546842 0.0017468210283188347 0 -0.00017614773689682143 0.0016531400795127651 0 -0.00018810794548306198 0.0017679670938910365 0 -0.00025931010096248046 0.0017356121846446874 0 -0.00017614773689682143 0.0016531400795127651 0 -0.00025931010096248046 0.0017356121846446874 0 -0.00028128904783885662 0.0016093601172614915 0 -0.00017614773689682143 0.0016531400795127651 0 -4.7037429654232999e-05 0.0017465681601799674 0 -0.00012791348250546842 0.0017468210283188347 0 -9.3535322207034089e-05 0.001688935916444886 0 -0.00017614773689682143 0.0016531400795127651 0 -9.3535322207034089e-05 0.001688935916444886 0 -9.857056377767175e-05 0.001620781171738439 0 -0.00012791348250546842 0.0017468210283188347 0 -0.00017614773689682143 0.0016531400795127651 0 -9.3535322207034089e-05 0.001688935916444886 0 -4.7037429654232999e-05 0.0017465681601799674 0 -9.3535322207034089e-05 0.001688935916444886 0 -2.5146225372853361e-05 0.0016569785912406271 0 -9.3535322207034089e-05 0.001688935916444886 0 -2.5146225372853361e-05 0.0016569785912406271 0 -9.857056377767175e-05 0.001620781171738439 0 -0.00013498615880378262 0.0015368314926593174 0 -4.9795796039382307e-05 0.001573056750453187 0 -9.857056377767175e-05 0.001620781171738439 0 -2.5146225372853361e-05 0.0016569785912406271 0 -4.9795796039382307e-05 0.001573056750453187 0 -9.857056377767175e-05 0.001620781171738439 0 -0.00013498615880378262 0.0015368314926593174 0 -0.00017614773689682143 0.0016531400795127651 0 -9.857056377767175e-05 0.001620781171738439 0 4.4485353810503876e-06 0.0049980549147327583 0 5.7693442976947483e-06 0.004995443488736955 0 7.5325719938595987e-06 0.0049979465408103493 0 5.7693442976947483e-06 0.004995443488736955 0 7.5325719938595987e-06 0.0049979465408103493 0 6.7240014057122262e-06 0.0049963983906464353 0 4.4485353810503876e-06 0.0049980549147327583 0 3.2073504598354991e-09 0.0049999954597127099 0 4.0403753705613764e-09 0.0050000004205173138 0 4.4485353810503876e-06 0.0049980549147327583 0 7.5325719938595987e-06 0.0049979465408103493 0 4.0403753705613764e-09 0.0050000004205173138 0 4.4485353810503876e-06 0.0049980549147327583 0 3.2073504598354991e-09 0.0049999954597127099 0 2.863553802931261e-06 0.0049982971739647745 0 3.2073504598354991e-09 0.0049999954597127099 0 2.863553802931261e-06 0.0049982971739647745 0 1.9414365211898717e-06 0.0049983373353799697 0 4.4485353810503876e-06 0.0049980549147327583 0 5.7693442976947483e-06 0.004995443488736955 0 3.7566268889566012e-06 0.0049952385152620474 0 2.863553802931261e-06 0.0049982971739647745 0 3.7566268889566012e-06 0.0049952385152620474 0 1.9414365211898717e-06 0.0049983373353799697 0 4.4485353810503876e-06 0.0049980549147327583 0 2.863553802931261e-06 0.0049982971739647745 0 3.7566268889566012e-06 0.0049952385152620474 0 -0.00012049319708569789 0.0040888799565752393 0 -0.00011384768003281926 0.0041979103297533488 0 -0.00020160700897742579 0.0041833315091468351 0 5.7693442976947483e-06 0.004995443488736955 0 5.6834439379772373e-06 0.0049919672566942578 0 3.7566268889566012e-06 0.0049952385152620474 0 -1.2980317494797073e-05 0.0042646277866132927 0 -0.00012455627794635601 0.0046314064493118952 0 -1.2980317494797073e-05 0.0042646277866132927 0 8.6644237859974927e-05 0.0037412617872878092 0 0.00022191412172280133 0.0033570177698421045 0 0.00022706656667453276 0.0033510562656958007 0 0.00022540731851437555 0.0033669201026212698 0 -0.00012049319708569789 0.0040888799565752393 0 -4.1068607286170848e-05 0.0041971732238506795 0 -0.00011384768003281926 0.0041979103297533488 0 3.8033882954895274e-05 0.0050082373379176266 0 2.8312678041094112e-05 0.0050043368310332568 0 5.63340971297931e-05 0.0049918084447649084 0 0.00022191412172280133 0.0033570177698421045 0 0.00023161557866588841 0.0033596695124027587 0 0.00022706656667453276 0.0033510562656958007 0 -1.2980317494797073e-05 0.0042646277866132927 0 0.00016954454558329077 0.0041481373070299246 0 5.7693442976947483e-06 0.004995443488736955 0 5.6834439379772373e-06 0.0049919672566942578 0 6.7240014057122262e-06 0.0049963983906464353 0 -1.2980317494797073e-05 0.0042646277866132927 0 9.0491579765255943e-05 0.0050510785624016535 0 2.8312678041094112e-05 0.0050043368310332568 0 3.324522197050293e-05 0.0049928473642878272 0 5.63340971297931e-05 0.0049918084447649084 0 2.8312678041094112e-05 0.0050043368310332568 0 3.324522197050293e-05 0.0049928473642878272 0 1.2574895533293926e-05 0.0049982930019261103 0 9.0491579765255943e-05 0.0050510785624016535 0 -2.2716910027281273e-06 0.0049772607936235001 0 0.00022191412172280133 0.0033570177698421045 0 0.00022956390879407229 0.0033582482918183285 0 0.00023161557866588841 0.0033596695124027587 0 5.63340971297931e-05 0.0049918084447649084 0 4.3410388728014397e-05 0.0049840568036139078 0 6.0064671117285984e-05 0.0049761945675995383 0 3.324522197050293e-05 0.0049928473642878272 0 5.63340971297931e-05 0.0049918084447649084 0 4.3410388728014397e-05 0.0049840568036139078 0 3.324522197050293e-05 0.0049928473642878272 0 4.3410388728014397e-05 0.0049840568036139078 0 2.216928536440936e-05 0.0049856177920389443 0 3.324522197050293e-05 0.0049928473642878272 0 1.2574895533293926e-05 0.0049982930019261103 0 2.216928536440936e-05 0.0049856177920389443 0 1.2574895533293926e-05 0.0049982930019261103 0 6.3945191128489644e-06 0.0049965408783112179 0 2.216928536440936e-05 0.0049856177920389443 0 7.5325719938595987e-06 0.0049979465408103493 0 1.2574895533293926e-05 0.0049982930019261103 0 4.0403753705613764e-09 0.0050000004205173138 0 7.5325719938595987e-06 0.0049979465408103493 0 6.7240014057122262e-06 0.0049963983906464353 0 1.2574895533293926e-05 0.0049982930019261103 0 1.2574895533293926e-05 0.0049982930019261103 0 4.0403753705613764e-09 0.0050000004205173138 0 6.3945191128489644e-06 0.0049965408783112179 0 4.0403753705613764e-09 0.0050000004205173138 0 6.3945191128489644e-06 0.0049965408783112179 0 5.3268694787809173e-09 0.0049999904859512126 0 6.3945191128489644e-06 0.0049965408783112179 0 5.3268694787809173e-09 0.0049999904859512126 0 6.1346075287076485e-06 0.0049916701438694226 0 5.3268694787809173e-09 0.0049999904859512126 0 6.1346075287076485e-06 0.0049916701438694226 0 2.5348183269114519e-09 0.0049999704001078985 0 6.3945191128489644e-06 0.0049965408783112179 0 6.1346075287076485e-06 0.0049916701438694226 0 2.216928536440936e-05 0.0049856177920389443 0 6.1346075287076485e-06 0.0049916701438694226 0 1.117056565249948e-05 0.0049809330499317322 0 2.216928536440936e-05 0.0049856177920389443 0 6.8518728763918297e-06 0.0049729799903268888 0 9.7200844287637359e-09 0.0050000098129245989 0 -9.2044045474402996e-06 0.0049273884043454707 0 6.1346075287076485e-06 0.0049916701438694226 0 1.117056565249948e-05 0.0049809330499317322 0 2.5348183269114519e-09 0.0049999704001078985 0 9.9489486367585548e-06 0.004978111875566957 0 1.1028268124654958e-10 0.0049999883428346534 0 9.7200844287637359e-09 0.0050000098129245989 0 -9.2044045474402996e-06 0.0049273884043454707 0 -9.8826952523112103e-08 0.0049996480453647031 0 6.8518728763918297e-06 0.0049729799903268888 0 -9.2044045474402996e-06 0.0049273884043454707 0 3.9166800184467898e-05 0.0049488875415193093 0 -9.2044045474402996e-06 0.0049273884043454707 0 1.6199076385838888e-07 0.0047287585662013102 0 8.8013468532872479e-05 0.0049149333334528389 0 -9.2044045474402996e-06 0.0049273884043454707 0 1.6199076385838888e-07 0.0047287585662013102 0 -9.8826952523112103e-08 0.0049996480453647031 0 -2.8388737877904032e-08 0.0044558140057594431 0 6.7906398911710356e-05 0.0042902843832800241 0 5.1793455326438587e-06 0.0042256142170780612 0 2.6745856494278687e-07 0.0047276976225142254 0 -2.8388737877904032e-08 0.0044558140057594431 0 6.7906398911710356e-05 0.0042902843832800241 0 3.2333108951923288e-09 0.0047279941957401317 0 5.7316816807590909e-05 0.0045861222850431876 0 -9.2044045474402996e-06 0.0049273884043454707 0 8.8013468532872479e-05 0.0049149333334528389 0 3.9166800184467898e-05 0.0049488875415193093 0 5.7316816807590909e-05 0.0045861222850431876 0 4.1907288756036149e-05 0.0045705156033047792 0 6.7906398911710356e-05 0.0042902843832800241 0 5.1793455326438587e-06 0.0042256142170780612 0 2.0330492000449537e-05 0.0040806088955361412 0 4.7981954824596688e-05 0.0049684943113663992 0 6.9282532993275537e-05 0.0049644380422017974 0 8.8013468532872479e-05 0.0049149333334528389 0 7.3200939537737829e-05 0.0049584829563095647 0 6.328901230320145e-05 0.0049691724320777945 0 7.3200939537737829e-05 0.0049584829563095647 0 6.328901230320145e-05 0.0049691724320777945 0 7.0870523300352098e-05 0.0049624466201867671 0 9.9489486367585548e-06 0.004978111875566957 0 4.7981954824596688e-05 0.0049684943113663992 0 6.8518728763918297e-06 0.0049729799903268888 0 3.9166800184467898e-05 0.0049488875415193093 0 6.328901230320145e-05 0.0049691724320777945 0 8.8013468532872479e-05 0.0049149333334528389 0 3.9166800184467898e-05 0.0049488875415193093 0 6.328901230320145e-05 0.0049691724320777945 0 1.117056565249948e-05 0.0049809330499317322 0 3.3469086441583676e-05 0.0049668141358615485 0 2.216928536440936e-05 0.0049856177920389443 0 3.3469086441583676e-05 0.0049668141358615485 0 2.216928536440936e-05 0.0049856177920389443 0 4.612361021487851e-05 0.0049748356953824647 0 4.3410388728014397e-05 0.0049840568036139078 0 2.216928536440936e-05 0.0049856177920389443 0 4.612361021487851e-05 0.0049748356953824647 0 3.3469086441583676e-05 0.0049668141358615485 0 4.612361021487851e-05 0.0049748356953824647 0 7.0870523300352098e-05 0.0049624466201867671 0 4.3410388728014397e-05 0.0049840568036139078 0 6.0064671117285984e-05 0.0049761945675995383 0 4.612361021487851e-05 0.0049748356953824647 0 6.0064671117285984e-05 0.0049761945675995383 0 4.612361021487851e-05 0.0049748356953824647 0 7.0870523300352098e-05 0.0049624466201867671 0 6.0064671117285984e-05 0.0049761945675995383 0 7.3462656819647224e-05 0.0049695953181036097 0 7.0870523300352098e-05 0.0049624466201867671 0 4.1907288756036149e-05 0.0045705156033047792 0 0.00017435904010024454 0.0042029601022410667 0 2.0330492000449537e-05 0.0040806088955361412 0 2.5945073606597972e-05 0.0040580818070134863 0 2.7521621283406076e-05 0.0040411739267860996 0 7.3200939537737829e-05 0.0049584829563095647 0 7.3462656819647224e-05 0.0049695953181036097 0 7.0870523300352098e-05 0.0049624466201867671 0 0.00017435904010024454 0.0042029601022410667 0 0.00017413773557578988 0.0036912415983049638 0 0.00026621333361016793 0.0033594490645992218 0 0.00025145828856811968 0.0033668834718983283 0 0.00028176738068857847 0.0034800994350198339 0 2.7521621283406076e-05 0.0040411739267860996 0 5.2748132333957972e-06 0.0040648203167372643 0 9.0229857457609506e-05 0.0038252335001658414 0 2.0330492000449537e-05 0.0040806088955361412 0 2.7521621283406076e-05 0.0040411739267860996 0 5.2748132333957972e-06 0.0040648203167372643 0 5.1793455326438587e-06 0.0042256142170780612 0 2.0330492000449537e-05 0.0040806088955361412 0 5.2748132333957972e-06 0.0040648203167372643 0 5.2748132333957972e-06 0.0040648203167372643 0 -4.8648264612475455e-09 0.0041835030328300901 0 9.0229857457609506e-05 0.0038252335001658414 0 -2.8388737877904032e-08 0.0044558140057594431 0 5.1793455326438587e-06 0.0042256142170780612 0 -4.8648264612475455e-09 0.0041835030328300901 0 5.1793455326438587e-06 0.0042256142170780612 0 5.2748132333957972e-06 0.0040648203167372643 0 -4.8648264612475455e-09 0.0041835030328300901 0 8.012112440418016e-08 0.0039114337119288837 0 -2.2854248688397307e-05 0.0036469107185045 0 -8.8152424458607127e-08 0.0036392555675622967 0 -4.8648264612475455e-09 0.0041835030328300901 0 8.012112440418016e-08 0.0039114337119288837 0 9.0229857457609506e-05 0.0038252335001658414 0 8.012112440418016e-08 0.0039114337119288837 0 9.0229857457609506e-05 0.0038252335001658414 0 -2.2854248688397307e-05 0.0036469107185045 0 5.1298704123712423e-05 0.0035099732650696997 0 -2.3448765368187711e-05 0.003343523687253702 0 -2.2854248688397307e-05 0.0036469107185045 0 9.0229857457609506e-05 0.0038252335001658414 0 5.1298704123712423e-05 0.0035099732650696997 0 -2.2854248688397307e-05 0.0036469107185045 0 0.00028176738068857847 0.0034800994350198339 0 9.0229857457609506e-05 0.0038252335001658414 0 5.1298704123712423e-05 0.0035099732650696997 0 0.00017413773557578988 0.0036912415983049638 0 7.9260344893811939e-05 0.0038521241534647888 0 0.00025145828856811968 0.0033668834718983283 0 0.00028176738068857847 0.0034800994350198339 0 0.00017504985173471844 0.0033368032775290169 0 0.00028176738068857847 0.0034800994350198339 0 5.1298704123712423e-05 0.0035099732650696997 0 0.00017504985173471844 0.0033368032775290169 0 5.1298704123712423e-05 0.0035099732650696997 0 4.7001515098896607e-05 0.0032428996366788625 0 -2.3448765368187711e-05 0.003343523687253702 0 5.1298704123712423e-05 0.0035099732650696997 0 0.00017504985173471844 0.0033368032775290169 0 4.7001515098896607e-05 0.0032428996366788625 0 4.7001515098896607e-05 0.0032428996366788625 0 4.0261864212521769e-05 0.0030744253423142616 0 0.00016411014040416822 0.0030922988093428209 0 0.00017504985173471844 0.0033368032775290169 0 4.7001515098896607e-05 0.0032428996366788625 0 0.00016411014040416822 0.0030922988093428209 0 4.0261864212521769e-05 0.0030744253423142616 0 0.00016411014040416822 0.0030922988093428209 0 7.017832031323666e-05 0.0029979972507275356 0 0.00016411014040416822 0.0030922988093428209 0 7.017832031323666e-05 0.0029979972507275356 0 0.00012092400822261376 0.0030044608358319011 0 0.00021839527213324709 0.0033391255712137847 0 0.00022989837303534133 0.0033411758014377964 0 0.00022262920034741052 0.0033326396114099098 0 0.00018673260291909808 0.0032238613837699045 0 0.0001749798581942223 0.0031723309478041014 0 0.00021839527213324709 0.0033391255712137847 0 0.00023636697239446855 0.0033436525561634013 0 0.00022989837303534133 0.0033411758014377964 0 0.00017504985173471844 0.0033368032775290169 0 0.00021839527213324709 0.0033391255712137847 0 0.00023636697239446855 0.0033436525561634013 0 0.00017706480186223655 0.0033311109202259249 0 0.00018673260291909808 0.0032238613837699045 0 0.00025145828856811968 0.0033668834718983283 0 0.00017504985173471844 0.0033368032775290169 0 0.00023636697239446855 0.0033436525561634013 0 0.00025478092446960652 0.0033581649527041663 0 0.00025010575924480031 0.0033532106647611803 0 0.00023636697239446855 0.0033436525561634013 0 0.00025145828856811968 0.0033668834718983283 0 0.00025478092446960652 0.0033581649527041663 0 0.00023636697239446855 0.0033436525561634013 0 0.00026621333361016793 0.0033594490645992218 0 0.00025145828856811968 0.0033668834718983283 0 0.00025478092446960652 0.0033581649527041663 0 0.00026621333361016793 0.0033594490645992218 0 0.00025478092446960652 0.0033581649527041663 0 0.00025810292427311227 0.0033572787436651152 0 0.00025478092446960652 0.0033581649527041663 0 0.00025010575924480031 0.0033532106647611803 0 0.00025810292427311227 0.0033572787436651152 0 0.00025010575924480031 0.0033532106647611803 0 0.00025810292427311227 0.0033572787436651152 0 0.00025177702030672994 0.0033556478624855333 0 0.00025010575924480031 0.0033532106647611803 0 0.00024610315633306125 0.0033514041586902108 0 0.00023636697239446855 0.0033436525561634013 0 0.00024610315633306125 0.0033514041586902108 0 0.00023636697239446855 0.0033436525561634013 0 0.00023921515828853531 0.0033471546255215124 0 0.00025010575924480031 0.0033532106647611803 0 0.00024610315633306125 0.0033514041586902108 0 0.00025177702030672994 0.0033556478624855333 0 0.00022956390879407229 0.0033582482918183285 0 0.00026621333361016793 0.0033594490645992218 0 0.00024613215035693175 0.0033555453745019522 0 0.00016954454558329077 0.0041481373070299246 0 0.00017435904010024454 0.0042029601022410667 0 5.63340971297931e-05 0.0049918084447649084 0 6.0064671117285984e-05 0.0049761945675995383 0 7.3462656819647224e-05 0.0049695953181036097 0 0.00026621333361016793 0.0033594490645992218 0 0.00025810292427311227 0.0033572787436651152 0 0.00025177702030672994 0.0033556478624855333 0 0.00026621333361016793 0.0033594490645992218 0 0.00025177702030672994 0.0033556478624855333 0 0.00024613215035693175 0.0033555453745019522 0 0.00024610315633306125 0.0033514041586902108 0 0.00025177702030672994 0.0033556478624855333 0 0.00024613215035693175 0.0033555453745019522 0 0.00024610315633306125 0.0033514041586902108 0 0.00024613215035693175 0.0033555453745019522 0 0.00024255353762686998 0.0033522394378927476 0 0.00023871340774395426 0.0033513128995786901 0 0.00023161557866588841 0.0033596695124027587 0 0.00023679241510057915 0.003344971109278937 0 0.00023161557866588841 0.0033596695124027587 0 0.00023679241510057915 0.003344971109278937 0 0.00023756043578959833 0.0033326508256148941 0 0.00022956390879407229 0.0033582482918183285 0 0.00023829768812892577 0.0033551838806027234 0 0.00023161557866588841 0.0033596695124027587 0 0.00022956390879407229 0.0033582482918183285 0 0.00024613215035693175 0.0033555453745019522 0 0.00023829768812892577 0.0033551838806027234 0 0.00023829768812892577 0.0033551838806027234 0 0.00023871340774395426 0.0033513128995786901 0 0.00023161557866588841 0.0033596695124027587 0 0.00024613215035693175 0.0033555453745019522 0 0.00023829768812892577 0.0033551838806027234 0 0.00024255353762686998 0.0033522394378927476 0 0.00023829768812892577 0.0033551838806027234 0 0.00024255353762686998 0.0033522394378927476 0 0.00023871340774395426 0.0033513128995786901 0 0.00024255353762686998 0.0033522394378927476 0 0.00023871340774395426 0.0033513128995786901 0 0.00023921515828853531 0.0033471546255215124 0 0.00022989837303534133 0.0033411758014377964 0 0.00023679241510057915 0.003344971109278937 0 0.00022262920034741052 0.0033326396114099098 0 0.00023636697239446855 0.0033436525561634013 0 0.00022989837303534133 0.0033411758014377964 0 0.00023921515828853531 0.0033471546255215124 0 0.00023871340774395426 0.0033513128995786901 0 0.00023921515828853531 0.0033471546255215124 0 0.00023679241510057915 0.003344971109278937 0 0.00022989837303534133 0.0033411758014377964 0 0.00023921515828853531 0.0033471546255215124 0 0.00023679241510057915 0.003344971109278937 0 0.00024610315633306125 0.0033514041586902108 0 0.00024255353762686998 0.0033522394378927476 0 0.00023921515828853531 0.0033471546255215124 0 0.00023679241510057915 0.003344971109278937 0 0.00023756043578959833 0.0033326508256148941 0 0.00022262920034741052 0.0033326396114099098 0 0.00023161557866588841 0.0033596695124027587 0 0.00017834859900837154 0.003359294623847237 0 0.00022706656667453276 0.0033510562656958007 0 0.00022024548197423425 0.0033470607124165387 0 0.00021956044166755327 0.0033713569611864523 0 0.00022706656667453276 0.0033510562656958007 0 0.00022540731851437555 0.0033669201026212698 0 0.00023355219752771005 0.0033700281129697579 0 0.00023318764875774291 0.0033593018827131399 0 0.00021005282254389054 0.0032710020969660518 0 0.00022706656667453276 0.0033510562656958007 0 0.00019120017503683674 0.0033161866320498877 0 0.00020599356621432664 0.0032518416885113149 0 0.00017834859900837154 0.003359294623847237 0 0.00022706656667453276 0.0033510562656958007 0 0.00019120017503683674 0.0033161866320498877 0 0.00019120017503683674 0.0033161866320498877 0 0.0001550285124970611 0.00329042580467393 0 0.00020599356621432664 0.0032518416885113149 0 0.00023756043578959833 0.0033326508256148941 0 0.00022261735837101449 0.0033115374132874544 0 0.00022262920034741052 0.0033326396114099098 0 0.00017834859900837154 0.003359294623847237 0 0.00019120017503683674 0.0033161866320498877 0 0.0001550285124970611 0.00329042580467393 0 0.00021956044166755327 0.0033713569611864523 0 0.00011295493743757791 0.003142165407967345 0 0.00017834859900837154 0.003359294623847237 0 0.0001550285124970611 0.00329042580467393 0 6.8829484866350481e-05 0.0032815207539594869 0 0.00011295493743757791 0.003142165407967345 0 0.0001749798581942223 0.0031723309478041014 0 8.2809201836131426e-05 0.0029857039126019087 0 8.5111137823356086e-05 0.0029910914201911041 0 0.00012092400822261376 0.0030044608358319011 0 8.5111137823356086e-05 0.0029910914201911041 0 6.8019413690391907e-05 0.002988888454417376 0 7.017832031323666e-05 0.0029979972507275356 0 6.8019413690391907e-05 0.002988888454417376 0 7.017832031323666e-05 0.0029979972507275356 0 4.9494051238559325e-05 0.0029872100585974508 0 8.2809201836131426e-05 0.0029857039126019087 0 6.8019413690391907e-05 0.002988888454417376 0 6.876655050870645e-05 0.0030007585493683864 0 8.2809201836131426e-05 0.0029857039126019087 0 8.5111137823356086e-05 0.0029910914201911041 0 6.8019413690391907e-05 0.002988888454417376 0 8.5111137823356086e-05 0.0029910914201911041 0 7.017832031323666e-05 0.0029979972507275356 0 0.00012092400822261376 0.0030044608358319011 0 1.9786137763099732e-05 0.0029864937239528861 0 -2.3850814678808369e-05 0.0029383415045231747 0 -4.9275073035034202e-05 0.0029768566760684637 0 -2.3850814678808369e-05 0.0029383415045231747 0 -5.7191505206256775e-05 0.0029525562511172458 0 -4.9275073035034202e-05 0.0029768566760684637 0 2.1536046381839943e-05 0.0029808019050936467 0 2.7630852656940192e-05 0.0029755253489866561 0 7.017832031323666e-05 0.0029979972507275356 0 1.9786137763099732e-05 0.0029864937239528861 0 4.9494051238559325e-05 0.0029872100585974508 0 1.9786137763099732e-05 0.0029864937239528861 0 4.9494051238559325e-05 0.0029872100585974508 0 6.3100024849939031e-05 0.0029867280959818138 0 4.9494051238559325e-05 0.0029872100585974508 0 6.3100024849939031e-05 0.0029867280959818138 0 6.8068180778891449e-05 0.0029975302570624859 0 6.8019413690391907e-05 0.002988888454417376 0 4.9494051238559325e-05 0.0029872100585974508 0 6.8068180778891449e-05 0.0029975302570624859 0 -2.3850814678808369e-05 0.0029383415045231747 0 -4.3320203822028867e-05 0.0029121496506740586 0 -5.7191505206256775e-05 0.0029525562511172458 0 6.3100024849939031e-05 0.0029867280959818138 0 7.9689806554026328e-05 0.0029950139573521085 0 6.8068180778891449e-05 0.0029975302570624859 0 2.7630852656940192e-05 0.0029755253489866561 0 1.5043820222816521e-05 0.0028664158929944152 0 -9.8247453473254474e-06 0.0026993181188129812 0 -3.5014084037931115e-05 0.0027125579135267763 0 -4.3786065963809099e-05 0.0026933171678189035 0 -9.8247453473254474e-06 0.0026993181188129812 0 -3.5014084037931115e-05 0.0027125579135267763 0 -5.7897518407108637e-06 0.0027419075741746263 0 1.5043820222816521e-05 0.0028664158929944152 0 -3.7102238125910454e-05 0.0028376499876508728 0 -4.8978108286390682e-05 0.0027026960807503015 0 -3.5014084037931115e-05 0.0027125579135267763 0 -4.3786065963809099e-05 0.0026933171678189035 0 -4.8978108286390682e-05 0.0027026960807503015 0 -3.5014084037931115e-05 0.0027125579135267763 0 -5.9257133487782892e-05 0.0027235437051908269 0 -3.5014084037931115e-05 0.0027125579135267763 0 -6.4268220956484339e-05 0.0027613885456045394 0 -5.7897518407108637e-06 0.0027419075741746263 0 -3.5014084037931115e-05 0.0027125579135267763 0 -6.4268220956484339e-05 0.0027613885456045394 0 -5.9257133487782892e-05 0.0027235437051908269 0 -6.4268220956484339e-05 0.0027613885456045394 0 -5.7897518407108637e-06 0.0027419075741746263 0 -6.5977671507048313e-05 0.0028863440728342836 0 -6.5977671507048313e-05 0.0028863440728342836 0 -6.2588113871152963e-05 0.0029774978293702061 0 -4.9275073035034202e-05 0.0029768566760684637 0 -3.7102238125910454e-05 0.0028376499876508728 0 -6.0753811121292913e-05 0.0028892635545964981 0 -5.7191505206256775e-05 0.0029525562511172458 0 -6.5977671507048313e-05 0.0028863440728342836 0 -4.9275073035034202e-05 0.0029768566760684637 0 -6.4268220956484339e-05 0.0027613885456045394 0 -6.5977671507048313e-05 0.0028863440728342836 0 -8.314621600479377e-05 0.0028045426094888259 0 -6.5977671507048313e-05 0.0028863440728342836 0 -8.314621600479377e-05 0.0028045426094888259 0 -0.00012630689885027952 0.0028685005200735176 0 -6.5977671507048313e-05 0.0028863440728342836 0 -0.00012630689885027952 0.0028685005200735176 0 -6.2588113871152963e-05 0.0029774978293702061 0 -0.00012630689885027952 0.0028685005200735176 0 -6.2588113871152963e-05 0.0029774978293702061 0 -6.0779502454037783e-05 0.0030770789824338968 0 -6.2588113871152963e-05 0.0029774978293702061 0 -3.8442394548086614e-05 0.003061647192823523 0 -6.0779502454037783e-05 0.0030770789824338968 0 -6.2588113871152963e-05 0.0029774978293702061 0 -3.8442394548086614e-05 0.003061647192823523 0 -4.9275073035034202e-05 0.0029768566760684637 0 -3.8442394548086614e-05 0.003061647192823523 0 -1.0580946973911481e-05 0.0031473333511049407 0 -4.3507880960274899e-05 0.00317711990483117 0 -3.8442394548086614e-05 0.003061647192823523 0 -4.9275073035034202e-05 0.0029768566760684637 0 -7.7137663440608166e-06 0.0030428125607975501 0 1.9786137763099732e-05 0.0029864937239528861 0 -4.9275073035034202e-05 0.0029768566760684637 0 -7.7137663440608166e-06 0.0030428125607975501 0 4.0261864212521769e-05 0.0030744253423142616 0 1.9786137763099732e-05 0.0029864937239528861 0 -7.7137663440608166e-06 0.0030428125607975501 0 4.0261864212521769e-05 0.0030744253423142616 0 7.017832031323666e-05 0.0029979972507275356 0 1.9786137763099732e-05 0.0029864937239528861 0 4.0261864212521769e-05 0.0030744253423142616 0 -7.7137663440608166e-06 0.0030428125607975501 0 -1.0580946973911481e-05 0.0031473333511049407 0 4.7001515098896607e-05 0.0032428996366788625 0 4.0261864212521769e-05 0.0030744253423142616 0 -1.0580946973911481e-05 0.0031473333511049407 0 -3.8442394548086614e-05 0.003061647192823523 0 -7.7137663440608166e-06 0.0030428125607975501 0 -1.0580946973911481e-05 0.0031473333511049407 0 -1.0580946973911481e-05 0.0031473333511049407 0 -2.3448765368187711e-05 0.003343523687253702 0 -4.3507880960274899e-05 0.00317711990483117 0 4.7001515098896607e-05 0.0032428996366788625 0 -1.0580946973911481e-05 0.0031473333511049407 0 -2.3448765368187711e-05 0.003343523687253702 0 -2.3448765368187711e-05 0.003343523687253702 0 -4.3507880960274899e-05 0.00317711990483117 0 -3.5654877106892285e-05 0.0031943702728683193 0 -4.3507880960274899e-05 0.00317711990483117 0 -3.5654877106892285e-05 0.0031943702728683193 0 -6.0779502454037783e-05 0.0030770789824338968 0 -3.8442394548086614e-05 0.003061647192823523 0 -4.3507880960274899e-05 0.00317711990483117 0 -6.0779502454037783e-05 0.0030770789824338968 0 -1.7922772819093993e-05 0.0033332817053556025 0 -5.1042749747779631e-05 0.0033348401474991261 0 -2.3448765368187711e-05 0.003343523687253702 0 -9.9175059392126686e-05 0.0034841357257940062 0 -2.2854248688397307e-05 0.0036469107185045 0 -9.9175059392126686e-05 0.0034841357257940062 0 -2.2854248688397307e-05 0.0036469107185045 0 -5.6155413763719522e-05 0.003507191424907801 0 -5.6155413763719522e-05 0.003507191424907801 0 -8.8152424458607127e-08 0.0036392555675622967 0 -1.6480130276589715e-07 0.0033670210954521167 0 -2.2854248688397307e-05 0.0036469107185045 0 -5.6155413763719522e-05 0.003507191424907801 0 -8.8152424458607127e-08 0.0036392555675622967 0 -1.9751775094023091e-05 0.0033737556372535451 0 6.493370093190419e-05 0.003389232169502163 0 2.6786325046204255e-07 0.003095245977200864 0 -1.9751775094023091e-05 0.0033737556372535451 0 -1.6480130276589715e-07 0.0033670210954521167 0 2.6786325046204255e-07 0.003095245977200864 0 -5.6155413763719522e-05 0.003507191424907801 0 -1.9751775094023091e-05 0.0033737556372535451 0 -1.6480130276589715e-07 0.0033670210954521167 0 -9.9175059392126686e-05 0.0034841357257940062 0 -5.6155413763719522e-05 0.003507191424907801 0 -4.3225047559757531e-05 0.0034758910330116555 0 -5.6155413763719522e-05 0.003507191424907801 0 -1.9751775094023091e-05 0.0033737556372535451 0 -4.3225047559757531e-05 0.0034758910330116555 0 -1.9751775094023091e-05 0.0033737556372535451 0 -4.3225047559757531e-05 0.0034758910330116555 0 6.493370093190419e-05 0.003389232169502163 0 -0.00010133544332339577 0.0033766073905663607 0 -3.6492854572203152e-05 0.0030387481491750642 0 -0.00010520536532740165 0.0032238382719252195 0 -0.00022659857784087617 0.0032843759248607465 0 -0.00020949994493077304 0.0031381338347592704 0 -3.6492854572203152e-05 0.0030387481491750642 0 -0.00015585342695778397 0.0028597868591794815 0 -0.00010520536532740165 0.0032238382719252195 0 -0.00020949994493077304 0.0031381338347592704 0 -9.7980134053641729e-05 0.0031315580180440532 0 -5.1042749747779631e-05 0.0033348401474991261 0 -0.00010133544332339577 0.0033766073905663607 0 -3.5654877106892285e-05 0.0031943702728683193 0 -0.00010520536532740165 0.0032238382719252195 0 -9.7980134053641729e-05 0.0031315580180440532 0 -0.00012630689885027952 0.0028685005200735176 0 -9.7980134053641729e-05 0.0031315580180440532 0 -6.0779502454037783e-05 0.0030770789824338968 0 -3.5654877106892285e-05 0.0031943702728683193 0 -9.7980134053641729e-05 0.0031315580180440532 0 -6.0779502454037783e-05 0.0030770789824338968 0 -0.00012630689885027952 0.0028685005200735176 0 -0.00010113990179027525 0.0026222157817930203 0 -3.2174694211456204e-05 0.0026738617484257424 0 -0.00013304339372752962 0.0028785563434114061 0 -0.00015585342695778397 0.0028597868591794815 0 -0.00012630689885027952 0.0028685005200735176 0 -0.00020949994493077304 0.0031381338347592704 0 -9.7980134053641729e-05 0.0031315580180440532 0 4.3823607582924228e-06 0.0026319674435054743 0 8.268223096408312e-06 0.002598451739124276 0 3.6343734901044879e-05 0.002560037479605726 0 -3.2174694211456204e-05 0.0026738617484257424 0 4.3823607582924228e-06 0.0026319674435054743 0 8.268223096408312e-06 0.002598451739124276 0 -3.2174694211456204e-05 0.0026738617484257424 0 4.3823607582924228e-06 0.0026319674435054743 0 -4.7421287428372619e-05 0.0027370257813710986 0 8.268223096408312e-06 0.002598451739124276 0 -8.1594812825120069e-06 0.0025708415614655532 0 3.4563766102306851e-05 0.0025335199396349733 0 -3.2174694211456204e-05 0.0026738617484257424 0 8.268223096408312e-06 0.002598451739124276 0 -8.1594812825120069e-06 0.0025708415614655532 0 -0.00010113990179027525 0.0026222157817930203 0 -3.2174694211456204e-05 0.0026738617484257424 0 -8.1594812825120069e-06 0.0025708415614655532 0 -3.7618417075199143e-05 0.0025519626691190892 0 -0.00010113990179027525 0.0026222157817930203 0 -8.1594812825120069e-06 0.0025708415614655532 0 -3.7618417075199143e-05 0.0025519626691190892 0 -8.1594812825120069e-06 0.0025708415614655532 0 4.5723891207910024e-05 0.0025770652562617201 0 -8.1594812825120069e-06 0.0025708415614655532 0 3.4563766102306851e-05 0.0025335199396349733 0 4.5723891207910024e-05 0.0025770652562617201 0 3.4563766102306851e-05 0.0025335199396349733 0 4.5723891207910024e-05 0.0025770652562617201 0 2.0034422183386356e-07 0.0027318471406822661 0 1.7422883459929697e-05 0.002747584476133433 0 -7.591264041331067e-08 0.0027326516648879906 0 -1.3808804415970748e-05 0.0029742308572557503 0 -7.2911912724828178e-08 0.0029138229659701311 0 7.3002610116077815e-08 0.0027326704663455407 0 -3.6492854572203152e-05 0.0030387481491750642 0 2.1283509905911044e-08 0.0030950284934453216 0 -3.6492854572203152e-05 0.0030387481491750642 0 1.7422883459929697e-05 0.002747584476133433 0 -1.3808804415970748e-05 0.0029742308572557503 0 -7.2911912724828178e-08 0.0029138229659701311 0 7.2898476855485252e-08 0.0030945038133185798 0 3.2722167122669825e-05 0.0029822855179270683 0 -1.3808804415970748e-05 0.0029742308572557503 0 7.2898476855485252e-08 0.0030945038133185798 0 2.0034422183386356e-07 0.0027318471406822661 0 3.2685794509071431e-05 0.0024942748404073465 0 8.2895345181190057e-06 0.0024091855079110191 0 -5.1292234741325931e-08 0.0024448498237808749 0 2.0034422183386356e-07 0.0027318471406822661 0 8.2895345181190057e-06 0.0024091855079110191 0 3.4563766102306851e-05 0.0025335199396349733 0 2.0034422183386356e-07 0.0027318471406822661 0 3.2685794509071431e-05 0.0024942748404073465 0 3.4563766102306851e-05 0.0025335199396349733 0 3.2685794509071431e-05 0.0024942748404073465 0 3.6343734901044879e-05 0.002560037479605726 0 3.4741330931254857e-05 0.0023552644300725723 0 3.1927667845260269e-05 0.0024656582801641331 0 2.2388657311265218e-05 0.0021757174603257465 0 3.2685794509071431e-05 0.0024942748404073465 0 8.2895345181190057e-06 0.0024091855079110191 0 6.8134958688747008e-05 0.0025330782110984072 0 3.6343734901044879e-05 0.002560037479605726 0 6.2304015880823056e-05 0.0025395018725327219 0 6.8134958688747008e-05 0.0025330782110984072 0 3.2685794509071431e-05 0.0024942748404073465 0 3.6343734901044879e-05 0.002560037479605726 0 8.268223096408312e-06 0.002598451739124276 0 3.4563766102306851e-05 0.0025335199396349733 0 3.6343734901044879e-05 0.002560037479605726 0 4.3823607582924228e-06 0.0026319674435054743 0 3.6343734901044879e-05 0.002560037479605726 0 2.8805265799472817e-05 0.0025877822680580643 0 3.6343734901044879e-05 0.002560037479605726 0 2.8805265799472817e-05 0.0025877822680580643 0 6.2304015880823056e-05 0.0025395018725327219 0 5.2271006309052139e-05 0.0025171401841039632 0 6.2304015880823056e-05 0.0025395018725327219 0 2.5122975234131197e-05 0.002587241951177083 0 2.8805265799472817e-05 0.0025877822680580643 0 6.2304015880823056e-05 0.0025395018725327219 0 2.5122975234131197e-05 0.002587241951177083 0 5.2271006309052139e-05 0.0025171401841039632 0 3.3776163202010923e-05 0.002534958958692525 0 2.1284176728702295e-05 0.002571900402441981 0 2.5122975234131197e-05 0.002587241951177083 0 2.1284176728702295e-05 0.002571900402441981 0 -1.1236848198081814e-05 0.0026280238423912242 0 5.2271006309052139e-05 0.0025171401841039632 0 2.5122975234131197e-05 0.002587241951177083 0 2.1284176728702295e-05 0.002571900402441981 0 -4.8315642665699026e-06 0.002646891268095912 0 -3.6296092320492674e-05 0.0026832843499247547 0 -1.1236848198081814e-05 0.0026280238423912242 0 2.5122975234131197e-05 0.002587241951177083 0 -4.8315642665699026e-06 0.002646891268095912 0 -1.1236848198081814e-05 0.0026280238423912242 0 4.3823607582924228e-06 0.0026319674435054743 0 2.8805265799472817e-05 0.0025877822680580643 0 -4.8315642665699026e-06 0.002646891268095912 0 2.8805265799472817e-05 0.0025877822680580643 0 2.5122975234131197e-05 0.002587241951177083 0 -4.8315642665699026e-06 0.002646891268095912 0 4.3823607582924228e-06 0.0026319674435054743 0 -4.8315642665699026e-06 0.002646891268095912 0 -4.7421287428372619e-05 0.0027370257813710986 0 -8.314621600479377e-05 0.0028045426094888259 0 -0.00012630689885027952 0.0028685005200735176 0 -4.7421287428372619e-05 0.0027370257813710986 0 -0.00012630689885027952 0.0028685005200735176 0 -3.2174694211456204e-05 0.0026738617484257424 0 -4.7421287428372619e-05 0.0027370257813710986 0 -8.314621600479377e-05 0.0028045426094888259 0 -4.7421287428372619e-05 0.0027370257813710986 0 -6.3643257198267689e-05 0.002728509748274635 0 -6.4268220956484339e-05 0.0027613885456045394 0 -8.314621600479377e-05 0.0028045426094888259 0 -6.3643257198267689e-05 0.002728509748274635 0 -4.7421287428372619e-05 0.0027370257813710986 0 -3.6296092320492674e-05 0.0026832843499247547 0 -6.3643257198267689e-05 0.002728509748274635 0 -4.8315642665699026e-06 0.002646891268095912 0 -4.7421287428372619e-05 0.0027370257813710986 0 -3.6296092320492674e-05 0.0026832843499247547 0 -3.6296092320492674e-05 0.0026832843499247547 0 -4.2190122467862993e-05 0.0026744042932332511 0 -6.3643257198267689e-05 0.002728509748274635 0 -3.6296092320492674e-05 0.0026832843499247547 0 -4.2190122467862993e-05 0.0026744042932332511 0 -1.1236848198081814e-05 0.0026280238423912242 0 -4.2190122467862993e-05 0.0026744042932332511 0 -6.3643257198267689e-05 0.002728509748274635 0 -5.6853345412396994e-05 0.0026987603153178015 0 -6.4268220956484339e-05 0.0027613885456045394 0 -6.3643257198267689e-05 0.002728509748274635 0 -5.9257133487782892e-05 0.0027235437051908269 0 -6.3643257198267689e-05 0.002728509748274635 0 -5.9257133487782892e-05 0.0027235437051908269 0 -5.6853345412396994e-05 0.0026987603153178015 0 -4.8978108286390682e-05 0.0027026960807503015 0 -5.9257133487782892e-05 0.0027235437051908269 0 -5.6853345412396994e-05 0.0026987603153178015 0 -5.6853345412396994e-05 0.0026987603153178015 0 -4.7240283847344075e-05 0.0026808849124314235 0 -5.2205416475088736e-05 0.0026910653781468921 0 -4.8978108286390682e-05 0.0027026960807503015 0 -5.6853345412396994e-05 0.0026987603153178015 0 -5.2205416475088736e-05 0.0026910653781468921 0 -4.2190122467862993e-05 0.0026744042932332511 0 -5.6853345412396994e-05 0.0026987603153178015 0 -4.7240283847344075e-05 0.0026808849124314235 0 -4.2190122467862993e-05 0.0026744042932332511 0 -4.7240283847344075e-05 0.0026808849124314235 0 -3.4036293739872043e-05 0.0026618939121937552 0 -4.7240283847344075e-05 0.0026808849124314235 0 -3.4036293739872043e-05 0.0026618939121937552 0 -3.7415829568321772e-05 0.0026729932769972509 0 -3.4036293739872043e-05 0.0026618939121937552 0 -1.4352951681734419e-05 0.0026491864663779215 0 -3.7415829568321772e-05 0.0026729932769972509 0 -3.4036293739872043e-05 0.0026618939121937552 0 -1.4352951681734419e-05 0.0026491864663779215 0 -1.9053473733384178e-05 0.0026367780391562826 0 -4.2190122467862993e-05 0.0026744042932332511 0 -3.4036293739872043e-05 0.0026618939121937552 0 -1.9053473733384178e-05 0.0026367780391562826 0 -1.4352951681734419e-05 0.0026491864663779215 0 3.3303529374345831e-06 0.0026004989358717539 0 -1.9053473733384178e-05 0.0026367780391562826 0 3.9633892719563167e-05 0.0025673928002219212 0 1.1110434621626546e-05 0.00261292987486306 0 3.3303529374345831e-06 0.0026004989358717539 0 -1.4352951681734419e-05 0.0026491864663779215 0 1.1110434621626546e-05 0.00261292987486306 0 3.3303529374345831e-06 0.0026004989358717539 0 2.1949554693560418e-05 0.0026365972675680815 0 -1.4352951681734419e-05 0.0026491864663779215 0 1.1110434621626546e-05 0.00261292987486306 0 2.1284176728702295e-05 0.002571900402441981 0 3.3303529374345831e-06 0.0026004989358717539 0 -1.1236848198081814e-05 0.0026280238423912242 0 3.3776163202010923e-05 0.002534958958692525 0 2.1284176728702295e-05 0.002571900402441981 0 3.3303529374345831e-06 0.0026004989358717539 0 -4.2190122467862993e-05 0.0026744042932332511 0 -1.1236848198081814e-05 0.0026280238423912242 0 -1.9053473733384178e-05 0.0026367780391562826 0 3.3303529374345831e-06 0.0026004989358717539 0 -1.1236848198081814e-05 0.0026280238423912242 0 -1.9053473733384178e-05 0.0026367780391562826 0 5.3657355725625901e-05 0.0028647809685179884 0 1.0470267266858706e-05 0.0028734586136027114 0 -3.3202881682595631e-05 0.0026836944969274067 0 -6.3837826261637993e-06 0.0026993107420615458 0 -3.9321639754564088e-05 0.0027012615479363841 0 -3.3202881682595631e-05 0.0026836944969274067 0 -6.3837826261637993e-06 0.0026993107420615458 0 1.9341399230623591e-07 0.002669061576273469 0 -1.4352951681734419e-05 0.0026491864663779215 0 -3.3202881682595631e-05 0.0026836944969274067 0 1.9341399230623591e-07 0.002669061576273469 0 2.1949554693560418e-05 0.0026365972675680815 0 -1.4352951681734419e-05 0.0026491864663779215 0 1.9341399230623591e-07 0.002669061576273469 0 -1.4352951681734419e-05 0.0026491864663779215 0 -3.3202881682595631e-05 0.0026836944969274067 0 -3.7415829568321772e-05 0.0026729932769972509 0 -3.3202881682595631e-05 0.0026836944969274067 0 -3.7415829568321772e-05 0.0026729932769972509 0 -4.7316760562991031e-05 0.0026854051478273507 0 -4.7240283847344075e-05 0.0026808849124314235 0 -3.7415829568321772e-05 0.0026729932769972509 0 -4.7316760562991031e-05 0.0026854051478273507 0 -4.7240283847344075e-05 0.0026808849124314235 0 -4.7316760562991031e-05 0.0026854051478273507 0 -5.2205416475088736e-05 0.0026910653781468921 0 -5.2205416475088736e-05 0.0026910653781468921 0 -4.9006108560955471e-05 0.0026894461858091418 0 -4.3786065963809099e-05 0.0026933171678189035 0 -4.7316760562991031e-05 0.0026854051478273507 0 -5.2205416475088736e-05 0.0026910653781468921 0 -4.9006108560955471e-05 0.0026894461858091418 0 -4.7316760562991031e-05 0.0026854051478273507 0 -4.9006108560955471e-05 0.0026894461858091418 0 -4.8162188897693261e-05 0.0026901008184224123 0 -4.8659871461860048e-05 0.0026915167305053885 0 -4.7918435477229165e-05 0.0026898811390094353 0 -4.6641720963897282e-05 0.0026889149671980085 0 -4.9006108560955471e-05 0.0026894461858091418 0 -4.8162188897693261e-05 0.0026901008184224123 0 -4.6641720963897282e-05 0.0026889149671980085 0 -4.8162188897693261e-05 0.0026901008184224123 0 -4.8659871461860048e-05 0.0026915167305053885 0 -4.5979892484748148e-05 0.0026953974669599139 0 -4.8162188897693261e-05 0.0026901008184224123 0 -4.4564171457837995e-05 0.0026912186447570516 0 -4.5979892484748148e-05 0.0026953974669599139 0 -4.8162188897693261e-05 0.0026901008184224123 0 -4.8659871461860048e-05 0.0026915167305053885 0 -4.6641720963897282e-05 0.0026889149671980085 0 -3.3202881682595631e-05 0.0026836944969274067 0 -4.7316760562991031e-05 0.0026854051478273507 0 -4.4564171457837995e-05 0.0026912186447570516 0 -3.3202881682595631e-05 0.0026836944969274067 0 -4.4564171457837995e-05 0.0026912186447570516 0 -3.9321639754564088e-05 0.0027012615479363841 0 -4.7316760562991031e-05 0.0026854051478273507 0 -4.8162188897693261e-05 0.0026901008184224123 0 -4.4564171457837995e-05 0.0026912186447570516 0 -4.4564171457837995e-05 0.0026912186447570516 0 -3.9321639754564088e-05 0.0027012615479363841 0 -4.5979892484748148e-05 0.0026953974669599139 0 -3.9321639754564088e-05 0.0027012615479363841 0 -4.5979892484748148e-05 0.0026953974669599139 0 -4.9789684960216239e-05 0.0026999228669852783 0 5.7891525615713983e-05 0.0030606830119780781 0 9.9344185837826443e-06 0.0030837255862952505 0 3.721396469315063e-05 0.0030889080234495132 0 1.0470267266858706e-05 0.0028734586136027114 0 -1.220784603883932e-05 0.0029501022265353608 0 5.7891525615713983e-05 0.0030606830119780781 0 6.0203599514687771e-05 0.0030819870779067284 0 3.721396469315063e-05 0.0030889080234495132 0 -4.8659871461860048e-05 0.0026915167305053885 0 -4.8803545949294379e-05 0.0026961419287205601 0 -5.2353155723655154e-05 0.0026974891363725313 0 8.8993883581588409e-06 0.0027342751294916184 0 1.4282815624005827e-05 0.0028515714628442263 0 -4.8659871461860048e-05 0.0026915167305053885 0 -4.8803545949294379e-05 0.0026961419287205601 0 -4.5979892484748148e-05 0.0026953974669599139 0 -4.8803545949294379e-05 0.0026961419287205601 0 -4.5979892484748148e-05 0.0026953974669599139 0 -4.9789684960216239e-05 0.0026999228669852783 0 1.2848653228560527e-05 0.0030871921060129114 0 9.9344185837826443e-06 0.0030837255862952505 0 3.721396469315063e-05 0.0030889080234495132 0 -1.006465040730517e-06 0.0029698006933282029 0 -1.220784603883932e-05 0.0029501022265353608 0 1.2848653228560527e-05 0.0030871921060129114 0 1.0519282330160963e-05 0.0030839845795704547 0 1.4760986230667063e-06 0.0030941080453600659 0 -4.8803545949294379e-05 0.0026961419287205601 0 -4.9789684960216239e-05 0.0026999228669852783 0 -5.2353155723655154e-05 0.0026974891363725313 0 -1.220784603883932e-05 0.0029501022265353608 0 1.4282815624005827e-05 0.0028515714628442263 0 8.0060181479307306e-05 0.0031235877348454325 0 0.00013297922698748865 0.0031019452749950303 0 2.4613934985317654e-05 0.0030964412331992474 0 2.5077352819630517e-05 0.0031118433533127163 0 1.4760986230667063e-06 0.0030941080453600659 0 1.2848653228560527e-05 0.0030871921060129114 0 2.4613934985317654e-05 0.0030964412331992474 0 1.4760986230667063e-06 0.0030941080453600659 0 1.2848653228560527e-05 0.0030871921060129114 0 2.4613934985317654e-05 0.0030964412331992474 0 3.721396469315063e-05 0.0030889080234495132 0 2.4613934985317654e-05 0.0030964412331992474 0 2.5077352819630517e-05 0.0031118433533127163 0 4.2994396458148058e-05 0.0031070422080493446 0 0.00015863441038919715 0.0031382618380656718 0 0.00016322586731875983 0.0031315490665040609 0 0.000166192850702023 0.0031286561025934798 0 8.0060181479307306e-05 0.0031235877348454325 0 9.7563179898111355e-05 0.0031319627843488821 0 2.5077352819630517e-05 0.0031118433533127163 0 4.2994396458148058e-05 0.0031070422080493446 0 6.4916422847604817e-05 0.0031243978553787966 0 6.0203599514687771e-05 0.0030819870779067284 0 6.1331273709284132e-05 0.0031086423433635169 0 3.721396469315063e-05 0.0030889080234495132 0 2.4613934985317654e-05 0.0030964412331992474 0 3.721396469315063e-05 0.0030889080234495132 0 4.2994396458148058e-05 0.0031070422080493446 0 6.1331273709284132e-05 0.0031086423433635169 0 3.721396469315063e-05 0.0030889080234495132 0 4.2994396458148058e-05 0.0031070422080493446 0 6.1331273709284132e-05 0.0031086423433635169 0 4.2994396458148058e-05 0.0031070422080493446 0 6.4916422847604817e-05 0.0031243978553787966 0 6.2636274422670461e-05 0.0031111716822986436 0 9.0759323793796438e-05 0.0030939337293572271 0 6.1331273709284132e-05 0.0031086423433635169 0 7.334330235209481e-05 0.0031212803013811472 0 6.4916422847604817e-05 0.0031243978553787966 0 6.1331273709284132e-05 0.0031086423433635169 0 7.334330235209481e-05 0.0031212803013811472 0 7.4434081184420595e-05 0.0031243610389713717 0 0.00011170621376111015 0.0030326381349004717 0 5.7891525615713983e-05 0.0030606830119780781 0 8.6059483566013672e-05 0.0030699878510027615 0 5.7891525615713983e-05 0.0030606830119780781 0 6.0203599514687771e-05 0.0030819870779067284 0 8.6059483566013672e-05 0.0030699878510027615 0 6.0203599514687771e-05 0.0030819870779067284 0 6.1331273709284132e-05 0.0031086423433635169 0 8.6059483566013672e-05 0.0030699878510027615 0 6.1331273709284132e-05 0.0031086423433635169 0 8.6059483566013672e-05 0.0030699878510027615 0 0.00011503496832046836 0.0030772814814088141 0 0.00011170621376111015 0.0030326381349004717 0 8.6059483566013672e-05 0.0030699878510027615 0 0.00011503496832046836 0.0030772814814088141 0 7.334330235209481e-05 0.0031212803013811472 0 7.4434081184420595e-05 0.0031243610389713717 0 7.3779392264279665e-05 0.0031247106715270173 0 6.4057898568185083e-05 0.0031242672342074273 0 7.3779392264279665e-05 0.0031247106715270173 0 8.2177617476390897e-05 0.0031264971186140233 0 7.334330235209481e-05 0.0031212803013811472 0 7.3779392264279665e-05 0.0031247106715270173 0 8.2177617476390897e-05 0.0031264971186140233 0 7.334330235209481e-05 0.0031212803013811472 0 8.2177617476390897e-05 0.0031264971186140233 0 6.4916422847604817e-05 0.0031243978553787966 0 0.00012772144845288905 0.0031409482937692825 0 0.00010774790876761327 0.0031127643691750448 0 0.00013622464400206137 0.0031214272203577962 0 8.2177617476390897e-05 0.0031264971186140233 0 0.00012772144845288905 0.0031409482937692825 0 0.00010774790876761327 0.0031127643691750448 0 8.2367781002822438e-05 0.003127113451984341 0 9.7563179898111355e-05 0.0031319627843488821 0 0.00010774790876761327 0.0031127643691750448 0 0.00012403123224733465 0.0031015260903095613 0 0.00013622464400206137 0.0031214272203577962 0 0.00010774790876761327 0.0031127643691750448 0 0.00012403123224733465 0.0031015260903095613 0 0.00010418779068791717 0.0030866663878540328 0 7.621728033817778e-05 0.0031051852536890614 0 0.00010774790876761327 0.0031127643691750448 0 0.00010418779068791717 0.0030866663878540328 0 7.621728033817778e-05 0.0031051852536890614 0 8.2177617476390897e-05 0.0031264971186140233 0 0.00010774790876761327 0.0031127643691750448 0 7.621728033817778e-05 0.0031051852536890614 0 7.8992760984778683e-05 0.0030663055582780853 0 0.00010418779068791717 0.0030866663878540328 0 0.00012403123224733465 0.0031015260903095613 0 0.00010418779068791717 0.0030866663878540328 0 0.00012868598347047668 0.0030817109750044948 0 0.00012868598347047668 0.0030817109750044948 0 0.00014324677266403985 0.003064115205912708 0 0.00011503147364080659 0.0030393810800447402 0 0.00010418779068791717 0.0030866663878540328 0 0.00012868598347047668 0.0030817109750044948 0 0.00011503147364080659 0.0030393810800447402 0 7.8992760984778683e-05 0.0030663055582780853 0 0.00010418779068791717 0.0030866663878540328 0 0.00011503147364080659 0.0030393810800447402 0 0.00047018285750231094 0.003161828362327835 0 0.00047548029264605194 0.0031667835667522543 0 0.00046306890012709088 0.0031541338112655447 0 0.00014324677266403985 0.003064115205912708 0 0.00015309505669477904 0.0030888232497189483 0 0.00017872774165569738 0.0030863333487613385 0 0.00029985724316330855 0.003147257570691642 0 0.00044000964102160851 0.0032181582447513837 0 0.00031090014663456248 0.0031134273056726198 0 0.00029985724316330855 0.003147257570691642 0 0.00047018285750231094 0.003161828362327835 0 0.00046306890012709088 0.0031541338112655447 0 0.00046705756323621998 0.0031607116755121255 0 0.00012868598347047668 0.0030817109750044948 0 0.00014324677266403985 0.003064115205912708 0 0.00015309505669477904 0.0030888232497189483 0 0.00012868598347047668 0.0030817109750044948 0 0.00015309505669477904 0.0030888232497189483 0 0.0001463800903555501 0.0031059706407775924 0 0.00012403123224733465 0.0031015260903095613 0 0.00012868598347047668 0.0030817109750044948 0 0.0001463800903555501 0.0031059706407775924 0 0.00015871020158360748 0.0030982100876893919 0 0.00015987461462179975 0.003110238725022741 0 0.0001463800903555501 0.0031059706407775924 0 0.00015309505669477904 0.0030888232497189483 0 0.00016700789435457157 0.0030933666651049864 0 0.00017872774165569738 0.0030863333487613385 0 0.00015871020158360748 0.0030982100876893919 0 0.00015309505669477904 0.0030888232497189483 0 0.0001463800903555501 0.0031059706407775924 0 0.00015871020158360748 0.0030982100876893919 0 0.00016482670564284773 0.0031039547394669143 0 0.00015987461462179975 0.003110238725022741 0 0.00015871020158360748 0.0030982100876893919 0 0.00015309505669477904 0.0030888232497189483 0 0.00016700789435457157 0.0030933666651049864 0 0.00016700789435457157 0.0030933666651049864 0 0.00017229633033265137 0.0031053943792484955 0 0.0001751039154812652 0.0030944060434818206 0 0.00016700789435457157 0.0030933666651049864 0 0.00016482670564284773 0.0031039547394669143 0 0.00017229633033265137 0.0031053943792484955 0 0.00015871020158360748 0.0030982100876893919 0 0.00016700789435457157 0.0030933666651049864 0 0.00016482670564284773 0.0031039547394669143 0 0.00016482670564284773 0.0031039547394669143 0 0.00016730410287440123 0.0031113224834379057 0 0.00015987461462179975 0.003110238725022741 0 0.00016730410287440123 0.0031113224834379057 0 0.00017026480775309563 0.0031201160212086178 0 0.00017229633033265137 0.0031053943792484955 0 0.00016482670564284773 0.0031039547394669143 0 0.00016730410287440123 0.0031113224834379057 0 0.00017229633033265137 0.0031053943792484955 0 0.00016600497978010663 0.0031208897581048358 0 0.00015987461462179975 0.003110238725022741 0 0.00015965066813446136 0.0031216939664017495 0 0.00016730410287440123 0.0031113224834379057 0 0.00016600497978010663 0.0031208897581048358 0 0.00017026480775309563 0.0031201160212086178 0 0.00016600497978010663 0.0031208897581048358 0 0.00017119843140550218 0.0031273624826191463 0 0.00017026480775309563 0.0031201160212086178 0 0.00016730410287440123 0.0031113224834379057 0 0.00016600497978010663 0.0031208897581048358 0 0.00015987461462179975 0.003110238725022741 0 0.00015987461462179975 0.003110238725022741 0 0.00015965066813446136 0.0031216939664017495 0 0.0001463800903555501 0.0031059706407775924 0 0.00015965066813446136 0.0031216939664017495 0 0.0001463800903555501 0.0031059706407775924 0 0.0001503233582405478 0.0031228199993901958 0 0.00016600497978010663 0.0031208897581048358 0 0.00015965066813446136 0.0031216939664017495 0 0.0001661364281770723 0.0031270988249337515 0 0.00016600497978010663 0.0031208897581048358 0 0.0001661364281770723 0.0031270988249337515 0 0.00017119843140550218 0.0031273624826191463 0 0.00012403123224733465 0.0031015260903095613 0 0.0001463800903555501 0.0031059706407775924 0 0.00013622464400206137 0.0031214272203577962 0 0.0001463800903555501 0.0031059706407775924 0 0.0001503233582405478 0.0031228199993901958 0 0.00013622464400206137 0.0031214272203577962 0 0.00015863441038919715 0.0031382618380656718 0 0.00012772144845288905 0.0031409482937692825 0 0.00014739646274715678 0.0031313768379981457 0 0.00012772144845288905 0.0031409482937692825 0 0.00013622464400206137 0.0031214272203577962 0 0.00014739646274715678 0.0031313768379981457 0 0.0001503233582405478 0.0031228199993901958 0 0.00013622464400206137 0.0031214272203577962 0 0.00014739646274715678 0.0031313768379981457 0 0.00015965066813446136 0.0031216939664017495 0 0.0001661364281770723 0.0031270988249337515 0 0.00015917809696725316 0.0031296580411257677 0 0.0001661364281770723 0.0031270988249337515 0 0.00015917809696725316 0.0031296580411257677 0 0.00016721247333993775 0.0031291697029431622 0 0.00015965066813446136 0.0031216939664017495 0 0.0001503233582405478 0.0031228199993901958 0 0.00015917809696725316 0.0031296580411257677 0 0.0001503233582405478 0.0031228199993901958 0 0.00014739646274715678 0.0031313768379981457 0 0.00015917809696725316 0.0031296580411257677 0 0.00015863441038919715 0.0031382618380656718 0 0.00014739646274715678 0.0031313768379981457 0 0.00015917809696725316 0.0031296580411257677 0 0.00015863441038919715 0.0031382618380656718 0 0.00015917809696725316 0.0031296580411257677 0 0.00016322586731875983 0.0031315490665040609 0 0.00015917809696725316 0.0031296580411257677 0 0.00016322586731875983 0.0031315490665040609 0 0.00016721247333993775 0.0031291697029431622 0 0.000166192850702023 0.0031286561025934798 0 0.00016823332661081156 0.003127602287092275 0 0.00016721247333993775 0.0031291697029431622 0 0.00016322586731875983 0.0031315490665040609 0 0.000166192850702023 0.0031286561025934798 0 0.00016721247333993775 0.0031291697029431622 0 0.000166192850702023 0.0031286561025934798 0 0.00016479271621120124 0.0031247514980955759 0 0.00016823332661081156 0.003127602287092275 0 0.00016479271621120124 0.0031247514980955759 0 0.0001680780711449157 0.0031282573360593099 0 0.00016823332661081156 0.003127602287092275 0 0.0001680780711449157 0.0031282573360593099 0 0.00016823332661081156 0.003127602287092275 0 0.00017123930710801437 0.0031292577420103801 0 0.0001661364281770723 0.0031270988249337515 0 0.00017123930710801437 0.0031292577420103801 0 0.00016721247333993775 0.0031291697029431622 0 0.00016823332661081156 0.003127602287092275 0 0.00017123930710801437 0.0031292577420103801 0 0.00016721247333993775 0.0031291697029431622 0 0.00016479271621120124 0.0031247514980955759 0 0.00014932049620078355 0.0031173704817120192 0 0.00016861012349035214 0.0031272109169452069 0 0.00016479271621120124 0.0031247514980955759 0 0.0001680780711449157 0.0031282573360593099 0 0.00014932049620078355 0.0031173704817120192 0 0.00015214592079592113 0.0031498166049548108 0 0.00014274852090978994 0.0031917030561237716 0 7.3892265657629158e-05 0.0031671971407855842 0 0.00014932049620078355 0.0031173704817120192 0 0.00015214592079592113 0.0031498166049548108 0 7.3892265657629158e-05 0.0031671971407855842 0 0.0001680780711449157 0.0031282573360593099 0 0.00015214592079592113 0.0031498166049548108 0 0.00017894905845760952 0.0031380397256169619 0 0.0001680780711449157 0.0031282573360593099 0 0.00014932049620078355 0.0031173704817120192 0 0.00015214592079592113 0.0031498166049548108 0 0.00015214592079592113 0.0031498166049548108 0 0.00017894905845760952 0.0031380397256169619 0 0.00017583214465226692 0.0031792120258027808 0 0.00017894905845760952 0.0031380397256169619 0 0.00017530299761049504 0.0031289410185785624 0 0.00017834554773005811 0.0031038855185891463 0 0.0001661364281770723 0.0031270988249337515 0 0.00017123930710801437 0.0031292577420103801 0 0.00017119843140550218 0.0031273624826191463 0 0.00017490569711436105 0.0031322955613044884 0 0.00017119843140550218 0.0031273624826191463 0 0.00017530299761049504 0.0031289410185785624 0 0.00017123930710801437 0.0031292577420103801 0 0.00017490569711436105 0.0031322955613044884 0 0.00017119843140550218 0.0031273624826191463 0 0.0001680780711449157 0.0031282573360593099 0 0.00017490569711436105 0.0031322955613044884 0 0.00017894905845760952 0.0031380397256169619 0 0.0001680780711449157 0.0031282573360593099 0 0.00017123930710801437 0.0031292577420103801 0 0.00017490569711436105 0.0031322955613044884 0 0.00017490569711436105 0.0031322955613044884 0 0.00017894905845760952 0.0031380397256169619 0 0.00017530299761049504 0.0031289410185785624 0 0.00017530299761049504 0.0031289410185785624 0 0.00017026480775309563 0.0031201160212086178 0 0.00017229633033265137 0.0031053943792484955 0 0.00017119843140550218 0.0031273624826191463 0 0.00017530299761049504 0.0031289410185785624 0 0.00017026480775309563 0.0031201160212086178 0 0.00018055826754618878 0.0031397807429649313 0 0.00023415694572753032 0.003133901547443241 0 0.00027481970925254416 0.0031719473028474798 0 0.00014185992881921296 0.0032019392150356603 0 0.00017530299761049504 0.0031289410185785624 0 0.00017229633033265137 0.0031053943792484955 0 0.00018269056450898944 0.0030944319816761968 0 0.00017894905845760952 0.0031380397256169619 0 0.00020270230843634433 0.0031986856458179566 0 0.00017583214465226692 0.0031792120258027808 0 0.00018259643931885209 0.0031135616815889302 0 0.00023415694572753032 0.003133901547443241 0 0.00020269897484218019 0.0032119567827631362 0 0.00017583214465226692 0.0031792120258027808 0 0.00014274852090978994 0.0031917030561237716 0 0.00017229633033265137 0.0031053943792484955 0 0.0001751039154812652 0.0030944060434818206 0 0.00018269056450898944 0.0030944319816761968 0 0.00016700789435457157 0.0030933666651049864 0 0.0001751039154812652 0.0030944060434818206 0 0.00017872774165569738 0.0030863333487613385 0 0.0001751039154812652 0.0030944060434818206 0 0.00018269056450898944 0.0030944319816761968 0 0.00017872774165569738 0.0030863333487613385 0 0.00023415694572753032 0.003133901547443241 0 0.00027481970925254416 0.0031719473028474798 0 0.00026993099547667807 0.0031391994775469773 0 0.00027045119290841651 0.0031522472394019956 0 0.00027494777877112451 0.0031543009394964378 0 0.00023415694572753032 0.003133901547443241 0 0.00029985724316330855 0.003147257570691642 0 0.00027481970925254416 0.0031719473028474798 0 0.00029985724316330855 0.003147257570691642 0 0.00020270230843634433 0.0031986856458179566 0 0.00020269897484218019 0.0032119567827631362 0 0.00017583214465226692 0.0031792120258027808 0 0.00027545118870731417 0.0032470273199400263 0 0.00014274852090978994 0.0031917030561237716 0 0.00018490095245406865 0.003257012279221044 0 0.00015214592079592113 0.0031498166049548108 0 0.00017583214465226692 0.0031792120258027808 0 0.00014274852090978994 0.0031917030561237716 0 0.00014274852090978994 0.0031917030561237716 0 0.00012159019164310052 0.0032482465857559002 0 0.00018490095245406865 0.003257012279221044 0 0.00018490095245406865 0.003257012279221044 0 0.00016596099837354442 0.0032990786521228882 0 0.0002149031977492174 0.0032989124820924178 0 0.00012159019164310052 0.0032482465857559002 0 0.00016596099837354442 0.0032990786521228882 0 0.00010405631736243042 0.0033152864820634527 0 0.00012159019164310052 0.0032482465857559002 0 0.00018490095245406865 0.003257012279221044 0 0.00016596099837354442 0.0032990786521228882 0 0.00016596099837354442 0.0032990786521228882 0 0.00014480801017250741 0.0033476425979544972 0 0.00010405631736243042 0.0033152864820634527 0 0.00016596099837354442 0.0032990786521228882 0 0.000189823716950495 0.0033445114062337932 0 0.0002149031977492174 0.0032989124820924178 0 0.00016596099837354442 0.0032990786521228882 0 0.00014480801017250741 0.0033476425979544972 0 0.000189823716950495 0.0033445114062337932 0 0.00027545118870731417 0.0032470273199400263 0 0.00023568231954132986 0.003342540103675629 0 0.00028043017869541352 0.0033838782598289404 0 0.000189823716950495 0.0033445114062337932 0 0.00023568231954132986 0.003342540103675629 0 0.0002149031977492174 0.0032989124820924178 0 0.00027481970925254416 0.0031719473028474798 0 0.00030901476418563592 0.0033213835426766543 0 0.00027545118870731417 0.0032470273199400263 0 0.00023568231954132986 0.003342540103675629 0 0.0002149031977492174 0.0032989124820924178 0 0.00033286057411282101 0.0031140453512428804 0 0.00034396626864529689 0.0031190836656191114 0 0.00033861043037214595 0.0032679512828402511 0 0.00034396626864529689 0.0031190836656191114 0 0.00033861043037214595 0.0032679512828402511 0 0.00039633002844103931 0.0032739788136707066 0 0.00027545118870731417 0.0032470273199400263 0 0.00018490095245406865 0.003257012279221044 0 0.0002149031977492174 0.0032989124820924178 0 -2.5663203642971753e-05 0.0032843938098423343 0 4.962674394285946e-05 0.0033243143974560976 0 6.505732068861825e-05 0.0032708667278947569 0 2.9074583697606904e-06 0.0036508470880003739 0 -6.5403610548507202e-05 0.0039457901662169319 0 -9.2115488088101326e-06 0.0038541712963489185 0 7.3593065674618081e-06 0.0038319427005234544 0 -9.0104025360860415e-05 0.0036998005635598013 0 -2.5663203642971753e-05 0.0032843938098423343 0 4.962674394285946e-05 0.0033243143974560976 0 1.0414282002344945e-05 0.0033585795595865776 0 2.9074583697606904e-06 0.0036508470880003739 0 -5.8459847078873947e-05 0.0037013156537378748 0 -6.5403610548507202e-05 0.0039457901662169319 0 -5.8459847078873947e-05 0.0037013156537378748 0 4.962674394285946e-05 0.0033243143974560976 0 8.7432319550353503e-05 0.0033698928419362015 0 1.0414282002344945e-05 0.0033585795595865776 0 4.962674394285946e-05 0.0033243143974560976 0 0.00010405631736243042 0.0033152864820634527 0 8.7432319550353503e-05 0.0033698928419362015 0 0.00014480801017250741 0.0033476425979544972 0 0.00010405631736243042 0.0033152864820634527 0 8.7432319550353503e-05 0.0033698928419362015 0 0.00012159019164310052 0.0032482465857559002 0 0.00010405631736243042 0.0033152864820634527 0 6.505732068861825e-05 0.0032708667278947569 0 4.962674394285946e-05 0.0033243143974560976 0 0.00010405631736243042 0.0033152864820634527 0 6.505732068861825e-05 0.0032708667278947569 0 -2.5663203642971753e-05 0.0032843938098423343 0 6.505732068861825e-05 0.0032708667278947569 0 7.3892265657629158e-05 0.0031671971407855842 0 0.00012159019164310052 0.0032482465857559002 0 6.505732068861825e-05 0.0032708667278947569 0 7.3892265657629158e-05 0.0031671971407855842 0 0.00014274852090978994 0.0031917030561237716 0 0.00012159019164310052 0.0032482465857559002 0 7.3892265657629158e-05 0.0031671971407855842 0 -9.0382011789979925e-05 0.0038336891270226046 0 -7.1393464495117024e-05 0.0038082826669243084 0 9.3362084867873327e-05 0.00403314211677835 0 2.9074583697606904e-06 0.0036508470880003739 0 9.3542541754377829e-05 0.0032848249394295728 0 -3.8682543567074909e-06 0.0036158227238629512 0 0.00010244035358170824 0.0034699466212188097 0 -7.164848538245217e-05 0.0034850518594247209 0 2.9074583697606904e-06 0.0036508470880003739 0 3.009517679245875e-05 0.0038170366611500394 0 0.00010244035358170824 0.0034699466212188097 0 2.1002225488573339e-05 0.0033642309387382505 0 -7.164848538245217e-05 0.0034850518594247209 0 5.725508692665843e-05 0.0033965058836442816 0 3.009517679245875e-05 0.0038170366611500394 0 0.00010899207580357018 0.0035054647233024863 0 3.009517679245875e-05 0.0038170366611500394 0 8.4741748580149562e-05 0.0034723450870269221 0 6.6190712537063018e-05 0.0034780761432809666 0 -7.3807940876614067e-05 0.0037024449738519163 0 0.00010244035358170824 0.0034699466212188097 0 0.00011004947231282258 0.0033511200223382202 0 2.1002225488573339e-05 0.0033642309387382505 0 0.00020485363694497066 0.003326075019620746 0 0.00010244035358170824 0.0034699466212188097 0 0.00011004947231282258 0.0033511200223382202 0 0.00018525290030401356 0.0032350072934610387 0 9.3542541754377829e-05 0.0032848249394295728 0 0.00011004947231282258 0.0033511200223382202 0 2.1002225488573339e-05 0.0033642309387382505 0 0.00011165305011172304 0.0032452507865201644 0 8.4741748580149562e-05 0.0034723450870269221 0 0.00024511915584978389 0.0032502281456200646 0 0.00020947304354540367 0.0032638766281575336 0 5.725508692665843e-05 0.0033965058836442816 0 0.00012605293674718425 0.0032013129133400126 0 0.00020485363694497066 0.003326075019620746 0 0.00011004947231282258 0.0033511200223382202 0 0.00011165305011172304 0.0032452507865201644 0 0.00014054699341340676 0.003539944151516255 0 0.00016490762242711411 0.0033825661309374588 0 0.00027871321709391304 0.0033401656807684767 0 0.00010899207580357018 0.0035054647233024863 0 0.00013157409854367205 0.0032041762386192259 0 8.4741748580149562e-05 0.0034723450870269221 0 6.6190712537063018e-05 0.0034780761432809666 0 0.00020947304354540367 0.0032638766281575336 0 0.00012567432664914075 0.0035028048542372855 0 0.00016499611983808235 0.0033866597807937385 0 -0.00012027978397559811 0.0034924467330848972 0 0.00014054699341340676 0.003539944151516255 0 0.00012567432664914075 0.0035028048542372855 0 0.00016490762242711411 0.0033825661309374588 0 8.8910592511720827e-05 0.0034813126068869967 0 0.00011150425361072679 0.0031802262511252759 0 -1.0673456144692396e-05 0.0030801573203717431 0 1.3117573459750443e-05 0.0030060463987934792 0 2.1725587505863121e-05 0.0030678469205282339 0 0.00011150425361072679 0.0031802262511252759 0 4.639165057196768e-05 0.0030019746264165386 0 8.259019573014171e-05 0.0030621496412189643 0 8.6228591799186101e-05 0.0030379332898988541 0 6.9348871070275739e-05 0.0030359492249320877 0 0.00011150425361072679 0.0031802262511252759 0 0.00013157409854367205 0.0032041762386192259 0 8.6228591799186101e-05 0.0030379332898988541 0 7.4134015458768074e-05 0.0030159052733791055 0 6.9348871070275739e-05 0.0030359492249320877 0 4.639165057196768e-05 0.0030019746264165386 0 6.1849339998163491e-05 0.0029920498145040585 0 1.3117573459750443e-05 0.0030060463987934792 0 5.7921910241307163e-05 0.0029777386779199842 0 3.6018979942120464e-05 0.0029390393307019815 0 1.3117573459750443e-05 0.0030060463987934792 0 4.9132683931812405e-05 0.0030087822241183742 0 5.7921910241307163e-05 0.0029777386779199842 0 1.3117573459750443e-05 0.0030060463987934792 0 4.9132683931812405e-05 0.0030087822241183742 0 4.5447649818890205e-05 0.0030319306828899247 0 4.9132683931812405e-05 0.0030087822241183742 0 4.5447649818890205e-05 0.0030319306828899247 0 6.7407326101809076e-05 0.0030140721549656527 0 6.3073635711130137e-05 0.0030149291153945589 0 7.9472003930772253e-05 0.0030207514189286868 0 1.3117573459750443e-05 0.0030060463987934792 0 4.5447649818890205e-05 0.0030319306828899247 0 2.1725587505863121e-05 0.0030678469205282339 0 4.5447649818890205e-05 0.0030319306828899247 0 3.0638305225224205e-05 0.0030664485085937594 0 6.7407326101809076e-05 0.0030140721549656527 0 0.00012605293674718425 0.0032013129133400126 0 7.9472003930772253e-05 0.0030207514189286868 0 4.5447649818890205e-05 0.0030319306828899247 0 3.0638305225224205e-05 0.0030664485085937594 0 2.0742820386350401e-05 0.0030704636325692499 0 7.6143901905806121e-05 0.0030508154084891931 0 0.00013157409854367205 0.0032041762386192259 0 0.00012605293674718425 0.0032013129133400126 0 0.00013157409854367205 0.0032041762386192259 0 0.00018525290030401356 0.0032350072934610387 0 0.00013297922698748865 0.0031019452749950303 0 0.00012605293674718425 0.0032013129133400126 0 0.00015960354721614864 0.0030917016118388371 0 9.2158358234103048e-05 0.0031353361737364045 0 0.00015942894074281455 0.0031104060002437274 0 0.00012010071943021282 0.0030980092249976686 0 0.00020485363694497066 0.003326075019620746 0 0.00011165305011172304 0.0032452507865201644 0 0.00028625290942209473 0.003181034597589792 0 0.00020485363694497066 0.003326075019620746 0 0.00028625290942209473 0.003181034597589792 0 0.00030509639440691265 0.0031869585279577701 0 0.00015960354721614864 0.0030917016118388371 0 7.9472003930772253e-05 0.0030207514189286868 0 2.5077352819630517e-05 0.0031118433533127163 0 -1.5663030698732841e-05 0.0030969373467417669 0 1.4760986230667063e-06 0.0030941080453600659 0 0.00015863441038919715 0.0031382618380656718 0 0.000166192850702023 0.0031286561025934798 0 0.00016861012349035214 0.0031272109169452069 0 0.000166192850702023 0.0031286561025934798 0 0.00016479271621120124 0.0031247514980955759 0 0.00016861012349035214 0.0031272109169452069 0 0.00015960354721614864 0.0030917016118388371 0 0.00013297922698748865 0.0031019452749950303 0 0.00013078336656433754 0.0030689248655897104 0 0.00010752789981933381 0.0030771731314895032 0 0.0001170427781005539 0.0030645448184221779 0 0.00010653795562779601 0.0030128273088094602 0 0.00011838079566982163 0.0030084165450798422 0 0.00010767368953738179 0.0029976270305053262 0 0.00015960354721614864 0.0030917016118388371 0 8.5708657754955848e-05 0.0030596426049943584 0 8.5708657754955848e-05 0.0030596426049943584 0 0.00013297922698748865 0.0031019452749950303 0 1.0519282330160963e-05 0.0030839845795704547 0 -1.1958263025076508e-05 0.003092208670970314 0 1.4760986230667063e-06 0.0030941080453600659 0 -1.1958263025076508e-05 0.003092208670970314 0 -1.5663030698732841e-05 0.0030969373467417669 0 1.4760986230667063e-06 0.0030941080453600659 0 0.00011838079566982163 0.0030084165450798422 0 0.00011897112568617468 0.0029854319753106341 0 0.00013799795949720321 0.0029818498018370715 0 8.5708657754955848e-05 0.0030596426049943584 0 1.4282815624005827e-05 0.0028515714628442263 0 -1.220784603883932e-05 0.0029501022265353608 0 8.5708657754955848e-05 0.0030596426049943584 0 4.1853795143632924e-05 0.0029683070126181313 0 2.8036828403761984e-05 0.0029739209488466667 0 3.6588162719758535e-05 0.0029613511984894945 0 0.00011838079566982163 0.0030084165450798422 0 0.00011897112568617468 0.0029854319753106341 0 0.00010767368953738179 0.0029976270305053262 0 0.00010653795562779601 0.0030128273088094602 0 0.00010767368953738179 0.0029976270305053262 0 9.0540118196850823e-05 0.0029954953937671772 0 0.00011897112568617468 0.0029854319753106341 0 0.00010767368953738179 0.0029976270305053262 0 0.00010479882365593246 0.0029839362197717567 0 0.00010767368953738179 0.0029976270305053262 0 0.00010479882365593246 0.0029839362197717567 0 9.0540118196850823e-05 0.0029954953937671772 0 0.00011897112568617468 0.0029854319753106341 0 0.00013799795949720321 0.0029818498018370715 0 0.00010267826533673504 0.0029548154307909983 0 0.00011897112568617468 0.0029854319753106341 0 0.00010479882365593246 0.0029839362197717567 0 0.00010267826533673504 0.0029548154307909983 0 7.9472003930772253e-05 0.0030207514189286868 0 9.8567997947300758e-05 0.002955921089123886 0 0.00010479882365593246 0.0029839362197717567 0 9.0540118196850823e-05 0.0029954953937671772 0 0.00010267826533673504 0.0029548154307909983 0 6.8102277073295344e-05 0.0030006848494176933 0 9.0540118196850823e-05 0.0029954953937671772 0 0.00010267826533673504 0.0029548154307909983 0 6.4306869829047661e-05 0.0030130662689910929 0 5.7921910241307163e-05 0.0029777386779199842 0 0.00010267826533673504 0.0029548154307909983 0 4.9132683931812405e-05 0.0030087822241183742 0 6.4306869829047661e-05 0.0030130662689910929 0 5.7921910241307163e-05 0.0029777386779199842 0 0.00010653795562779601 0.0030128273088094602 0 6.8102277073295344e-05 0.0030006848494176933 0 9.0540118196850823e-05 0.0029954953937671772 0 5.7921910241307163e-05 0.0029777386779199842 0 7.1359790636792411e-05 0.0029359054755340084 0 0.00010267826533673504 0.0029548154307909983 0 7.1359790636792411e-05 0.0029359054755340084 0 0.00010267826533673504 0.0029548154307909983 0 0.00010103078293212541 0.0029321473827426041 0 1.4282815624005827e-05 0.0028515714628442263 0 3.3048488335302255e-05 0.0027961758441381055 0 0.00013799795949720321 0.0029818498018370715 0 0.00010267826533673504 0.0029548154307909983 0 0.00010103078293212541 0.0029321473827426041 0 -4.7918435477229165e-05 0.0026898811390094353 0 -3.7465633369104723e-05 0.0026858440412518719 0 -4.6641720963897282e-05 0.0026889149671980085 0 -3.7465633369104723e-05 0.0026858440412518719 0 -4.6641720963897282e-05 0.0026889149671980085 0 -4.3786065963809099e-05 0.0026933171678189035 0 -4.9006108560955471e-05 0.0026894461858091418 0 -4.6641720963897282e-05 0.0026889149671980085 0 -4.3786065963809099e-05 0.0026933171678189035 0 -4.8978108286390682e-05 0.0027026960807503015 0 -5.2205416475088736e-05 0.0026910653781468921 0 -4.3786065963809099e-05 0.0026933171678189035 0 5.7562008506010412e-05 0.0028752533750887746 0 7.1359790636792411e-05 0.0029359054755340084 0 0.00010103078293212541 0.0029321473827426041 0 1.5043820222816521e-05 0.0028664158929944152 0 3.3048488335302255e-05 0.0027961758441381055 0 -9.8247453473254474e-06 0.0026993181188129812 0 -3.7465633369104723e-05 0.0026858440412518719 0 -4.3786065963809099e-05 0.0026933171678189035 0 5.7562008506010412e-05 0.0028752533750887746 0 7.1359790636792411e-05 0.0029359054755340084 0 3.6018979942120464e-05 0.0029390393307019815 0 1.5043820222816521e-05 0.0028664158929944152 0 6.1849339998163491e-05 0.0029920498145040585 0 7.9689806554026328e-05 0.0029950139573521085 0 6.8068180778891449e-05 0.0029975302570624859 0 8.3931589481918241e-05 0.0030141959171351958 0 6.8068180778891449e-05 0.0029975302570624859 0 6.876655050870645e-05 0.0030007585493683864 0 7.4134015458768074e-05 0.0030159052733791055 0 6.8019413690391907e-05 0.002988888454417376 0 6.8068180778891449e-05 0.0029975302570624859 0 6.876655050870645e-05 0.0030007585493683864 0 6.8068180778891449e-05 0.0029975302570624859 0 7.4134015458768074e-05 0.0030159052733791055 0 8.3931589481918241e-05 0.0030141959171351958 0 6.876655050870645e-05 0.0030007585493683864 0 7.4134015458768074e-05 0.0030159052733791055 0 6.6370467214981144e-05 0.0030163137052354062 0 8.6228591799186101e-05 0.0030379332898988541 0 7.4134015458768074e-05 0.0030159052733791055 0 8.3931589481918241e-05 0.0030141959171351958 0 5.7921910241307163e-05 0.0029777386779199842 0 7.1359790636792411e-05 0.0029359054755340084 0 3.6018979942120464e-05 0.0029390393307019815 0 6.0149657263072232e-05 0.003027906938376226 0 5.5321912965112954e-05 0.0030210433314802254 0 5.8540919978452263e-05 0.0030447702313362722 0 6.0149657263072232e-05 0.003027906938376226 0 6.6370467214981144e-05 0.0030163137052354062 0 5.5321912965112954e-05 0.0030210433314802254 0 5.976116041461738e-05 0.0030972230881414647 0 6.0214052593119004e-05 0.0030487742921296653 0 6.0149657263072232e-05 0.003027906938376226 0 5.8697586380254591e-05 0.0030387099974283692 0 5.8540919978452263e-05 0.0030447702313362722 0 6.0149657263072232e-05 0.003027906938376226 0 6.6370467214981144e-05 0.0030163137052354062 0 6.9348871070275739e-05 0.0030359492249320877 0 7.4134015458768074e-05 0.0030159052733791055 0 6.6370467214981144e-05 0.0030163137052354062 0 6.9348871070275739e-05 0.0030359492249320877 0 8.2809201836131426e-05 0.0029857039126019087 0 6.876655050870645e-05 0.0030007585493683864 0 6.6370467214981144e-05 0.0030163137052354062 0 5.6232453017059757e-05 0.0030161014612390476 0 6.6370467214981144e-05 0.0030163137052354062 0 5.5321912965112954e-05 0.0030210433314802254 0 6.8829484866350481e-05 0.0032815207539594869 0 6.3385239950955769e-05 0.0031747565224386461 0 0.00012515449197575036 0.0032251213697248472 0 0.00011295493743757791 0.003142165407967345 0 5.976116041461738e-05 0.0030972230881414647 0 0.00011295493743757791 0.003142165407967345 0 4.2846665776716556e-05 0.0029608777366976879 0 0.0001550285124970611 0.00329042580467393 0 6.8829484866350481e-05 0.0032815207539594869 0 0.00012515449197575036 0.0032251213697248472 0 0.00021005282254389054 0.0032710020969660518 0 0.00012710314625447237 0.0034992761674156416 0 0.00012515449197575036 0.0032251213697248472 0 0.00020599356621432664 0.0032518416885113149 0 0.00014702179399716798 0.0031214118888815896 0 0.0001550285124970611 0.00329042580467393 0 0.00012515449197575036 0.0032251213697248472 0 0.00020599356621432664 0.0032518416885113149 0 6.3385239950955769e-05 0.0031747565224386461 0 0.00012515449197575036 0.0032251213697248472 0 0.00014702179399716798 0.0031214118888815896 0 -4.1068607286170848e-05 0.0041971732238506795 0 -4.7249860206751649e-05 0.0042249719043918428 0 -4.5247026736583781e-05 0.0042251478721826267 0 -4.1068607286170848e-05 0.0041971732238506795 0 -4.7249860206751649e-05 0.0042249719043918428 0 -6.8620278118919595e-05 0.004239713823635461 0 8.6644237859974927e-05 0.0037412617872878092 0 0.00012710314625447237 0.0034992761674156416 0 0.00022540731851437555 0.0033669201026212698 0 0.00023355219752771005 0.0033700281129697579 0 0.00023983292560028605 0.0033961438787847424 0 -5.999388373739331e-07 0.0043000743744808856 0 -6.27278802293897e-05 0.0042405004573044932 0 -4.7249860206751649e-05 0.0042249719043918428 0 -3.6903086299508395e-05 0.0042166322721058462 0 -6.8620278118919595e-05 0.004239713823635461 0 -4.7249860206751649e-05 0.0042249719043918428 0 -4.5247026736583781e-05 0.0042251478721826267 0 -3.6903086299508395e-05 0.0042166322721058462 0 6.3385239950955769e-05 0.0031747565224386461 0 0.00014702179399716798 0.0031214118888815896 0 5.8540919978452263e-05 0.0030447702313362722 0 0.00014702179399716798 0.0031214118888815896 0 6.0531803985921675e-05 0.0030384079841249577 0 5.8540919978452263e-05 0.0030447702313362722 0 0.00012710314625447237 0.0034992761674156416 0 -1.3795428183793215e-05 0.0029916786725723453 0 -4.964191645097655e-05 0.0042011145032963253 0 -3.6903086299508395e-05 0.0042166322721058462 0 -4.8714394813006081e-05 0.0041742566833265823 0 0.00012710314625447237 0.0034992761674156416 0 -2.6159174239049432e-05 0.0036146769281346397 0 -4.5247026736583781e-05 0.0042251478721826267 0 -4.964191645097655e-05 0.0042011145032963253 0 -3.6903086299508395e-05 0.0042166322721058462 0 6.3885769911268679e-05 0.0030345016620322626 0 5.4732640802558216e-05 0.003046801617146907 0 6.0531803985921675e-05 0.0030384079841249577 0 -4.5247026736583781e-05 0.0042251478721826267 0 -4.964191645097655e-05 0.0042011145032963253 0 -7.0388896368004335e-05 0.0041867962987324567 0 -5.999388373739331e-07 0.0043000743744808856 0 5.0259952538785418e-05 0.0043553748770387207 0 4.3249102445556181e-05 0.0043877211780762333 0 4.0925391784645198e-05 0.0045002219997347563 0 -1.5739228994522701e-05 0.0044431214596627787 0 4.3249102445556181e-05 0.0043877211780762333 0 4.0925391784645198e-05 0.0045002219997347563 0 0.00014626120253311716 0.0045322646334593356 0 4.0925391784645198e-05 0.0045002219997347563 0 -7.0533991793063995e-06 0.0045484467805100813 0 -1.5739228994522701e-05 0.0044431214596627787 0 4.0925391784645198e-05 0.0045002219997347563 0 7.579806960018794e-05 0.0045641163982983639 0 0.00014626120253311716 0.0045322646334593356 0 4.0925391784645198e-05 0.0045002219997347563 0 7.579806960018794e-05 0.0045641163982983639 0 -7.0533991793063995e-06 0.0045484467805100813 0 7.579806960018794e-05 0.0045641163982983639 0 -7.0533991793063995e-06 0.0045484467805100813 0 1.9976258309714672e-05 0.0046127619442883966 0 -4.964191645097655e-05 0.0042011145032963253 0 -4.8714394813006081e-05 0.0041742566833265823 0 -7.0388896368004335e-05 0.0041867962987324567 0 7.579806960018794e-05 0.0045641163982983639 0 0.00014626120253311716 0.0045322646334593356 0 0.0001108818518209719 0.0046330465713147039 0 -2.6159174239049432e-05 0.0036146769281346397 0 -4.7337414510401924e-06 0.0037248374039924276 0 5.4732640802558216e-05 0.003046801617146907 0 5.9730815870131693e-05 0.0030396639794896476 0 6.43063869791948e-05 0.0030536589904231358 0 -4.8714394813006081e-05 0.0041742566833265823 0 -7.0388896368004335e-05 0.0041867962987324567 0 -7.6443133953284323e-05 0.004128998821415826 0 5.4732640802558216e-05 0.003046801617146907 0 6.43063869791948e-05 0.0030536589904231358 0 5.9575732753190472e-05 0.0030748199242156666 0 5.4732640802558216e-05 0.003046801617146907 0 5.9730815870131693e-05 0.0030396639794896476 0 6.0531803985921675e-05 0.0030384079841249577 0 6.0149657263072232e-05 0.003027906938376226 0 5.9730815870131693e-05 0.0030396639794896476 0 5.8697586380254591e-05 0.0030387099974283692 0 5.9730815870131693e-05 0.0030396639794896476 0 5.8697586380254591e-05 0.0030387099974283692 0 6.0531803985921675e-05 0.0030384079841249577 0 5.8697586380254591e-05 0.0030387099974283692 0 6.0531803985921675e-05 0.0030384079841249577 0 5.8540919978452263e-05 0.0030447702313362722 0 5.9730815870131693e-05 0.0030396639794896476 0 6.9348871070275739e-05 0.0030359492249320877 0 6.43063869791948e-05 0.0030536589904231358 0 6.0149657263072232e-05 0.003027906938376226 0 5.9730815870131693e-05 0.0030396639794896476 0 6.9348871070275739e-05 0.0030359492249320877 0 8.259019573014171e-05 0.0030621496412189643 0 6.9348871070275739e-05 0.0030359492249320877 0 6.43063869791948e-05 0.0030536589904231358 0 0.00014054699341340676 0.003539944151516255 0 0.00012567432664914075 0.0035028048542372855 0 -0.00012027978397559811 0.0034924467330848972 0 8.259019573014171e-05 0.0030621496412189643 0 6.43063869791948e-05 0.0030536589904231358 0 5.9575732753190472e-05 0.0030748199242156666 0 0.00011150425361072679 0.0031802262511252759 0 -4.7337414510401924e-06 0.0037248374039924276 0 -7.0388896368004335e-05 0.0041867962987324567 0 -9.4592095495159813e-05 0.0041338681679807801 0 -7.6443133953284323e-05 0.004128998821415826 0 -4.7337414510401924e-06 0.0037248374039924276 0 7.7382321361267931e-05 0.0043923238981795031 0 0.00013071198049279477 0.0047313157747471239 0 0.00019296039729478168 0.0048175821021419624 0 0.00012920377708265787 0.0048139581729959675 0 0.00013071198049279477 0.0047313157747471239 0 0.00012920377708265787 0.0048139581729959675 0 6.3927599334471198e-05 0.0047577927546105115 0 7.7382321361267931e-05 0.0043923238981795031 0 3.0170186335640403e-05 0.004349066540388742 0 -4.7337414510401924e-06 0.0037248374039924276 0 3.009517679245875e-05 0.0038170366611500394 0 2.2796465188707006e-05 0.0040838703950077677 0 1.9851465659305088e-05 0.0040808728849908325 0 2.025350933445658e-05 0.0040809473677363567 0 2.1575020308485605e-05 0.0040830380677509791 0 2.2796465188707006e-05 0.0040838703950077677 0 1.9851465659305088e-05 0.0040808728849908325 0 0.00014054699341340676 0.003539944151516255 0 -0.00012027978397559811 0.0034924467330848972 0 4.5198845342115741e-06 0.0037339832729069941 0 -9.0382011789979925e-05 0.0038336891270226046 0 4.7246405582574546e-05 0.0040979016000962307 0 9.3362084867873327e-05 0.00403314211677835 0 -6.5403610548507202e-05 0.0039457901662169319 0 3.0170186335640403e-05 0.004349066540388742 0 3.009517679245875e-05 0.0038170366611500394 0 3.0170186335640403e-05 0.004349066540388742 0 0.00012920377708265787 0.0048139581729959675 0 0.00012963820462154286 0.0049050005782866586 0 6.9273841499247615e-05 0.0048521949858153536 0 0.00019296039729478168 0.0048175821021419624 0 0.00012920377708265787 0.0048139581729959675 0 0.00012963820462154286 0.0049050005782866586 0 1.1043404339841325e-05 0.0042865377659111704 0 -1.508580712572282e-05 0.0042917698849806764 0 -2.0869117115555782e-05 0.0043316056292498689 0 -1.020994462993275e-05 0.0042587590539937279 0 -3.9148319946666632e-05 0.0042998921442598034 0 -1.508580712572282e-05 0.0042917698849806764 0 3.0170186335640403e-05 0.004349066540388742 0 3.9918799268334636e-05 0.0046491034105238518 0 1.1043404339841325e-05 0.0042865377659111704 0 -1.020994462993275e-05 0.0042587590539937279 0 -1.508580712572282e-05 0.0042917698849806764 0 2.1464745497780502e-05 0.0048946116871605256 0 -1.2319412193637794e-05 0.0049371243764189691 0 1.6069809306909664e-05 0.0049466390513308719 0 2.1464745497780502e-05 0.0048946116871605256 0 -1.3299952181244104e-05 0.0048472395862492901 0 -1.2319412193637794e-05 0.0049371243764189691 0 2.1464745497780502e-05 0.0048946116871605256 0 5.4928751435511715e-05 0.0049156384930097424 0 1.6069809306909664e-05 0.0049466390513308719 0 2.1464745497780502e-05 0.0048946116871605256 0 5.4928751435511715e-05 0.0049156384930097424 0 6.9273841499247615e-05 0.0048521949858153536 0 0.00012963820462154286 0.0049050005782866586 0 5.4928751435511715e-05 0.0049156384930097424 0 6.9273841499247615e-05 0.0048521949858153536 0 0.00012920377708265787 0.0048139581729959675 0 6.9273841499247615e-05 0.0048521949858153536 0 6.3927599334471198e-05 0.0047577927546105115 0 6.9273841499247615e-05 0.0048521949858153536 0 2.5810068515958652e-05 0.0048241110946162288 0 6.3927599334471198e-05 0.0047577927546105115 0 2.1464745497780502e-05 0.0048946116871605256 0 6.9273841499247615e-05 0.0048521949858153536 0 2.5810068515958652e-05 0.0048241110946162288 0 2.1464745497780502e-05 0.0048946116871605256 0 2.5810068515958652e-05 0.0048241110946162288 0 -1.3299952181244104e-05 0.0048472395862492901 0 2.5810068515958652e-05 0.0048241110946162288 0 -1.3299952181244104e-05 0.0048472395862492901 0 -5.0052748485341809e-06 0.0047741795094046 0 2.5810068515958652e-05 0.0048241110946162288 0 -5.0052748485341809e-06 0.0047741795094046 0 6.3927599334471198e-05 0.0047577927546105115 0 -5.0052748485341809e-06 0.0047741795094046 0 0.00012576774656131506 0.0047228906035271922 0 4.2551207228897182e-05 0.0046857307906460234 0 3.7056868792343311e-06 0.0047707852453922383 0 9.6500438361753812e-05 0.0047516261148000984 0 -5.0052748485341809e-06 0.0047741795094046 0 4.2551207228897182e-05 0.0046857307906460234 0 -3.8321632011171751e-05 0.0046882542609007136 0 7.7382321361267931e-05 0.0043923238981795031 0 9.6500438361753812e-05 0.0047516261148000984 0 0.00014626120253311716 0.0045322646334593356 0 0.00024939136489265012 0.0046745122683562804 0 0.0001108818518209719 0.0046330465713147039 0 5.0259952538785418e-05 0.0043553748770387207 0 7.7382321361267931e-05 0.0043923238981795031 0 0.00024939136489265012 0.0046745122683562804 0 0.00012576774656131506 0.0047228906035271922 0 0.0001108818518209719 0.0046330465713147039 0 4.2551207228897182e-05 0.0046857307906460234 0 1.9976258309714672e-05 0.0046127619442883966 0 -3.8321632011171751e-05 0.0046882542609007136 0 0.00012576774656131506 0.0047228906035271922 0 0.0001108818518209719 0.0046330465713147039 0 4.2551207228897182e-05 0.0046857307906460234 0 0.0001108818518209719 0.0046330465713147039 0 4.2551207228897182e-05 0.0046857307906460234 0 1.9976258309714672e-05 0.0046127619442883966 0 7.579806960018794e-05 0.0045641163982983639 0 0.0001108818518209719 0.0046330465713147039 0 1.9976258309714672e-05 0.0046127619442883966 0 1.9976258309714672e-05 0.0046127619442883966 0 -6.3538281414785992e-05 0.0045856100579279441 0 -3.8321632011171751e-05 0.0046882542609007136 0 -7.0533991793063995e-06 0.0045484467805100813 0 1.9976258309714672e-05 0.0046127619442883966 0 -6.3538281414785992e-05 0.0045856100579279441 0 -6.3538281414785992e-05 0.0045856100579279441 0 -0.00012089440850951342 0.0046540343211177093 0 -0.00013950368336659304 0.0045386301512254324 0 -6.3538281414785992e-05 0.0045856100579279441 0 -3.8321632011171751e-05 0.0046882542609007136 0 -0.00012089440850951342 0.0046540343211177093 0 -0.00017976077323682949 0.0046195925734965632 0 -0.00012089440850951342 0.0046540343211177093 0 -0.00013950368336659304 0.0045386301512254324 0 -9.3223004364241199e-05 0.0047642740138060611 0 -0.00016339780330947075 0.004670619131355129 0 -0.00017916474419110942 0.0046228201081775239 0 -0.00012089440850951342 0.0046540343211177093 0 -9.6909071155822028e-05 0.0048012157957929178 0 -9.3223004364241199e-05 0.0047642740138060611 0 -5.1018971633054272e-05 0.004901719016350347 0 -5.7871272334870228e-06 0.0049878293852132598 0 -1.111669127308409e-05 0.0049850242018592752 0 -4.5583835887037688e-06 0.0049807982382900108 0 -8.7229560688717532e-06 0.0049936923803328859 0 -5.7871272334870228e-06 0.0049878293852132598 0 -1.111669127308409e-05 0.0049850242018592752 0 -5.0052748485341809e-06 0.0047741795094046 0 -3.8321632011171751e-05 0.0046882542609007136 0 -9.6909071155822028e-05 0.0048012157957929178 0 -3.8321632011171751e-05 0.0046882542609007136 0 -0.00012089440850951342 0.0046540343211177093 0 -9.6909071155822028e-05 0.0048012157957929178 0 -1.3299952181244104e-05 0.0048472395862492901 0 -5.0052748485341809e-06 0.0047741795094046 0 -9.6909071155822028e-05 0.0048012157957929178 0 -5.1018971633054272e-05 0.004901719016350347 0 -1.7813988474508921e-05 0.0049320683913115773 0 -1.3299952181244104e-05 0.0048472395862492901 0 -9.6909071155822028e-05 0.0048012157957929178 0 -1.2319412193637794e-05 0.0049371243764189691 0 -1.111669127308409e-05 0.0049850242018592752 0 -5.0551045878071088e-06 0.0049728418710382463 0 -1.2319412193637794e-05 0.0049371243764189691 0 -4.5583835887037688e-06 0.0049807982382900108 0 -5.0551045878071088e-06 0.0049728418710382463 0 -5.6624101417315887e-06 0.0049809763372868571 0 -1.111669127308409e-05 0.0049850242018592752 0 -4.5583835887037688e-06 0.0049807982382900108 0 -5.0551045878071088e-06 0.0049728418710382463 0 -5.0551045878071088e-06 0.0049728418710382463 0 -5.6624101417315887e-06 0.0049809763372868571 0 -4.3006234082781294e-06 0.0049595753347253593 0 -5.6624101417315887e-06 0.0049809763372868571 0 -4.3006234082781294e-06 0.0049595753347253593 0 -6.9955379765510931e-06 0.0049819286622655324 0 -4.3006234082781294e-06 0.0049595753347253593 0 -1.2319412193637794e-05 0.0049371243764189691 0 -4.3583031418824156e-07 0.0049472871460851369 0 -5.0551045878071088e-06 0.0049728418710382463 0 -4.3006234082781294e-06 0.0049595753347253593 0 -1.2319412193637794e-05 0.0049371243764189691 0 -2.6178808121624696e-06 0.0049933222826678185 0 8.8444954495074752e-10 0.0049999924120232497 0 -6.4986978188551317e-09 0.0049999862405116172 0 -2.6178808121624696e-06 0.0049933222826678185 0 -5.0200478230602678e-06 0.0049911548964560095 0 -6.4986978188551317e-09 0.0049999862405116172 0 -5.6624101417315887e-06 0.0049809763372868571 0 -2.6178808121624696e-06 0.0049933222826678185 0 -5.0200478230602678e-06 0.0049911548964560095 0 -5.6624101417315887e-06 0.0049809763372868571 0 -5.0200478230602678e-06 0.0049911548964560095 0 -6.9955379765510931e-06 0.0049819286622655324 0 -5.3739061130148366e-06 0.004982520466007328 0 -1.9491674518021128e-06 0.0049920742654817139 0 -4.5583835887037688e-06 0.0049807982382900108 0 -5.6624101417315887e-06 0.0049809763372868571 0 -1.2326015583410339e-06 0.0049848673818517252 0 -5.6624101417315887e-06 0.0049809763372868571 0 -2.6178808121624696e-06 0.0049933222826678185 0 -2.4198820080573304e-06 0.0050001194808308178 0 -2.6178808121624696e-06 0.0049933222826678185 0 -2.4198820080573304e-06 0.0050001194808308178 0 8.8444954495074752e-10 0.0049999924120232497 0 -1.2326015583410339e-06 0.0049848673818517252 0 -3.4901619871801791e-06 0.0049934884841790865 0 8.9523758912365843e-09 0.004999976088832128 0 -2.4198820080573304e-06 0.0050001194808308178 0 8.8444954495074752e-10 0.0049999924120232497 0 -1.400798903689939e-09 0.0050000056603612631 0 -1.9491674518021128e-06 0.0049920742654817139 0 -1.0472799712118996e-09 0.0049999968106962719 0 -5.7871272334870228e-06 0.0049878293852132598 0 -1.2326015583410339e-06 0.0049848673818517252 0 -3.4901619871801791e-06 0.0049934884841790865 0 -5.7871272334870228e-06 0.0049878293852132598 0 -4.5583835887037688e-06 0.0049807982382900108 0 -1.2326015583410339e-06 0.0049848673818517252 0 -9.3223004364241199e-05 0.0047642740138060611 0 -3.2962154349785408e-05 0.0048882510322854327 0 -8.7229560688717532e-06 0.0049936923803328859 0 -5.7871272334870228e-06 0.0049878293852132598 0 -3.4901619871801791e-06 0.0049934884841790865 0 -8.7229560688717532e-06 0.0049936923803328859 0 -3.4901619871801791e-06 0.0049934884841790865 0 -2.8155199430235064e-06 0.004998441596410122 0 -3.4901619871801791e-06 0.0049934884841790865 0 8.9523758912365843e-09 0.004999976088832128 0 -2.8155199430235064e-06 0.004998441596410122 0 8.9523758912365843e-09 0.004999976088832128 0 -7.0668297147978608e-09 0.0050000109565438242 0 -2.8155199430235064e-06 0.004998441596410122 0 -9.3088633401602476e-05 0.0047460698495666639 0 -9.3579235120090653e-05 0.0047456461428487832 0 -9.3782649734294908e-05 0.0047453789961244336 0 -5.2119190397470048e-05 0.0048369154733192759 0 -3.2962154349785408e-05 0.0048882510322854327 0 -8.2380526454016546e-11 0.0049999990678339171 0 2.1979675141348926e-07 0.0049996065424946987 0 7.70209937005722e-10 0.0049999981888378415 0 -9.3088633401602476e-05 0.0047460698495666639 0 -9.3579235120090653e-05 0.0047456461428487832 0 -9.3590623486783527e-05 0.0047459123435488661 0 -5.2119190397470048e-05 0.0048369154733192759 0 -6.1367445797437401e-05 0.0048857807029199325 0 -0.00019719329120313885 0.0045415128701555806 0 -8.5341813575843801e-05 0.004713454811843259 0 -9.3579235120090653e-05 0.0047456461428487832 0 -9.3590623486783527e-05 0.0047459123435488661 0 -9.4278147915472806e-05 0.0047448189666141867 0 -9.3590623486783527e-05 0.0047459123435488661 0 -9.4278147915472806e-05 0.0047448189666141867 0 -9.3807105972231104e-05 0.0047455634584602901 0 -9.3579235120090653e-05 0.0047456461428487832 0 -9.4278147915472806e-05 0.0047448189666141867 0 -9.3782649734294908e-05 0.0047453789961244336 0 -9.4367771329300981e-05 0.0047452057110136938 0 -9.4278147915472806e-05 0.0047448189666141867 0 -9.3782649734294908e-05 0.0047453789961244336 0 -0.00024270555776944799 0.004453222047335983 0 -0.00013950368336659304 0.0045386301512254324 0 -0.00014157727785128093 0.0044289248529147734 0 -9.3223004364241199e-05 0.0047642740138060611 0 -0.00019719329120313885 0.0045415128701555806 0 -0.00017976077323682949 0.0046195925734965632 0 -0.00024270555776944799 0.004453222047335983 0 -0.00013950368336659304 0.0045386301512254324 0 -0.00013950368336659304 0.0045386301512254324 0 -7.5887397624404892e-05 0.0044881503341657582 0 -0.00014157727785128093 0.0044289248529147734 0 -7.0533991793063995e-06 0.0045484467805100813 0 -6.3538281414785992e-05 0.0045856100579279441 0 -7.5887397624404892e-05 0.0044881503341657582 0 -6.3538281414785992e-05 0.0045856100579279441 0 -0.00013950368336659304 0.0045386301512254324 0 -7.5887397624404892e-05 0.0044881503341657582 0 -7.0533991793063995e-06 0.0045484467805100813 0 -7.5887397624404892e-05 0.0044881503341657582 0 -1.5739228994522701e-05 0.0044431214596627787 0 4.3249102445556181e-05 0.0043877211780762333 0 -8.2823327279650188e-05 0.0043686341197384567 0 -1.5739228994522701e-05 0.0044431214596627787 0 -7.5887397624404892e-05 0.0044881503341657582 0 -8.2823327279650188e-05 0.0043686341197384567 0 -0.00014157727785128093 0.0044289248529147734 0 -7.5887397624404892e-05 0.0044881503341657582 0 -8.2823327279650188e-05 0.0043686341197384567 0 -1.5739228994522701e-05 0.0044431214596627787 0 -8.2823327279650188e-05 0.0043686341197384567 0 -0.00014157727785128093 0.0044289248529147734 0 -0.00016476253629779504 0.0043014709061721902 0 -0.00024270555776944799 0.004453222047335983 0 -0.00014157727785128093 0.0044289248529147734 0 -0.00016476253629779504 0.0043014709061721902 0 -8.2823327279650188e-05 0.0043686341197384567 0 -0.00016476253629779504 0.0043014709061721902 0 -6.8620278118919595e-05 0.004239713823635461 0 4.3249102445556181e-05 0.0043877211780762333 0 -8.2823327279650188e-05 0.0043686341197384567 0 -6.8620278118919595e-05 0.004239713823635461 0 -0.00016476253629779504 0.0043014709061721902 0 -6.8620278118919595e-05 0.004239713823635461 0 -0.00011384768003281926 0.0041979103297533488 0 -4.1068607286170848e-05 0.0041971732238506795 0 -6.8620278118919595e-05 0.004239713823635461 0 -0.00011384768003281926 0.0041979103297533488 0 -0.00016476253629779504 0.0043014709061721902 0 -0.00011384768003281926 0.0041979103297533488 0 -0.00020160700897742579 0.0041833315091468351 0 3.7566268889566012e-06 0.0049952385152620474 0 1.9414365211898717e-06 0.0049983373353799697 0 1.5878316924844186e-06 0.0049941033953851237 0 -0.00012455627794635601 0.0046314064493118952 0 -8.5341813575843801e-05 0.004713454811843259 0 -0.00016476253629779504 0.0043014709061721902 0 -0.00020160700897742579 0.0041833315091468351 0 -0.00029706204903366467 0.0043013743338239938 0 1.9414365211898717e-06 0.0049983373353799697 0 7.70209937005722e-10 0.0049999981888378415 0 1.1365079132093375e-06 0.0049985633481687206 0 4.1394621871560191e-05 0.0050930981347723035 0 -8.5341813575843801e-05 0.004713454811843259 0 3.2073504598354991e-09 0.0049999954597127099 0 1.9414365211898717e-06 0.0049983373353799697 0 7.70209937005722e-10 0.0049999981888378415 0 2.1979675141348926e-07 0.0049996065424946987 0 7.70209937005722e-10 0.0049999981888378415 0 1.1365079132093375e-06 0.0049985633481687206 0 -6.1367445797437401e-05 0.0048857807029199325 0 -8.5341813575843801e-05 0.004713454811843259 0 -0.00024270555776944799 0.004453222047335983 0 -0.00016476253629779504 0.0043014709061721902 0 -0.00029706204903366467 0.0043013743338239938 0 5.3408569242486889e-06 0.0048528273478261391 0 -1.1392210309650955e-06 0.0049178928891733765 0 4.9937974380881471e-06 0.0049899525425996395 0 -1.0885681305084024e-08 0.0049999677707123448 0 2.2410424112998895e-06 0.0049672187242166162 0 4.9937974380881471e-06 0.0049899525425996395 0 1.9498707467275553e-06 0.0049997455311586855 0 3.6691619182950195e-09 0.0050000038235352377 0 4.9937974380881471e-06 0.0049899525425996395 0 -1.0885681305084024e-08 0.0049999677707123448 0 3.6691619182950195e-09 0.0050000038235352377 0 1.1279803920427578e-05 0.0046996631091917491 0 -1.8896209373394517e-05 0.0047403280656937181 0 -5.4859349780934385e-05 0.0047735561519578569 0 5.3408569242486889e-06 0.0048528273478261391 0 -1.8237272583941108e-05 0.0048852747484342965 0 1.1279803920427578e-05 0.0046996631091917491 0 -3.0924948150801738e-05 0.0046789744614027535 0 -1.8896209373394517e-05 0.0047403280656937181 0 -3.0924948150801738e-05 0.0046789744614027535 0 -8.0754952007279087e-05 0.0046327796050117352 0 -1.6832077970136008e-05 0.0046865862345960929 0 -8.0754952007279087e-05 0.0046327796050117352 0 5.7452558916144996e-06 0.0046188938913236397 0 -1.6832077970136008e-05 0.0046865862345960929 0 -8.0754952007279087e-05 0.0046327796050117352 0 -3.7997916102671399e-05 0.0047470715896177247 0 -0.00011412186621992801 0.0048782860357215263 0 -8.8960970571449574e-05 0.0046372671691707707 0 -0.00011537590135519388 0.004626886281896018 0 -8.0754952007279087e-05 0.0046327796050117352 0 -0.0001235147136077753 0.0043920093017610368 0 -4.0130346097357198e-05 0.0044758285545224031 0 -3.0924948150801738e-05 0.0046789744614027535 0 -8.0754952007279087e-05 0.0046327796050117352 0 -3.7997916102671399e-05 0.0047470715896177247 0 1.1279803920427578e-05 0.0046996631091917491 0 -3.0924948150801738e-05 0.0046789744614027535 0 -3.7997916102671399e-05 0.0047470715896177247 0 1.1279803920427578e-05 0.0046996631091917491 0 -3.7997916102671399e-05 0.0047470715896177247 0 3.5397504519181866e-06 0.0049191780542657843 0 -3.7997916102671399e-05 0.0047470715896177247 0 3.5397504519181866e-06 0.0049191780542657843 0 -0.00011412186621992801 0.0048782860357215263 0 3.5397504519181866e-06 0.0049191780542657843 0 -0.00011412186621992801 0.0048782860357215263 0 -4.0454825818310249e-05 0.0049749541499675412 0 -0.0001235147136077753 0.0043920093017610368 0 -5.7918280219864264e-05 0.0043113469633809477 0 -4.0130346097357198e-05 0.0044758285545224031 0 -0.0001235147136077753 0.0043920093017610368 0 -5.7918280219864264e-05 0.0043113469633809477 0 -0.00012100195200822139 0.0042446455569670385 0 -0.00011412186621992801 0.0048782860357215263 0 -4.0454825818310249e-05 0.0049749541499675412 0 -8.3711955738571982e-05 0.0050340761765864991 0 -0.00011537590135519388 0.004626886281896018 0 -7.5917161718265175e-05 0.0046732923271845259 0 -4.0454825818310249e-05 0.0049749541499675412 0 -3.0117208083703845e-05 0.0049823350752371473 0 -3.1027651495074658e-05 0.0049837303294154693 0 -0.00011838241590202218 0.0049806243893350871 0 -7.5917161718265175e-05 0.0046732923271845259 0 -5.7918280219864264e-05 0.0043113469633809477 0 -0.00010816634765132034 0.0042289340884021139 0 -0.00012100195200822139 0.0042446455569670385 0 3.5397504519181866e-06 0.0049191780542657843 0 -4.0454825818310249e-05 0.0049749541499675412 0 -1.9140466755701407e-06 0.0049681259722061267 0 -4.0454825818310249e-05 0.0049749541499675412 0 -3.0117208083703845e-05 0.0049823350752371473 0 -1.3935685570720861e-05 0.0049847437724665116 0 -4.0454825818310249e-05 0.0049749541499675412 0 -1.9140466755701407e-06 0.0049681259722061267 0 -1.3935685570720861e-05 0.0049847437724665116 0 -1.9140466755701407e-06 0.0049681259722061267 0 2.2410424112998895e-06 0.0049672187242166162 0 -1.3995785649398805e-06 0.0049894277244278999 0 3.5397504519181866e-06 0.0049191780542657843 0 -1.9140466755701407e-06 0.0049681259722061267 0 2.2410424112998895e-06 0.0049672187242166162 0 -1.9140466755701407e-06 0.0049681259722061267 0 -1.3995785649398805e-06 0.0049894277244278999 0 -1.3935685570720861e-05 0.0049847437724665116 0 4.9937974380881471e-06 0.0049899525425996395 0 3.5397504519181866e-06 0.0049191780542657843 0 2.2410424112998895e-06 0.0049672187242166162 0 -1.0885681305084024e-08 0.0049999677707123448 0 2.2410424112998895e-06 0.0049672187242166162 0 1.422949230920311e-08 0.0049999573147928578 0 2.2410424112998895e-06 0.0049672187242166162 0 1.422949230920311e-08 0.0049999573147928578 0 -1.3995785649398805e-06 0.0049894277244278999 0 1.422949230920311e-08 0.0049999573147928578 0 -1.3995785649398805e-06 0.0049894277244278999 0 -3.8565620654107739e-09 0.0050000021421519039 0 -1.3995785649398805e-06 0.0049894277244278999 0 -8.8609891429469457e-06 0.0049946466181895475 0 -1.4303113632117975e-05 0.0049911648880196563 0 -3.9772795810208433e-06 0.0049972788381267294 0 -7.9602968417924829e-06 0.0049957701095651478 0 -8.8609891429469457e-06 0.0049946466181895475 0 -1.3995785649398805e-06 0.0049894277244278999 0 -3.9772795810208433e-06 0.0049972788381267294 0 -8.8609891429469457e-06 0.0049946466181895475 0 -1.3995785649398805e-06 0.0049894277244278999 0 -3.9772795810208433e-06 0.0049972788381267294 0 -3.8565620654107739e-09 0.0050000021421519039 0 -3.9772795810208433e-06 0.0049972788381267294 0 -5.7366500303083258e-06 0.0049944214813357809 0 -6.4986978188551317e-09 0.0049999862405116172 0 -3.9772795810208433e-06 0.0049972788381267294 0 -3.8565620654107739e-09 0.0050000021421519039 0 -6.4986978188551317e-09 0.0049999862405116172 0 -3.9772795810208433e-06 0.0049972788381267294 0 -5.7366500303083258e-06 0.0049944214813357809 0 -7.9602968417924829e-06 0.0049957701095651478 0 -5.0200478230602678e-06 0.0049911548964560095 0 -6.9955379765510931e-06 0.0049819286622655324 0 -7.0865050065994219e-06 0.0049907004793607896 0 -5.7366500303083258e-06 0.0049944214813357809 0 -5.0200478230602678e-06 0.0049911548964560095 0 -7.0865050065994219e-06 0.0049907004793607896 0 -5.7366500303083258e-06 0.0049944214813357809 0 -5.0200478230602678e-06 0.0049911548964560095 0 -6.4986978188551317e-09 0.0049999862405116172 0 -3.3462138760914975e-06 0.0049641422576372019 0 -1.4528334878307506e-06 0.004959189726501158 0 -1.2319412193637794e-05 0.0049371243764189691 0 -4.3583031418824156e-07 0.0049472871460851369 0 -1.9794299415455533e-06 0.0049445710080914564 0 -4.3583031418824156e-07 0.0049472871460851369 0 -1.9794299415455533e-06 0.0049445710080914564 0 -7.5862528050187892e-06 0.0049415820935963884 0 -1.9794299415455533e-06 0.0049445710080914564 0 -7.5862528050187892e-06 0.0049415820935963884 0 1.6069809306909664e-05 0.0049466390513308719 0 -4.3006234082781294e-06 0.0049595753347253593 0 -1.1068127459291118e-06 0.0049917890456581716 0 -6.9955379765510931e-06 0.0049819286622655324 0 -1.1068127459291118e-06 0.0049917890456581716 0 -6.9955379765510931e-06 0.0049819286622655324 0 -7.0865050065994219e-06 0.0049907004793607896 0 -1.1068127459291118e-06 0.0049917890456581716 0 -7.0865050065994219e-06 0.0049907004793607896 0 -7.9602968417924829e-06 0.0049957701095651478 0 -1.1068127459291118e-06 0.0049917890456581716 0 -7.9602968417924829e-06 0.0049957701095651478 0 -1.1872805780988834e-05 0.004995618132283542 0 -5.7366500303083258e-06 0.0049944214813357809 0 -7.0865050065994219e-06 0.0049907004793607896 0 -7.9602968417924829e-06 0.0049957701095651478 0 -1.4528334878307506e-06 0.004959189726501158 0 5.539214966695508e-07 0.0049874051899112173 0 -4.3583031418824156e-07 0.0049472871460851369 0 -7.5862528050187892e-06 0.0049415820935963884 0 1.0907254776671479e-05 0.0049043389417442462 0 -7.5862528050187892e-06 0.0049415820935963884 0 -1.6852115017148963e-05 0.0049140912059174296 0 1.0907254776671479e-05 0.0049043389417442462 0 -1.6852115017148963e-05 0.0049140912059174296 0 -3.8783232524957826e-06 0.0048700463913811326 0 -3.9161539976414771e-05 0.0048941017277053713 0 -1.6852115017148963e-05 0.0049140912059174296 0 1.0907254776671479e-05 0.0049043389417442462 0 -3.8783232524957826e-06 0.0048700463913811326 0 -1.1872805780988834e-05 0.004995618132283542 0 -1.4714890979737429e-05 0.0049934948917419227 0 -2.46301452857595e-05 0.004987807262741408 0 1.0907254776671479e-05 0.0049043389417442462 0 -3.8783232524957826e-06 0.0048700463913811326 0 9.3702556689469714e-06 0.0048355784849932228 0 -3.8783232524957826e-06 0.0048700463913811326 0 1.9832311213802475e-06 0.0048336156057112193 0 -3.9161539976414771e-05 0.0048941017277053713 0 5.539214966695508e-07 0.0049874051899112173 0 -1.8920864168189906e-05 0.0047213235999497213 0 -7.9602968417924829e-06 0.0049957701095651478 0 -1.1872805780988834e-05 0.004995618132283542 0 -1.4714890979737429e-05 0.0049934948917419227 0 -7.9602968417924829e-06 0.0049957701095651478 0 -1.4714890979737429e-05 0.0049934948917419227 0 -8.8609891429469457e-06 0.0049946466181895475 0 -1.4714890979737429e-05 0.0049934948917419227 0 -8.8609891429469457e-06 0.0049946466181895475 0 -1.4303113632117975e-05 0.0049911648880196563 0 -1.4714890979737429e-05 0.0049934948917419227 0 -1.4303113632117975e-05 0.0049911648880196563 0 -2.3287572456333139e-05 0.0049887281101721765 0 -1.4303113632117975e-05 0.0049911648880196563 0 -2.3287572456333139e-05 0.0049887281101721765 0 -2.0055822825781957e-05 0.0049876148304715297 0 -3.0117208083703845e-05 0.0049823350752371473 0 -2.0055822825781957e-05 0.0049876148304715297 0 -1.3935685570720861e-05 0.0049847437724665116 0 -2.3287572456333139e-05 0.0049887281101721765 0 -3.0117208083703845e-05 0.0049823350752371473 0 -2.0055822825781957e-05 0.0049876148304715297 0 -2.3287572456333139e-05 0.0049887281101721765 0 -3.0117208083703845e-05 0.0049823350752371473 0 -2.8506757711842842e-05 0.0049849392893013293 0 -1.4303113632117975e-05 0.0049911648880196563 0 -2.0055822825781957e-05 0.0049876148304715297 0 -1.3935685570720861e-05 0.0049847437724665116 0 -1.3995785649398805e-06 0.0049894277244278999 0 -1.4303113632117975e-05 0.0049911648880196563 0 -1.3935685570720861e-05 0.0049847437724665116 0 -8.2309274373179288e-05 0.0044861504331287763 0 -6.3071692386698018e-05 0.0043997831713866627 0 -3.8783232524957826e-06 0.0048700463913811326 0 9.3702556689469714e-06 0.0048355784849932228 0 1.9832311213802475e-06 0.0048336156057112193 0 -1.4714890979737429e-05 0.0049934948917419227 0 -2.3287572456333139e-05 0.0049887281101721765 0 -2.46301452857595e-05 0.004987807262741408 0 -0.00012666194591312173 0.0045306031980524427 0 -7.0389759285022341e-05 0.0045471120600698569 0 -0.00012330494647674601 0.004616309283275213 0 -1.8920864168189906e-05 0.0047213235999497213 0 -7.5917161718265175e-05 0.0046732923271845259 0 -1.8920864168189906e-05 0.0047213235999497213 0 -8.2309274373179288e-05 0.0044861504331287763 0 -2.3287572456333139e-05 0.0049887281101721765 0 -3.1627621604882388e-05 0.0049866216668328937 0 -2.8506757711842842e-05 0.0049849392893013293 0 5.720926255147785e-06 0.0047870508952176875 0 -1.8920864168189906e-05 0.0047213235999497213 0 -3.1627621604882388e-05 0.0049866216668328937 0 -2.8506757711842842e-05 0.0049849392893013293 0 -3.1027651495074658e-05 0.0049837303294154693 0 -3.0117208083703845e-05 0.0049823350752371473 0 -2.8506757711842842e-05 0.0049849392893013293 0 -3.1027651495074658e-05 0.0049837303294154693 0 -8.2309274373179288e-05 0.0044861504331287763 0 -7.5917161718265175e-05 0.0046732923271845259 0 -0.00010794698894778819 0.0039860225467678954 0 -9.5425427310842501e-05 0.003977980888607251 0 -9.1238824163156351e-05 0.0039852821963215854 0 -0.00010794698894778819 0.0039860225467678954 0 -9.5425427310842501e-05 0.003977980888607251 0 -9.7154952670530162e-05 0.0039679244900963345 0 -8.2309274373179288e-05 0.0044861504331287763 0 -5.479422597283285e-05 0.0040872085426629781 0 -9.5425427310842501e-05 0.003977980888607251 0 -8.5725081119889977e-05 0.0039725885474048419 0 -9.1238824163156351e-05 0.0039852821963215854 0 -8.5725081119889977e-05 0.0039725885474048419 0 -7.8156499046927306e-05 0.0039768282518458159 0 -9.1238824163156351e-05 0.0039852821963215854 0 -8.5725081119889977e-05 0.0039725885474048419 0 -9.7154952670530162e-05 0.0039679244900963345 0 -7.7025606326155247e-05 0.003958865499513178 0 -9.5425427310842501e-05 0.003977980888607251 0 -8.5725081119889977e-05 0.0039725885474048419 0 -9.7154952670530162e-05 0.0039679244900963345 0 -6.3071692386698018e-05 0.0043997831713866627 0 -2.5339673901244733e-05 0.0045543133796452813 0 -1.6852115017148963e-05 0.0049140912059174296 0 -3.9161539976414771e-05 0.0048941017277053713 0 -7.5242280214051461e-05 0.004940739462590691 0 -7.5862528050187892e-06 0.0049415820935963884 0 -1.6852115017148963e-05 0.0049140912059174296 0 -7.5242280214051461e-05 0.004940739462590691 0 -5.2790271733776454e-06 0.0050495003036612248 0 -2.5339673901244733e-05 0.0045543133796452813 0 -9.7154952670530162e-05 0.0039679244900963345 0 -8.5563868630367715e-05 0.0039514916717269246 0 -7.7025606326155247e-05 0.003958865499513178 0 3.9918799268334636e-05 0.0046491034105238518 0 -2.5339673901244733e-05 0.0045543133796452813 0 0.00012963820462154286 0.0049050005782866586 0 5.4928751435511715e-05 0.0049156384930097424 0 5.5644437613645067e-05 0.0049704607628129347 0 5.4928751435511715e-05 0.0049156384930097424 0 5.5644437613645067e-05 0.0049704607628129347 0 1.6069809306909664e-05 0.0049466390513308719 0 -7.5862528050187892e-06 0.0049415820935963884 0 5.5644437613645067e-05 0.0049704607628129347 0 1.6069809306909664e-05 0.0049466390513308719 0 -1.2319412193637794e-05 0.0049371243764189691 0 -1.9794299415455533e-06 0.0049445710080914564 0 1.6069809306909664e-05 0.0049466390513308719 0 -6.5403610548507202e-05 0.0039457901662169319 0 -7.6115196540616612e-05 0.0040456484054915576 0 -7.6115196540616612e-05 0.0040456484054915576 0 -4.2010312461460967e-05 0.0039179764421288007 0 -3.9148319946666632e-05 0.0042998921442598034 0 -1.508580712572282e-05 0.0042917698849806764 0 -2.0869117115555782e-05 0.0043316056292498689 0 -6.5543291111310058e-05 0.0039414455958684327 0 -5.1477797336031193e-05 0.0039422505529811535 0 -4.6708459588251727e-05 0.0039351683148173269 0 -3.9148319946666632e-05 0.0042998921442598034 0 -7.1006034992602461e-05 0.0043404562509184634 0 -2.0869117115555782e-05 0.0043316056292498689 0 -2.5339673901244733e-05 0.0045543133796452813 0 -7.6115196540616612e-05 0.0040456484054915576 0 -8.5563868630367715e-05 0.0039514916717269246 0 -6.6456875883355565e-05 0.0039447145022448379 0 -6.9691254422198418e-05 0.0039487826040422039 0 -8.5563868630367715e-05 0.0039514916717269246 0 -6.9691254422198418e-05 0.0039487826040422039 0 -7.7025606326155247e-05 0.003958865499513178 0 -6.9691254422198418e-05 0.0039487826040422039 0 -6.9901677331720273e-05 0.0039545058981069079 0 -7.7025606326155247e-05 0.003958865499513178 0 -6.9901677331720273e-05 0.0039545058981069079 0 -6.6963557813218117e-05 0.0039576756918839684 0 -7.7025606326155247e-05 0.003958865499513178 0 -6.9691254422198418e-05 0.0039487826040422039 0 -6.9901677331720273e-05 0.0039545058981069079 0 -6.4589618664405242e-05 0.0039510649294219767 0 -6.4589618664405242e-05 0.0039510649294219767 0 -5.9671275729193748e-05 0.0039547172582760966 0 -6.6963557813218117e-05 0.0039576756918839684 0 -6.9901677331720273e-05 0.0039545058981069079 0 -6.4589618664405242e-05 0.0039510649294219767 0 -6.6963557813218117e-05 0.0039576756918839684 0 -6.5543291111310058e-05 0.0039414455958684327 0 -5.6133694831999798e-05 0.003948460976044804 0 -5.1477797336031193e-05 0.0039422505529811535 0 -6.5543291111310058e-05 0.0039414455958684327 0 -6.4589618664405242e-05 0.0039510649294219767 0 -5.6133694831999798e-05 0.003948460976044804 0 -6.5543291111310058e-05 0.0039414455958684327 0 -6.9691254422198418e-05 0.0039487826040422039 0 -6.4589618664405242e-05 0.0039510649294219767 0 -7.6115196540616612e-05 0.0040456484054915576 0 -4.7916465954809588e-05 0.0039695340180311229 0 -6.4589618664405242e-05 0.0039510649294219767 0 -5.6133694831999798e-05 0.003948460976044804 0 -5.9671275729193748e-05 0.0039547172582760966 0 -5.6133694831999798e-05 0.003948460976044804 0 -5.9671275729193748e-05 0.0039547172582760966 0 -5.2341640334746733e-05 0.0039556893747557161 0 -5.9671275729193748e-05 0.0039547172582760966 0 -5.9995467839929934e-05 0.0039623093969483464 0 -5.2341640334746733e-05 0.0039556893747557161 0 -5.9671275729193748e-05 0.0039547172582760966 0 -6.6963557813218117e-05 0.0039576756918839684 0 -5.9995467839929934e-05 0.0039623093969483464 0 -5.9995467839929934e-05 0.0039623093969483464 0 -7.2491730379018219e-05 0.003966352422737511 0 -6.7391200223592703e-05 0.0039706363112017914 0 -6.6963557813218117e-05 0.0039576756918839684 0 -5.9995467839929934e-05 0.0039623093969483464 0 -7.2491730379018219e-05 0.003966352422737511 0 -5.9995467839929934e-05 0.0039623093969483464 0 -5.2939784575505044e-05 0.003963775950093805 0 -5.2341640334746733e-05 0.0039556893747557161 0 -8.5725081119889977e-05 0.0039725885474048419 0 -7.7025606326155247e-05 0.003958865499513178 0 -7.2491730379018219e-05 0.003966352422737511 0 -6.6963557813218117e-05 0.0039576756918839684 0 -7.7025606326155247e-05 0.003958865499513178 0 -7.2491730379018219e-05 0.003966352422737511 0 -7.8156499046927306e-05 0.0039768282518458159 0 -6.7391200223592703e-05 0.0039706363112017914 0 -6.8152357876478934e-05 0.0039793803779767066 0 -8.5725081119889977e-05 0.0039725885474048419 0 -7.2491730379018219e-05 0.003966352422737511 0 -7.8156499046927306e-05 0.0039768282518458159 0 -7.2491730379018219e-05 0.003966352422737511 0 -7.8156499046927306e-05 0.0039768282518458159 0 -6.7391200223592703e-05 0.0039706363112017914 0 -5.9995467839929934e-05 0.0039623093969483464 0 -5.5663275390486516e-05 0.0039685379415696012 0 -5.2939784575505044e-05 0.003963775950093805 0 -5.9995467839929934e-05 0.0039623093969483464 0 -5.5663275390486516e-05 0.0039685379415696012 0 -6.7391200223592703e-05 0.0039706363112017914 0 -5.5663275390486516e-05 0.0039685379415696012 0 -6.7391200223592703e-05 0.0039706363112017914 0 -6.8152357876478934e-05 0.0039793803779767066 0 -5.5663275390486516e-05 0.0039685379415696012 0 -5.1341649855621811e-05 0.0039733043809094121 0 -6.8152357876478934e-05 0.0039793803779767066 0 -5.5663275390486516e-05 0.0039685379415696012 0 -5.1341649855621811e-05 0.0039733043809094121 0 -4.8595795401770129e-05 0.0039677359436804159 0 5.2434257859573144e-05 0.0041309231308267582 0 1.7404183986913837e-05 0.004140622766956043 0 -5.1341649855621811e-05 0.0039733043809094121 0 -5.6760945623237299e-05 0.0039792514274900126 0 -3.9909188734263156e-05 0.0039727088926075557 0 -6.8152357876478934e-05 0.0039793803779767066 0 -7.0548029586757987e-05 0.0040078962374596053 0 -7.7612294579350498e-05 0.0039846304492025288 0 0.00015104666401327433 0.0042624409893313947 0 0.00012405858600639166 0.004305536385891171 0 0.00010450866317634146 0.0042870462252745838 0 -5.1341649855621811e-05 0.0039733043809094121 0 -5.6760945623237299e-05 0.0039792514274900126 0 -6.8152357876478934e-05 0.0039793803779767066 0 -5.6760945623237299e-05 0.0039792514274900126 0 -6.8152357876478934e-05 0.0039793803779767066 0 -7.0548029586757987e-05 0.0040078962374596053 0 -5.6760945623237299e-05 0.0039792514274900126 0 -7.0548029586757987e-05 0.0040078962374596053 0 -3.9909188734263156e-05 0.0039727088926075557 0 0.00014167661934872013 0.0042862263386196659 0 0.00015560032448091283 0.0042855438924005191 0 0.00012254594530370925 0.0043479445539085677 0 0.00015104666401327433 0.0042624409893313947 0 0.00014167661934872013 0.0042862263386196659 0 0.00015555855522207755 0.0042349596501045387 0 0.00015104666401327433 0.0042624409893313947 0 0.00014167661934872013 0.0042862263386196659 0 0.00012405858600639166 0.004305536385891171 0 0.00014167661934872013 0.0042862263386196659 0 0.00012405858600639166 0.004305536385891171 0 0.00012254594530370925 0.0043479445539085677 0 0.00014167661934872013 0.0042862263386196659 0 0.00015560032448091283 0.0042855438924005191 0 0.00015555855522207755 0.0042349596501045387 0 0.00012405858600639166 0.004305536385891171 0 0.00010450866317634146 0.0042870462252745838 0 8.4932744124080923e-05 0.0043555034344198891 0 0.00012405858600639166 0.004305536385891171 0 8.4932744124080923e-05 0.0043555034344198891 0 0.00012254594530370925 0.0043479445539085677 0 -7.8156499046927306e-05 0.0039768282518458159 0 -6.8152357876478934e-05 0.0039793803779767066 0 -7.7612294579350498e-05 0.0039846304492025288 0 0.00010450866317634146 0.0042870462252745838 0 1.7972765354130902e-05 0.0042691541572127626 0 8.4932744124080923e-05 0.0043555034344198891 0 1.7404183986913837e-05 0.004140622766956043 0 -5.479422597283285e-05 0.0040872085426629781 0 -7.8156499046927306e-05 0.0039768282518458159 0 -7.7612294579350498e-05 0.0039846304492025288 0 -9.1238824163156351e-05 0.0039852821963215854 0 -5.7918280219864264e-05 0.0043113469633809477 0 1.7972765354130902e-05 0.0042691541572127626 0 2.066131376505305e-05 0.0043967237166370032 0 -5.7918280219864264e-05 0.0043113469633809477 0 -0.00010816634765132034 0.0042289340884021139 0 1.7972765354130902e-05 0.0042691541572127626 0 -5.7918280219864264e-05 0.0043113469633809477 0 2.066131376505305e-05 0.0043967237166370032 0 -4.0130346097357198e-05 0.0044758285545224031 0 1.7972765354130902e-05 0.0042691541572127626 0 2.066131376505305e-05 0.0043967237166370032 0 8.4932744124080923e-05 0.0043555034344198891 0 2.066131376505305e-05 0.0043967237166370032 0 8.4932744124080923e-05 0.0043555034344198891 0 7.9979013146055941e-05 0.0044399239306252714 0 2.066131376505305e-05 0.0043967237166370032 0 7.9979013146055941e-05 0.0044399239306252714 0 1.1311519662050386e-05 0.0045231355302532972 0 2.066131376505305e-05 0.0043967237166370032 0 1.1311519662050386e-05 0.0045231355302532972 0 -4.0130346097357198e-05 0.0044758285545224031 0 -8.0754952007279087e-05 0.0046327796050117352 0 1.1311519662050386e-05 0.0045231355302532972 0 -4.0130346097357198e-05 0.0044758285545224031 0 -8.0754952007279087e-05 0.0046327796050117352 0 1.1311519662050386e-05 0.0045231355302532972 0 5.7452558916144996e-06 0.0046188938913236397 0 1.1311519662050386e-05 0.0045231355302532972 0 5.7452558916144996e-06 0.0046188938913236397 0 5.4530178198807694e-05 0.0045355249559521464 0 7.9979013146055941e-05 0.0044399239306252714 0 1.1311519662050386e-05 0.0045231355302532972 0 5.4530178198807694e-05 0.0045355249559521464 0 5.4530178198807694e-05 0.0045355249559521464 0 0.00011099987951663288 0.00448117769328893 0 5.983636641237224e-05 0.0046097386351067471 0 7.9979013146055941e-05 0.0044399239306252714 0 5.4530178198807694e-05 0.0045355249559521464 0 0.00011099987951663288 0.00448117769328893 0 7.9979013146055941e-05 0.0044399239306252714 0 0.00011099987951663288 0.00448117769328893 0 0.00012921984248917347 0.0043900685655561093 0 0.00016659150459648193 0.0043669869135205411 0 0.00020818619294823729 0.0043945384019814134 0 0.00015124090745914575 0.0044882117491709317 0 0.00011099987951663288 0.00448117769328893 0 0.00016659150459648193 0.0043669869135205411 0 0.00015124090745914575 0.0044882117491709317 0 0.00011099987951663288 0.00448117769328893 0 0.00016659150459648193 0.0043669869135205411 0 0.00012921984248917347 0.0043900685655561093 0 0.00012921984248917347 0.0043900685655561093 0 0.00015560032448091283 0.0042855438924005191 0 0.00012254594530370925 0.0043479445539085677 0 0.00016659150459648193 0.0043669869135205411 0 0.00012921984248917347 0.0043900685655561093 0 0.00015560032448091283 0.0042855438924005191 0 7.9979013146055941e-05 0.0044399239306252714 0 0.00012921984248917347 0.0043900685655561093 0 0.00012254594530370925 0.0043479445539085677 0 8.4932744124080923e-05 0.0043555034344198891 0 7.9979013146055941e-05 0.0044399239306252714 0 0.00012254594530370925 0.0043479445539085677 0 0.0002194627947275209 0.004260877232878952 0 0.00032963676490389788 0.004221925464759654 0 0.0002776158070316868 0.0040963884224641464 0 0.00016659150459648193 0.0043669869135205411 0 0.00015560032448091283 0.0042855438924005191 0 0.0002194627947275209 0.004260877232878952 0 0.00015560032448091283 0.0042855438924005191 0 0.0002194627947275209 0.004260877232878952 0 0.00017388796791349744 0.0041084118233679903 0 0.00016659150459648193 0.0043669869135205411 0 0.0002194627947275209 0.004260877232878952 0 0.00020818619294823729 0.0043945384019814134 0 0.0002194627947275209 0.004260877232878952 0 0.00028855553735112352 0.0043299780239975019 0 0.00032963676490389788 0.004221925464759654 0 0.0002194627947275209 0.004260877232878952 0 0.00020818619294823729 0.0043945384019814134 0 0.00028855553735112352 0.0043299780239975019 0 0.00028855553735112352 0.0043299780239975019 0 0.00032963676490389788 0.004221925464759654 0 0.00041607812557953224 0.0043268522596368857 0 0.00039954185847542232 0.00423086264370434 0 0.00032963676490389788 0.004221925464759654 0 0.00041607812557953224 0.0043268522596368857 0 0.00039954185847542232 0.00423086264370434 0 0.00032963676490389788 0.004221925464759654 0 0.00038065101192803996 0.0040512995411736618 0 0.00032963676490389788 0.004221925464759654 0 0.0002776158070316868 0.0040963884224641464 0 0.00038065101192803996 0.0040512995411736618 0 0.0002776158070316868 0.0040963884224641464 0 0.00031610330838244494 0.0039256384972889699 0 0.000240468071868378 0.0038909911367174988 0 0.0002776158070316868 0.0040963884224641464 0 0.00038065101192803996 0.0040512995411736618 0 0.00031610330838244494 0.0039256384972889699 0 0.00038065101192803996 0.0040512995411736618 0 0.00038131278929178359 0.0038365714662019095 0 0.00045468789103527666 0.0038908689424104644 0 0.00038065101192803996 0.0040512995411736618 0 0.00038131278929178359 0.0038365714662019095 0 0.00031610330838244494 0.0039256384972889699 0 0.00038131278929178359 0.0038365714662019095 0 0.00033316638777889637 0.0037908342410579799 0 0.00031610330838244494 0.0039256384972889699 0 0.00038131278929178359 0.0038365714662019095 0 0.00033316638777889637 0.0037908342410579799 0 0.00036475248433349945 0.0036761351822482569 0 0.00033316638777889637 0.0037908342410579799 0 0.00031610330838244494 0.0039256384972889699 0 0.000240468071868378 0.0038909911367174988 0 0.00033316638777889637 0.0037908342410579799 0 0.000240468071868378 0.0038909911367174988 0 0.00027887730844434073 0.0037586533217557607 0 0.000240468071868378 0.0038909911367174988 0 0.00013723043088895617 0.0039334301230042725 0 0.00015846059779653989 0.0037809325344013915 0 0.000240468071868378 0.0038909911367174988 0 0.00013723043088895617 0.0039334301230042725 0 0.00017388796791349744 0.0041084118233679903 0 0.0002776158070316868 0.0040963884224641464 0 0.000240468071868378 0.0038909911367174988 0 0.00017388796791349744 0.0041084118233679903 0 0.0002194627947275209 0.004260877232878952 0 0.0002776158070316868 0.0040963884224641464 0 0.00017388796791349744 0.0041084118233679903 0 0.00015560032448091283 0.0042855438924005191 0 0.00017388796791349744 0.0041084118233679903 0 0.00015555855522207755 0.0042349596501045387 0 5.2434257859573144e-05 0.0041309231308267582 0 0.00017125870315149366 0.0041231003719150172 0 0.00015104666401327433 0.0042624409893313947 0 0.00017388796791349744 0.0041084118233679903 0 0.00015555855522207755 0.0042349596501045387 0 0.00013723043088895617 0.0039334301230042725 0 0.00017388796791349744 0.0041084118233679903 0 -3.9909188734263156e-05 0.0039727088926075557 0 -3.9909188734263156e-05 0.0039727088926075557 0 -4.3615604847669442e-05 0.0039718138463654502 0 -3.9712485238200703e-05 0.0039729147398395656 0 -2.9212887330537928e-05 0.0039604986250811672 0 4.8190710891332919e-05 0.0038872627838308716 0 -7.0548029586757987e-05 0.0040078962374596053 0 0.00017388796791349744 0.0041084118233679903 0 -3.9909188734263156e-05 0.0039727088926075557 0 0.00013723043088895617 0.0039334301230042725 0 -3.9909188734263156e-05 0.0039727088926075557 0 0.00015846059779653989 0.0037809325344013915 0 -5.1341649855621811e-05 0.0039733043809094121 0 -3.9909188734263156e-05 0.0039727088926075557 0 -4.3615604847669442e-05 0.0039718138463654502 0 -5.1341649855621811e-05 0.0039733043809094121 0 -4.3615604847669442e-05 0.0039718138463654502 0 -4.8595795401770129e-05 0.0039677359436804159 0 -4.3615604847669442e-05 0.0039718138463654502 0 -4.2409062369636311e-05 0.003965931483177294 0 -3.9712485238200703e-05 0.0039729147398395656 0 -4.2409062369636311e-05 0.003965931483177294 0 -4.8595795401770129e-05 0.0039677359436804159 0 -4.6855262810315534e-05 0.0039616387725735138 0 -4.3615604847669442e-05 0.0039718138463654502 0 -4.2409062369636311e-05 0.003965931483177294 0 -4.8595795401770129e-05 0.0039677359436804159 0 -5.5663275390486516e-05 0.0039685379415696012 0 -4.8595795401770129e-05 0.0039677359436804159 0 -5.2939784575505044e-05 0.003963775950093805 0 -4.8595795401770129e-05 0.0039677359436804159 0 -5.2939784575505044e-05 0.003963775950093805 0 -4.6855262810315534e-05 0.0039616387725735138 0 0.000240468071868378 0.0038909911367174988 0 0.00015846059779653989 0.0037809325344013915 0 0.00027887730844434073 0.0037586533217557607 0 -4.2409062369636311e-05 0.003965931483177294 0 -3.9712485238200703e-05 0.0039729147398395656 0 -3.4469279972637743e-05 0.0039593722329884385 0 -3.9712485238200703e-05 0.0039729147398395656 0 -3.4469279972637743e-05 0.0039593722329884385 0 -1.7788081153364027e-05 0.003954256491440016 0 -3.5506746338472986e-05 0.0039456976559518091 0 -2.4081385577551687e-05 0.0039411715635886396 0 -3.2903679094591189e-05 0.0039509645744673074 0 -3.5098542441461379e-05 0.0039439350683265414 0 -1.7788081153364027e-05 0.003954256491440016 0 -3.4469279972637743e-05 0.0039593722329884385 0 -3.2903679094591189e-05 0.0039509645744673074 0 -1.7788081153364027e-05 0.003954256491440016 0 -4.2409062369636311e-05 0.003965931483177294 0 -3.4469279972637743e-05 0.0039593722329884385 0 -3.9074923622311031e-05 0.0039563567425564584 0 -3.4469279972637743e-05 0.0039593722329884385 0 -3.9074923622311031e-05 0.0039563567425564584 0 -3.2903679094591189e-05 0.0039509645744673074 0 -3.9074923622311031e-05 0.0039563567425564584 0 -3.2903679094591189e-05 0.0039509645744673074 0 -3.948907951810298e-05 0.003949543063035907 0 -5.2939784575505044e-05 0.003963775950093805 0 -4.6855262810315534e-05 0.0039616387725735138 0 -5.2341640334746733e-05 0.0039556893747557161 0 -3.9074923622311031e-05 0.0039563567425564584 0 -4.6855262810315534e-05 0.0039616387725735138 0 -4.4705633908254928e-05 0.0039539208718983422 0 -4.2409062369636311e-05 0.003965931483177294 0 -3.9074923622311031e-05 0.0039563567425564584 0 -4.6855262810315534e-05 0.0039616387725735138 0 -3.9074923622311031e-05 0.0039563567425564584 0 -4.4705633908254928e-05 0.0039539208718983422 0 -3.948907951810298e-05 0.003949543063035907 0 -4.6855262810315534e-05 0.0039616387725735138 0 -4.4705633908254928e-05 0.0039539208718983422 0 -5.2341640334746733e-05 0.0039556893747557161 0 -4.4705633908254928e-05 0.0039539208718983422 0 -5.2341640334746733e-05 0.0039556893747557161 0 -4.5797212706830457e-05 0.0039465851693675398 0 -5.6133694831999798e-05 0.003948460976044804 0 -5.2341640334746733e-05 0.0039556893747557161 0 -4.5797212706830457e-05 0.0039465851693675398 0 -5.6133694831999798e-05 0.003948460976044804 0 -5.1477797336031193e-05 0.0039422505529811535 0 -4.5797212706830457e-05 0.0039465851693675398 0 -5.1477797336031193e-05 0.0039422505529811535 0 -4.2976166242908901e-05 0.0039398721307602148 0 -4.5797212706830457e-05 0.0039465851693675398 0 -4.2976166242908901e-05 0.0039398721307602148 0 -4.5797212706830457e-05 0.0039465851693675398 0 -3.9823029313343624e-05 0.0039452697000244476 0 -4.4705633908254928e-05 0.0039539208718983422 0 -4.5797212706830457e-05 0.0039465851693675398 0 -3.948907951810298e-05 0.003949543063035907 0 -4.5797212706830457e-05 0.0039465851693675398 0 -3.948907951810298e-05 0.003949543063035907 0 -3.9823029313343624e-05 0.0039452697000244476 0 -3.8394012423637042e-05 0.0038814136776923864 0 -5.1507046147892995e-05 0.0038863535622743642 0 -1.7788081153364027e-05 0.003954256491440016 0 -3.948907951810298e-05 0.003949543063035907 0 -3.6398468717598845e-05 0.0039472240707401456 0 -3.9823029313343624e-05 0.0039452697000244476 0 -3.2903679094591189e-05 0.0039509645744673074 0 -3.6398468717598845e-05 0.0039472240707401456 0 -3.5098542441461379e-05 0.0039439350683265414 0 -3.2903679094591189e-05 0.0039509645744673074 0 -3.948907951810298e-05 0.003949543063035907 0 -3.6398468717598845e-05 0.0039472240707401456 0 -3.6398468717598845e-05 0.0039472240707401456 0 -3.9823029313343624e-05 0.0039452697000244476 0 -3.5098542441461379e-05 0.0039439350683265414 0 9.3376749151691143e-05 0.0034788669852442115 0 9.1345069904790846e-05 0.0034125623550633152 0 0.00012525258507615597 0.0034511589549846735 0 9.3376749151691143e-05 0.0034788669852442115 0 0.00012525258507615597 0.0034511589549846735 0 0.00012573572331222148 0.003476057870185846 0 -4.2976166242908901e-05 0.0039398721307602148 0 -3.9823029313343624e-05 0.0039452697000244476 0 -3.5098542441461379e-05 0.0039439350683265414 0 -3.8394012423637042e-05 0.0038814136776923864 0 -5.1507046147892995e-05 0.0038863535622743642 0 -9.3622438544415916e-05 0.0037915648261525382 0 -4.2976166242908901e-05 0.0039398721307602148 0 -3.5098542441461379e-05 0.0039439350683265414 0 -4.4279330825130156e-05 0.0039251706435365127 0 9.3376749151691143e-05 0.0034788669852442115 0 9.1345069904790846e-05 0.0034125623550633152 0 1.0414282002344945e-05 0.0033585795595865776 0 9.5794415520430954e-06 0.0036575281851788104 0 -5.8459847078873947e-05 0.0037013156537378748 0 -3.5506746338472986e-05 0.0039456976559518091 0 -5.8459847078873947e-05 0.0037013156537378748 0 9.1345069904790846e-05 0.0034125623550633152 0 0.0001344081990543864 0.0034198425776922332 0 0.00012525258507615597 0.0034511589549846735 0 9.1345069904790846e-05 0.0034125623550633152 0 0.00011139820734504075 0.0033967884206721104 0 0.0001344081990543864 0.0034198425776922332 0 0.00011139820734504075 0.0033967884206721104 0 8.7432319550353503e-05 0.0033698928419362015 0 0.00013969575663052661 0.0033835543267859429 0 9.1345069904790846e-05 0.0034125623550633152 0 0.00011139820734504075 0.0033967884206721104 0 8.7432319550353503e-05 0.0033698928419362015 0 9.1345069904790846e-05 0.0034125623550633152 0 8.7432319550353503e-05 0.0033698928419362015 0 1.0414282002344945e-05 0.0033585795595865776 0 -5.2302458053974228e-05 0.0039142283553329762 0 -4.4279330825130156e-05 0.0039251706435365127 0 -4.6708459588251727e-05 0.0039351683148173269 0 -5.2302458053974228e-05 0.0039142283553329762 0 -7.0367441650365326e-05 0.0039389151936610207 0 -4.6708459588251727e-05 0.0039351683148173269 0 -4.2976166242908901e-05 0.0039398721307602148 0 -4.4279330825130156e-05 0.0039251706435365127 0 -4.6708459588251727e-05 0.0039351683148173269 0 -5.1477797336031193e-05 0.0039422505529811535 0 -4.2976166242908901e-05 0.0039398721307602148 0 -4.6708459588251727e-05 0.0039351683148173269 0 0.00023464236259047668 0.0034258369480390637 0 0.00028043017869541352 0.0033838782598289404 0 0.00025584504760753352 0.0034616493807299443 0 0.00023464236259047668 0.0034258369480390637 0 0.00024167333084643266 0.0033868017218566791 0 0.00021065815520824961 0.003385957641264948 0 0.00023568231954132986 0.003342540103675629 0 0.00028043017869541352 0.0033838782598289404 0 0.00024167333084643266 0.0033868017218566791 0 0.00023464236259047668 0.0034258369480390637 0 0.00028043017869541352 0.0033838782598289404 0 0.00024167333084643266 0.0033868017218566791 0 0.00023568231954132986 0.003342540103675629 0 0.00024167333084643266 0.0033868017218566791 0 0.00021065815520824961 0.003385957641264948 0 0.000189823716950495 0.0033445114062337932 0 0.00023568231954132986 0.003342540103675629 0 0.00021065815520824961 0.003385957641264948 0 0.000189823716950495 0.0033445114062337932 0 0.00017503921182021991 0.0033791457906325365 0 0.00021065815520824961 0.003385957641264948 0 0.00014480801017250741 0.0033476425979544972 0 0.000189823716950495 0.0033445114062337932 0 0.00017503921182021991 0.0033791457906325365 0 0.00017503921182021991 0.0033791457906325365 0 0.00021065815520824961 0.003385957641264948 0 0.00017901513145959783 0.0034149827333764485 0 0.00014480801017250741 0.0033476425979544972 0 8.7432319550353503e-05 0.0033698928419362015 0 0.00013969575663052661 0.0033835543267859429 0 0.00014480801017250741 0.0033476425979544972 0 0.00017503921182021991 0.0033791457906325365 0 0.00013969575663052661 0.0033835543267859429 0 0.00017503921182021991 0.0033791457906325365 0 0.00013969575663052661 0.0033835543267859429 0 0.00017901513145959783 0.0034149827333764485 0 0.00011139820734504075 0.0033967884206721104 0 0.00013969575663052661 0.0033835543267859429 0 0.0001344081990543864 0.0034198425776922332 0 0.00013969575663052661 0.0033835543267859429 0 0.0001344081990543864 0.0034198425776922332 0 0.00017901513145959783 0.0034149827333764485 0 0.0001344081990543864 0.0034198425776922332 0 0.00017901513145959783 0.0034149827333764485 0 0.00016691977009249842 0.0034463788046358362 0 0.0001344081990543864 0.0034198425776922332 0 0.00016691977009249842 0.0034463788046358362 0 0.00012525258507615597 0.0034511589549846735 0 0.00023464236259047668 0.0034258369480390637 0 0.00021065815520824961 0.003385957641264948 0 0.00017901513145959783 0.0034149827333764485 0 0.00023464236259047668 0.0034258369480390637 0 0.00017901513145959783 0.0034149827333764485 0 0.00019829262632060061 0.0034535923412711842 0 0.00017901513145959783 0.0034149827333764485 0 0.00019829262632060061 0.0034535923412711842 0 0.00016691977009249842 0.0034463788046358362 0 9.3376749151691143e-05 0.0034788669852442115 0 0.00015907071006231847 0.0035245006902287169 0 0.00018172808338210814 0.0036021705787021396 0 9.5794415520430954e-06 0.0036575281851788104 0 0.00019399479371776254 0.0037522371352902662 0 0.00019829262632060061 0.0034535923412711842 0 0.00016691977009249842 0.0034463788046358362 0 0.00018099977680186658 0.0034896481272485265 0 0.00019829262632060061 0.0034535923412711842 0 0.00018099977680186658 0.0034896481272485265 0 0.00022485607443968451 0.0034771094599262259 0 0.00018099977680186658 0.0034896481272485265 0 0.00022216119187218702 0.0035138262507186848 0 0.00022485607443968451 0.0034771094599262259 0 0.00012525258507615597 0.0034511589549846735 0 0.00014577786374565652 0.0034724516711930023 0 0.00012573572331222148 0.003476057870185846 0 0.00016691977009249842 0.0034463788046358362 0 0.00018099977680186658 0.0034896481272485265 0 0.00014577786374565652 0.0034724516711930023 0 0.00016691977009249842 0.0034463788046358362 0 0.00012525258507615597 0.0034511589549846735 0 0.00014577786374565652 0.0034724516711930023 0 0.00018099977680186658 0.0034896481272485265 0 0.00014577786374565652 0.0034724516711930023 0 0.00014029605119133924 0.0034921728742955175 0 9.3376749151691143e-05 0.0034788669852442115 0 0.00014029605119133924 0.0034921728742955175 0 0.00012573572331222148 0.003476057870185846 0 0.00014577786374565652 0.0034724516711930023 0 0.00014029605119133924 0.0034921728742955175 0 0.00012573572331222148 0.003476057870185846 0 9.3376749151691143e-05 0.0034788669852442115 0 0.00014029605119133924 0.0034921728742955175 0 0.00015907071006231847 0.0035245006902287169 0 0.00018099977680186658 0.0034896481272485265 0 0.00014029605119133924 0.0034921728742955175 0 0.00015907071006231847 0.0035245006902287169 0 0.00018099977680186658 0.0034896481272485265 0 0.00019105530907068986 0.0035184511434519692 0 0.00022216119187218702 0.0035138262507186848 0 0.00018099977680186658 0.0034896481272485265 0 0.00015907071006231847 0.0035245006902287169 0 0.00019105530907068986 0.0035184511434519692 0 0.00015907071006231847 0.0035245006902287169 0 0.00019105530907068986 0.0035184511434519692 0 0.00020204257992471444 0.0035458294809259934 0 0.00019105530907068986 0.0035184511434519692 0 0.00022216119187218702 0.0035138262507186848 0 0.00020204257992471444 0.0035458294809259934 0 0.00033861043037214595 0.0032679512828402511 0 0.00034264277819826331 0.0034274541953601113 0 0.0003918568990181711 0.0033892314561500877 0 0.00028043017869541352 0.0033838782598289404 0 0.00025584504760753352 0.0034616493807299443 0 0.00028624786344548162 0.0035202930736614149 0 0.0002487944741575362 0.0034949655179472381 0 0.00022216119187218702 0.0035138262507186848 0 0.00028624786344548162 0.0035202930736614149 0 0.00030901476418563592 0.0033213835426766543 0 0.00034833181328571661 0.0035061285467358136 0 0.00022216119187218702 0.0035138262507186848 0 0.00028624786344548162 0.0035202930736614149 0 0.00020204257992471444 0.0035458294809259934 0 0.0002487944741575362 0.0034949655179472381 0 0.00022216119187218702 0.0035138262507186848 0 0.00022485607443968451 0.0034771094599262259 0 0.00023464236259047668 0.0034258369480390637 0 0.00019829262632060061 0.0034535923412711842 0 0.00022485607443968451 0.0034771094599262259 0 0.00023464236259047668 0.0034258369480390637 0 0.00022485607443968451 0.0034771094599262259 0 0.00025584504760753352 0.0034616493807299443 0 0.0002487944741575362 0.0034949655179472381 0 0.00022485607443968451 0.0034771094599262259 0 0.00025584504760753352 0.0034616493807299443 0 0.0002487944741575362 0.0034949655179472381 0 0.00025584504760753352 0.0034616493807299443 0 0.00028624786344548162 0.0035202930736614149 0 0.00034833181328571661 0.0035061285467358136 0 0.00039461789132115452 0.003426263519082812 0 0.00034127638320605305 0.0034083945375072188 0 0.00036475248433349945 0.0036761351822482569 0 0.00040719730828955641 0.0035212446219309388 0 0.00034986507000939687 0.0036773019805629924 0 0.00035075427428930952 0.0036817424221988978 0 0.00036475248433349945 0.0036761351822482569 0 0.00034833181328571661 0.0035061285467358136 0 0.00019399479371776254 0.0037522371352902662 0 0.00028624786344548162 0.0035202930736614149 0 0.00020204257992471444 0.0035458294809259934 0 0.00018172808338210814 0.0036021705787021396 0 0.00034833181328571661 0.0035061285467358136 0 0.00036174028042095739 0.003686381247576827 0 0.00034986507000939687 0.0036773019805629924 0 0.00035075427428930952 0.0036817424221988978 0 0.00034005031469395351 0.0036789726032065346 0 0.00035075427428930952 0.0036817424221988978 0 0.00034005031469395351 0.0036789726032065346 0 0.00034176326928578576 0.0036998601536009962 0 -3.8394012423637042e-05 0.0038814136776923864 0 -3.4507937514301e-06 0.003949164449508223 0 -1.7788081153364027e-05 0.003954256491440016 0 0.00015907071006231847 0.0035245006902287169 0 0.00020204257992471444 0.0035458294809259934 0 0.00018172808338210814 0.0036021705787021396 0 0.00019399479371776254 0.0037522371352902662 0 0.0003126094947108041 0.0037125846626914006 0 4.8190710891332919e-05 0.0038872627838308716 0 0.00019399479371776254 0.0037522371352902662 0 -3.9712485238200703e-05 0.0039729147398395656 0 -3.4507937514301e-06 0.003949164449508223 0 -1.7788081153364027e-05 0.003954256491440016 0 0.00015846059779653989 0.0037809325344013915 0 0.00029687496976191566 0.003642321028703118 0 0.00027887730844434073 0.0037586533217557607 0 0.00029687496976191566 0.003642321028703118 0 0.00027887730844434073 0.0037586533217557607 0 0.00034176326928578576 0.0036998601536009962 0 0.00033316638777889637 0.0037908342410579799 0 0.00027887730844434073 0.0037586533217557607 0 0.00034176326928578576 0.0036998601536009962 0 0.00035075427428930952 0.0036817424221988978 0 0.00034176326928578576 0.0036998601536009962 0 0.00036475248433349945 0.0036761351822482569 0 0.00033316638777889637 0.0037908342410579799 0 0.00034176326928578576 0.0036998601536009962 0 0.00036475248433349945 0.0036761351822482569 0 0.00036475248433349945 0.0036761351822482569 0 0.00042360382424992595 0.0035953402261864448 0 0.00045272236252689324 0.0037078689500541087 0 0.00042360382424992595 0.0035953402261864448 0 0.00047076100919331998 0.0035022778173776931 0 0.00045272236252689324 0.0037078689500541087 0 0.00042360382424992595 0.0035953402261864448 0 0.00047076100919331998 0.0035022778173776931 0 0.00040719730828955641 0.0035212446219309388 0 0.00036475248433349945 0.0036761351822482569 0 0.00042360382424992595 0.0035953402261864448 0 0.00040719730828955641 0.0035212446219309388 0 0.00047076100919331998 0.0035022778173776931 0 0.00063326635373166338 0.0035360314751495666 0 0.00057491538636828357 0.0036824544051671936 0 0.00047076100919331998 0.0035022778173776931 0 0.00057491538636828357 0.0036824544051671936 0 0.00045272236252689324 0.0037078689500541087 0 0.00047076100919331998 0.0035022778173776931 0 0.00056581093393464807 0.0032731434073022055 0 0.00063326635373166338 0.0035360314751495666 0 0.00047076100919331998 0.0035022778173776931 0 0.00050636223448431467 0.003257625311757285 0 0.00043030838123574459 0.0031539815817011956 0 0.00050636223448431467 0.003257625311757285 0 0.00043030838123574459 0.0031539815817011956 0 0.00050432902885778994 0.0031657721032893899 0 0.00056581093393464807 0.0032731434073022055 0 0.00050636223448431467 0.003257625311757285 0 0.00050432902885778994 0.0031657721032893899 0 0.00047076100919331998 0.0035022778173776931 0 0.00056581093393464807 0.0032731434073022055 0 0.00050636223448431467 0.003257625311757285 0 0.00047420479425262411 0.003489524709823368 0 0.00043784769495724344 0.0033060757118327424 0 0.00047076100919331998 0.0035022778173776931 0 0.00040719730828955641 0.0035212446219309388 0 0.00044491465816980325 0.0034387057693624381 0 0.00034127638320605305 0.0034083945375072188 0 0.00040719730828955641 0.0035212446219309388 0 0.00039675411757636653 0.0034378770105164568 0 0.00040719730828955641 0.0035212446219309388 0 0.00039675411757636653 0.0034378770105164568 0 0.00044491465816980325 0.0034387057693624381 0 0.00043784769495724344 0.0033060757118327424 0 0.00044000964102160851 0.0032181582447513837 0 0.00034127638320605305 0.0034083945375072188 0 0.00039675411757636653 0.0034378770105164568 0 0.0003918568990181711 0.0033892314561500877 0 0.00039675411757636653 0.0034378770105164568 0 0.0003918568990181711 0.0033892314561500877 0 0.00044491465816980325 0.0034387057693624381 0 0.00043030838123574459 0.0031539815817011956 0 0.00046988833151504275 0.0031556826919050354 0 0.00046705756323621998 0.0031607116755121255 0 0.0003918568990181711 0.0033892314561500877 0 0.00044491465816980325 0.0034387057693624381 0 0.00039633002844103931 0.0032739788136707066 0 0.00043030838123574459 0.0031539815817011956 0 0.00050432902885778994 0.0031657721032893899 0 0.00046988833151504275 0.0031556826919050354 0 0.00050432902885778994 0.0031657721032893899 0 0.00046988833151504275 0.0031556826919050354 0 0.00047562344659024395 0.0031637796500541796 0 0.00047548029264605194 0.0031667835667522543 0 0.00046988833151504275 0.0031556826919050354 0 0.00047562344659024395 0.0031637796500541796 0 0.00047018285750231094 0.003161828362327835 0 0.00047548029264605194 0.0031667835667522543 0 0.00046988833151504275 0.0031556826919050354 0 0.00033861043037214595 0.0032679512828402511 0 0.0003918568990181711 0.0033892314561500877 0 0.00039633002844103931 0.0032739788136707066 0 0.00047018285750231094 0.003161828362327835 0 0.00046988833151504275 0.0031556826919050354 0 0.00046705756323621998 0.0031607116755121255 0 0.00047548029264605194 0.0031667835667522543 0 0.0004189234167134086 0.003197401349256784 0 0.00047562344659024395 0.0031637796500541796 0 0.00031090014663456248 0.0031134273056726198 0 0.00026272234027254377 0.0031104432531211283 0 0.00050432902885778994 0.0031657721032893899 0 0.00047562344659024395 0.0031637796500541796 0 0.00047255493084002846 0.0031061411742687116 0 0.0004189234167134086 0.003197401349256784 0 0.00047562344659024395 0.0031637796500541796 0 0.00047255493084002846 0.0031061411742687116 0 0.0004189234167134086 0.003197401349256784 0 0.00047255493084002846 0.0031061411742687116 0 0.00028144200533866107 0.0029474821169293798 0 0.00047255493084002846 0.0031061411742687116 0 0.00037647713850479542 0.0028250293888724717 0 0.00028144200533866107 0.0029474821169293798 0 0.00056581093393464807 0.0032731434073022055 0 0.00050432902885778994 0.0031657721032893899 0 0.00047255493084002846 0.0031061411742687116 0 0.00056581093393464807 0.0032731434073022055 0 0.00047255493084002846 0.0031061411742687116 0 0.00037647713850479542 0.0028250293888724717 0 0.00056581093393464807 0.0032731434073022055 0 0.00063326635373166338 0.0035360314751495666 0 0.00082988030911881948 0.0036020234408061947 0 0.00070453864955557393 0.0036570337422416042 0 0.00063326635373166338 0.0035360314751495666 0 0.00082988030911881948 0.0036020234408061947 0 0.0005450776586480437 0.0032527654507325753 0 0.00058072411281056863 0.0032113348865298514 0 0.00070453864955557393 0.0036570337422416042 0 0.00063326635373166338 0.0035360314751495666 0 0.00057491538636828357 0.0036824544051671936 0 0.00070453864955557393 0.0036570337422416042 0 0.00082988030911881948 0.0036020234408061947 0 0.00083783268398687533 0.0036718824844824936 0 0.00070453864955557393 0.0036570337422416042 0 0.00070342961286118334 0.0037784113919148896 0 0.00072767428348033392 0.0037579617119009212 0 0.00070313668185950976 0.0036634346036276051 0 0.00077554462413497143 0.0037121512012112203 0 0.00070342961286118334 0.0037784113919148896 0 0.00071339728326251821 0.0037776504021865753 0 0.00072767428348033392 0.0037579617119009212 0 0.00070342961286118334 0.0037784113919148896 0 0.00070116135241530175 0.0037952616785569622 0 0.00071339728326251821 0.0037776504021865753 0 0.00070342961286118334 0.0037784113919148896 0 0.00070116135241530175 0.0037952616785569622 0 0.00065815152009452153 0.0038140468644881644 0 0.00070342961286118334 0.0037784113919148896 0 0.0006541979182842991 0.0038107867628098049 0 0.00065815152009452153 0.0038140468644881644 0 0.00070453864955557393 0.0036570337422416042 0 0.00070342961286118334 0.0037784113919148896 0 0.0006541979182842991 0.0038107867628098049 0 0.00070453864955557393 0.0036570337422416042 0 0.0006541979182842991 0.0038107867628098049 0 0.00057491538636828357 0.0036824544051671936 0 0.00057491538636828357 0.0036824544051671936 0 0.00045272236252689324 0.0037078689500541087 0 0.00053962062485643926 0.00384347168200995 0 0.0006541979182842991 0.0038107867628098049 0 0.00057491538636828357 0.0036824544051671936 0 0.00053962062485643926 0.00384347168200995 0 0.00038131278929178359 0.0038365714662019095 0 0.00045272236252689324 0.0037078689500541087 0 0.00045468789103527666 0.0038908689424104644 0 0.00045272236252689324 0.0037078689500541087 0 0.00045468789103527666 0.0038908689424104644 0 0.00053962062485643926 0.00384347168200995 0 0.00038131278929178359 0.0038365714662019095 0 0.00036475248433349945 0.0036761351822482569 0 0.00045272236252689324 0.0037078689500541087 0 0.00038065101192803996 0.0040512995411736618 0 0.00045468789103527666 0.0038908689424104644 0 0.0005446087039099359 0.0041459021905221171 0 0.00045468789103527666 0.0038908689424104644 0 0.00053962062485643926 0.00384347168200995 0 0.0005446087039099359 0.0041459021905221171 0 0.00065049183866461649 0.0038249129475662722 0 0.00057058796471506576 0.0039812449310723651 0 0.0006541979182842991 0.0038107867628098049 0 0.00053962062485643926 0.00384347168200995 0 0.0005446087039099359 0.0041459021905221171 0 0.0006541979182842991 0.0038107867628098049 0 0.00060506951393537545 0.0038206680679444861 0 0.00065815152009452153 0.0038140468644881644 0 0.00039954185847542232 0.00423086264370434 0 0.00038065101192803996 0.0040512995411736618 0 0.0005446087039099359 0.0041459021905221171 0 0.00039954185847542232 0.00423086264370434 0 0.0005446087039099359 0.0041459021905221171 0 0.00040464816835839138 0.0043003325168759227 0 0.00057058796471506576 0.0039812449310723651 0 0.00046644722404369195 0.0040979573444412162 0 0.00060506951393537545 0.0038206680679444861 0 0.00062498841041566742 0.0038805636327555629 0 0.00052094135845717629 0.0039031752798622641 0 0.00060506951393537545 0.0038206680679444861 0 0.00065815152009452153 0.0038140468644881644 0 0.00062498841041566742 0.0038805636327555629 0 0.00068396516855021754 0.0038424064636033528 0 0.00065815152009452153 0.0038140468644881644 0 0.00062498841041566742 0.0038805636327555629 0 0.00068396516855021754 0.0038424064636033528 0 0.00070116135241530175 0.0037952616785569622 0 0.00071322350660690467 0.0037908864804794508 0 0.00068396516855021754 0.0038424064636033528 0 0.00070116135241530175 0.0037952616785569622 0 0.00065815152009452153 0.0038140468644881644 0 0.00066435884462502897 0.0039129066585471828 0 0.00062607063778725568 0.0039570947972231143 0 0.00066566566977002825 0.0039939820589595361 0 0.0007093206624626565 0.0038947385443592634 0 0.00066435884462502897 0.0039129066585471828 0 0.00066566566977002825 0.0039939820589595361 0 0.00074041930905649055 0.0037419621054661447 0 0.00077259350906567961 0.0037032008418595402 0 0.000735413338049287 0.0037008758183173993 0 0.00074004575547503436 0.0038162205348969153 0 0.00061107310734537961 0.0038361888316293074 0 0.00068396516855021754 0.0038424064636033528 0 0.0007093206624626565 0.0038947385443592634 0 0.00066435884462502897 0.0039129066585471828 0 0.00068396516855021754 0.0038424064636033528 0 0.0007093206624626565 0.0038947385443592634 0 0.00071322350660690467 0.0037908864804794508 0 0.00066435884462502897 0.0039129066585471828 0 0.00062498841041566742 0.0038805636327555629 0 0.00062607063778725568 0.0039570947972231143 0 0.00068396516855021754 0.0038424064636033528 0 0.00066435884462502897 0.0039129066585471828 0 0.00062498841041566742 0.0038805636327555629 0 0.00062498841041566742 0.0038805636327555629 0 0.00055913055030430974 0.0039712683351045327 0 0.00062607063778725568 0.0039570947972231143 0 0.00062498841041566742 0.0038805636327555629 0 0.00052094135845717629 0.0039031752798622641 0 0.00055913055030430974 0.0039712683351045327 0 0.00055913055030430974 0.0039712683351045327 0 0.0005969062267119743 0.0040156986787184728 0 0.0005037973634742115 0.0040529217602959999 0 0.00052094135845717629 0.0039031752798622641 0 0.00055913055030430974 0.0039712683351045327 0 0.00049503414909206431 0.0040707737949609189 0 0.00055913055030430974 0.0039712683351045327 0 0.0005037973634742115 0.0040529217602959999 0 0.00049503414909206431 0.0040707737949609189 0 0.00062607063778725568 0.0039570947972231143 0 0.0005969062267119743 0.0040156986787184728 0 0.00066566566977002825 0.0039939820589595361 0 0.00055913055030430974 0.0039712683351045327 0 0.00062607063778725568 0.0039570947972231143 0 0.0005969062267119743 0.0040156986787184728 0 0.0003916746046179435 0.0040246336567729499 0 0.00036061509780158741 0.0039245994259642127 0 0.00027756075451941363 0.004018846056759352 0 0.00046594198033835286 0.0040286681193037709 0 0.00061107310734537961 0.0038361888316293074 0 0.0003916746046179435 0.0040246336567729499 0 0.00043163482195661277 0.0039641919857532444 0 0.00036061509780158741 0.0039245994259642127 0 0.0003916746046179435 0.0040246336567729499 0 0.0005037973634742115 0.0040529217602959999 0 0.00047750117862203103 0.0039834594996498787 0 0.00046594198033835286 0.0040286681193037709 0 0.00051216471752953911 0.0040430616181313175 0 0.0005037973634742115 0.0040529217602959999 0 0.00047750117862203103 0.0039834594996498787 0 0.00050897768490425785 0.0039863102130110661 0 0.0003916746046179435 0.0040246336567729499 0 0.00043163482195661277 0.0039641919857532444 0 0.00047750117862203103 0.0039834594996498787 0 0.00043163482195661277 0.0039641919857532444 0 0.00047750117862203103 0.0039834594996498787 0 0.00049823791059851045 0.0038952771043658696 0 0.00047750117862203103 0.0039834594996498787 0 0.00051447813172854307 0.0039211344565455901 0 0.00050897768490425785 0.0039863102130110661 0 0.00047750117862203103 0.0039834594996498787 0 0.00049823791059851045 0.0038952771043658696 0 0.00051447813172854307 0.0039211344565455901 0 0.00043163482195661277 0.0039641919857532444 0 0.00049823791059851045 0.0038952771043658696 0 0.00036061509780158741 0.0039245994259642127 0 0.00049823791059851045 0.0038952771043658696 0 0.00036061509780158741 0.0039245994259642127 0 0.00050487954945872132 0.0037972828340187845 0 0.00049823791059851045 0.0038952771043658696 0 0.00052673583735131965 0.0038451102345752049 0 0.00051447813172854307 0.0039211344565455901 0 0.00049823791059851045 0.0038952771043658696 0 0.00050487954945872132 0.0037972828340187845 0 0.00052673583735131965 0.0038451102345752049 0 0.00062009330294252258 0.0036756756810920679 0 0.00059677798508841269 0.0037591206846798084 0 0.00050487954945872132 0.0037972828340187845 0 0.00047367850641575135 0.0038152566271670938 0 0.00050740747304708574 0.0037916016841940824 0 0.00062009330294252258 0.0036756756810920679 0 0.0006519917465033551 0.0037086653969399443 0 0.00059677798508841269 0.0037591206846798084 0 0.0006519917465033551 0.0037086653969399443 0 0.00065003606384344864 0.0037412988690024278 0 0.00059677798508841269 0.0037591206846798084 0 0.00062009330294252258 0.0036756756810920679 0 0.0006519917465033551 0.0037086653969399443 0 0.00068129034816036033 0.0036830596009864258 0 0.0006519917465033551 0.0037086653969399443 0 0.00068738495922870762 0.0037034221905504067 0 0.00065003606384344864 0.0037412988690024278 0 0.00068738495922870762 0.0037034221905504067 0 0.00065003606384344864 0.0037412988690024278 0 0.00070065700425407228 0.0037194572616280675 0 0.0006519917465033551 0.0037086653969399443 0 0.00068738495922870762 0.0037034221905504067 0 0.00068129034816036033 0.0036830596009864258 0 0.00062009330294252258 0.0036756756810920679 0 0.00068129034816036033 0.0036830596009864258 0 0.00067504673536315373 0.0036636956873672038 0 0.00047367850641575135 0.0038152566271670938 0 0.00061107310734537961 0.0038361888316293074 0 0.00069696437718535283 0.0036850591678838393 0 0.00069826059640888552 0.003693206291493088 0 0.00069203472652178046 0.0036913290705434948 0 0.00068129034816036033 0.0036830596009864258 0 0.00067504673536315373 0.0036636956873672038 0 0.00069696437718535283 0.0036850591678838393 0 0.00061107310734537961 0.0038361888316293074 0 0.00073543942985875032 0.0036857521800257873 0 0.00068129034816036033 0.0036830596009864258 0 0.00069696437718535283 0.0036850591678838393 0 0.00069826059640888552 0.003693206291493088 0 0.00068738495922870762 0.0037034221905504067 0 0.00068129034816036033 0.0036830596009864258 0 0.00069826059640888552 0.003693206291493088 0 0.00068738495922870762 0.0037034221905504067 0 0.00069826059640888552 0.003693206291493088 0 0.00070837662705637518 0.0037059890870385693 0 0.00068738495922870762 0.0037034221905504067 0 0.00070837662705637518 0.0037059890870385693 0 0.00070065700425407228 0.0037194572616280675 0 0.00069826059640888552 0.003693206291493088 0 0.00070837662705637518 0.0037059890870385693 0 0.00069075533289667283 0.0036918821221467195 0 0.00070837662705637518 0.0037059890870385693 0 0.00071942518128468008 0.0037160401289154901 0 0.00069687286156902063 0.0036903058632248359 0 0.00070837662705637518 0.0037059890870385693 0 0.00069687286156902063 0.0036903058632248359 0 0.00069075533289667283 0.0036918821221467195 0 0.00070837662705637518 0.0037059890870385693 0 0.00071942518128468008 0.0037160401289154901 0 0.00070065700425407228 0.0037194572616280675 0 0.00071942518128468008 0.0037160401289154901 0 0.00074631983083233821 0.0037235672636528197 0 0.00071348082370812857 0.0037253470317684008 0 0.00071942518128468008 0.0037160401289154901 0 0.00074631983083233821 0.0037235672636528197 0 0.00069687286156902063 0.0036903058632248359 0 0.00065003606384344864 0.0037412988690024278 0 0.000679983652065451 0.0037387433509123349 0 0.00070065700425407228 0.0037194572616280675 0 0.00065003606384344864 0.0037412988690024278 0 0.000679983652065451 0.0037387433509123349 0 0.00065343903407818484 0.0037628084736641399 0 0.000679983652065451 0.0037387433509123349 0 0.00070065700425407228 0.0037194572616280675 0 0.00071348082370812857 0.0037253470317684008 0 0.00071942518128468008 0.0037160401289154901 0 0.00070065700425407228 0.0037194572616280675 0 0.00071348082370812857 0.0037253470317684008 0 0.00074631983083233821 0.0037235672636528197 0 0.00071348082370812857 0.0037253470317684008 0 0.00070466680156377884 0.0037452117049612595 0 0.000679983652065451 0.0037387433509123349 0 0.00071348082370812857 0.0037253470317684008 0 0.00070466680156377884 0.0037452117049612595 0 0.000679983652065451 0.0037387433509123349 0 0.00070466680156377884 0.0037452117049612595 0 0.00065343903407818484 0.0037628084736641399 0 0.00070466680156377884 0.0037452117049612595 0 0.00065343903407818484 0.0037628084736641399 0 0.00062409226291604064 0.003798190495196448 0 0.00070466680156377884 0.0037452117049612595 0 0.00066014108505231333 0.0038512095920262613 0 0.00059031610269906975 0.0038500711025965233 0 0.0007472505974184168 0.0037338934935262536 0 0.00082363155718062446 0.0036693293144277337 0 0.00074631983083233821 0.0037235672636528197 0 0.00070466680156377884 0.0037452117049612595 0 0.00066014108505231333 0.0038512095920262613 0 0.00070466680156377884 0.0037452117049612595 0 0.0005845486542955619 0.0038731179792747205 0 0.00062409226291604064 0.003798190495196448 0 0.0006974508525828026 0.0037530427794500144 0 0.00058982105909776707 0.0038576609215108942 0 0.00074631983083233821 0.0037235672636528197 0 0.00069687286156902063 0.0036903058632248359 0 0.00075299410051334916 0.0035386019364355014 0 0.00074631983083233821 0.0037235672636528197 0 0.00093363994276986423 0.0035552934671078508 0 0.00075299410051334916 0.0035386019364355014 0 0.00093363994276986423 0.0035552934671078508 0 0.00075299410051334916 0.0035386019364355014 0 0.00091136306564836001 0.0033730814520306815 0 0.00093363994276986423 0.0035552934671078508 0 0.00091136306564836001 0.0033730814520306815 0 0.0010781680905626483 0.0033608921479933683 0 0.00091136306564836001 0.0033730814520306815 0 0.0010781680905626483 0.0033608921479933683 0 0.0010055735322512605 0.0031213380770468654 0 0.00091136306564836001 0.0033730814520306815 0 0.00078753507180646443 0.0032803666776480243 0 0.0010055735322512605 0.0031213380770468654 0 0.00075299410051334916 0.0035386019364355014 0 0.00091136306564836001 0.0033730814520306815 0 0.00078753507180646443 0.0032803666776480243 0 0.00075299410051334916 0.0035386019364355014 0 0.00078753507180646443 0.0032803666776480243 0 0.00063669249834385306 0.0033767507749678303 0 0.00051483973204248632 0.0039162143955288808 0 0.00058139680995164132 0.0039163918806291416 0 0.00053488079398908656 0.0039700404498013578 0 0.00066216995390511082 0.003751132576186476 0 0.00048265404988295172 0.0040145140111751366 0 0.00082363155718062446 0.0036693293144277337 0 0.00066216995390511082 0.003751132576186476 0 0.00066014108505231333 0.0038512095920262613 0 0.00059907598139728811 0.0039362314644606393 0 0.00057186504036400799 0.0038720169245259305 0 0.00066216995390511082 0.003751132576186476 0 0.00060020466136946355 0.0039101268051778895 0 0.00066014108505231333 0.0038512095920262613 0 0.00057186504036400799 0.0038720169245259305 0 0.00059031610269906975 0.0038500711025965233 0 0.00054379402804393296 0.0038951692684701593 0 0.00055197853324211838 0.0038704876966326224 0 0.0005845486542955619 0.0038731179792747205 0 0.00054379402804393296 0.0038951692684701593 0 0.00055197853324211838 0.0038704876966326224 0 0.00053587698313147772 0.0038647786292996433 0 0.00051483973204248632 0.0039162143955288808 0 0.00058139680995164132 0.0039163918806291416 0 0.00057186504036400799 0.0038720169245259305 0 0.00051483973204248632 0.0039162143955288808 0 0.00057186504036400799 0.0038720169245259305 0 0.00059031610269906975 0.0038500711025965233 0 0.00052997587187749242 0.0039071968778435799 0 0.00058982105909776707 0.0038576609215108942 0 0.00055197853324211838 0.0038704876966326224 0 0.00053587698313147772 0.0038647786292996433 0 0.00054307491238501503 0.0038494192246180804 0 0.00053587698313147772 0.0038647786292996433 0 0.00054307491238501503 0.0038494192246180804 0 0.00053074802142606041 0.0038439047216574061 0 0.00055197853324211838 0.0038704876966326224 0 0.00055920896854880307 0.0038520203612291137 0 0.0005845486542955619 0.0038731179792747205 0 0.00055197853324211838 0.0038704876966326224 0 0.00054307491238501503 0.0038494192246180804 0 0.00055920896854880307 0.0038520203612291137 0 0.00054307491238501503 0.0038494192246180804 0 0.00055920896854880307 0.0038520203612291137 0 0.00054982255914137301 0.0038314352864426571 0 0.00054307491238501503 0.0038494192246180804 0 0.00054982255914137301 0.0038314352864426571 0 0.00052672298171706395 0.0038185482666824614 0 0.00054307491238501503 0.0038494192246180804 0 0.00052672298171706395 0.0038185482666824614 0 0.00053074802142606041 0.0038439047216574061 0 0.00055920896854880307 0.0038520203612291137 0 0.0005845486542955619 0.0038731179792747205 0 0.00057685895557441872 0.0038276918385090524 0 0.00054982255914137301 0.0038314352864426571 0 0.00057685895557441872 0.0038276918385090524 0 0.00055009470935440345 0.0038072391703157867 0 0.00055920896854880307 0.0038520203612291137 0 0.00054982255914137301 0.0038314352864426571 0 0.00057685895557441872 0.0038276918385090524 0 0.00057685895557441872 0.0038276918385090524 0 0.00062409226291604064 0.003798190495196448 0 0.00060608227273848889 0.0037865476590483007 0 0.0005845486542955619 0.0038731179792747205 0 0.00057685895557441872 0.0038276918385090524 0 0.00062409226291604064 0.003798190495196448 0 0.00065003606384344864 0.0037412988690024278 0 0.00065343903407818484 0.0037628084736641399 0 0.00060608227273848889 0.0037865476590483007 0 0.00065343903407818484 0.0037628084736641399 0 0.00062409226291604064 0.003798190495196448 0 0.00060608227273848889 0.0037865476590483007 0 0.00057685895557441872 0.0038276918385090524 0 0.00060608227273848889 0.0037865476590483007 0 0.00055009470935440345 0.0038072391703157867 0 0.00060608227273848889 0.0037865476590483007 0 0.00055009470935440345 0.0038072391703157867 0 0.00059677798508841269 0.0037591206846798084 0 0.00055009470935440345 0.0038072391703157867 0 0.00059677798508841269 0.0037591206846798084 0 0.00050487954945872132 0.0037972828340187845 0 0.00065003606384344864 0.0037412988690024278 0 0.00060608227273848889 0.0037865476590483007 0 0.00059677798508841269 0.0037591206846798084 0 0.00052672298171706395 0.0038185482666824614 0 0.00050487954945872132 0.0037972828340187845 0 0.00052673583735131965 0.0038451102345752049 0 0.00054982255914137301 0.0038314352864426571 0 0.00055009470935440345 0.0038072391703157867 0 0.00052672298171706395 0.0038185482666824614 0 0.00055009470935440345 0.0038072391703157867 0 0.00052672298171706395 0.0038185482666824614 0 0.00050487954945872132 0.0037972828340187845 0 0.0005362113506812388 0.0038340336714081306 0 0.00053318611623669545 0.0038292296465727294 0 0.00057653851924301417 0.0038640703994498025 0 0.00052672298171706395 0.0038185482666824614 0 0.00053318611623669545 0.0038292296465727294 0 0.00052673583735131965 0.0038451102345752049 0 0.00053318611623669545 0.0038292296465727294 0 0.00052786833112199812 0.0038300380265605268 0 0.00052416705142251238 0.0038350126407991712 0 0.0005362113506812388 0.0038340336714081306 0 0.00053318611623669545 0.0038292296465727294 0 0.00052416705142251238 0.0038350126407991712 0 0.00052672298171706395 0.0038185482666824614 0 0.00053318611623669545 0.0038292296465727294 0 0.00052786833112199812 0.0038300380265605268 0 0.0005362113506812388 0.0038340336714081306 0 0.00051740048078249465 0.0038275455708890261 0 0.00057653851924301417 0.0038640703994498025 0 0.00043601076724944466 0.0041348129795489427 0 0.00043694977795777671 0.0041454277093493841 0 0.00044091081855648001 0.0041508828201660668 0 0.00043601076724944466 0.0041348129795489427 0 0.00044274645776910918 0.0041324164868153605 0 0.00043694977795777671 0.0041454277093493841 0 0.000436196263772541 0.0041457572405336138 0 0.00044324588831248698 0.00413092514438009 0 0.00048234964685550565 0.0039723676905305252 0 0.00050353540637470759 0.0040128690533333495 0 0.0005362113506812388 0.0038340336714081306 0 0.00051740048078249465 0.0038275455708890261 0 0.00052416705142251238 0.0038350126407991712 0 0.00048234964685550565 0.0039723676905305252 0 0.00044195978965757589 0.0040466818819410999 0 0.00051740048078249465 0.0038275455708890261 0 0.00049735073340395153 0.0038529755241587453 0 0.00046755999594861247 0.0038666456003773947 0 0.00043601076724944466 0.0041348129795489427 0 0.00044539631630895914 0.0041065910456063431 0 0.00044274645776910918 0.0041324164868153605 0 0.00051740048078249465 0.0038275455708890261 0 0.00051096826152540961 0.0038429286546423007 0 0.00049735073340395153 0.0038529755241587453 0 0.00051740048078249465 0.0038275455708890261 0 0.00051096826152540961 0.0038429286546423007 0 0.00052416705142251238 0.0038350126407991712 0 0.00050950527268265125 0.0038546070474629098 0 0.00051096826152540961 0.0038429286546423007 0 0.00052416705142251238 0.0038350126407991712 0 0.00050950527268265125 0.0038546070474629098 0 0.00051096826152540961 0.0038429286546423007 0 0.00049735073340395153 0.0038529755241587453 0 0.00052672298171706395 0.0038185482666824614 0 0.00052786833112199812 0.0038300380265605268 0 0.00053074802142606041 0.0038439047216574061 0 0.00052786833112199812 0.0038300380265605268 0 0.00052416705142251238 0.0038350126407991712 0 0.00052284860098757993 0.0038503639605449546 0 0.00050950527268265125 0.0038546070474629098 0 0.00052416705142251238 0.0038350126407991712 0 0.00052284860098757993 0.0038503639605449546 0 0.00052786833112199812 0.0038300380265605268 0 0.00052284860098757993 0.0038503639605449546 0 0.00053074802142606041 0.0038439047216574061 0 0.00053587698313147772 0.0038647786292996433 0 0.00052284860098757993 0.0038503639605449546 0 0.00053074802142606041 0.0038439047216574061 0 0.00054379402804393296 0.0038951692684701593 0 0.00053587698313147772 0.0038647786292996433 0 0.00052621007063160131 0.0038746900387428905 0 0.00053587698313147772 0.0038647786292996433 0 0.00052284860098757993 0.0038503639605449546 0 0.00052621007063160131 0.0038746900387428905 0 0.00054379402804393296 0.0038951692684701593 0 0.00052621007063160131 0.0038746900387428905 0 0.00051615718745220399 0.0038963762795690294 0 0.00052621007063160131 0.0038746900387428905 0 0.00051093952908312418 0.0038728935239157511 0 0.00051615718745220399 0.0038963762795690294 0 0.00052284860098757993 0.0038503639605449546 0 0.00052621007063160131 0.0038746900387428905 0 0.00051093952908312418 0.0038728935239157511 0 0.00050950527268265125 0.0038546070474629098 0 0.00052284860098757993 0.0038503639605449546 0 0.00051093952908312418 0.0038728935239157511 0 0.00050950527268265125 0.0038546070474629098 0 0.00051093952908312418 0.0038728935239157511 0 0.00049453684403935486 0.0038694533168527399 0 0.00050950527268265125 0.0038546070474629098 0 0.00049735073340395153 0.0038529755241587453 0 0.00049453684403935486 0.0038694533168527399 0 0.00049735073340395153 0.0038529755241587453 0 0.00049453684403935486 0.0038694533168527399 0 0.00046755999594861247 0.0038666456003773947 0 0.00049453684403935486 0.0038694533168527399 0 0.00049086063230076543 0.0038984655356243728 0 0.00046755999594861247 0.0038666456003773947 0 0.00051093952908312418 0.0038728935239157511 0 0.00049453684403935486 0.0038694533168527399 0 0.00049086063230076543 0.0038984655356243728 0 0.00051093952908312418 0.0038728935239157511 0 0.00049086063230076543 0.0038984655356243728 0 0.00051615718745220399 0.0038963762795690294 0 0.00049086063230076543 0.0038984655356243728 0 0.00044555027745856243 0.0039213709495900806 0 0.00047578563556159207 0.0039296423855662748 0 0.00049086063230076543 0.0038984655356243728 0 0.00050722183369378174 0.0039443790182783524 0 0.00047578563556159207 0.0039296423855662748 0 0.00049086063230076543 0.0038984655356243728 0 0.00051615718745220399 0.0038963762795690294 0 0.00050722183369378174 0.0039443790182783524 0 0.00052997587187749242 0.0039071968778435799 0 0.00048724019100743334 0.0039551796319716752 0 0.00054379402804393296 0.0038951692684701593 0 0.00051615718745220399 0.0038963762795690294 0 0.00050722183369378174 0.0039443790182783524 0 0.00041432187959085034 0.0041151414743482518 0 0.00042072525898118474 0.0041188960476089215 0 0.00041963815191945663 0.0041273132692571353 0 0.00042072525898118474 0.0041188960476089215 0 0.00041820929944639927 0.0041073485104110245 0 0.00042424176361808782 0.0041086368809894443 0 0.00041432187959085034 0.0041151414743482518 0 0.00041820929944639927 0.0041073485104110245 0 0.00041138482551442075 0.0040993575332121755 0 0.00041432187959085034 0.0041151414743482518 0 0.00042072525898118474 0.0041188960476089215 0 0.00041820929944639927 0.0041073485104110245 0 0.0004040014619161005 0.0041082655552174994 0 0.00041228052616968313 0.0041248455954748485 0 0.00041253947859379981 0.0041347408623330379 0 0.00041432187959085034 0.0041151414743482518 0 0.0004040014619161005 0.0041082655552174994 0 0.00041138482551442075 0.0040993575332121755 0 0.00042588684853947924 0.0040055518034657553 0 0.00044195978965757589 0.0040466818819410999 0 0.00049086063230076543 0.0038984655356243728 0 0.00044555027745856243 0.0039213709495900806 0 0.00046755999594861247 0.0038666456003773947 0 0.00041432187959085034 0.0041151414743482518 0 0.0004040014619161005 0.0041082655552174994 0 0.00041228052616968313 0.0041248455954748485 0 0.00041432187959085034 0.0041151414743482518 0 0.00041228052616968313 0.0041248455954748485 0 0.00041963815191945663 0.0041273132692571353 0 0.00041228052616968313 0.0041248455954748485 0 0.00042233864597191416 0.0041331955831838451 0 0.00041963815191945663 0.0041273132692571353 0 0.00040747028343985763 0.0041313428722070736 0 0.00044195978965757589 0.0040466818819410999 0 0.00041228052616968313 0.0041248455954748485 0 0.00041892291957991033 0.0041310680490159162 0 0.00042233864597191416 0.0041331955831838451 0 0.00042233864597191416 0.0041331955831838451 0 0.00042374816564254579 0.0041339662900463448 0 0.00041963815191945663 0.0041273132692571353 0 0.00042374816564254579 0.0041339662900463448 0 0.00041963815191945663 0.0041273132692571353 0 0.00042987738699756318 0.0041344221112150506 0 0.00042072525898118474 0.0041188960476089215 0 0.00041963815191945663 0.0041273132692571353 0 0.00042987738699756318 0.0041344221112150506 0 0.00042374816564254579 0.0041339662900463448 0 0.00042451513058178403 0.0041361076039393898 0 0.00042987738699756318 0.0041344221112150506 0 0.00042374816564254579 0.0041339662900463448 0 0.00042451513058178403 0.0041361076039393898 0 0.00042748768884894836 0.0041344192876800944 0 0.00042451513058178403 0.0041361076039393898 0 0.00042748768884894836 0.0041344192876800944 0 0.00042969579502665672 0.004133726919336657 0 0.00044195978965757589 0.0040466818819410999 0 0.000436196263772541 0.0041457572405336138 0 0.00041892291957991033 0.0041310680490159162 0 0.00042233864597191416 0.0041331955831838451 0 0.00043482280307924272 0.0041342115013390341 0 0.00042233864597191416 0.0041331955831838451 0 0.00042374816564254579 0.0041339662900463448 0 0.00042748768884894836 0.0041344192876800944 0 0.00042233864597191416 0.0041331955831838451 0 0.00042748768884894836 0.0041344192876800944 0 0.00043482280307924272 0.0041342115013390341 0 0.00042748768884894836 0.0041344192876800944 0 0.00043270263416077785 0.0041330145107242181 0 0.00042969579502665672 0.004133726919336657 0 0.00042748768884894836 0.0041344192876800944 0 0.00043482280307924272 0.0041342115013390341 0 0.00043270263416077785 0.0041330145107242181 0 0.00043482280307924272 0.0041342115013390341 0 0.00043808004927569218 0.0041299945042672691 0 0.00044901786424157334 0.0041235896485155455 0 0.00043482280307924272 0.0041342115013390341 0 0.00043270263416077785 0.0041330145107242181 0 0.00043808004927569218 0.0041299945042672691 0 0.00043270263416077785 0.0041330145107242181 0 0.00043381015232887951 0.0041309640894507324 0 0.00043808004927569218 0.0041299945042672691 0 0.00043270263416077785 0.0041330145107242181 0 0.00042969579502665672 0.004133726919336657 0 0.00043381015232887951 0.0041309640894507324 0 0.00043381015232887951 0.0041309640894507324 0 0.00043808004927569218 0.0041299945042672691 0 0.00044141113465614952 0.0041266218571091254 0 0.00043381015232887951 0.0041309640894507324 0 0.00043592176786716832 0.0041281203956330921 0 0.00044141113465614952 0.0041266218571091254 0 0.00043592176786716832 0.0041281203956330921 0 0.00044141113465614952 0.0041266218571091254 0 0.00044075542926783236 0.0041254069821606305 0 0.00043808004927569218 0.0041299945042672691 0 0.00044141113465614952 0.0041266218571091254 0 0.00044901786424157334 0.0041235896485155455 0 0.00042451513058178403 0.0041361076039393898 0 0.00043592176786716832 0.0041281203956330921 0 0.00043966984907106027 0.0041221331652681638 0 0.00028752705426529873 0.0045720534605350402 0 0.00026896201616894843 0.0047263066632691909 0 0.00034479473741388114 0.004651401566161859 0 0.00035790927200978032 0.0043522676503549174 0 0.00035753548257310764 0.0044210500839779064 0 0.00042451513058178403 0.0041361076039393898 0 0.00042969579502665672 0.004133726919336657 0 0.00043381015232887951 0.0041309640894507324 0 0.00042451513058178403 0.0041361076039393898 0 0.00043381015232887951 0.0041309640894507324 0 0.00043592176786716832 0.0041281203956330921 0 0.00026419050572760311 0.0047314240407132693 0 0.00028216703567603564 0.0047337517631091432 0 0.00027076147979818887 0.0047238415228700037 0 0.00026896201616894843 0.0047263066632691909 0 0.00034479473741388114 0.004651401566161859 0 0.000218090243480877 0.0047466661523153843 0 0.00027076147979818887 0.0047238415228700037 0 0.00019376834750138805 0.0048308306925670145 0 0.00024652294132185515 0.0047175552110657873 0 0.000218090243480877 0.0047466661523153843 0 0.00027076147979818887 0.0047238415228700037 0 0.00024652294132185515 0.0047175552110657873 0 0.00026521384473453095 0.0047072189977540885 0 0.00027076147979818887 0.0047238415228700037 0 0.00024652294132185515 0.0047175552110657873 0 0.000218090243480877 0.0047466661523153843 0 0.00022313474220687435 0.0047091306493242686 0 0.000218090243480877 0.0047466661523153843 0 0.00022313474220687435 0.0047091306493242686 0 0.00019319768789489327 0.004726720198419551 0 0.00022313474220687435 0.0047091306493242686 0 0.00020217347048853728 0.0046740605343451513 0 0.00019319768789489327 0.004726720198419551 0 0.00022313474220687435 0.0047091306493242686 0 0.00023479056646649152 0.0046760704851119116 0 0.00020217347048853728 0.0046740605343451513 0 0.00024652294132185515 0.0047175552110657873 0 0.00022313474220687435 0.0047091306493242686 0 0.0002586363646566461 0.0046932399424086755 0 0.00022313474220687435 0.0047091306493242686 0 0.0002586363646566461 0.0046932399424086755 0 0.00023479056646649152 0.0046760704851119116 0 0.00026521384473453095 0.0047072189977540885 0 0.0002586363646566461 0.0046932399424086755 0 0.00028644186701564452 0.0046926307924980573 0 0.00024652294132185515 0.0047175552110657873 0 0.00026521384473453095 0.0047072189977540885 0 0.0002586363646566461 0.0046932399424086755 0 0.0002586363646566461 0.0046932399424086755 0 0.00025856269812957286 0.0046556395731979314 0 0.00028759855312615303 0.004658125106780161 0 0.0002586363646566461 0.0046932399424086755 0 0.00023479056646649152 0.0046760704851119116 0 0.00025856269812957286 0.0046556395731979314 0 0.00025856269812957286 0.0046556395731979314 0 0.00023678966191847898 0.0046377784393858076 0 0.00027605744146258374 0.0046062968351809636 0 0.00023479056646649152 0.0046760704851119116 0 0.00025856269812957286 0.0046556395731979314 0 0.00023678966191847898 0.0046377784393858076 0 0.00023678966191847898 0.0046377784393858076 0 0.00020217347048853728 0.0046740605343451513 0 0.00020118768218307302 0.0046272226831292279 0 0.00023479056646649152 0.0046760704851119116 0 0.00023678966191847898 0.0046377784393858076 0 0.00020217347048853728 0.0046740605343451513 0 0.00040960053499362024 0.0043854566971681689 0 0.00035753548257310764 0.0044210500839779064 0 0.00048377666496718087 0.004141806206981573 0 0.00045436504090097009 0.0041249352105915847 0 0.00043966984907106027 0.0041221331652681638 0 0.0003505215661581803 0.0046288385175006237 0 0.00028644186701564452 0.0046926307924980573 0 0.00026896201616894843 0.0047263066632691909 0 0.0003505215661581803 0.0046288385175006237 0 0.00028759855312615303 0.004658125106780161 0 0.00027605744146258374 0.0046062968351809636 0 0.0003505215661581803 0.0046288385175006237 0 0.00028759855312615303 0.004658125106780161 0 0.00028644186701564452 0.0046926307924980573 0 0.00025856269812957286 0.0046556395731979314 0 0.00028759855312615303 0.004658125106780161 0 0.00027605744146258374 0.0046062968351809636 0 0.0002586363646566461 0.0046932399424086755 0 0.00028759855312615303 0.004658125106780161 0 0.00028644186701564452 0.0046926307924980573 0 0.00045436504090097009 0.0041249352105915847 0 0.00043966984907106027 0.0041221331652681638 0 0.00044572578199376977 0.004124394980546787 0 0.00045436504090097009 0.0041249352105915847 0 0.00044572578199376977 0.004124394980546787 0 0.00044901786424157334 0.0041235896485155455 0 0.00028644186701564452 0.0046926307924980573 0 0.00027076147979818887 0.0047238415228700037 0 0.00026896201616894843 0.0047263066632691909 0 0.00026521384473453095 0.0047072189977540885 0 0.00028644186701564452 0.0046926307924980573 0 0.00027076147979818887 0.0047238415228700037 0 0.00043592176786716832 0.0041281203956330921 0 0.00043966984907106027 0.0041221331652681638 0 0.00044075542926783236 0.0041254069821606305 0 0.00043966984907106027 0.0041221331652681638 0 0.00044075542926783236 0.0041254069821606305 0 0.00044572578199376977 0.004124394980546787 0 0.00044141113465614952 0.0041266218571091254 0 0.00044075542926783236 0.0041254069821606305 0 0.00044572578199376977 0.004124394980546787 0 0.00044141113465614952 0.0041266218571091254 0 0.00044572578199376977 0.004124394980546787 0 0.00044901786424157334 0.0041235896485155455 0 0.00044324588831248698 0.00413092514438009 0 0.00044491230556761537 0.0041293449757678798 0 0.00045436504090097009 0.0041249352105915847 0 0.00044901786424157334 0.0041235896485155455 0 0.00044567171193273561 0.0041267439704223011 0 0.00043694977795777671 0.0041454277093493841 0 0.00044091081855648001 0.0041508828201660668 0 0.00043592655988988955 0.0041267532255142994 0 0.00053318611623669545 0.0038292296465727294 0 0.00052673583735131965 0.0038451102345752049 0 0.00057653851924301417 0.0038640703994498025 0 0.00052673583735131965 0.0038451102345752049 0 0.00057653851924301417 0.0038640703994498025 0 0.00051447813172854307 0.0039211344565455901 0 0.00057653851924301417 0.0038640703994498025 0 0.00051447813172854307 0.0039211344565455901 0 0.00050897768490425785 0.0039863102130110661 0 0.00057653851924301417 0.0038640703994498025 0 0.00050897768490425785 0.0039863102130110661 0 0.00049503414909206431 0.0040707737949609189 0 0.00044091081855648001 0.0041508828201660668 0 0.00049503414909206431 0.0040707737949609189 0 0.00043592655988988955 0.0041267532255142994 0 0.00050353540637470759 0.0040128690533333495 0 0.00049564455317487066 0.0040638708946005705 0 0.00043078435089792235 0.0041101417347369548 0 0.00049503414909206431 0.0040707737949609189 0 0.00043592655988988955 0.0041267532255142994 0 0.0005037973634742115 0.0040529217602959999 0 0.00050897768490425785 0.0039863102130110661 0 0.00049503414909206431 0.0040707737949609189 0 0.00043694977795777671 0.0041454277093493841 0 0.00043592655988988955 0.0041267532255142994 0 0.00044567171193273561 0.0041267439704223011 0 0.00048377666496718087 0.004141806206981573 0 0.00045436504090097009 0.0041249352105915847 0 0.00044567171193273561 0.0041267439704223011 0 0.00043078435089792235 0.0041101417347369548 0 0.00044567171193273561 0.0041267439704223011 0 0.00043998660749384094 0.004184678132975181 0 0.00043078435089792235 0.0041101417347369548 0 0.00043592655988988955 0.0041267532255142994 0 0.00044567171193273561 0.0041267439704223011 0 0.00048377666496718087 0.004141806206981573 0 0.00044567171193273561 0.0041267439704223011 0 0.00043998660749384094 0.004184678132975181 0 0.00040960053499362024 0.0043854566971681689 0 0.00041825865332056498 0.0043366450284877895 0 0.00048377666496718087 0.004141806206981573 0 0.00043998660749384094 0.004184678132975181 0 0.00041607812557953224 0.0043268522596368857 0 0.0003505215661581803 0.0046288385175006237 0 0.00041607812557953224 0.0043268522596368857 0 0.00031962193508855202 0.0045012062614706713 0 0.00052094135845717629 0.0039031752798622641 0 0.00043078435089792235 0.0041101417347369548 0 0.00049503414909206431 0.0040707737949609189 0 0.00040464816835839138 0.0043003325168759227 0 0.00043078435089792235 0.0041101417347369548 0 0.00043998660749384094 0.004184678132975181 0 0.00046644722404369195 0.0040979573444412162 0 0.00043568779766096975 0.0041076890541581158 0 0.00039954185847542232 0.00423086264370434 0 0.00040464816835839138 0.0043003325168759227 0 0.00041607812557953224 0.0043268522596368857 0 0.00040464816835839138 0.0043003325168759227 0 0.00043998660749384094 0.004184678132975181 0 0.00041607812557953224 0.0043268522596368857 0 0.00041607812557953224 0.0043268522596368857 0 0.00031455431459064215 0.0044114224673095842 0 0.00031962193508855202 0.0045012062614706713 0 0.00028855553735112352 0.0043299780239975019 0 0.00041607812557953224 0.0043268522596368857 0 0.00031455431459064215 0.0044114224673095842 0 0.00020818619294823729 0.0043945384019814134 0 0.00028855553735112352 0.0043299780239975019 0 0.0002442064579397334 0.0044427357588829788 0 0.00031455431459064215 0.0044114224673095842 0 0.0002442064579397334 0.0044427357588829788 0 0.00026791582945043544 0.0045143109072489892 0 0.00028855553735112352 0.0043299780239975019 0 0.00031455431459064215 0.0044114224673095842 0 0.0002442064579397334 0.0044427357588829788 0 0.00020818619294823729 0.0043945384019814134 0 0.00019360785145828516 0.004496089374940641 0 0.0002442064579397334 0.0044427357588829788 0 0.00020818619294823729 0.0043945384019814134 0 0.00019360785145828516 0.004496089374940641 0 0.00015124090745914575 0.0044882117491709317 0 0.00019360785145828516 0.004496089374940641 0 0.0002442064579397334 0.0044427357588829788 0 0.00021350242006811789 0.0045663279615667214 0 0.0002442064579397334 0.0044427357588829788 0 0.00021350242006811789 0.0045663279615667214 0 0.00026791582945043544 0.0045143109072489892 0 0.00019360785145828516 0.004496089374940641 0 0.00021350242006811789 0.0045663279615667214 0 0.00015285457440546781 0.0045594698149408761 0 0.00021350242006811789 0.0045663279615667214 0 0.00020118768218307302 0.0046272226831292279 0 0.00016974953431699068 0.0046163806322920128 0 0.00023678966191847898 0.0046377784393858076 0 0.00021350242006811789 0.0045663279615667214 0 0.00020118768218307302 0.0046272226831292279 0 0.00021350242006811789 0.0045663279615667214 0 0.00027605744146258374 0.0046062968351809636 0 0.00026791582945043544 0.0045143109072489892 0 0.00023678966191847898 0.0046377784393858076 0 0.00021350242006811789 0.0045663279615667214 0 0.00027605744146258374 0.0046062968351809636 0 0.0003505215661581803 0.0046288385175006237 0 0.00027605744146258374 0.0046062968351809636 0 0.00031962193508855202 0.0045012062614706713 0 0.00031455431459064215 0.0044114224673095842 0 0.00031962193508855202 0.0045012062614706713 0 0.00026791582945043544 0.0045143109072489892 0 0.00027605744146258374 0.0046062968351809636 0 0.00031962193508855202 0.0045012062614706713 0 0.00026791582945043544 0.0045143109072489892 0 8.5339135805265028e-05 0.0046550958932890206 0 0.00011166869670341744 0.0045844036974649928 0 5.983636641237224e-05 0.0046097386351067471 0 8.5339135805265028e-05 0.0046550958932890206 0 0.00013029350569227977 0.0046247437348603815 0 0.00011166869670341744 0.0045844036974649928 0 8.5339135805265028e-05 0.0046550958932890206 0 7.2664379375684616e-05 0.004718897057665393 0 0.00011288702988639466 0.0046835610873777475 0 0.00013029350569227977 0.0046247437348603815 0 0.00011288702988639466 0.0046835610873777475 0 0.00014799095271871181 0.0046689937809846769 0 8.5339135805265028e-05 0.0046550958932890206 0 0.00013029350569227977 0.0046247437348603815 0 0.00011288702988639466 0.0046835610873777475 0 0.00013029350569227977 0.0046247437348603815 0 0.00016974953431699068 0.0046163806322920128 0 0.00014799095271871181 0.0046689937809846769 0 0.00020118768218307302 0.0046272226831292279 0 0.00016974953431699068 0.0046163806322920128 0 0.00017618888584001007 0.0046625431608155682 0 0.00021350242006811789 0.0045663279615667214 0 0.00016974953431699068 0.0046163806322920128 0 0.00015285457440546781 0.0045594698149408761 0 0.00013029350569227977 0.0046247437348603815 0 0.00016974953431699068 0.0046163806322920128 0 0.00015285457440546781 0.0045594698149408761 0 0.00013029350569227977 0.0046247437348603815 0 0.00015285457440546781 0.0045594698149408761 0 0.00011166869670341744 0.0045844036974649928 0 0.00015285457440546781 0.0045594698149408761 0 0.00015124090745914575 0.0044882117491709317 0 0.00011166869670341744 0.0045844036974649928 0 0.00019360785145828516 0.004496089374940641 0 0.00015285457440546781 0.0045594698149408761 0 0.00015124090745914575 0.0044882117491709317 0 0.00011099987951663288 0.00448117769328893 0 0.00015124090745914575 0.0044882117491709317 0 0.00011166869670341744 0.0045844036974649928 0 0.00011099987951663288 0.00448117769328893 0 0.00011166869670341744 0.0045844036974649928 0 5.983636641237224e-05 0.0046097386351067471 0 5.7452558916144996e-06 0.0046188938913236397 0 5.4530178198807694e-05 0.0045355249559521464 0 5.983636641237224e-05 0.0046097386351067471 0 5.7452558916144996e-06 0.0046188938913236397 0 5.983636641237224e-05 0.0046097386351067471 0 1.7957722999379296e-05 0.0046788136965342578 0 5.7452558916144996e-06 0.0046188938913236397 0 1.7957722999379296e-05 0.0046788136965342578 0 -1.6832077970136008e-05 0.0046865862345960929 0 1.7957722999379296e-05 0.0046788136965342578 0 6.0255587266552477e-06 0.0047359448116427996 0 -1.6832077970136008e-05 0.0046865862345960929 0 1.7957722999379296e-05 0.0046788136965342578 0 2.3227911926274694e-05 0.0047307170643893035 0 6.0255587266552477e-06 0.0047359448116427996 0 1.7957722999379296e-05 0.0046788136965342578 0 2.3227911926274694e-05 0.0047307170643893035 0 4.3756827971060595e-05 0.004700247398306193 0 2.3227911926274694e-05 0.0047307170643893035 0 4.3756827971060595e-05 0.004700247398306193 0 3.4197010526367841e-05 0.0047673442754570996 0 2.3227911926274694e-05 0.0047307170643893035 0 1.6020789390329991e-05 0.0047703163198142915 0 6.0255587266552477e-06 0.0047359448116427996 0 8.5339135805265028e-05 0.0046550958932890206 0 5.983636641237224e-05 0.0046097386351067471 0 4.3756827971060595e-05 0.004700247398306193 0 5.983636641237224e-05 0.0046097386351067471 0 1.7957722999379296e-05 0.0046788136965342578 0 4.3756827971060595e-05 0.004700247398306193 0 8.5339135805265028e-05 0.0046550958932890206 0 4.3756827971060595e-05 0.004700247398306193 0 7.2664379375684616e-05 0.004718897057665393 0 7.2664379375684616e-05 0.004718897057665393 0 5.1912827044755042e-05 0.0047388175788908868 0 5.8451161661899071e-05 0.0047664039853955315 0 4.3756827971060595e-05 0.004700247398306193 0 7.2664379375684616e-05 0.004718897057665393 0 5.1912827044755042e-05 0.0047388175788908868 0 5.1912827044755042e-05 0.0047388175788908868 0 5.8451161661899071e-05 0.0047664039853955315 0 3.4197010526367841e-05 0.0047673442754570996 0 5.8451161661899071e-05 0.0047664039853955315 0 8.700212290848049e-05 0.0047697224074040624 0 6.8411085059698156e-05 0.004791162176709547 0 7.2664379375684616e-05 0.004718897057665393 0 5.8451161661899071e-05 0.0047664039853955315 0 8.700212290848049e-05 0.0047697224074040624 0 7.2664379375684616e-05 0.004718897057665393 0 8.700212290848049e-05 0.0047697224074040624 0 0.00010118256357257909 0.0047293646914021732 0 1.6020789390329991e-05 0.0047703163198142915 0 3.4197010526367841e-05 0.0047673442754570996 0 2.6231552540207724e-05 0.004803744397888457 0 2.3227911926274694e-05 0.0047307170643893035 0 1.6020789390329991e-05 0.0047703163198142915 0 3.4197010526367841e-05 0.0047673442754570996 0 4.3756827971060595e-05 0.004700247398306193 0 5.1912827044755042e-05 0.0047388175788908868 0 3.4197010526367841e-05 0.0047673442754570996 0 5.8451161661899071e-05 0.0047664039853955315 0 3.4197010526367841e-05 0.0047673442754570996 0 4.3960164454780461e-05 0.0048112844593577652 0 3.4197010526367841e-05 0.0047673442754570996 0 2.6231552540207724e-05 0.004803744397888457 0 4.3960164454780461e-05 0.0048112844593577652 0 2.6231552540207724e-05 0.004803744397888457 0 2.1807912424484454e-05 0.004837730066246766 0 1.1690693351097358e-05 0.0048160581329391482 0 1.6020789390329991e-05 0.0047703163198142915 0 2.6231552540207724e-05 0.004803744397888457 0 1.1690693351097358e-05 0.0048160581329391482 0 2.1807912424484454e-05 0.004837730066246766 0 4.3960164454780461e-05 0.0048112844593577652 0 3.3201288099982519e-05 0.0048567578011905702 0 2.6231552540207724e-05 0.004803744397888457 0 2.1807912424484454e-05 0.004837730066246766 0 4.3960164454780461e-05 0.0048112844593577652 0 4.3960164454780461e-05 0.0048112844593577652 0 5.0692601438365543e-05 0.0048392180968896007 0 3.3201288099982519e-05 0.0048567578011905702 0 2.1807912424484454e-05 0.004837730066246766 0 3.3201288099982519e-05 0.0048567578011905702 0 1.4789742088498817e-05 0.0048766494805834336 0 8.700212290848049e-05 0.0047697224074040624 0 6.8411085059698156e-05 0.004791162176709547 0 8.610749232032987e-05 0.0048171657808261225 0 4.3960164454780461e-05 0.0048112844593577652 0 6.8411085059698156e-05 0.004791162176709547 0 6.8038265923508557e-05 0.0048213786540000298 0 5.8451161661899071e-05 0.0047664039853955315 0 4.3960164454780461e-05 0.0048112844593577652 0 6.8411085059698156e-05 0.004791162176709547 0 5.0692601438365543e-05 0.0048392180968896007 0 6.8038265923508557e-05 0.0048213786540000298 0 6.8485063360263995e-05 0.0048513539877281311 0 4.3960164454780461e-05 0.0048112844593577652 0 5.0692601438365543e-05 0.0048392180968896007 0 6.8038265923508557e-05 0.0048213786540000298 0 6.8411085059698156e-05 0.004791162176709547 0 6.8038265923508557e-05 0.0048213786540000298 0 8.610749232032987e-05 0.0048171657808261225 0 6.8038265923508557e-05 0.0048213786540000298 0 8.610749232032987e-05 0.0048171657808261225 0 6.8485063360263995e-05 0.0048513539877281311 0 8.610749232032987e-05 0.0048171657808261225 0 0.00010774770133826212 0.0047948479222038867 0 0.00010339499282851182 0.0048259196563143784 0 0.00010774770133826212 0.0047948479222038867 0 0.00012532994230866708 0.0048142976616735878 0 0.00010339499282851182 0.0048259196563143784 0 0.00012532994230866708 0.0048142976616735878 0 0.00013452507928479515 0.0047781889040918622 0 0.00015475126253123735 0.0047990043373545323 0 0.00010774770133826212 0.0047948479222038867 0 0.00012532994230866708 0.0048142976616735878 0 0.00013452507928479515 0.0047781889040918622 0 0.00013452507928479515 0.0047781889040918622 0 0.00011178970241508977 0.0047598139385465321 0 0.00013108781047043594 0.0047265972745812413 0 0.00010774770133826212 0.0047948479222038867 0 0.00013452507928479515 0.0047781889040918622 0 0.00011178970241508977 0.0047598139385465321 0 8.700212290848049e-05 0.0047697224074040624 0 8.610749232032987e-05 0.0048171657808261225 0 0.00010774770133826212 0.0047948479222038867 0 8.700212290848049e-05 0.0047697224074040624 0 0.00010774770133826212 0.0047948479222038867 0 0.00011178970241508977 0.0047598139385465321 0 8.700212290848049e-05 0.0047697224074040624 0 0.00011178970241508977 0.0047598139385465321 0 0.00010118256357257909 0.0047293646914021732 0 0.00011178970241508977 0.0047598139385465321 0 0.00010118256357257909 0.0047293646914021732 0 0.00013108781047043594 0.0047265972745812413 0 0.00013108781047043594 0.0047265972745812413 0 0.00011288702988639466 0.0046835610873777475 0 0.00014799095271871181 0.0046689937809846769 0 0.00010118256357257909 0.0047293646914021732 0 0.00013108781047043594 0.0047265972745812413 0 0.00011288702988639466 0.0046835610873777475 0 7.2664379375684616e-05 0.004718897057665393 0 0.00010118256357257909 0.0047293646914021732 0 0.00011288702988639466 0.0046835610873777475 0 0.00016974953431699068 0.0046163806322920128 0 0.00017618888584001007 0.0046625431608155682 0 0.00014799095271871181 0.0046689937809846769 0 0.00020217347048853728 0.0046740605343451513 0 0.00017618888584001007 0.0046625431608155682 0 0.00016893051640821659 0.0047057774403701878 0 0.00020217347048853728 0.0046740605343451513 0 0.00020118768218307302 0.0046272226831292279 0 0.00017618888584001007 0.0046625431608155682 0 0.00017618888584001007 0.0046625431608155682 0 0.00014799095271871181 0.0046689937809846769 0 0.00016893051640821659 0.0047057774403701878 0 0.00013108781047043594 0.0047265972745812413 0 0.00016893051640821659 0.0047057774403701878 0 0.00016007053868728936 0.0047501812497480964 0 0.00013108781047043594 0.0047265972745812413 0 0.00014799095271871181 0.0046689937809846769 0 0.00016893051640821659 0.0047057774403701878 0 0.00020217347048853728 0.0046740605343451513 0 0.00016893051640821659 0.0047057774403701878 0 0.00019319768789489327 0.004726720198419551 0 0.00016893051640821659 0.0047057774403701878 0 0.00019319768789489327 0.004726720198419551 0 0.00016007053868728936 0.0047501812497480964 0 0.000218090243480877 0.0047466661523153843 0 0.00019319768789489327 0.004726720198419551 0 0.00018494372974515921 0.0047712745118821199 0 0.00019319768789489327 0.004726720198419551 0 0.00016007053868728936 0.0047501812497480964 0 0.00018494372974515921 0.0047712745118821199 0 0.00013452507928479515 0.0047781889040918622 0 0.00013108781047043594 0.0047265972745812413 0 0.00016007053868728936 0.0047501812497480964 0 0.00016007053868728936 0.0047501812497480964 0 0.00015475126253123735 0.0047990043373545323 0 0.00018494372974515921 0.0047712745118821199 0 0.00013452507928479515 0.0047781889040918622 0 0.00016007053868728936 0.0047501812497480964 0 0.00015475126253123735 0.0047990043373545323 0 0.00015475126253123735 0.0047990043373545323 0 0.00018494372974515921 0.0047712745118821199 0 0.00019376834750138805 0.0048308306925670145 0 0.000218090243480877 0.0047466661523153843 0 0.00018494372974515921 0.0047712745118821199 0 0.00019376834750138805 0.0048308306925670145 0 0.00019376834750138805 0.0048308306925670145 0 0.00013816302000865908 0.0048457522549739118 0 0.00012138178484844018 0.0048935304638500392 0 0.00028216703567603564 0.0047337517631091432 0 0.00025562488346071786 0.0047333706180276618 0 0.00028752705426529873 0.0045720534605350402 0 0.00034479473741388114 0.004651401566161859 0 0.00038849415167582394 0.0045106668917955168 0 0.00015475126253123735 0.0047990043373545323 0 0.00019376834750138805 0.0048308306925670145 0 0.00013816302000865908 0.0048457522549739118 0 0.00019376834750138805 0.0048308306925670145 0 0.00011996769697074908 0.0049069526010169298 0 0.00012138178484844018 0.0048935304638500392 0 8.610749232032987e-05 0.0048171657808261225 0 0.00010339499282851182 0.0048259196563143784 0 8.9996782671732841e-05 0.0048515574909072491 0 0.00011267215348381826 0.0048455192529745575 0 0.00010039507239774591 0.0048728120276281253 0 8.9996782671732841e-05 0.0048515574909072491 0 0.00010339499282851182 0.0048259196563143784 0 0.00011267215348381826 0.0048455192529745575 0 8.9996782671732841e-05 0.0048515574909072491 0 0.00012532994230866708 0.0048142976616735878 0 0.00010339499282851182 0.0048259196563143784 0 0.00011267215348381826 0.0048455192529745575 0 0.00012532994230866708 0.0048142976616735878 0 0.00015475126253123735 0.0047990043373545323 0 0.00013816302000865908 0.0048457522549739118 0 0.00012532994230866708 0.0048142976616735878 0 0.00011267215348381826 0.0048455192529745575 0 0.00013816302000865908 0.0048457522549739118 0 0.00013816302000865908 0.0048457522549739118 0 0.00012145879096314612 0.0048720763397115648 0 0.00012138178484844018 0.0048935304638500392 0 0.00011267215348381826 0.0048455192529745575 0 0.00013816302000865908 0.0048457522549739118 0 0.0001166847400980254 0.0048644901722418128 0 0.00013816302000865908 0.0048457522549739118 0 0.00012145879096314612 0.0048720763397115648 0 0.0001166847400980254 0.0048644901722418128 0 0.00011267215348381826 0.0048455192529745575 0 0.0001166847400980254 0.0048644901722418128 0 0.00010039507239774591 0.0048728120276281253 0 0.0001166847400980254 0.0048644901722418128 0 0.00010039507239774591 0.0048728120276281253 0 0.00011013522106291995 0.0048841674795705092 0 0.00012145879096314612 0.0048720763397115648 0 0.0001166847400980254 0.0048644901722418128 0 0.00011013522106291995 0.0048841674795705092 0 9.6367937796548012e-05 0.0049004394431639304 0 0.00011162516912580763 0.0048957508106421748 0 0.00011013522106291995 0.0048841674795705092 0 0.00010039507239774591 0.0048728120276281253 0 9.6367937796548012e-05 0.0049004394431639304 0 0.00011013522106291995 0.0048841674795705092 0 0.00012145879096314612 0.0048720763397115648 0 0.00011013522106291995 0.0048841674795705092 0 0.00012138178484844018 0.0048935304638500392 0 0.00011162516912580763 0.0048957508106421748 0 0.00011013522106291995 0.0048841674795705092 0 0.00012138178484844018 0.0048935304638500392 0 0.00011162516912580763 0.0048957508106421748 0 0.00011901484658453954 0.004904465195159434 0 0.00012138178484844018 0.0048935304638500392 0 9.6367937796548012e-05 0.0049004394431639304 0 0.00011162516912580763 0.0048957508106421748 0 0.00011901484658453954 0.004904465195159434 0 0.00025562488346071786 0.0047333706180276618 0 0.00023596688901070619 0.0047896125588955223 0 0.00035790927200978032 0.0043522676503549174 0 0.00040003321233324517 0.0042367330135060733 0 0.00028752705426529873 0.0045720534605350402 0 0.00038849415167582394 0.0045106668917955168 0 0.00036299129352687539 0.0043446145964400754 0 0.00034479473741388114 0.004651401566161859 0 0.000515400421113694 0.0045233116805264047 0 0.00038849415167582394 0.0045106668917955168 0 0.000515400421113694 0.0045233116805264047 0 0.00038849415167582394 0.0045106668917955168 0 0.00043487288797124091 0.00443444445723273 0 0.00038849415167582394 0.0045106668917955168 0 0.00043487288797124091 0.00443444445723273 0 0.00036299129352687539 0.0043446145964400754 0 0.00043487288797124091 0.00443444445723273 0 0.00036299129352687539 0.0043446145964400754 0 0.00046825753227067071 0.0043293453302352134 0 0.00025562488346071786 0.0047333706180276618 0 0.0003757413375723078 0.0045761099298968905 0 0.000515400421113694 0.0045233116805264047 0 0.00046825753227067071 0.0043293453302352134 0 0.00055813384906060713 0.0042342189270558684 0 0.000515400421113694 0.0045233116805264047 0 0.00043487288797124091 0.00443444445723273 0 0.00046825753227067071 0.0043293453302352134 0 0.00018062583083864478 0.0048127803823002869 0 0.00015992563702741495 0.0049160292393847279 0 0.00012052096468432833 0.0048620549298579322 0 0.00046825753227067071 0.0043293453302352134 0 0.00055813384906060713 0.0042342189270558684 0 0.0004687992740285537 0.0041093790814425175 0 0.00036299129352687539 0.0043446145964400754 0 0.00046825753227067071 0.0043293453302352134 0 0.0004687992740285537 0.0041093790814425175 0 0.00042987738699756318 0.0041344221112150506 0 0.00042424176361808782 0.0041086368809894443 0 0.0004353499126155321 0.0040995376155948402 0 0.00040003321233324517 0.0042367330135060733 0 0.00046430270420490309 0.0041148537477265846 0 0.00042987738699756318 0.0041344221112150506 0 0.0004353499126155321 0.0040995376155948402 0 0.0004687992740285537 0.0041093790814425175 0 0.00042072525898118474 0.0041188960476089215 0 0.00042987738699756318 0.0041344221112150506 0 0.00042424176361808782 0.0041086368809894443 0 6.7193325021809127e-05 0.0049144850688894676 0 0.00011324888762509113 0.0049567842708961758 0 6.5432848418047005e-05 0.0049875755854779233 0 6.7193325021809127e-05 0.0049144850688894676 0 0.00011487745257812608 0.0049130594229053826 0 0.00011324888762509113 0.0049567842708961758 0 0.00015992563702741495 0.0049160292393847279 0 0.00011487745257812608 0.0049130594229053826 0 0.00011324888762509113 0.0049567842708961758 0 0.00015992563702741495 0.0049160292393847279 0 0.00011487745257812608 0.0049130594229053826 0 0.00012052096468432833 0.0048620549298579322 0 6.7193325021809127e-05 0.0049144850688894676 0 0.00011487745257812608 0.0049130594229053826 0 0.00012052096468432833 0.0048620549298579322 0 3.3301804440853901e-05 0.0049686765910525663 0 6.9309935705263038e-05 0.0049461339860123145 0 3.2572387390705336e-05 0.0049458049768516255 0 5.6409275244560896e-05 0.0049369824073374185 0 7.1537640277701954e-05 0.004925602577509537 0 6.9309935705263038e-05 0.0049461339860123145 0 3.2572387390705336e-05 0.0049458049768516255 0 4.1531839444859618e-05 0.004915070568336872 0 3.2572387390705336e-05 0.0049458049768516255 0 4.1531839444859618e-05 0.004915070568336872 0 1.8195038139740008e-05 0.0049311951679190617 0 4.1531839444859618e-05 0.004915070568336872 0 2.58021502577667e-05 0.0048963618842604037 0 1.8195038139740008e-05 0.0049311951679190617 0 6.9309935705263038e-05 0.0049461339860123145 0 4.1531839444859618e-05 0.004915070568336872 0 7.2853214545315245e-05 0.0048922032775352738 0 0.00025562488346071786 0.0047333706180276618 0 7.1537640277701954e-05 0.004925602577509537 0 9.6367937796548012e-05 0.0049004394431639304 0 6.9309935705263038e-05 0.0049461339860123145 0 7.2853214545315245e-05 0.0048922032775352738 0 9.6367937796548012e-05 0.0049004394431639304 0 0.00011901484658453954 0.004904465195159434 0 6.9309935705263038e-05 0.0049461339860123145 0 0.00010039507239774591 0.0048728120276281253 0 9.6367937796548012e-05 0.0049004394431639304 0 7.2853214545315245e-05 0.0048922032775352738 0 0.00010039507239774591 0.0048728120276281253 0 7.2853214545315245e-05 0.0048922032775352738 0 8.9996782671732841e-05 0.0048515574909072491 0 7.2853214545315245e-05 0.0048922032775352738 0 6.8485063360263995e-05 0.0048513539877281311 0 8.9996782671732841e-05 0.0048515574909072491 0 7.2853214545315245e-05 0.0048922032775352738 0 6.8485063360263995e-05 0.0048513539877281311 0 4.7923283027889728e-05 0.0048773899059377096 0 5.0692601438365543e-05 0.0048392180968896007 0 6.8485063360263995e-05 0.0048513539877281311 0 4.7923283027889728e-05 0.0048773899059377096 0 8.610749232032987e-05 0.0048171657808261225 0 6.8485063360263995e-05 0.0048513539877281311 0 8.9996782671732841e-05 0.0048515574909072491 0 4.1531839444859618e-05 0.004915070568336872 0 7.2853214545315245e-05 0.0048922032775352738 0 4.7923283027889728e-05 0.0048773899059377096 0 4.1531839444859618e-05 0.004915070568336872 0 2.58021502577667e-05 0.0048963618842604037 0 4.7923283027889728e-05 0.0048773899059377096 0 5.0692601438365543e-05 0.0048392180968896007 0 3.3201288099982519e-05 0.0048567578011905702 0 4.7923283027889728e-05 0.0048773899059377096 0 3.3201288099982519e-05 0.0048567578011905702 0 2.58021502577667e-05 0.0048963618842604037 0 4.7923283027889728e-05 0.0048773899059377096 0 3.3201288099982519e-05 0.0048567578011905702 0 2.58021502577667e-05 0.0048963618842604037 0 1.4789742088498817e-05 0.0048766494805834336 0 2.58021502577667e-05 0.0048963618842604037 0 7.688203204930357e-06 0.0049163524909314809 0 1.4789742088498817e-05 0.0048766494805834336 0 7.688203204930357e-06 0.0049163524909314809 0 7.0441711071124065e-07 0.0048991997561896369 0 1.4789742088498817e-05 0.0048766494805834336 0 2.58021502577667e-05 0.0048963618842604037 0 7.688203204930357e-06 0.0049163524909314809 0 1.8195038139740008e-05 0.0049311951679190617 0 -4.7615826860754702e-06 0.0049380445037151355 0 -1.1412795092633358e-05 0.0049242182507122428 0 7.0441711071124065e-07 0.0048991997561896369 0 7.688203204930357e-06 0.0049163524909314809 0 -4.7615826860754702e-06 0.0049380445037151355 0 7.0441711071124065e-07 0.0048991997561896369 0 -4.7615826860754702e-06 0.0049380445037151355 0 3.3862261721487609e-06 0.0049500782807378237 0 -5.0415466651540619e-06 0.0049765163258621977 0 7.688203204930357e-06 0.0049163524909314809 0 -4.7615826860754702e-06 0.0049380445037151355 0 3.3862261721487609e-06 0.0049500782807378237 0 3.3862261721487609e-06 0.0049500782807378237 0 1.8195038139740008e-05 0.0049311951679190617 0 1.4570183573661846e-05 0.0049633002418901168 0 7.688203204930357e-06 0.0049163524909314809 0 3.3862261721487609e-06 0.0049500782807378237 0 1.8195038139740008e-05 0.0049311951679190617 0 3.2572387390705336e-05 0.0049458049768516255 0 1.8195038139740008e-05 0.0049311951679190617 0 1.4570183573661846e-05 0.0049633002418901168 0 3.3301804440853901e-05 0.0049686765910525663 0 3.2572387390705336e-05 0.0049458049768516255 0 1.4570183573661846e-05 0.0049633002418901168 0 3.3862261721487609e-06 0.0049500782807378237 0 2.1263403935503607e-06 0.0049704696264509145 0 -5.0415466651540619e-06 0.0049765163258621977 0 1.4570183573661846e-05 0.0049633002418901168 0 2.1263403935503607e-06 0.0049704696264509145 0 8.0185262487325369e-06 0.0049752540173178443 0 3.3862261721487609e-06 0.0049500782807378237 0 1.4570183573661846e-05 0.0049633002418901168 0 2.1263403935503607e-06 0.0049704696264509145 0 8.0185262487325369e-06 0.0049752540173178443 0 1.9370730353085955e-05 0.004971698213706478 0 4.6580494457217684e-06 0.0049882073561673367 0 2.1263403935503607e-06 0.0049704696264509145 0 8.0185262487325369e-06 0.0049752540173178443 0 -2.1482686699204251e-07 0.0049843334787106012 0 8.0185262487325369e-06 0.0049752540173178443 0 -2.1482686699204251e-07 0.0049843334787106012 0 4.6580494457217684e-06 0.0049882073561673367 0 6.7193325021809127e-05 0.0049144850688894676 0 1.9370730353085955e-05 0.004971698213706478 0 6.5432848418047005e-05 0.0049875755854779233 0 3.3301804440853901e-05 0.0049686765910525663 0 1.4570183573661846e-05 0.0049633002418901168 0 1.9370730353085955e-05 0.004971698213706478 0 1.4570183573661846e-05 0.0049633002418901168 0 8.0185262487325369e-06 0.0049752540173178443 0 1.9370730353085955e-05 0.004971698213706478 0 5.6409275244560896e-05 0.0049369824073374185 0 2.0231300423461088e-05 0.0049696791073640962 0 -1.4182389090313702e-09 0.0049999855292595973 0 -2.1482686699204251e-07 0.0049843334787106012 0 -3.5011851318584275e-07 0.0049939993455535214 0 2.1263403935503607e-06 0.0049704696264509145 0 -2.1482686699204251e-07 0.0049843334787106012 0 -5.0415466651540619e-06 0.0049765163258621977 0 -1.4182389090313702e-09 0.0049999855292595973 0 -2.1482686699204251e-07 0.0049843334787106012 0 -5.0415466651540619e-06 0.0049765163258621977 0 -1.4182389090313702e-09 0.0049999855292595973 0 -2.166861825639517e-08 0.0049999452758873169 0 -5.0415466651540619e-06 0.0049765163258621977 0 -2.166861825639517e-08 0.0049999452758873169 0 -5.0415466651540619e-06 0.0049765163258621977 0 -9.9907272086352615e-06 0.0049658995341820937 0 -4.7615826860754702e-06 0.0049380445037151355 0 -5.0415466651540619e-06 0.0049765163258621977 0 -9.9907272086352615e-06 0.0049658995341820937 0 -4.7615826860754702e-06 0.0049380445037151355 0 -9.9907272086352615e-06 0.0049658995341820937 0 -1.1412795092633358e-05 0.0049242182507122428 0 -2.166861825639517e-08 0.0049999452758873169 0 -9.9907272086352615e-06 0.0049658995341820937 0 3.3175452651394736e-08 0.0049999956128567793 0 -9.9907272086352615e-06 0.0049658995341820937 0 3.3175452651394736e-08 0.0049999956128567793 0 -1.473154729463524e-05 0.0049490435839709577 0 3.3175452651394736e-08 0.0049999956128567793 0 -1.473154729463524e-05 0.0049490435839709577 0 -2.0718568517230297e-07 0.0049996332380629269 0 -1.473154729463524e-05 0.0049490435839709577 0 -2.0718568517230297e-07 0.0049996332380629269 0 -1.5917812676079118e-05 0.0049185245158950676 0 -1.473154729463524e-05 0.0049490435839709577 0 -1.5917812676079118e-05 0.0049185245158950676 0 -1.3011628877975429e-05 0.004875769937244593 0 -9.9907272086352615e-06 0.0049658995341820937 0 -1.473154729463524e-05 0.0049490435839709577 0 -1.1412795092633358e-05 0.0049242182507122428 0 -1.473154729463524e-05 0.0049490435839709577 0 -1.1412795092633358e-05 0.0049242182507122428 0 -1.3011628877975429e-05 0.004875769937244593 0 -1.1412795092633358e-05 0.0049242182507122428 0 7.0441711071124065e-07 0.0048991997561896369 0 -5.0944455962148674e-06 0.0048789907605550293 0 -1.1412795092633358e-05 0.0049242182507122428 0 -5.0944455962148674e-06 0.0048789907605550293 0 -1.3011628877975429e-05 0.004875769937244593 0 7.0441711071124065e-07 0.0048991997561896369 0 -5.0944455962148674e-06 0.0048789907605550293 0 6.8948722305472046e-06 0.0048539336880870617 0 2.1807912424484454e-05 0.004837730066246766 0 1.4789742088498817e-05 0.0048766494805834336 0 6.8948722305472046e-06 0.0048539336880870617 0 7.0441711071124065e-07 0.0048991997561896369 0 1.4789742088498817e-05 0.0048766494805834336 0 6.8948722305472046e-06 0.0048539336880870617 0 -5.0944455962148674e-06 0.0048789907605550293 0 6.8948722305472046e-06 0.0048539336880870617 0 -1.5946051304723872e-06 0.004838183086866875 0 2.1807912424484454e-05 0.004837730066246766 0 6.8948722305472046e-06 0.0048539336880870617 0 1.1690693351097358e-05 0.0048160581329391482 0 6.8948722305472046e-06 0.0048539336880870617 0 1.1690693351097358e-05 0.0048160581329391482 0 -1.5946051304723872e-06 0.004838183086866875 0 -1.5946051304723872e-06 0.004838183086866875 0 3.2955023933937659e-06 0.0047890275110103785 0 -5.109373453692894e-06 0.0048095514957539262 0 1.1690693351097358e-05 0.0048160581329391482 0 -1.5946051304723872e-06 0.004838183086866875 0 3.2955023933937659e-06 0.0047890275110103785 0 1.6020789390329991e-05 0.0047703163198142915 0 1.1690693351097358e-05 0.0048160581329391482 0 3.2955023933937659e-06 0.0047890275110103785 0 -5.0944455962148674e-06 0.0048789907605550293 0 -1.5946051304723872e-06 0.004838183086866875 0 -1.3011628877975429e-05 0.004875769937244593 0 -1.5946051304723872e-06 0.004838183086866875 0 -5.109373453692894e-06 0.0048095514957539262 0 -1.3011628877975429e-05 0.004875769937244593 0 -1.3011628877975429e-05 0.004875769937244593 0 -1.2117415294313876e-05 0.0047929698867214404 0 -1.6437966896153195e-05 0.0048290333854234171 0 -5.109373453692894e-06 0.0048095514957539262 0 -1.3011628877975429e-05 0.004875769937244593 0 -1.2117415294313876e-05 0.0047929698867214404 0 -5.109373453692894e-06 0.0048095514957539262 0 -1.2117415294313876e-05 0.0047929698867214404 0 -6.8167385239059335e-06 0.0047571336381198844 0 -1.2117415294313876e-05 0.0047929698867214404 0 -6.8167385239059335e-06 0.0047571336381198844 0 -1.6100553107666979e-05 0.0047313152516890436 0 1.6020789390329991e-05 0.0047703163198142915 0 3.2955023933937659e-06 0.0047890275110103785 0 6.0255587266552477e-06 0.0047359448116427996 0 3.2955023933937659e-06 0.0047890275110103785 0 -6.8167385239059335e-06 0.0047571336381198844 0 6.0255587266552477e-06 0.0047359448116427996 0 3.2955023933937659e-06 0.0047890275110103785 0 -5.109373453692894e-06 0.0048095514957539262 0 -6.8167385239059335e-06 0.0047571336381198844 0 -6.8167385239059335e-06 0.0047571336381198844 0 6.0255587266552477e-06 0.0047359448116427996 0 -1.6832077970136008e-05 0.0046865862345960929 0 -3.0924948150801738e-05 0.0046789744614027535 0 -1.6832077970136008e-05 0.0046865862345960929 0 -1.6100553107666979e-05 0.0047313152516890436 0 -6.8167385239059335e-06 0.0047571336381198844 0 -1.6832077970136008e-05 0.0046865862345960929 0 -1.6100553107666979e-05 0.0047313152516890436 0 -3.0924948150801738e-05 0.0046789744614027535 0 -1.6100553107666979e-05 0.0047313152516890436 0 -1.8896209373394517e-05 0.0047403280656937181 0 -1.2117415294313876e-05 0.0047929698867214404 0 -1.6100553107666979e-05 0.0047313152516890436 0 -1.8896209373394517e-05 0.0047403280656937181 0 -1.8896209373394517e-05 0.0047403280656937181 0 -5.4859349780934385e-05 0.0047735561519578569 0 -1.6437966896153195e-05 0.0048290333854234171 0 -1.3082780289679733e-09 0.0049999987744727076 0 1.9498707467275553e-06 0.0049997455311586855 0 3.6691619182950195e-09 0.0050000038235352377 0 -7.5250661872705068e-09 0.0049999455528302152 0 -1.8237272583941108e-05 0.0048852747484342965 0 -2.0718568517230297e-07 0.0049996332380629269 0 -1.5917812676079118e-05 0.0049185245158950676 0 -5.4859349780934385e-05 0.0047735561519578569 0 -1.5917812676079118e-05 0.0049185245158950676 0 -5.4859349780934385e-05 0.0047735561519578569 0 -1.6437966896153195e-05 0.0048290333854234171 0 -1.5917812676079118e-05 0.0049185245158950676 0 -1.3011628877975429e-05 0.004875769937244593 0 -1.6437966896153195e-05 0.0048290333854234171 0 -1.2117415294313876e-05 0.0047929698867214404 0 -1.8896209373394517e-05 0.0047403280656937181 0 -1.6437966896153195e-05 0.0048290333854234171 0 7.3004382740664717e-05 0.0024573529822755217 0 -1.016794918334596e-05 0.0023904978138126784 0 -1.036458008870783e-05 0.0024867711195640974 0 0.00016143057917863916 0.0022073936709893355 0 0.00011281973144339856 0.0022223400173113773 0 0.000109886823594359 0.0022925141527117749 0 7.3004382740664717e-05 0.0024573529822755217 0 0.000109886823594359 0.0022925141527117749 0 5.6716724664395545e-05 0.0023350267879340449 0 0.00011571449236040045 0.0023278304802830637 0 0.00011271603492751944 0.0022972029877366702 0 7.3004382740664717e-05 0.0024573529822755217 0 -1.016794918334596e-05 0.0023904978138126784 0 5.6716724664395545e-05 0.0023350267879340449 0 -5.9024839207616189e-05 0.0024553492334790203 0 -9.2946849430044424e-05 0.002418538936617992 0 -0.00012311903490890195 0.0024658734756055002 0 -1.016794918334596e-05 0.0023904978138126784 0 -5.9024839207616189e-05 0.0024553492334790203 0 -9.2946849430044424e-05 0.002418538936617992 0 -5.9024839207616189e-05 0.0024553492334790203 0 -7.1595141430218172e-05 0.0025266184040696701 0 -0.00012311903490890195 0.0024658734756055002 0 -5.9024839207616189e-05 0.0024553492334790203 0 -1.036458008870783e-05 0.0024867711195640974 0 -7.1595141430218172e-05 0.0025266184040696701 0 -1.016794918334596e-05 0.0023904978138126784 0 -5.9024839207616189e-05 0.0024553492334790203 0 -1.036458008870783e-05 0.0024867711195640974 0 -1.036458008870783e-05 0.0024867711195640974 0 -7.1595141430218172e-05 0.0025266184040696701 0 -8.6532232062496258e-06 0.0025313676107260826 0 -7.1595141430218172e-05 0.0025266184040696701 0 -5.4832106507346351e-05 0.0025537079230501039 0 -3.2764810505281441e-05 0.002549974779433339 0 -7.1595141430218172e-05 0.0025266184040696701 0 -8.6532232062496258e-06 0.0025313676107260826 0 -3.2764810505281441e-05 0.002549974779433339 0 -8.6532232062496258e-06 0.0025313676107260826 0 -3.2764810505281441e-05 0.002549974779433339 0 -6.7991977307959171e-06 0.0025548455367600479 0 -8.6532232062496258e-06 0.0025313676107260826 0 3.119974626412236e-05 0.0025393582983778513 0 -6.7991977307959171e-06 0.0025548455367600479 0 -1.036458008870783e-05 0.0024867711195640974 0 -8.6532232062496258e-06 0.0025313676107260826 0 3.119974626412236e-05 0.0025393582983778513 0 7.3004382740664717e-05 0.0024573529822755217 0 -1.036458008870783e-05 0.0024867711195640974 0 3.119974626412236e-05 0.0025393582983778513 0 0.00016143057917863916 0.0022073936709893355 0 0.00017743740733401742 0.0021668643605213572 0 0.00014843398681244931 0.0021732848000311803 0 0.00011571449236040045 0.0023278304802830637 0 0.00010233508585489343 0.0023642817972533803 0 0.00017743740733401742 0.0021668643605213572 0 0.00014843398681244931 0.0021732848000311803 0 0.00016658601656679419 0.0021409785019982463 0 0.00014843398681244931 0.0021732848000311803 0 0.00013270066275247481 0.0021660336511359428 0 0.00014948802488088558 0.0021437433787084869 0 0.00014843398681244931 0.0021732848000311803 0 0.00013270066275247481 0.0021660336511359428 0 0.00011987696534270274 0.0021911255815716905 0 0.00014843398681244931 0.0021732848000311803 0 0.00016658601656679419 0.0021409785019982463 0 0.00014948802488088558 0.0021437433787084869 0 0.00013270066275247481 0.0021660336511359428 0 0.00013351590087004264 0.0021430658955552901 0 0.00014948802488088558 0.0021437433787084869 0 0.00013270066275247481 0.0021660336511359428 0 0.00012088216399072189 0.0021776678091569111 0 0.00011987696534270274 0.0021911255815716905 0 0.00013270066275247481 0.0021660336511359428 0 0.00012680289186204829 0.0021611667987913351 0 0.00012088216399072189 0.0021776678091569111 0 0.00013270066275247481 0.0021660336511359428 0 0.00012680289186204829 0.0021611667987913351 0 0.00013351590087004264 0.0021430658955552901 0 0.00012680289186204829 0.0021611667987913351 0 0.00012088216399072189 0.0021776678091569111 0 0.00012170360972491654 0.0021669371168015787 0 0.00011987696534270274 0.0021911255815716905 0 0.00011678049037527439 0.002190394442468482 0 0.00010640203994908862 0.002204727647069144 0 0.00012088216399072189 0.0021776678091569111 0 0.00011987696534270274 0.0021911255815716905 0 0.00011678049037527439 0.002190394442468482 0 0.00014843398681244931 0.0021732848000311803 0 0.00011987696534270274 0.0021911255815716905 0 0.00011281973144339856 0.0022223400173113773 0 0.00016143057917863916 0.0022073936709893355 0 0.00014843398681244931 0.0021732848000311803 0 0.00011281973144339856 0.0022223400173113773 0 0.00014488944050763302 0.0021924768993412851 0 0.00013040447024428327 0.0021900133453319429 0 0.000134500067755073 0.0021953505826502028 0 0.000134500067755073 0.0021953505826502028 0 0.00012427769532565196 0.0021869070914548898 0 0.00012859877555653271 0.0022030122478542968 0 0.00014742927550556362 0.0022017705494427361 0 0.000134500067755073 0.0021953505826502028 0 0.00012859877555653271 0.0022030122478542968 0 0.00012427769532565196 0.0021869070914548898 0 0.00012210761483074422 0.0021785363037631431 0 0.00012859877555653271 0.0022030122478542968 0 0.00013040447024428327 0.0021900133453319429 0 0.00012427769532565196 0.0021869070914548898 0 0.00012109280398061637 0.0021861300071870748 0 0.00013040447024428327 0.0021900133453319429 0 0.000134500067755073 0.0021953505826502028 0 0.00012427769532565196 0.0021869070914548898 0 0.00012427769532565196 0.0021869070914548898 0 0.00012109280398061637 0.0021861300071870748 0 0.0001203204344858579 0.002176836905169675 0 0.00012427769532565196 0.0021869070914548898 0 0.00012210761483074422 0.0021785363037631431 0 0.0001203204344858579 0.002176836905169675 0 0.00012210761483074422 0.0021785363037631431 0 0.00012064445310513329 0.0021685991057675 0 0.00012051002043168969 0.0021507741427467548 0 0.00012210761483074422 0.0021785363037631431 0 0.0001203204344858579 0.002176836905169675 0 0.00012064445310513329 0.0021685991057675 0 0.0001203204344858579 0.002176836905169675 0 0.00012064445310513329 0.0021685991057675 0 0.00012170360972491654 0.0021669371168015787 0 0.00012088216399072189 0.0021776678091569111 0 0.0001203204344858579 0.002176836905169675 0 0.00012170360972491654 0.0021669371168015787 0 0.00012064445310513329 0.0021685991057675 0 0.00012170360972491654 0.0021669371168015787 0 0.00012051002043168969 0.0021507741427467548 0 0.00012680289186204829 0.0021611667987913351 0 0.00012170360972491654 0.0021669371168015787 0 0.00012051002043168969 0.0021507741427467548 0 0.00012088216399072189 0.0021776678091569111 0 0.00012109280398061637 0.0021861300071870748 0 0.0001203204344858579 0.002176836905169675 0 0.00012088216399072189 0.0021776678091569111 0 0.00012109280398061637 0.0021861300071870748 0 0.00011678049037527439 0.002190394442468482 0 0.00011678049037527439 0.002190394442468482 0 0.00012244041829680556 0.0021888093729029476 0 0.00012152105497921845 0.0021889805015222353 0 0.00012109280398061637 0.0021861300071870748 0 0.00011678049037527439 0.002190394442468482 0 0.00012244041829680556 0.0021888093729029476 0 0.00014488944050763302 0.0021924768993412851 0 0.00014491192565948459 0.0021825700862742109 0 0.00013252329429621986 0.0021885532965603355 0 0.00014491192565948459 0.0021825700862742109 0 0.00013252329429621986 0.0021885532965603355 0 0.00012152105497921845 0.0021889805015222353 0 0.00012109280398061637 0.0021861300071870748 0 0.00012244041829680556 0.0021888093729029476 0 0.00013252329429621986 0.0021885532965603355 0 0.00013040447024428327 0.0021900133453319429 0 0.00012109280398061637 0.0021861300071870748 0 0.00013252329429621986 0.0021885532965603355 0 0.00012244041829680556 0.0021888093729029476 0 0.00013252329429621986 0.0021885532965603355 0 0.00012152105497921845 0.0021889805015222353 0 0.00014488944050763302 0.0021924768993412851 0 0.00013040447024428327 0.0021900133453319429 0 0.00013252329429621986 0.0021885532965603355 0 0.00014491192565948459 0.0021825700862742109 0 0.00012152105497921845 0.0021889805015222353 0 0.00013723379903456928 0.002171579649299584 0 0.00012152105497921845 0.0021889805015222353 0 0.00011290676048078859 0.0021869814469842276 0 0.00013723379903456928 0.002171579649299584 0 0.00011678049037527439 0.002190394442468482 0 0.00012152105497921845 0.0021889805015222353 0 0.00010640203994908862 0.002204727647069144 0 0.00012152105497921845 0.0021889805015222353 0 0.00011290676048078859 0.0021869814469842276 0 0.00010640203994908862 0.002204727647069144 0 0.00011290676048078859 0.0021869814469842276 0 0.00013723379903456928 0.002171579649299584 0 0.00013093915942603108 0.002151437767168331 0 0.00015896972403020251 0.0021336640471029174 0 0.00013723379903456928 0.002171579649299584 0 0.00013093915942603108 0.002151437767168331 0 0.00011987696534270274 0.0021911255815716905 0 0.00011281973144339856 0.0022223400173113773 0 0.00010640203994908862 0.002204727647069144 0 0.00011290676048078859 0.0021869814469842276 0 0.00010640203994908862 0.002204727647069144 0 8.2478090065728196e-05 0.002223120518994873 0 0.00011281973144339856 0.0022223400173113773 0 0.00010640203994908862 0.002204727647069144 0 8.2478090065728196e-05 0.002223120518994873 0 0.00011281973144339856 0.0022223400173113773 0 0.000109886823594359 0.0022925141527117749 0 8.2478090065728196e-05 0.002223120518994873 0 8.0612593311984537e-05 0.0022293504056711895 0 3.1471558191200887e-05 0.0022374991513293046 0 0.000109886823594359 0.0022925141527117749 0 8.2478090065728196e-05 0.002223120518994873 0 9.0380206311813511e-05 0.0023008081530511916 0 8.2478090065728196e-05 0.002223120518994873 0 4.5776513448745885e-05 0.0021255520998680706 0 -3.2425019299509611e-05 0.0021759168572551622 0 8.2478090065728196e-05 0.002223120518994873 0 4.5776513448745885e-05 0.0021255520998680706 0 0.00011158535075427244 0.002149675897895924 0 4.5776513448745885e-05 0.0021255520998680706 0 0.00011158535075427244 0.002149675897895924 0 0.00011532606392137488 0.0020666199701048723 0 4.5776513448745885e-05 0.0021255520998680706 0 -2.7334296622699526e-05 0.0021223145875819815 0 -3.2425019299509611e-05 0.0021759168572551622 0 0.00013093915942603108 0.002151437767168331 0 0.00011158535075427244 0.002149675897895924 0 0.00014033593883324308 0.0021016141760534339 0 0.00015896972403020251 0.0021336640471029174 0 0.00013093915942603108 0.002151437767168331 0 0.00014033593883324308 0.0021016141760534339 0 0.00011290676048078859 0.0021869814469842276 0 0.00013093915942603108 0.002151437767168331 0 0.00011158535075427244 0.002149675897895924 0 0.00011290676048078859 0.0021869814469842276 0 8.2478090065728196e-05 0.002223120518994873 0 0.00011158535075427244 0.002149675897895924 0 0.00011158535075427244 0.002149675897895924 0 0.00014033593883324308 0.0021016141760534339 0 0.00011532606392137488 0.0020666199701048723 0 0.00023923633817607491 0.0019744875165786193 0 0.00011532606392137488 0.0020666199701048723 0 0.00017242609710163741 0.0019304209538441449 0 0.00019079682746484032 0.0019991780135061735 0 0.00011707178506199321 0.0020580399355973294 0 0.00014716483387528436 0.0020250045321223119 0 0.00014033593883324308 0.0021016141760534339 0 0.00011532606392137488 0.0020666199701048723 0 0.00011532606392137488 0.0020666199701048723 0 0.00010043293576146121 0.0019842424817848449 0 0.00017242609710163741 0.0019304209538441449 0 0.00013071048814286242 0.001897842581192523 0 0.00010043293576146121 0.0019842424817848449 0 0.00017242609710163741 0.0019304209538441449 0 0.00023923633817607491 0.0019744875165786193 0 0.00024955877205599404 0.0018502701271887584 0 0.00017242609710163741 0.0019304209538441449 0 4.5776513448745885e-05 0.0021255520998680706 0 4.1893488756242591e-05 0.0020577112673690187 0 -2.7334296622699526e-05 0.0021223145875819815 0 4.1893488756242591e-05 0.0020577112673690187 0 -1.7451763691771242e-05 0.0020734985940868552 0 -2.7334296622699526e-05 0.0021223145875819815 0 0.00011532606392137488 0.0020666199701048723 0 0.00010043293576146121 0.0019842424817848449 0 4.1893488756242591e-05 0.0020577112673690187 0 4.5776513448745885e-05 0.0021255520998680706 0 0.00011532606392137488 0.0020666199701048723 0 4.1893488756242591e-05 0.0020577112673690187 0 0.00010043293576146121 0.0019842424817848449 0 4.1893488756242591e-05 0.0020577112673690187 0 5.8601180598962621e-05 0.0019636535021454139 0 0.00013071048814286242 0.001897842581192523 0 0.00010043293576146121 0.0019842424817848449 0 5.8601180598962621e-05 0.0019636535021454139 0 4.1893488756242591e-05 0.0020577112673690187 0 5.8601180598962621e-05 0.0019636535021454139 0 -1.7451763691771242e-05 0.0020734985940868552 0 3.6392392545928319e-05 0.0019179133427779207 0 5.8601180598962621e-05 0.0019636535021454139 0 -1.7451763691771242e-05 0.0020734985940868552 0 -1.7050410289706714e-05 0.0020277068594279132 0 1.7862177452325928e-05 0.0020099994979266558 0 -1.7451763691771242e-05 0.0020734985940868552 0 5.0277010572840949e-05 0.0019641564583382995 0 -1.3185760990973822e-05 0.0020635961160095045 0 -1.7050410289706714e-05 0.0020277068594279132 0 -1.7451763691771242e-05 0.0020734985940868552 0 -5.1125893808168018e-05 0.0020649946936182255 0 -1.7451763691771242e-05 0.0020734985940868552 0 -5.1125893808168018e-05 0.0020649946936182255 0 -6.5172981682051436e-05 0.0021261169384137056 0 -5.1125893808168018e-05 0.0020649946936182255 0 -8.7607985100626224e-05 0.0021101151725476551 0 -6.5172981682051436e-05 0.0021261169384137056 0 -8.7607985100626224e-05 0.0021101151725476551 0 -6.5172981682051436e-05 0.0021261169384137056 0 -0.00010403057990585255 0.0021872958474120755 0 -6.5172981682051436e-05 0.0021261169384137056 0 -9.4849172010198456e-05 0.0021709409475855024 0 -0.00010403057990585255 0.0021872958474120755 0 -6.5172981682051436e-05 0.0021261169384137056 0 -2.7334296622699526e-05 0.0021223145875819815 0 -9.4849172010198456e-05 0.0021709409475855024 0 -1.7451763691771242e-05 0.0020734985940868552 0 -6.5172981682051436e-05 0.0021261169384137056 0 -2.7334296622699526e-05 0.0021223145875819815 0 -2.7334296622699526e-05 0.0021223145875819815 0 -9.4849172010198456e-05 0.0021709409475855024 0 -3.2425019299509611e-05 0.0021759168572551622 0 -4.6770357098560846e-05 0.0022391722611717789 0 3.1471558191200887e-05 0.0022374991513293046 0 -1.016794918334596e-05 0.0023904978138126784 0 7.1851706243426337e-06 0.0023020791881585108 0 5.6716724664395545e-05 0.0023350267879340449 0 7.1851706243426337e-06 0.0023020791881585108 0 5.6716724664395545e-05 0.0023350267879340449 0 9.0380206311813511e-05 0.0023008081530511916 0 0.000109886823594359 0.0022925141527117749 0 5.6716724664395545e-05 0.0023350267879340449 0 9.0380206311813511e-05 0.0023008081530511916 0 -9.2946849430044424e-05 0.002418538936617992 0 -6.9961925575369037e-05 0.0023558428537573685 0 -0.00013594622031848011 0.002396174277421653 0 -1.016794918334596e-05 0.0023904978138126784 0 -9.2946849430044424e-05 0.002418538936617992 0 -6.9961925575369037e-05 0.0023558428537573685 0 -1.016794918334596e-05 0.0023904978138126784 0 7.1851706243426337e-06 0.0023020791881585108 0 -6.9961925575369037e-05 0.0023558428537573685 0 7.1851706243426337e-06 0.0023020791881585108 0 -6.9961925575369037e-05 0.0023558428537573685 0 -0.00011249503696947478 0.002266305834445054 0 -6.9961925575369037e-05 0.0023558428537573685 0 -0.00011249503696947478 0.002266305834445054 0 -0.00012381526941223888 0.0023390918301626892 0 -6.9961925575369037e-05 0.0023558428537573685 0 -0.00013594622031848011 0.002396174277421653 0 -0.00012381526941223888 0.0023390918301626892 0 -0.00011249503696947478 0.002266305834445054 0 -0.00010403057990585255 0.0021872958474120755 0 -0.00013033795517272947 0.0022254718711190846 0 -0.00011249503696947478 0.002266305834445054 0 -0.00012728436985157493 0.0023001319095628621 0 -0.00012381526941223888 0.0023390918301626892 0 -0.00011249503696947478 0.002266305834445054 0 -0.00011997572593821999 0.0022649817524977869 0 -0.00012728436985157493 0.0023001319095628621 0 -0.00011249503696947478 0.002266305834445054 0 -0.00011997572593821999 0.0022649817524977869 0 -0.00013033795517272947 0.0022254718711190846 0 -4.6770357098560846e-05 0.0022391722611717789 0 -0.00010974075677456248 0.002256478268816935 0 -9.4849172010198456e-05 0.0021709409475855024 0 -0.00011249503696947478 0.002266305834445054 0 -0.00010403057990585255 0.0021872958474120755 0 -0.00014269508699548363 0.0020954876121795081 0 -0.00011320334754001939 0.0021455109331578802 0 -0.00013033795517272947 0.0022254718711190846 0 -8.7607985100626224e-05 0.0021101151725476551 0 -0.00010403057990585255 0.0021872958474120755 0 -0.00011320334754001939 0.0021455109331578802 0 -0.00010403057990585255 0.0021872958474120755 0 -0.00011320334754001939 0.0021455109331578802 0 -0.00013033795517272947 0.0022254718711190846 0 -0.00011932272063689103 0.0020758268464677741 0 -0.00014269508699548363 0.0020954876121795081 0 -0.00011320334754001939 0.0021455109331578802 0 -0.00011932272063689103 0.0020758268464677741 0 -8.7607985100626224e-05 0.0021101151725476551 0 -0.00011320334754001939 0.0021455109331578802 0 -0.00014653079171574369 0.0021363734052089901 0 -0.00013266741169323711 0.0022182432430787559 0 -0.00020861868415641179 0.0020206207064865627 0 -0.00014269508699548363 0.0020954876121795081 0 -0.00013033795517272947 0.0022254718711190846 0 -9.0657120916502935e-05 0.0022545319342195036 0 -0.00011997572593821999 0.0022649817524977869 0 -0.00013033795517272947 0.0022254718711190846 0 -9.0657120916502935e-05 0.0022545319342195036 0 -0.00011997572593821999 0.0022649817524977869 0 -0.00013413123360942169 0.0022894699152647235 0 -0.00011997572593821999 0.0022649817524977869 0 -0.00013413123360942169 0.0022894699152647235 0 -0.00012728436985157493 0.0023001319095628621 0 -0.00013413123360942169 0.0022894699152647235 0 -0.00012728436985157493 0.0023001319095628621 0 -0.00014558934591538385 0.0023462114135841404 0 -0.00012728436985157493 0.0023001319095628621 0 -0.00014558934591538385 0.0023462114135841404 0 -0.00012381526941223888 0.0023390918301626892 0 -0.00014558934591538385 0.0023462114135841404 0 -0.00017124902731098472 0.0023418965261014957 0 -0.0001842569401744863 0.0024243858767890123 0 -0.00013413123360942169 0.0022894699152647235 0 -0.00014558934591538385 0.0023462114135841404 0 -0.00017124902731098472 0.0023418965261014957 0 -0.00018008549826570571 0.0022829077873758111 0 -0.00013413123360942169 0.0022894699152647235 0 -0.00017124902731098472 0.0023418965261014957 0 -0.00018008549826570571 0.0022829077873758111 0 -0.00017124902731098472 0.0023418965261014957 0 -0.00021475012820298026 0.0023729243781738939 0 -0.00021475012820298026 0.0023729243781738939 0 -0.00021633135657210965 0.0025083015303732129 0 -0.00033169989321776583 0.0024109457029789253 0 -0.00025790542401862106 0.0022838635884688046 0 -0.00021475012820298026 0.0023729243781738939 0 -0.00033169989321776583 0.0024109457029789253 0 -0.00021475012820298026 0.0023729243781738939 0 -0.00021633135657210965 0.0025083015303732129 0 -0.0001842569401744863 0.0024243858767890123 0 -0.00017124902731098472 0.0023418965261014957 0 -0.00021475012820298026 0.0023729243781738939 0 -0.0001842569401744863 0.0024243858767890123 0 -0.0001842569401744863 0.0024243858767890123 0 -0.00021182179390442156 0.0025091572225359195 0 -0.00017842907084637463 0.0024575891940010926 0 -0.00021633135657210965 0.0025083015303732129 0 -0.0001842569401744863 0.0024243858767890123 0 -0.00021182179390442156 0.0025091572225359195 0 -0.00021633135657210965 0.0025083015303732129 0 -0.00021182179390442156 0.0025091572225359195 0 -0.00021845183141884204 0.0025741158219086857 0 -0.00021182179390442156 0.0025091572225359195 0 -0.00021845183141884204 0.0025741158219086857 0 -0.00021941722932830547 0.0025276778685567468 0 -0.00021182179390442156 0.0025091572225359195 0 -0.00021941722932830547 0.0025276778685567468 0 -0.00019970497780103853 0.0024967628702146417 0 -0.00021182179390442156 0.0025091572225359195 0 -0.00017842907084637463 0.0024575891940010926 0 -0.00019970497780103853 0.0024967628702146417 0 -0.00017842907084637463 0.0024575891940010926 0 -0.00014825293201390901 0.0024460709176037615 0 -0.00019970497780103853 0.0024967628702146417 0 -0.00017842907084637463 0.0024575891940010926 0 -0.00014825293201390901 0.0024460709176037615 0 -0.00013594622031848011 0.002396174277421653 0 -9.2946849430044424e-05 0.002418538936617992 0 -0.00014825293201390901 0.0024460709176037615 0 -0.00013594622031848011 0.002396174277421653 0 -0.00014558934591538385 0.0023462114135841404 0 -0.00013594622031848011 0.002396174277421653 0 -0.00012381526941223888 0.0023390918301626892 0 -0.00014558934591538385 0.0023462114135841404 0 -0.0001842569401744863 0.0024243858767890123 0 -0.00013594622031848011 0.002396174277421653 0 -0.0001842569401744863 0.0024243858767890123 0 -0.00017842907084637463 0.0024575891940010926 0 -0.00013594622031848011 0.002396174277421653 0 0.0004189234167134086 0.003197401349256784 0 0.000114113650855272 0.0029999165034209946 0 0.00028144200533866107 0.0029474821169293798 0 7.8992760984778683e-05 0.0030663055582780853 0 0.00011503147364080659 0.0030393810800447402 0 0.000114113650855272 0.0029999165034209946 0 0.00026272234027254377 0.0031104432531211283 0 0.00012159896620593728 0.0030120815479596926 0 1.2413240747499352e-05 0.0030531684404851655 0 0.000114113650855272 0.0029999165034209946 0 -2.1759535795119073e-05 0.0028926119011446713 0 1.2413240747499352e-05 0.0030531684404851655 0 7.8992760984778683e-05 0.0030663055582780853 0 0.000114113650855272 0.0029999165034209946 0 0.000114113650855272 0.0029999165034209946 0 -2.1759535795119073e-05 0.0028926119011446713 0 9.4773515442778515e-05 0.0028353779014499655 0 -2.1759535795119073e-05 0.0028926119011446713 0 -0.00011174179909362874 0.0030135709016411096 0 -0.00022148123503024767 0.0026571217717295233 0 1.2413240747499352e-05 0.0030531684404851655 0 -2.1759535795119073e-05 0.0028926119011446713 0 -0.00011174179909362874 0.0030135709016411096 0 -0.00021933986295771848 0.00270278666022727 0 -0.00022305077955558664 0.0026516403029358936 0 -0.00021633135657210965 0.0025083015303732129 0 -0.00033169989321776583 0.0024109457029789253 0 -0.00022148123503024767 0.0026571217717295233 0 -0.00021633135657210965 0.0025083015303732129 0 -0.00022148123503024767 0.0026571217717295233 0 -0.00021845183141884204 0.0025741158219086857 0 -0.00022148123503024767 0.0026571217717295233 0 -0.00021845183141884204 0.0025741158219086857 0 -0.00015483624499606672 0.0026120138154719992 0 -0.00021845183141884204 0.0025741158219086857 0 -0.00015483624499606672 0.0026120138154719992 0 -0.00021941722932830547 0.0025276778685567468 0 -2.2410820525091029e-05 0.0025906049603905859 0 -0.0001640714817390403 0.002536492527800944 0 -0.00015483624499606672 0.0026120138154719992 0 -3.8594086098174045e-05 0.0027096096004043057 0 -1.421376769204528e-05 0.0025982346593285449 0 -0.00015483624499606672 0.0026120138154719992 0 -1.421376769204528e-05 0.0025982346593285449 0 -0.00021941722932830547 0.0025276778685567468 0 -0.00022148123503024767 0.0026571217717295233 0 -0.00015483624499606672 0.0026120138154719992 0 -3.8594086098174045e-05 0.0027096096004043057 0 -2.1759535795119073e-05 0.0028926119011446713 0 -0.00022148123503024767 0.0026571217717295233 0 -3.8594086098174045e-05 0.0027096096004043057 0 -2.1759535795119073e-05 0.0028926119011446713 0 -3.8594086098174045e-05 0.0027096096004043057 0 9.4773515442778515e-05 0.0028353779014499655 0 9.4773515442778515e-05 0.0028353779014499655 0 5.2992969026794526e-05 0.0027012788616894859 0 0.00017674278506360459 0.0027786667456959585 0 -3.8594086098174045e-05 0.0027096096004043057 0 9.4773515442778515e-05 0.0028353779014499655 0 5.2992969026794526e-05 0.0027012788616894859 0 -3.8594086098174045e-05 0.0027096096004043057 0 -1.421376769204528e-05 0.0025982346593285449 0 5.2992969026794526e-05 0.0027012788616894859 0 -1.421376769204528e-05 0.0025982346593285449 0 5.2992969026794526e-05 0.0027012788616894859 0 7.2204127010251697e-05 0.0025796210182754847 0 5.2992969026794526e-05 0.0027012788616894859 0 0.00017674278506360459 0.0027786667456959585 0 7.2204127010251697e-05 0.0025796210182754847 0 0.00058072411281056863 0.0032113348865298514 0 0.00043017939764858842 0.0031391057768897705 0 0.00082988030911881948 0.0036020234408061947 0 0.00083783268398687533 0.0036718824844824936 0 0.00080872430562841107 0.0037000642782259634 0 0.00037647713850479542 0.0028250293888724717 0 0.00017674278506360459 0.0027786667456959585 0 7.2204127010251697e-05 0.0025796210182754847 0 0.000114113650855272 0.0029999165034209946 0 9.4773515442778515e-05 0.0028353779014499655 0 0.00028144200533866107 0.0029474821169293798 0 0.00037647713850479542 0.0028250293888724717 0 0.00017674278506360459 0.0027786667456959585 0 0.00028144200533866107 0.0029474821169293798 0 9.4773515442778515e-05 0.0028353779014499655 0 0.00017674278506360459 0.0027786667456959585 0 0.00028144200533866107 0.0029474821169293798 0 0.00070116135241530175 0.0037952616785569622 0 0.00071339728326251821 0.0037776504021865753 0 0.00070975139899455159 0.003780545657201297 0 0.00071248673270659626 0.0037747911515789686 0 0.00071339728326251821 0.0037776504021865753 0 0.00070975139899455159 0.003780545657201297 0 0.00071248673270659626 0.0037747911515789686 0 0.00071339728326251821 0.0037776504021865753 0 0.00072767428348033392 0.0037579617119009212 0 0.00077554462413497143 0.0037121512012112203 0 0.00073807575043660287 0.0037393791799812236 0 0.00071248673270659626 0.0037747911515789686 0 0.00072767428348033392 0.0037579617119009212 0 0.00069943369772754052 0.0037817161504287771 0 0.00083783268398687533 0.0036718824844824936 0 0.00080872430562841107 0.0037000642782259634 0 0.00077054084823820765 0.0036949036238455961 0 0.00080872430562841107 0.0037000642782259634 0 0.00077054084823820765 0.0036949036238455961 0 0.00069720299268343443 0.0037463037157905404 0 0.00069943369772754052 0.0037817161504287771 0 0.00069957192978292422 0.0037736532281096593 0 0.00068432908836773914 0.0037660911120819419 0 0.00071248673270659626 0.0037747911515789686 0 0.00069943369772754052 0.0037817161504287771 0 0.00069957192978292422 0.0037736532281096593 0 0.00071248673270659626 0.0037747911515789686 0 0.00069957192978292422 0.0037736532281096593 0 0.00070975139899455159 0.003780545657201297 0 0.00073807575043660287 0.0037393791799812236 0 0.000683814438740613 0.0037494719070824789 0 0.00069943369772754052 0.0037817161504287771 0 0.00068432908836773914 0.0037660911120819419 0 0.00067417170675474001 0.0037524695601955775 0 0.00077054084823820765 0.0036949036238455961 0 0.00069720299268343443 0.0037463037157905404 0 0.00067417170675474001 0.0037524695601955775 0 0.00043017939764858842 0.0031391057768897705 0 0.0003317919182686888 0.0031485827186458438 0 -1.421376769204528e-05 0.0025982346593285449 0 -8.1821855721170343e-05 0.0025218885289471586 0 -0.00011908379756482915 0.0025409979062061268 0 -1.421376769204528e-05 0.0025982346593285449 0 7.2204127010251697e-05 0.0025796210182754847 0 -8.1821855721170343e-05 0.0025218885289471586 0 0.0003317919182686888 0.0031485827186458438 0 0.00015873370303842561 0.0030302953378726011 0 -8.1821855721170343e-05 0.0025218885289471586 0 -0.00011908379756482915 0.0025409979062061268 0 -0.00013787013079235842 0.0025021448724140156 0 0.00067417170675474001 0.0037524695601955775 0 0.00066352035182263831 0.0037576037938866708 0 0.00065722625838232835 0.0037542386748471643 0 0.00068432908836773914 0.0037660911120819419 0 0.00067417170675474001 0.0037524695601955775 0 0.00066352035182263831 0.0037576037938866708 0 0.00069720299268343443 0.0037463037157905404 0 0.00067417170675474001 0.0037524695601955775 0 0.00064836284142013657 0.0037579045412130785 0 0.00066352035182263831 0.0037576037938866708 0 0.00065817434228830976 0.0037493358480317849 0 0.00063889848337184542 0.0037458121685441919 0 0.00065817434228830976 0.0037493358480317849 0 0.00067947609884255202 0.0037612590603724829 0 0.00068825174236162581 0.0037706028456856045 0 0.00066352035182263831 0.0037576037938866708 0 0.00065817434228830976 0.0037493358480317849 0 0.00068825174236162581 0.0037706028456856045 0 0.00068432908836773914 0.0037660911120819419 0 0.00066352035182263831 0.0037576037938866708 0 0.00068825174236162581 0.0037706028456856045 0 0.00069957192978292422 0.0037736532281096593 0 0.00068432908836773914 0.0037660911120819419 0 0.00068825174236162581 0.0037706028456856045 0 0.00069957192978292422 0.0037736532281096593 0 0.00068825174236162581 0.0037706028456856045 0 0.00070975139899455159 0.003780545657201297 0 0.00068825174236162581 0.0037706028456856045 0 0.00071322350660690467 0.0037908864804794508 0 0.00070975139899455159 0.003780545657201297 0 0.00067947609884255202 0.0037612590603724829 0 0.00068825174236162581 0.0037706028456856045 0 0.00071322350660690467 0.0037908864804794508 0 0.00070116135241530175 0.0037952616785569622 0 0.00071322350660690467 0.0037908864804794508 0 0.00070975139899455159 0.003780545657201297 0 -7.1595141430218172e-05 0.0025266184040696701 0 -0.00014192377909211378 0.002502205156877422 0 -0.00012311903490890195 0.0024658734756055002 0 -9.2946849430044424e-05 0.002418538936617992 0 -0.00014825293201390901 0.0024460709176037615 0 -0.00012311903490890195 0.0024658734756055002 0 -0.00014825293201390901 0.0024460709176037615 0 -0.00012311903490890195 0.0024658734756055002 0 -0.00019970497780103853 0.0024967628702146417 0 -0.00012659151814316469 0.0024720881379714805 0 -0.00017245053106612143 0.0024972593377374187 0 -0.00014192377909211378 0.002502205156877422 0 -0.00012311903490890195 0.0024658734756055002 0 -0.00014650755698345888 0.0025006500495272292 0 -0.0001640714817390403 0.002536492527800944 0 -0.00017245053106612143 0.0024972593377374187 0 -0.00011908379756482915 0.0025409979062061268 0 -0.00014650755698345888 0.0025006500495272292 0 -0.00013787013079235842 0.0025021448724140156 0 0.00067417170675474001 0.0037524695601955775 0 0.00064836284142013657 0.0037579045412130785 0 0.00065722625838232835 0.0037542386748471643 0 -0.00014192377909211378 0.002502205156877422 0 -0.00014650755698345888 0.0025006500495272292 0 -0.00013787013079235842 0.0025021448724140156 0 -0.00017505776490936277 0.0024462792084379843 0 0.00015873370303842561 0.0030302953378726011 0 -6.4361973698329636e-05 0.0025571167497845256 0 -5.6418068670815264e-05 0.0025700458256831386 0 -6.0154633856856373e-05 0.0025635951275690631 0 -6.4361973698329636e-05 0.0025571167497845256 0 -6.0154633856856373e-05 0.0025635951275690631 0 -6.1600758036930243e-05 0.0025581618379865623 0 0.00066352035182263831 0.0037576037938866708 0 0.00065722625838232835 0.0037542386748471643 0 0.00063889848337184542 0.0037458121685441919 0 0.00015873370303842561 0.0030302953378726011 0 0.00031120653679284993 0.0031818586804271461 0 0.00064836284142013657 0.0037579045412130785 0 0.00065722625838232835 0.0037542386748471643 0 0.00063889848337184542 0.0037458121685441919 0 -6.0154633856856373e-05 0.0025635951275690631 0 -6.1600758036930243e-05 0.0025581618379865623 0 -6.2415260876532336e-05 0.002574077086691343 0 -6.1600758036930243e-05 0.0025581618379865623 0 -6.5125853913333676e-05 0.0025505395361457152 0 -5.9024250229664845e-05 0.0025644810233997764 0 -6.4361973698329636e-05 0.0025571167497845256 0 -6.1600758036930243e-05 0.0025581618379865623 0 -6.5125853913333676e-05 0.0025505395361457152 0 -3.7628166029501385e-05 0.0025565999226277217 0 -0.00017505776490936277 0.0024462792084379843 0 -7.1595141430218172e-05 0.0025266184040696701 0 -6.4361973698329636e-05 0.0025571167497845256 0 -6.5125853913333676e-05 0.0025505395361457152 0 -7.1595141430218172e-05 0.0025266184040696701 0 -5.4832106507346351e-05 0.0025537079230501039 0 -6.5125853913333676e-05 0.0025505395361457152 0 -5.4832106507346351e-05 0.0025537079230501039 0 -6.5125853913333676e-05 0.0025505395361457152 0 -6.0031449010681848e-05 0.0025625551000723989 0 -5.4832106507346351e-05 0.0025537079230501039 0 -6.0031449010681848e-05 0.0025625551000723989 0 -4.9104110962370182e-05 0.0025660187440781981 0 -6.0031449010681848e-05 0.0025625551000723989 0 -5.4346318584245476e-05 0.0025719518828371799 0 -6.147255503418411e-05 0.0025692465739982394 0 -6.0031449010681848e-05 0.0025625551000723989 0 -5.4346318584245476e-05 0.0025719518828371799 0 -4.9104110962370182e-05 0.0025660187440781981 0 -5.4346318584245476e-05 0.0025719518828371799 0 -6.147255503418411e-05 0.0025692465739982394 0 -5.3859305096345649e-05 0.0025816822685033949 0 -4.4858215367565778e-05 0.002569861439698964 0 -3.6560198287902234e-05 0.0025743834287447896 0 -4.1565387923506122e-05 0.0025765131094627773 0 -4.1688335180989597e-05 0.0025694585640981737 0 2.4616044770042412e-05 0.0024154390721790029 0 2.4616044770042412e-05 0.0024154390721790029 0 -6.0649395037482918e-05 0.0025139364108086961 0 -4.4858215367565778e-05 0.002569861439698964 0 -4.8984928246502013e-05 0.0025750148051188735 0 -5.9024250229664845e-05 0.0025644810233997764 0 -4.8984928246502013e-05 0.0025750148051188735 0 -5.9024250229664845e-05 0.0025644810233997764 0 -5.427644655646707e-05 0.0025794524655690988 0 -4.4858215367565778e-05 0.002569861439698964 0 -4.8984928246502013e-05 0.0025750148051188735 0 -4.1565387923506122e-05 0.0025765131094627773 0 -6.5125853913333676e-05 0.0025505395361457152 0 -6.0031449010681848e-05 0.0025625551000723989 0 -5.9024250229664845e-05 0.0025644810233997764 0 -6.0031449010681848e-05 0.0025625551000723989 0 -6.147255503418411e-05 0.0025692465739982394 0 -5.9024250229664845e-05 0.0025644810233997764 0 -4.1688335180989597e-05 0.0025694585640981737 0 -5.8878098490735588e-05 0.0025637602215118423 0 -6.1600758036930243e-05 0.0025581618379865623 0 -5.9024250229664845e-05 0.0025644810233997764 0 -6.2415260876532336e-05 0.002574077086691343 0 0.00065817434228830976 0.0037493358480317849 0 0.00063889848337184542 0.0037458121685441919 0 0.00061472724436876082 0.0037151520475880249 0 0.00031120653679284993 0.0031818586804271461 0 0.00025863958421052318 0.0031520943040053628 0 -5.9024250229664845e-05 0.0025644810233997764 0 -6.2415260876532336e-05 0.002574077086691343 0 -5.427644655646707e-05 0.0025794524655690988 0 -6.2415260876532336e-05 0.002574077086691343 0 -5.427644655646707e-05 0.0025794524655690988 0 -5.9548227899187403e-05 0.0025918890956052147 0 -5.427644655646707e-05 0.0025794524655690988 0 -5.9548227899187403e-05 0.0025918890956052147 0 -4.8978568517352089e-05 0.0025885979758860506 0 0.00060149595905341032 0.003674911222747582 0 0.00062594359487388215 0.003700420901585844 0 0.0006175798293564205 0.0036803106581355803 0 0.00025863958421052318 0.0031520943040053628 0 0.00037570852712082706 0.0030664440250696341 0 0.00061472724436876082 0.0037151520475880249 0 0.00060149595905341032 0.003674911222747582 0 0.00062594359487388215 0.003700420901585844 0 0.00057084365431030518 0.0036748023045728943 0 0.00059936862288776575 0.003650025293157218 0 0.00056679799324818483 0.0036332375587743706 0 0.00057084365431030518 0.0036748023045728943 0 0.0006175798293564205 0.0036803106581355803 0 0.00059936862288776575 0.003650025293157218 0 0.00037570852712082706 0.0030664440250696341 0 0.00069836314356253981 0.0036917599608997606 0 0.00037570852712082706 0.0030664440250696341 0 0.00052284801248693848 0.0029905635967505976 0 0.00046688597701939047 0.0024945415236548728 0 0.0002812752935335475 0.0024740383724660489 0 0.00035409725775018653 0.002370365503561853 0 0.00037570852712082706 0.0030664440250696341 0 7.9105432971172176e-05 0.0024701243526142375 0 0.00046688597701939047 0.0024945415236548728 0 0.00035409725775018653 0.002370365503561853 0 0.00046521535127559612 0.0023371312676920791 0 0.0002812752935335475 0.0024740383724660489 0 0.00022525671321107403 0.0023148667834575233 0 0.00035409725775018653 0.002370365503561853 0 0.0001089517309267436 0.0024558429210700594 0 0.00022525671321107403 0.0023148667834575233 0 7.5782416802495133e-05 0.002375063006779208 0 0.0002812752935335475 0.0024740383724660489 0 0.0001089517309267436 0.0024558429210700594 0 0.00022525671321107403 0.0023148667834575233 0 -4.8978568517352089e-05 0.0025885979758860506 0 -3.2542894339156749e-05 0.0025869345424506546 0 -3.7033222371795697e-05 0.0025814392691942702 0 7.9105432971172176e-05 0.0024701243526142375 0 2.8608985874332486e-05 0.0025518893069340189 0 -3.5154628671917356e-05 0.0025730877473707351 0 -3.7033222371795697e-05 0.0025814392691942702 0 -4.1565387923506122e-05 0.0025765131094627773 0 -3.7033222371795697e-05 0.0025814392691942702 0 -4.1565387923506122e-05 0.0025765131094627773 0 -4.6487530953997766e-05 0.002580655244009601 0 -4.8978568517352089e-05 0.0025885979758860506 0 -3.7033222371795697e-05 0.0025814392691942702 0 -4.6487530953997766e-05 0.002580655244009601 0 -5.427644655646707e-05 0.0025794524655690988 0 -4.8978568517352089e-05 0.0025885979758860506 0 -4.6487530953997766e-05 0.002580655244009601 0 -4.8984928246502013e-05 0.0025750148051188735 0 -4.1565387923506122e-05 0.0025765131094627773 0 -4.6487530953997766e-05 0.002580655244009601 0 -4.8984928246502013e-05 0.0025750148051188735 0 -5.427644655646707e-05 0.0025794524655690988 0 -4.6487530953997766e-05 0.002580655244009601 0 0.00074041930905649055 0.0037419621054661447 0 0.000735413338049287 0.0037008758183173993 0 0.00071235809475554386 0.0037198205322687083 0 0.00074041930905649055 0.0037419621054661447 0 0.00071235809475554386 0.0037198205322687083 0 0.00068857780075833042 0.003732923929135659 0 0.000735413338049287 0.0037008758183173993 0 0.00071235809475554386 0.0037198205322687083 0 0.00068656817074088142 0.0037004514493661302 0 0.00074041930905649055 0.0037419621054661447 0 0.00071322350660690467 0.0037908864804794508 0 0.00068857780075833042 0.003732923929135659 0 0.00074004575547503436 0.0038162205348969153 0 0.00070733209646723196 0.0038004328154959805 0 0.00067947609884255202 0.0037612590603724829 0 0.00071322350660690467 0.0037908864804794508 0 0.00068857780075833042 0.003732923929135659 0 0.00068857780075833042 0.003732923929135659 0 0.00065343408447599341 0.0036948024539145332 0 0.00068656817074088142 0.0037004514493661302 0 0.00071235809475554386 0.0037198205322687083 0 0.00068857780075833042 0.003732923929135659 0 0.00068656817074088142 0.0037004514493661302 0 0.00068857780075833042 0.003732923929135659 0 0.0006516154597956122 0.0037255522287021744 0 0.00065343408447599341 0.0036948024539145332 0 0.0006516154597956122 0.0037255522287021744 0 0.00062594359487388215 0.003700420901585844 0 0.00065343408447599341 0.0036948024539145332 0 0.00067947609884255202 0.0037612590603724829 0 0.00068857780075833042 0.003732923929135659 0 0.0006516154597956122 0.0037255522287021744 0 0.00065817434228830976 0.0037493358480317849 0 0.00067947609884255202 0.0037612590603724829 0 0.0006516154597956122 0.0037255522287021744 0 0.00065817434228830976 0.0037493358480317849 0 0.00061472724436876082 0.0037151520475880249 0 0.0006516154597956122 0.0037255522287021744 0 0.00061472724436876082 0.0037151520475880249 0 0.0006516154597956122 0.0037255522287021744 0 0.00062594359487388215 0.003700420901585844 0 0.00062594359487388215 0.003700420901585844 0 0.0006175798293564205 0.0036803106581355803 0 0.00065343408447599341 0.0036948024539145332 0 0.0006175798293564205 0.0036803106581355803 0 0.00059936862288776575 0.003650025293157218 0 0.0006286472464914674 0.0036626132515111235 0 0.0006286472464914674 0.0036626132515111235 0 0.00065343408447599341 0.0036948024539145332 0 0.00065157905430666323 0.0036693076649754798 0 0.0006175798293564205 0.0036803106581355803 0 0.0006286472464914674 0.0036626132515111235 0 0.00065343408447599341 0.0036948024539145332 0 0.0006286472464914674 0.0036626132515111235 0 0.00065157905430666323 0.0036693076649754798 0 0.00063707464956725963 0.0036417060586231105 0 0.00065343408447599341 0.0036948024539145332 0 0.00068656817074088142 0.0037004514493661302 0 0.00067744255314534875 0.0036869991159095669 0 0.00065157905430666323 0.0036693076649754798 0 0.00067744255314534875 0.0036869991159095669 0 0.0006623354602561354 0.0036705063770178232 0 0.00065343408447599341 0.0036948024539145332 0 0.00065157905430666323 0.0036693076649754798 0 0.00067744255314534875 0.0036869991159095669 0 0.00067744255314534875 0.0036869991159095669 0 0.00069075533289667283 0.0036918821221467195 0 0.0006623354602561354 0.0036705063770178232 0 0.00067744255314534875 0.0036869991159095669 0 0.00069075533289667283 0.0036918821221467195 0 0.00069203472652178046 0.0036913290705434948 0 0.00069826059640888552 0.003693206291493088 0 0.00069075533289667283 0.0036918821221467195 0 0.00069203472652178046 0.0036913290705434948 0 0.00073543942985875032 0.0036857521800257873 0 0.00068065394478396323 0.0036989216475063831 0 0.00069696437718535283 0.0036850591678838393 0 0.00068656817074088142 0.0037004514493661302 0 0.00069203472652178046 0.0036913290705434948 0 0.00068656817074088142 0.0037004514493661302 0 0.00067744255314534875 0.0036869991159095669 0 0.00069203472652178046 0.0036913290705434948 0 0.00069687286156902063 0.0036903058632248359 0 0.00075299410051334916 0.0035386019364355014 0 0.00062938386878357 0.0036144436178594057 0 0.00069687286156902063 0.0036903058632248359 0 0.00069075533289667283 0.0036918821221467195 0 0.0006623354602561354 0.0036705063770178232 0 0.00069687286156902063 0.0036903058632248359 0 0.00062938386878357 0.0036144436178594057 0 0.0006623354602561354 0.0036705063770178232 0 0.00062938386878357 0.0036144436178594057 0 0.0006623354602561354 0.0036705063770178232 0 0.00063707464956725963 0.0036417060586231105 0 0.00065157905430666323 0.0036693076649754798 0 0.0006623354602561354 0.0036705063770178232 0 0.00063707464956725963 0.0036417060586231105 0 0.00062938386878357 0.0036144436178594057 0 0.00062593307562453459 0.0036093616590392613 0 0.00063707464956725963 0.0036417060586231105 0 0.00062938386878357 0.0036144436178594057 0 0.00062593307562453459 0.0036093616590392613 0 0.0006286172178155212 0.0035840052420449075 0 0.00062593307562453459 0.0036093616590392613 0 0.00061536455895628542 0.0036296645859320129 0 0.0006033844965922905 0.0035975447630058649 0 0.00062593307562453459 0.0036093616590392613 0 0.0006033844965922905 0.0035975447630058649 0 0.0006286172178155212 0.0035840052420449075 0 0.00062593307562453459 0.0036093616590392613 0 0.00063707464956725963 0.0036417060586231105 0 0.00061536455895628542 0.0036296645859320129 0 0.0006286472464914674 0.0036626132515111235 0 0.00063707464956725963 0.0036417060586231105 0 0.00061536455895628542 0.0036296645859320129 0 0.00059936862288776575 0.003650025293157218 0 0.0006286472464914674 0.0036626132515111235 0 0.00061536455895628542 0.0036296645859320129 0 0.00059936862288776575 0.003650025293157218 0 0.00061536455895628542 0.0036296645859320129 0 0.0005867873469990151 0.0036147770953011567 0 0.0005867873469990151 0.0036147770953011567 0 0.0006033844965922905 0.0035975447630058649 0 0.00057577611294966835 0.003581161399836174 0 0.00061536455895628542 0.0036296645859320129 0 0.0005867873469990151 0.0036147770953011567 0 0.0006033844965922905 0.0035975447630058649 0 0.00059241148738225981 0.0035694137958309229 0 0.00058228788677890716 0.0035267665612042439 0 0.0006286172178155212 0.0035840052420449075 0 0.0006033844965922905 0.0035975447630058649 0 0.00059241148738225981 0.0035694137958309229 0 0.0006286172178155212 0.0035840052420449075 0 0.0006033844965922905 0.0035975447630058649 0 0.00059241148738225981 0.0035694137958309229 0 0.00057577611294966835 0.003581161399836174 0 0.00059241148738225981 0.0035694137958309229 0 0.00058228788677890716 0.0035267665612042439 0 0.00056778683857594558 0.0035535184348523654 0 7.5440394575998187e-05 0.0033028779310048969 0 0.00039704635650333908 0.0032873081675661615 0 0.0002113579858232866 0.0031941618466646325 0 0.00030472379641810889 0.0032315801927268696 0 0.00050756268248925633 0.0035578147046955435 0 0.00030472379641810889 0.0032315801927268696 0 0.00029233397542727713 0.0033110181242667165 0 0.00011327593971815845 0.0033110126710645463 0 0.00039704635650333908 0.0032873081675661615 0 0.00035024682128323854 0.0034672494091644896 0 0.00061091318171102691 0.0035973061844463174 0 0.00050756268248925633 0.0035578147046955435 0 0.00062938386878357 0.0036144436178594057 0 0.00035024682128323854 0.0034672494091644896 0 0.00050034564368550379 0.0033974522678546963 0 0.00039704635650333908 0.0032873081675661615 0 0.00035024682128323854 0.0034672494091644896 0 0.00050034564368550379 0.0033974522678546963 0 0.00039704635650333908 0.0032873081675661615 0 0.00050034564368550379 0.0033974522678546963 0 0.00051734644021238913 0.0032123612023360754 0 0.00050034564368550379 0.0033974522678546963 0 0.00063669249834385306 0.0033767507749678303 0 0.00051734644021238913 0.0032123612023360754 0 0.00078753507180646443 0.0032803666776480243 0 0.00063669249834385306 0.0033767507749678303 0 0.00065915302726279098 0.0031757648956546717 0 0.00063669249834385306 0.0033767507749678303 0 0.00065915302726279098 0.0031757648956546717 0 0.00051734644021238913 0.0032123612023360754 0 0.00075299410051334916 0.0035386019364355014 0 0.00062938386878357 0.0036144436178594057 0 0.00063669249834385306 0.0033767507749678303 0 0.00062938386878357 0.0036144436178594057 0 0.00050034564368550379 0.0033974522678546963 0 0.00063669249834385306 0.0033767507749678303 0 0.00034410982286617813 0.0021952515470963102 0 0.00028333265272279467 0.0022626075435754466 0 0.00039160865647202078 0.0022469069716849338 0 0.00034410982286617813 0.0021952515470963102 0 0.00028333265272279467 0.0022626075435754466 0 0.00029656976944784414 0.0021511790726335433 0 0.00028333265272279467 0.0022626075435754466 0 0.00029656976944784414 0.0021511790726335433 0 0.00020133508899478669 0.002190372606983492 0 0.00028333265272279467 0.0022626075435754466 0 0.00020133508899478669 0.002190372606983492 0 0.00018406840242546241 0.0022888154316146668 0 0.00026619382619961818 0.0022836463917894345 0 9.5604042853349234e-05 0.0023598755847734059 0 0.00022525671321107403 0.0023148667834575233 0 0.00035409725775018653 0.002370365503561853 0 0.00039160865647202078 0.0022469069716849338 0 0.00026619382619961818 0.0022836463917894345 0 0.00037992761720172913 0.0022494870955953902 0 0.00035409725775018653 0.002370365503561853 0 0.00046521535127559612 0.0023371312676920791 0 0.00039160865647202078 0.0022469069716849338 0 0.00059936862288776575 0.003650025293157218 0 0.0005867873469990151 0.0036147770953011567 0 0.00056679799324818483 0.0036332375587743706 0 0.00046521535127559612 0.0023371312676920791 0 0.00045217240722344245 0.0021967020615614613 0 0.00039160865647202078 0.0022469069716849338 0 0.00052284801248693848 0.0029905635967505976 0 0.0005098980779466866 0.0028879833361499514 0 0.0005867873469990151 0.0036147770953011567 0 0.00055782966417406441 0.0035930368981175478 0 0.00057577611294966835 0.003581161399836174 0 0.0005867873469990151 0.0036147770953011567 0 0.00056679799324818483 0.0036332375587743706 0 0.00055782966417406441 0.0035930368981175478 0 0.00045217240722344245 0.0021967020615614613 0 0.00039160865647202078 0.0022469069716849338 0 0.00038144821064789187 0.0021406180254096097 0 0.00034410982286617813 0.0021952515470963102 0 0.00039160865647202078 0.0022469069716849338 0 0.00038144821064789187 0.0021406180254096097 0 0.00038144821064789187 0.0021406180254096097 0 0.00044574855786149722 0.0020898443391397406 0 0.00036417502220578496 0.002059405860558622 0 0.00045217240722344245 0.0021967020615614613 0 0.00038144821064789187 0.0021406180254096097 0 0.00044574855786149722 0.0020898443391397406 0 0.00055782966417406441 0.0035930368981175478 0 0.00057577611294966835 0.003581161399836174 0 0.00054974812582106046 0.0035448205095548113 0 0.0005098980779466866 0.0028879833361499514 0 0.00041129542206292524 0.0028517161431546633 0 0.0006549015811724635 0.0032402224504008768 0 0.00041129542206292524 0.0028517161431546633 0 0.00059241148738225981 0.0035694137958309229 0 0.00057577611294966835 0.003581161399836174 0 0.00056778683857594558 0.0035535184348523654 0 0.00057577611294966835 0.003581161399836174 0 0.00056778683857594558 0.0035535184348523654 0 0.00054974812582106046 0.0035448205095548113 0 0.00030472379641810889 0.0032315801927268696 0 0.00024761924729858946 0.0026292313655383857 0 0.00058228788677890716 0.0035267665612042439 0 0.00056778683857594558 0.0035535184348523654 0 0.00054213827422487084 0.0035225628122261643 0 0.00056778683857594558 0.0035535184348523654 0 0.00054259475567206548 0.0035427479125742238 0 0.00054213827422487084 0.0035225628122261643 0 0.00041129542206292524 0.0028517161431546633 0 0.00024761924729858946 0.0026292313655383857 0 3.9208337300885263e-05 0.0018795852911808063 0 -3.414967262448599e-05 0.0018146047526708502 0 3.7330567737969698e-05 0.0017879081917552967 0 0.00036829903744998999 0.0028314797431051282 0 0.00010764247437680358 0.0028488122299302285 0 0.00010419728097429619 0.0026587653953816081 0 0.00024761924729858946 0.0026292313655383857 0 6.9876082222656208e-05 0.0023880295013471949 0 0.00030472379641810889 0.0032315801927268696 0 6.9876082222656208e-05 0.0023880295013471949 0 7.5440394575998187e-05 0.0033028779310048969 0 1.9682021159558022e-05 0.0031956990133085077 0 -7.660847499598041e-05 0.0031994623170005006 0 0.00033830219146006722 0.002511613826718388 0 0.00033654889773222367 0.0024166253210367219 0 0.00011060457948303912 0.0024301685489487063 0 0.00041129542206292524 0.0028517161431546633 0 0.00012712609294038561 0.0020450418952355446 0 0.00024761924729858946 0.0026292313655383857 0 0.00012712609294038561 0.0020450418952355446 0 3.9208337300885263e-05 0.0018795852911808063 0 -0.0001006007861622148 0.0018841422210714343 0 -3.414967262448599e-05 0.0018146047526708502 0 -0.0001006007861622148 0.0018841422210714343 0 -3.414967262448599e-05 0.0018146047526708502 0 -0.00011703786718539391 0.0017958345587926769 0 0.00012712609294038561 0.0020450418952355446 0 -0.00013830412190659233 0.0017431581479557183 0 -0.0001006007861622148 0.0018841422210714343 0 -0.00025129397308513171 0.0018254786844368927 0 -0.00011703786718539391 0.0017958345587926769 0 0.00012712609294038561 0.0020450418952355446 0 0.00019330843147186301 0.001636765795844338 0 0.00019978063027269714 0.0017340204827921962 0 2.4501588542082963e-05 0.0016700011503242322 0 -5.5016921849836337e-05 0.0017482244240999479 0 0.00034410982286617813 0.0021952515470963102 0 0.00038144821064789187 0.0021406180254096097 0 0.00029656976944784414 0.0021511790726335433 0 0.00036417502220578496 0.002059405860558622 0 0.00029656976944784414 0.0021511790726335433 0 0.00023708037167169779 0.0020644061005653334 0 0.00038144821064789187 0.0021406180254096097 0 0.00036417502220578496 0.002059405860558622 0 0.00029656976944784414 0.0021511790726335433 0 0.00029656976944784414 0.0021511790726335433 0 0.00024609300615788054 0.0020658870036875656 0 0.00019766337820956658 0.0021162450082065913 0 0.00035626570109998756 0.0022723513267825508 0 0.00019330843147186301 0.001636765795844338 0 0.00029656976944784414 0.0021511790726335433 0 0.00019766337820956658 0.0021162450082065913 0 0.00020133508899478669 0.002190372606983492 0 2.4501588542082963e-05 0.0016700011503242322 0 -5.5016921849836337e-05 0.0017482244240999479 0 -0.00015186267162366223 0.001605856325001865 0 -0.00013830412190659233 0.0017431581479557183 0 -0.00015610058759726894 0.0013228936290355102 0 0.00016600072053743047 0.00084329415652160955 0 0.00014403418196555899 0.00081935055263010839 0 0.00014336533718707672 0.00080722664082389154 0 0.00019330843147186301 0.001636765795844338 0 -0.00015610058759726894 0.0013228936290355102 0 0.00019330843147186301 0.001636765795844338 0 0.00013163815358500049 0.0014374175160027417 0 0.00016600072053743047 0.00084329415652160955 0 0.00014403418196555899 0.00081935055263010839 0 0.00011236077214206478 0.00083685137344475223 0 0.00014403418196555899 0.00081935055263010839 0 0.00011236077214206478 0.00083685137344475223 0 0.00012464208117754058 0.00081688653868813713 0 0.00014403418196555899 0.00081935055263010839 0 0.00012464208117754058 0.00081688653868813713 0 0.00013596915146301493 0.00080119426298021917 0 0.00011236077214206478 0.00083685137344475223 0 0.00012464208117754058 0.00081688653868813713 0 0.00010660890135481473 0.00080934224716994196 0 0.00012464208117754058 0.00081688653868813713 0 0.00010660890135481473 0.00080934224716994196 0 0.00013596915146301493 0.00080119426298021917 0 0.00011236077214206478 0.00083685137344475223 0 0.00010660890135481473 0.00080934224716994196 0 6.5416525433296561e-05 0.00082838839245335681 0 0.00010660890135481473 0.00080934224716994196 0 6.5416525433296561e-05 0.00082838839245335681 0 6.7729769605910076e-05 0.00079400496044555475 0 0.00013163815358500049 0.0014374175160027417 0 5.9543216921834752e-05 0.0014503512236866782 0 0.00014344242763350548 0.0020706867420734439 0 4.323121008490365e-05 0.0020729626925413353 0 0.00011735149241899723 0.0021512349367473656 0 0.00024609300615788054 0.0020658870036875656 0 0.00014344242763350548 0.0020706867420734439 0 0.00019766337820956658 0.0021162450082065913 0 0.00014344242763350548 0.0020706867420734439 0 0.00019766337820956658 0.0021162450082065913 0 0.00011735149241899723 0.0021512349367473656 0 0.00019766337820956658 0.0021162450082065913 0 0.00020133508899478669 0.002190372606983492 0 0.00011735149241899723 0.0021512349367473656 0 3.9650914998960268e-05 0.0008000578964956445 0 6.5416525433296561e-05 0.00082838839245335681 0 2.0644181287370303e-05 0.00082370389368656568 0 3.9650914998960268e-05 0.0008000578964956445 0 2.0644181287370303e-05 0.00082370389368656568 0 7.4703999767319275e-06 0.00077628572259424338 0 3.9650914998960268e-05 0.0008000578964956445 0 7.4703999767319275e-06 0.00077628572259424338 0 3.6721168998103986e-05 0.00077772278272278221 0 3.9650914998960268e-05 0.0008000578964956445 0 6.5416525433296561e-05 0.00082838839245335681 0 6.7729769605910076e-05 0.00079400496044555475 0 4.323121008490365e-05 0.0020729626925413353 0 1.0181882242278576e-05 0.0021547985348730233 0 0.00011735149241899723 0.0021512349367473656 0 -5.8062491398036615e-05 0.0020749204925849408 0 1.0181882242278576e-05 0.0021547985348730233 0 -8.182825131241126e-05 0.0021696762507612526 0 5.9543216921834752e-05 0.0014503512236866782 0 -4.6462407674747323e-05 0.0014688743337211039 0 4.323121008490365e-05 0.0020729626925413353 0 -5.8062491398036615e-05 0.0020749204925849408 0 1.0181882242278576e-05 0.0021547985348730233 0 1.0181882242278576e-05 0.0021547985348730233 0 2.3700657095758592e-06 0.002247631544644752 0 -8.182825131241126e-05 0.0021696762507612526 0 0.00010082064617879996 0.0021166869645817534 0 1.4789528428533554e-05 0.0020863031199428793 0 0.00019574798820291776 0.0019913382692843488 0 0.00010753768087289153 0.0019409449624679617 0 0.00011846249555780178 0.0019180412513297993 0 1.0181882242278576e-05 0.0021547985348730233 0 0.00011735149241899723 0.0021512349367473656 0 8.0297273013681792e-05 0.0022281542664122065 0 1.0181882242278576e-05 0.0021547985348730233 0 2.3700657095758592e-06 0.002247631544644752 0 8.0297273013681792e-05 0.0022281542664122065 0 0.00019574798820291776 0.0019913382692843488 0 0.00018807030206829776 0.0020030248103196572 0 0.00026101047154701394 0.0020639598025676965 0 2.3700657095758592e-06 0.002247631544644752 0 8.0297273013681792e-05 0.0022281542664122065 0 8.0941826551476361e-05 0.0023230817569546949 0 0.00010082064617879996 0.0021166869645817534 0 0.00013822069602217039 0.0021912628793013746 0 0.00019574798820291776 0.0019913382692843488 0 0.00018807030206829776 0.0020030248103196572 0 0.00010753768087289153 0.0019409449624679617 0 0.00034126443543432166 0.0018341103109156733 0 0.00029071531843008724 0.0018434277745128674 0 0.00027874520589956227 0.0017844293708946558 0 0.00028696531682335984 0.0018988633410588083 0 0.00018317661681434164 0.0018720058897102416 0 0.00020133508899478669 0.002190372606983492 0 0.00011735149241899723 0.0021512349367473656 0 0.00014578246108634072 0.002225111135575086 0 0.00011735149241899723 0.0021512349367473656 0 8.0297273013681792e-05 0.0022281542664122065 0 0.00014578246108634072 0.002225111135575086 0 8.0297273013681792e-05 0.0022281542664122065 0 0.0001285825023082107 0.002267548847007801 0 0.00014578246108634072 0.002225111135575086 0 8.0297273013681792e-05 0.0022281542664122065 0 0.0001285825023082107 0.002267548847007801 0 8.0941826551476361e-05 0.0023230817569546949 0 0.00020133508899478669 0.002190372606983492 0 0.00014578246108634072 0.002225111135575086 0 0.00018406840242546241 0.0022888154316146668 0 0.0001285825023082107 0.002267548847007801 0 0.00014578246108634072 0.002225111135575086 0 0.00018406840242546241 0.0022888154316146668 0 0.0001089517309267436 0.0024558429210700594 0 7.5782416802495133e-05 0.002375063006779208 0 -4.4851937249414941e-05 0.0024389937657812878 0 2.8608985874332486e-05 0.0025518893069340189 0 6.5253514776756155e-05 0.0022884594059795343 0 -3.2542894339156749e-05 0.0025869345424506546 0 -1.3998987457197474e-05 0.0025838724301370727 0 -1.8295173260961696e-05 0.0025817863597462566 0 0.00018589770871891992 0.0021140588881476204 0 0.00018404128807140706 0.002109266359143552 0 0.00018428815797138259 0.002111507112909521 0 0.00018589770871891992 0.0021140588881476204 0 0.00018404128807140706 0.002109266359143552 0 0.00018382214005676601 0.0021051822174316609 0 2.4616044770042412e-05 0.0024154390721790029 0 0.00010284312133548822 0.0023054440684253281 0 -3.5154628671917356e-05 0.0025730877473707351 0 -3.7033222371795697e-05 0.0025814392691942702 0 -1.8295173260961696e-05 0.0025817863597462566 0 -3.2542894339156749e-05 0.0025869345424506546 0 -3.7033222371795697e-05 0.0025814392691942702 0 -1.8295173260961696e-05 0.0025817863597462566 0 0.00018404128807140706 0.002109266359143552 0 0.00018428815797138259 0.002111507112909521 0 0.00018332962354744716 0.0021104750760799454 0 0.00018167616141070379 0.0021069918026627075 0 0.00018206558484812474 0.0021090770721874132 0 0.00018297333635836863 0.0021079274065773008 0 0.00018167616141070379 0.0021069918026627075 0 0.00018297333635836863 0.0021079274065773008 0 0.0001821988362519501 0.0021058900609607009 0 0.00018167616141070379 0.0021069918026627075 0 0.00018083505250857411 0.0021073264376622438 0 0.00018060383270379022 0.0021053857077387348 0 0.00018083505250857411 0.0021073264376622438 0 0.00018206558484812474 0.0021090770721874132 0 0.00018073448024111773 0.0021088990200361785 0 0.00018167616141070379 0.0021069918026627075 0 0.00018083505250857411 0.0021073264376622438 0 0.00018206558484812474 0.0021090770721874132 0 0.00018206558484812474 0.0021090770721874132 0 0.00018297333635836863 0.0021079274065773008 0 0.00018332962354744716 0.0021104750760799454 0 0.00018404128807140706 0.002109266359143552 0 0.00018297333635836863 0.0021079274065773008 0 0.00018332962354744716 0.0021104750760799454 0 0.00018404128807140706 0.002109266359143552 0 0.00018297333635836863 0.0021079274065773008 0 0.00018321882640309019 0.0021064468360959938 0 0.00018404128807140706 0.002109266359143552 0 0.00018321882640309019 0.0021064468360959938 0 0.00018382214005676601 0.0021051822174316609 0 0.00018297333635836863 0.0021079274065773008 0 0.00018321882640309019 0.0021064468360959938 0 0.0001821988362519501 0.0021058900609607009 0 0.00018321882640309019 0.0021064468360959938 0 0.00018241016558263382 0.002104406973206237 0 0.00018382214005676601 0.0021051822174316609 0 0.00018321882640309019 0.0021064468360959938 0 0.00018241016558263382 0.002104406973206237 0 0.0001821988362519501 0.0021058900609607009 0 0.00018241016558263382 0.002104406973206237 0 0.0001821988362519501 0.0021058900609607009 0 0.00018125650869125489 0.0021042263602946052 0 0.00018167616141070379 0.0021069918026627075 0 0.0001821988362519501 0.0021058900609607009 0 0.00018144018191846708 0.0021056175087296645 0 0.00018144018191846708 0.0021056175087296645 0 0.00018125650869125489 0.0021042263602946052 0 0.00018060383270379022 0.0021053857077387348 0 0.0001821988362519501 0.0021058900609607009 0 0.00018144018191846708 0.0021056175087296645 0 0.00018125650869125489 0.0021042263602946052 0 0.00018167616141070379 0.0021069918026627075 0 0.00018144018191846708 0.0021056175087296645 0 0.00018060383270379022 0.0021053857077387348 0 0.00018241016558263382 0.002104406973206237 0 0.00018125650869125489 0.0021042263602946052 0 0.00018149813485127667 0.0021025990485821701 0 0.00018125650869125489 0.0021042263602946052 0 0.00018149813485127667 0.0021025990485821701 0 0.0001807169335016959 0.0021028556580158348 0 0.0001285825023082107 0.002267548847007801 0 0.00018406840242546241 0.0022888154316146668 0 8.0941826551476361e-05 0.0023230817569546949 0 9.5604042853349234e-05 0.0023598755847734059 0 0.00013822069602217039 0.0021912628793013746 0 7.5782416802495133e-05 0.002375063006779208 0 -4.4851937249414941e-05 0.0024389937657812878 0 -6.8020067847688597e-05 0.0024279983557567064 0 0.00018241016558263382 0.002104406973206237 0 0.00018149813485127667 0.0021025990485821701 0 0.00018220512455001988 0.0021020599882797851 0 0.00018241016558263382 0.002104406973206237 0 0.00018220512455001988 0.0021020599882797851 0 0.00018382214005676601 0.0021051822174316609 0 8.8279819379104984e-05 0.0022562730859110964 0 7.9977247897175643e-05 0.0022556061572135801 0 0.00012037220413830269 0.0022846680015484598 0 0.00010957158875236098 0.0022437221527821581 0 0.00010880990533534416 0.0022435118591115923 0 0.00010759636837772663 0.0022422176389423694 0 6.5253514776756155e-05 0.0022884594059795343 0 0.00013822069602217039 0.0021912628793013746 0 6.5253514776756155e-05 0.0022884594059795343 0 0.00011874361603876558 0.0022288784841236471 0 0.00011874361603876558 0.0022288784841236471 0 0.00027641708002609089 0.0020668137397374191 0 0.00011874361603876558 0.0022288784841236471 0 0.00013822069602217039 0.0021912628793013746 0 0.00014237659092837109 0.0021451846441033189 0 0.00016936619288231969 0.0021636265990544927 0 0.00020794650324446103 0.0021490161652265786 0 0.00018149813485127667 0.0021025990485821701 0 0.00018220512455001988 0.0021020599882797851 0 0.00018149450938559206 0.0021009826807089137 0 0.00013822069602217039 0.0021912628793013746 0 0.00027641708002609089 0.0020668137397374191 0 0.00011874361603876558 0.0022288784841236471 0 0.00010284312133548822 0.0023054440684253281 0 6.5253514776756155e-05 0.0022884594059795343 0 0.00010284312133548822 0.0023054440684253281 0 0.00027641708002609089 0.0020668137397374191 0 0.00037397053590605597 0.0018695688731196788 0 0.00034126443543432166 0.0018341103109156733 0 0.000398288185637424 0.0018805044932067875 0 0.00038834544619385672 0.0018837447598700982 0 0.00027641708002609089 0.0020668137397374191 0 0.00024118732744194259 0.0019929078699514541 0 0.00034126443543432166 0.0018341103109156733 0 0.00038834544619385672 0.0018837447598700982 0 0.00033287702203398507 0.0018776199830799233 0 0.00018149450938559206 0.0021009826807089137 0 0.00016726218043112599 0.0020955177502266133 0 0.00017720027989142316 0.0021014265665062642 0 0.00028696531682335984 0.0018988633410588083 0 0.00013822069602217039 0.0021912628793013746 0 0.00017968365301257319 0.0021018595203995253 0 0.00018149450938559206 0.0021009826807089137 0 0.00017720027989142316 0.0021014265665062642 0 0.00018149813485127667 0.0021025990485821701 0 0.00018089367150516371 0.0021020591824420427 0 0.00018149450938559206 0.0021009826807089137 0 0.00017968365301257319 0.0021018595203995253 0 0.00018089367150516371 0.0021020591824420427 0 0.00018149450938559206 0.0021009826807089137 0 0.00017968365301257319 0.0021018595203995253 0 0.00018089367150516371 0.0021020591824420427 0 0.0001807169335016959 0.0021028556580158348 0 0.00018149813485127667 0.0021025990485821701 0 0.00018089367150516371 0.0021020591824420427 0 0.0001807169335016959 0.0021028556580158348 0 0.00038604353237171825 0.0018823265960788524 0 0.00033287702203398507 0.0018776199830799233 0 0.00030821065732997924 0.0019124114370461947 0 0.00034126443543432166 0.0018341103109156733 0 0.00033287702203398507 0.0018776199830799233 0 0.00029071531843008724 0.0018434277745128674 0 0.00033287702203398507 0.0018776199830799233 0 0.00030821065732997924 0.0019124114370461947 0 0.00026994893610848885 0.001888467448369168 0 0.00016726218043112599 0.0020955177502266133 0 0.00017720027989142316 0.0021014265665062642 0 0.00017493680194305495 0.0021020197391050108 0 0.00016726218043112599 0.0020955177502266133 0 0.00017220630758452585 0.0021027052888461959 0 0.00017493680194305495 0.0021020197391050108 0 0.00017220630758452585 0.0021027052888461959 0 0.00017666881307785401 0.0021052499733929383 0 0.00017484246892067882 0.0021084218722725772 0 0.00016726218043112599 0.0020955177502266133 0 0.00017220630758452585 0.0021027052888461959 0 0.0001647819235498538 0.002104090024762275 0 0.0001786531567918174 0.0021040518165738242 0 0.00018005087943437925 0.0021035768979184967 0 0.00017720027989142316 0.0021014265665062642 0 0.00018125650869125489 0.0021042263602946052 0 0.00018060383270379022 0.0021053857077387348 0 0.00018005087943437925 0.0021035768979184967 0 0.0001786531567918174 0.0021040518165738242 0 0.00018060383270379022 0.0021053857077387348 0 0.00018005087943437925 0.0021035768979184967 0 0.00017968365301257319 0.0021018595203995253 0 0.00018005087943437925 0.0021035768979184967 0 0.0001807169335016959 0.0021028556580158348 0 0.00018125650869125489 0.0021042263602946052 0 0.00018005087943437925 0.0021035768979184967 0 0.0001807169335016959 0.0021028556580158348 0 0.00017968365301257319 0.0021018595203995253 0 0.00018005087943437925 0.0021035768979184967 0 0.00017720027989142316 0.0021014265665062642 0 0.0001786531567918174 0.0021040518165738242 0 0.00017720027989142316 0.0021014265665062642 0 0.00017493680194305495 0.0021020197391050108 0 0.00017220630758452585 0.0021027052888461959 0 0.00017493680194305495 0.0021020197391050108 0 0.00017666881307785401 0.0021052499733929383 0 0.0001786531567918174 0.0021040518165738242 0 0.00017493680194305495 0.0021020197391050108 0 0.00017666881307785401 0.0021052499733929383 0 0.0001786531567918174 0.0021040518165738242 0 0.00017666881307785401 0.0021052499733929383 0 0.0001788579175853249 0.0021066369064586784 0 0.00017666881307785401 0.0021052499733929383 0 0.0001788579175853249 0.0021066369064586784 0 0.0001780122963458001 0.0021088908558100192 0 0.0001788579175853249 0.0021066369064586784 0 0.00017961828864775003 0.0021087443463803802 0 0.0001780122963458001 0.0021088908558100192 0 0.0001788579175853249 0.0021066369064586784 0 0.00018000125334178627 0.0021075256699414771 0 0.00017961828864775003 0.0021087443463803802 0 0.0001788579175853249 0.0021066369064586784 0 0.00017979994456409541 0.0021060488615263343 0 0.00018000125334178627 0.0021075256699414771 0 0.0001786531567918174 0.0021040518165738242 0 0.0001788579175853249 0.0021066369064586784 0 0.00017979994456409541 0.0021060488615263343 0 0.0001786531567918174 0.0021040518165738242 0 0.00018060383270379022 0.0021053857077387348 0 0.00017979994456409541 0.0021060488615263343 0 0.00018083505250857411 0.0021073264376622438 0 0.00018060383270379022 0.0021053857077387348 0 0.00017979994456409541 0.0021060488615263343 0 0.00018083505250857411 0.0021073264376622438 0 0.00017979994456409541 0.0021060488615263343 0 0.00018000125334178627 0.0021075256699414771 0 0.00018083505250857411 0.0021073264376622438 0 0.00018000125334178627 0.0021075256699414771 0 0.00018073448024111773 0.0021088990200361785 0 0.00018000125334178627 0.0021075256699414771 0 0.00018073448024111773 0.0021088990200361785 0 0.00017961828864775003 0.0021087443463803802 0 0.00018073448024111773 0.0021088990200361785 0 0.00018025219064042147 0.0021105065986133059 0 0.00017961828864775003 0.0021087443463803802 0 0.00018073448024111773 0.0021088990200361785 0 0.00018025219064042147 0.0021105065986133059 0 0.00018130975454717818 0.0021105313944321364 0 0.00018025219064042147 0.0021105065986133059 0 0.00017971353102818992 0.0021120495597614854 0 0.00018069665952400392 0.0021125433193271903 0 0.00018025219064042147 0.0021105065986133059 0 0.00018069665952400392 0.0021125433193271903 0 0.00018130975454717818 0.0021105313944321364 0 0.00017871084784848015 0.0021112318422459018 0 0.00017932412641819717 0.0021104818936676824 0 0.0001780122963458001 0.0021088908558100192 0 0.00017871084784848015 0.0021112318422459018 0 0.00017971353102818992 0.0021120495597614854 0 0.00017932412641819717 0.0021104818936676824 0 0.00018025219064042147 0.0021105065986133059 0 0.00017971353102818992 0.0021120495597614854 0 0.00017932412641819717 0.0021104818936676824 0 0.00017932412641819717 0.0021104818936676824 0 0.00017961828864775003 0.0021087443463803802 0 0.0001780122963458001 0.0021088908558100192 0 0.00018025219064042147 0.0021105065986133059 0 0.00017932412641819717 0.0021104818936676824 0 0.00017961828864775003 0.0021087443463803802 0 0.00017727992700203337 0.0021110303305693148 0 0.00017674016340844028 0.0021146220592178624 0 0.00017484246892067882 0.0021084218722725772 0 0.0001780122963458001 0.0021088908558100192 0 0.00017727992700203337 0.0021110303305693148 0 0.00017484246892067882 0.0021084218722725772 0 0.00017666881307785401 0.0021052499733929383 0 0.0001780122963458001 0.0021088908558100192 0 0.00017484246892067882 0.0021084218722725772 0 0.00017871084784848015 0.0021112318422459018 0 0.00017727992700203337 0.0021110303305693148 0 0.00017912379449743992 0.0021136153044170021 0 0.00017871084784848015 0.0021112318422459018 0 0.0001780122963458001 0.0021088908558100192 0 0.00017727992700203337 0.0021110303305693148 0 0.00017727992700203337 0.0021110303305693148 0 0.00017674016340844028 0.0021146220592178624 0 0.00017912379449743992 0.0021136153044170021 0 0.00017674016340844028 0.0021146220592178624 0 0.00018047083634657049 0.0021153456009559398 0 0.00017912379449743992 0.0021136153044170021 0 0.00018047083634657049 0.0021153456009559398 0 0.00018069665952400392 0.0021125433193271903 0 0.00018195739379363174 0.0021116609460839352 0 0.00018047083634657049 0.0021153456009559398 0 0.00017912379449743992 0.0021136153044170021 0 0.00018004294081812211 0.0021135609586073138 0 0.00018047083634657049 0.0021153456009559398 0 0.00018069665952400392 0.0021125433193271903 0 0.00018004294081812211 0.0021135609586073138 0 0.00017971353102818992 0.0021120495597614854 0 0.00018069665952400392 0.0021125433193271903 0 0.00018004294081812211 0.0021135609586073138 0 0.00017871084784848015 0.0021112318422459018 0 0.00017971353102818992 0.0021120495597614854 0 0.00017912379449743992 0.0021136153044170021 0 0.00017971353102818992 0.0021120495597614854 0 0.00017912379449743992 0.0021136153044170021 0 0.00018004294081812211 0.0021135609586073138 0 0.0001647819235498538 0.002104090024762275 0 0.00017484246892067882 0.0021084218722725772 0 0.0001701640440540429 0.0021125872178355955 0 0.0001647819235498538 0.002104090024762275 0 0.0001701640440540429 0.0021125872178355955 0 0.00015646586349468228 0.0021128729326020963 0 0.00017220630758452585 0.0021027052888461959 0 0.0001647819235498538 0.002104090024762275 0 0.00017484246892067882 0.0021084218722725772 0 0.00017674016340844028 0.0021146220592178624 0 0.00017484246892067882 0.0021084218722725772 0 0.0001701640440540429 0.0021125872178355955 0 0.00017674016340844028 0.0021146220592178624 0 0.0001701640440540429 0.0021125872178355955 0 0.00017360554586625518 0.0021248450969571712 0 0.0001701640440540429 0.0021125872178355955 0 0.00017360554586625518 0.0021248450969571712 0 0.00015646586349468228 0.0021128729326020963 0 0.00017674016340844028 0.0021146220592178624 0 0.00018047083634657049 0.0021153456009559398 0 0.00017360554586625518 0.0021248450969571712 0 9.8757620195027743e-05 0.002301081768768335 0 0.00019215605695754252 0.0021210486111640733 0 0.00017743740733401742 0.0021668643605213572 0 0.00018747255696495993 0.0021359628430590921 0 0.00016658601656679419 0.0021409785019982463 0 0.00010233508585489343 0.0023642817972533803 0 9.8757620195027743e-05 0.002301081768768335 0 3.119974626412236e-05 0.0025393582983778513 0 1.163181391764794e-06 0.0025796357758449879 0 -6.7991977307959171e-06 0.0025548455367600479 0 1.163181391764794e-06 0.0025796357758449879 0 -6.7991977307959171e-06 0.0025548455367600479 0 -2.0765275039811071e-05 0.002569164558846081 0 -2.0765275039811071e-05 0.002569164558846081 0 -3.8652391011834925e-05 0.0025628984073198793 0 -3.2024310637055558e-05 0.0025819633304619677 0 -3.2764810505281441e-05 0.002549974779433339 0 -6.7991977307959171e-06 0.0025548455367600479 0 -2.0765275039811071e-05 0.002569164558846081 0 -3.2764810505281441e-05 0.002549974779433339 0 -2.0765275039811071e-05 0.002569164558846081 0 -3.8652391011834925e-05 0.0025628984073198793 0 -5.4832106507346351e-05 0.0025537079230501039 0 -3.2764810505281441e-05 0.002549974779433339 0 -3.8652391011834925e-05 0.0025628984073198793 0 -3.8652391011834925e-05 0.0025628984073198793 0 -4.9104110962370182e-05 0.0025660187440781981 0 -3.2024310637055558e-05 0.0025819633304619677 0 -5.4832106507346351e-05 0.0025537079230501039 0 -3.8652391011834925e-05 0.0025628984073198793 0 -4.9104110962370182e-05 0.0025660187440781981 0 -5.4346318584245476e-05 0.0025719518828371799 0 -5.3859305096345649e-05 0.0025816822685033949 0 -3.2024310637055558e-05 0.0025819633304619677 0 2.4616044770042412e-05 0.0024154390721790029 0 8.334674860851281e-05 0.0023446060061929545 0 0.00018589770871891992 0.0021140588881476204 0 0.00018428815797138259 0.002111507112909521 0 0.00018344456625716011 0.0021127087431244995 0 -5.4346318584245476e-05 0.0025719518828371799 0 -4.9104110962370182e-05 0.0025660187440781981 0 -3.2024310637055558e-05 0.0025819633304619677 0 0.00018428815797138259 0.002111507112909521 0 0.00018332962354744716 0.0021104750760799454 0 0.00018344456625716011 0.0021127087431244995 0 1.163181391764794e-06 0.0025796357758449879 0 -2.0765275039811071e-05 0.002569164558846081 0 -3.2024310637055558e-05 0.0025819633304619677 0 9.8757620195027743e-05 0.002301081768768335 0 8.334674860851281e-05 0.0023446060061929545 0 0.00018047083634657049 0.0021153456009559398 0 0.00018195739379363174 0.0021116609460839352 0 0.00018344456625716011 0.0021127087431244995 0 0.00018332962354744716 0.0021104750760799454 0 0.00018195739379363174 0.0021116609460839352 0 0.00018344456625716011 0.0021127087431244995 0 0.00018206558484812474 0.0021090770721874132 0 0.00018332962354744716 0.0021104750760799454 0 0.00018195739379363174 0.0021116609460839352 0 0.00018206558484812474 0.0021090770721874132 0 0.00018073448024111773 0.0021088990200361785 0 0.00018130975454717818 0.0021105313944321364 0 0.00018206558484812474 0.0021090770721874132 0 0.00018130975454717818 0.0021105313944321364 0 0.00018195739379363174 0.0021116609460839352 0 0.00018069665952400392 0.0021125433193271903 0 0.00018130975454717818 0.0021105313944321364 0 0.00018195739379363174 0.0021116609460839352 0 0.00011754301008558335 0.0020857759280539421 0 8.903633982754114e-05 0.0020372152368951608 0 0.00013812357203215242 0.002089031079899605 0 9.0800642526001193e-05 0.0020397076741192812 0 0.00017535855147641753 0.0020250373732798566 0 8.903633982754114e-05 0.0020372152368951608 0 0.00022437492822153835 0.0019575892893766234 0 0.00010388054302385681 0.0019490237967335045 0 0.00011754301008558335 0.0020857759280539421 0 8.903633982754114e-05 0.0020372152368951608 0 8.4496034713697573e-05 0.0020794740347435878 0 4.3711051485645983e-05 0.001979283281361442 0 8.903633982754114e-05 0.0020372152368951608 0 0.00010388054302385681 0.0019490237967335045 0 4.3711051485645983e-05 0.001979283281361442 0 5.3542791135031608e-05 0.0020543111800043973 0 8.903633982754114e-05 0.0020372152368951608 0 5.3542791135031608e-05 0.0020543111800043973 0 8.903633982754114e-05 0.0020372152368951608 0 8.4496034713697573e-05 0.0020794740347435878 0 4.286654765407984e-05 0.0020885125167200507 0 8.4496034713697573e-05 0.0020794740347435878 0 0.00012263452675784458 0.0021292909243364778 0 4.4210429223295915e-05 0.0021273183498433617 0 5.9496003604802676e-05 0.0021445145823942606 0 0.00012263452675784458 0.0021292909243364778 0 4.1944740061901725e-05 0.0021226741807979553 0 0.00012230523792260261 0.0021227565666450212 0 4.286654765407984e-05 0.0020885125167200507 0 5.3542791135031608e-05 0.0020543111800043973 0 8.4496034713697573e-05 0.0020794740347435878 0 9.5184531884510951e-05 0.0021705820265636323 0 0.00012277160706042516 0.0021565923525617451 0 0.00012210761483074422 0.0021785363037631431 0 0.00012859877555653271 0.0022030122478542968 0 0.00012051002043168969 0.0021507741427467548 0 0.00011754301008558335 0.0020857759280539421 0 8.4496034713697573e-05 0.0020794740347435878 0 0.00012263452675784458 0.0021292909243364778 0 5.9496003604802676e-05 0.0021445145823942606 0 0.00012263452675784458 0.0021292909243364778 0 0.00012051002043168969 0.0021507741427467548 0 0.00011754301008558335 0.0020857759280539421 0 0.00012263452675784458 0.0021292909243364778 0 0.0001371004405363198 0.0021092069590758974 0 0.00012263452675784458 0.0021292909243364778 0 0.00012051002043168969 0.0021507741427467548 0 0.00013351590087004264 0.0021430658955552901 0 0.00012680289186204829 0.0021611667987913351 0 0.00012051002043168969 0.0021507741427467548 0 0.00013351590087004264 0.0021430658955552901 0 0.00013351590087004264 0.0021430658955552901 0 0.00014948802488088558 0.0021437433787084869 0 0.0001371004405363198 0.0021092069590758974 0 0.00012263452675784458 0.0021292909243364778 0 0.00013351590087004264 0.0021430658955552901 0 0.0001371004405363198 0.0021092069590758974 0 0.00019215605695754252 0.0021210486111640733 0 0.00014168793498252642 0.002145456337492409 0 0.00014948802488088558 0.0021437433787084869 0 0.00015646586349468228 0.0021128729326020963 0 0.0001371004405363198 0.0021092069590758974 0 0.00017360554586625518 0.0021248450969571712 0 0.00014948802488088558 0.0021437433787084869 0 0.00015646586349468228 0.0021128729326020963 0 0.0001647819235498538 0.002104090024762275 0 0.00015646586349468228 0.0021128729326020963 0 0.00013812357203215242 0.002089031079899605 0 0.00015646586349468228 0.0021128729326020963 0 0.0001371004405363198 0.0021092069590758974 0 0.00013812357203215242 0.002089031079899605 0 0.00011754301008558335 0.0020857759280539421 0 0.0001371004405363198 0.0021092069590758974 0 0.00013812357203215242 0.002089031079899605 0 0.00022437492822153835 0.0019575892893766234 0 0.00026994893610848885 0.001888467448369168 0 0.00020976449828621484 0.0018906296185499181 0 0.00024118732744194259 0.0019929078699514541 0 0.00017535855147641753 0.0020250373732798566 0 0.00030821065732997924 0.0019124114370461947 0 0.00022437492822153835 0.0019575892893766234 0 0.00026994893610848885 0.001888467448369168 0 0.00016726218043112599 0.0020955177502266133 0 0.0001647819235498538 0.002104090024762275 0 0.00013812357203215242 0.002089031079899605 0 0.00033287702203398507 0.0018776199830799233 0 0.00026994893610848885 0.001888467448369168 0 0.00029071531843008724 0.0018434277745128674 0 0.00026994893610848885 0.001888467448369168 0 0.00024400444132613796 0.0018574245029848761 0 0.00029071531843008724 0.0018434277745128674 0 0.00020976449828621484 0.0018906296185499181 0 0.00024400444132613796 0.0018574245029848761 0 0.00016114567843115838 0.0018493603248948423 0 0.00026994893610848885 0.001888467448369168 0 0.00020976449828621484 0.0018906296185499181 0 0.00024400444132613796 0.0018574245029848761 0 0.00016114567843115838 0.0018493603248948423 0 0.00014650930965354674 0.0018953375061189148 0 0.00010169985858058123 0.0018332536492552541 0 0.00020976449828621484 0.0018906296185499181 0 0.00016114567843115838 0.0018493603248948423 0 0.00014650930965354674 0.0018953375061189148 0 0.00022437492822153835 0.0019575892893766234 0 0.00014650930965354674 0.0018953375061189148 0 0.00010388054302385681 0.0019490237967335045 0 0.00022437492822153835 0.0019575892893766234 0 0.00020976449828621484 0.0018906296185499181 0 0.00014650930965354674 0.0018953375061189148 0 4.3711051485645983e-05 0.001979283281361442 0 5.3156496323349041e-05 0.0019318681496631681 0 0.00010388054302385681 0.0019490237967335045 0 0.00014650930965354674 0.0018953375061189148 0 0.00010388054302385681 0.0019490237967335045 0 7.965739402879741e-05 0.0018908495237302217 0 5.3156496323349041e-05 0.0019318681496631681 0 0.00010388054302385681 0.0019490237967335045 0 7.965739402879741e-05 0.0018908495237302217 0 0.00014650930965354674 0.0018953375061189148 0 7.965739402879741e-05 0.0018908495237302217 0 0.00010169985858058123 0.0018332536492552541 0 5.4704938388901987e-05 0.0018599380501173757 0 4.7535033120794747e-05 0.0018191253008951107 0 0.00010169985858058123 0.0018332536492552541 0 5.4704938388901987e-05 0.0018599380501173757 0 7.965739402879741e-05 0.0018908495237302217 0 0.00010169985858058123 0.0018332536492552541 0 4.7535033120794747e-05 0.0018191253008951107 0 0.00010169985858058123 0.0018332536492552541 0 8.5039968006896384e-05 0.0017773308509286909 0 0.00016114567843115838 0.0018493603248948423 0 0.00010169985858058123 0.0018332536492552541 0 0.00013858431841687918 0.0017599319378229002 0 0.00010169985858058123 0.0018332536492552541 0 8.5039968006896384e-05 0.0017773308509286909 0 0.00013858431841687918 0.0017599319378229002 0 0.00016504576520267933 0.0018454154899184678 0 0.00020155915507699514 0.0017732612284132952 0 0.00016114567843115838 0.0018493603248948423 0 0.00013858431841687918 0.0017599319378229002 0 0.00020836148957265713 0.0017609098627230778 0 0.00013858431841687918 0.0017599319378229002 0 0.00020836148957265713 0.0017609098627230778 0 0.00018812810238739446 0.0016989655319226838 0 0.00020836148957265713 0.0017609098627230778 0 0.00018812810238739446 0.0016989655319226838 0 0.00024927977807094186 0.0016704687834006612 0 0.00013858431841687918 0.0017599319378229002 0 0.00018812810238739446 0.0016989655319226838 0 0.00013376218309681505 0.0016885876709651962 0 0.00013858431841687918 0.0017599319378229002 0 0.00013376218309681505 0.0016885876709651962 0 8.5473483870782797e-05 0.0017107879046529206 0 0.00013376218309681505 0.0016885876709651962 0 8.5473483870782797e-05 0.0017107879046529206 0 0.00010017955124826449 0.0016522704064200091 0 8.5039968006896384e-05 0.0017773308509286909 0 0.00013858431841687918 0.0017599319378229002 0 8.5473483870782797e-05 0.0017107879046529206 0 0.00024400444132613796 0.0018574245029848761 0 0.00029071531843008724 0.0018434277745128674 0 0.00023526892485553733 0.001809743722245146 0 0.00029071531843008724 0.0018434277745128674 0 0.00023526892485553733 0.001809743722245146 0 0.00027874520589956227 0.0017844293708946558 0 0.00024400444132613796 0.0018574245029848761 0 0.00016114567843115838 0.0018493603248948423 0 0.00023526892485553733 0.001809743722245146 0 0.00016114567843115838 0.0018493603248948423 0 0.00018902543788312323 0.0017964522128927072 0 0.00023526892485553733 0.001809743722245146 0 0.00020155915507699514 0.0017732612284132952 0 0.00018424752455082594 0.0017237676542392927 0 0.00023526892485553733 0.001809743722245146 0 0.00027874520589956227 0.0017844293708946558 0 0.00021362093070693709 0.0017377886159324039 0 0.00018902543788312323 0.0017964522128927072 0 0.00023526892485553733 0.001809743722245146 0 0.00021362093070693709 0.0017377886159324039 0 0.00018317661681434164 0.0018720058897102416 0 0.00018424752455082594 0.0017237676542392927 0 0.00010753768087289153 0.0019409449624679617 0 0.00011846249555780178 0.0019180412513297993 0 2.1697875202865712e-05 0.0018771516870949541 0 -5.8062491398036615e-05 0.0020749204925849408 0 -8.182825131241126e-05 0.0021696762507612526 0 -0.00015935148674332892 0.0020769509204167647 0 -4.6462407674747323e-05 0.0014688743337211039 0 2.1248707787738016e-05 0.0012499711002157965 0 1.4789528428533554e-05 0.0020863031199428793 0 5.5311562148141553e-05 0.0016410921702012498 0 0.00011846249555780178 0.0019180412513297993 0 3.5729355627459985e-05 0.0018425997695856078 0 2.1697875202865712e-05 0.0018771516870949541 0 -8.182825131241126e-05 0.0021696762507612526 0 -0.00015935148674332892 0.0020769509204167647 0 -0.00016467144909601542 0.002089843093121776 0 2.1248707787738016e-05 0.0012499711002157965 0 8.3326056733839545e-05 0.0013739951604825312 0 -8.1133293695009024e-05 0.0013809816200160765 0 -2.9333399843571412e-05 0.0012560158261275163 0 0.00010257164103677324 0.0013672089343598145 0 2.1248707787738016e-05 0.0012499711002157965 0 5.5311562148141553e-05 0.0016410921702012498 0 5.5311562148141553e-05 0.0016410921702012498 0 0.00018424752455082594 0.0017237676542392927 0 0.00024460195132694132 0.0016159115508597394 0 0.0002322741528323941 0.0016477610289786883 0 0.00021856450060627183 0.0016063906001880135 0 0.00024460195132694132 0.0016159115508597394 0 0.00023246711645699578 0.0016054091082046101 0 0.00021856450060627183 0.0016063906001880135 0 5.5311562148141553e-05 0.0016410921702012498 0 8.3326056733839545e-05 0.0013739951604825312 0 0.00011416632265178291 0.00054664472105105306 0 0.00013285801532170622 0.00054585513710489345 0 0.00013035207806901718 0.00056396956245509833 0 8.3326056733839545e-05 0.0013739951604825312 0 0.00013028382938607037 0.0013978741266462652 0 0.00011416632265178291 0.00054664472105105306 0 0.00012612212824332755 0.00059092582506312206 0 7.1586513031553751e-05 0.00062541699561246904 0 2.1248707787738016e-05 0.0012499711002157965 0 6.0069652771612944e-05 0.00060419198506538009 0 0.00011416632265178291 0.00054664472105105306 0 0.00013035207806901718 0.00056396956245509833 0 0.00012612212824332755 0.00059092582506312206 0 0.00013285801532170622 0.00054585513710489345 0 0.00014823464193514373 0.00057288744936431204 0 0.00017689677710409378 0.00058939114160407849 0 0.00014823464193514373 0.00057288744936431204 0 0.00013035207806901718 0.00056396956245509833 0 0.00012612212824332755 0.00059092582506312206 0 0.00013285801532170622 0.00054585513710489345 0 0.00014823464193514373 0.00057288744936431204 0 0.00013035207806901718 0.00056396956245509833 0 0.00014823464193514373 0.00057288744936431204 0 0.00012612212824332755 0.00059092582506312206 0 0.00015111140518432392 0.0005883652668195004 0 0.00014823464193514373 0.00057288744936431204 0 0.00015111140518432392 0.0005883652668195004 0 0.00017689677710409378 0.00058939114160407849 0 0.00012612212824332755 0.00059092582506312206 0 0.00015111140518432392 0.0005883652668195004 0 0.00015241161008253229 0.00060025573556913886 0 0.00012612212824332755 0.00059092582506312206 0 0.00015241161008253229 0.00060025573556913886 0 0.00012219358081733147 0.00062658121171071284 0 0.00015241161008253229 0.00060025573556913886 0 0.00015727496923973087 0.00062294128875402754 0 0.00012219358081733147 0.00062658121171071284 0 0.00012612212824332755 0.00059092582506312206 0 0.00012219358081733147 0.00062658121171071284 0 7.1586513031553751e-05 0.00062541699561246904 0 2.0644181287370303e-05 0.00082370389368656568 0 -4.2452849367160107e-05 0.00082950503141425663 0 -1.8099776462935286e-05 0.0007712894299359668 0 2.0644181287370303e-05 0.00082370389368656568 0 -1.8099776462935286e-05 0.0007712894299359668 0 7.4703999767319275e-06 0.00077628572259424338 0 5.2987230664495716e-05 0.0016297565617110724 0 0.00010017955124826449 0.0016522704064200091 0 0.00012873772210868716 0.0015793643622469234 0 0.00013376218309681505 0.0016885876709651962 0 0.00010017955124826449 0.0016522704064200091 0 0.00012873772210868716 0.0015793643622469234 0 5.2987230664495716e-05 0.0016297565617110724 0 8.5473483870782797e-05 0.0017107879046529206 0 0.00010017955124826449 0.0016522704064200091 0 0.0002322741528323941 0.0016477610289786883 0 0.00021856450060627183 0.0016063906001880135 0 0.00012873772210868716 0.0015793643622469234 0 0.00018424752455082594 0.0017237676542392927 0 0.0001499906761377065 0.0015649003324414198 0 0.00018812810238739446 0.0016989655319226838 0 0.00013376218309681505 0.0016885876709651962 0 0.00012873772210868716 0.0015793643622469234 0 0.00018812810238739446 0.0016989655319226838 0 0.00024927977807094186 0.0016704687834006612 0 0.00012873772210868716 0.0015793643622469234 0 0.00013285801532170622 0.00054585513710489345 0 0.00017689677710409378 0.00058939114160407849 0 0.00023143512124399249 0.00062087924797209313 0 0.00021856450060627183 0.0016063906001880135 0 0.00014522208319329584 0.001523228888113077 0 0.00012873772210868716 0.0015793643622469234 0 0.0002333182971118091 0.0016051836523404922 0 0.00021856450060627183 0.0016063906001880135 0 0.00014522208319329584 0.001523228888113077 0 8.3326056733839545e-05 0.0013739951604825312 0 0.00017824442862985352 0.00080078684121203877 0 0.00015111140518432392 0.0005883652668195004 0 0.00015241161008253229 0.00060025573556913886 0 0.00017689677710409378 0.00058939114160407849 0 0.00015241161008253229 0.00060025573556913886 0 0.00017689677710409378 0.00058939114160407849 0 0.0001746132770652538 0.00061150481097455348 0 0.00017689677710409378 0.00058939114160407849 0 0.0001746132770652538 0.00061150481097455348 0 0.00019974488545096422 0.00061283366975666519 0 0.0001746132770652538 0.00061150481097455348 0 0.00019974488545096422 0.00061283366975666519 0 0.00018602844066860393 0.00063205470862058664 0 0.00015727496923973087 0.00062294128875402754 0 0.0001746132770652538 0.00061150481097455348 0 0.00018602844066860393 0.00063205470862058664 0 0.00015241161008253229 0.00060025573556913886 0 0.00015727496923973087 0.00062294128875402754 0 0.0001746132770652538 0.00061150481097455348 0 0.00017689677710409378 0.00058939114160407849 0 0.00019974488545096422 0.00061283366975666519 0 0.00023143512124399249 0.00062087924797209313 0 0.00019974488545096422 0.00061283366975666519 0 0.00023143512124399249 0.00062087924797209313 0 0.00020841740118805033 0.00062505069918919324 0 0.00019974488545096422 0.00061283366975666519 0 0.00020841740118805033 0.00062505069918919324 0 0.00018602844066860393 0.00063205470862058664 0 0.00031176908988933864 0.00030085825414611359 0 0.00031837514500039594 0.00048491187093416808 0 0.00013509880657496472 0.00051175216968590885 0 0.00016738419812790896 0.0010058452029339169 0 0.00017824442862985352 0.00080078684121203877 0 5.2987230664495716e-05 0.0016297565617110724 0 0.00014522208319329584 0.001523228888113077 0 0.00012873772210868716 0.0015793643622469234 0 0.00031837514500039594 0.00048491187093416808 0 0.00013509880657496472 0.00051175216968590885 0 0.00029514685649880714 0.00063541428460710378 0 0.00023216287303564527 0.00061654169931875337 0 0.00029514685649880714 0.00063541428460710378 0 0.00024388836268610133 0.00067265727368666318 0 0.00017824442862985352 0.00080078684121203877 0 0.00024844672757545809 0.00059190255341054932 0 0.00023143512124399249 0.00062087924797209313 0 0.00020841740118805033 0.00062505069918919324 0 0.00021529487079127008 0.00063527127208112377 0 0.00017824442862985352 0.00080078684121203877 0 0.00023469595344373601 0.00070953752168059357 0 0.00023216287303564527 0.00061654169931875337 0 0.00024388836268610133 0.00067265727368666318 0 0.00021529487079127008 0.00063527127208112377 0 0.00020841740118805033 0.00062505069918919324 0 0.00021529487079127008 0.00063527127208112377 0 0.00018602844066860393 0.00063205470862058664 0 0.00018602844066860393 0.00063205470862058664 0 0.00018512874688455286 0.00067842268177103495 0 0.00014486866791854272 0.00065064365927942826 0 0.00015727496923973087 0.00062294128875402754 0 0.00018602844066860393 0.00063205470862058664 0 0.00014486866791854272 0.00065064365927942826 0 0.00021529487079127008 0.00063527127208112377 0 0.00018602844066860393 0.00063205470862058664 0 0.00018512874688455286 0.00067842268177103495 0 0.00024388836268610133 0.00067265727368666318 0 0.00021529487079127008 0.00063527127208112377 0 0.00018512874688455286 0.00067842268177103495 0 0.00018512874688455286 0.00067842268177103495 0 0.00019271074122259363 0.00076305638064868317 0 0.00010808134328798414 0.00073720359684738062 0 0.00024388836268610133 0.00067265727368666318 0 0.00018512874688455286 0.00067842268177103495 0 0.00019271074122259363 0.00076305638064868317 0 0.00029514685649880714 0.00063541428460710378 0 0.00024388836268610133 0.00067265727368666318 0 0.00030013989059582392 0.0007531145466466478 0 0.00024388836268610133 0.00067265727368666318 0 0.00019271074122259363 0.00076305638064868317 0 0.00030013989059582392 0.0007531145466466478 0 6.0069652771612944e-05 0.00060419198506538009 0 7.0789051563612381e-06 0.00077275275866705976 0 -1.8099776462935286e-05 0.0007712894299359668 0 7.9189843761434603e-06 0.00074861167454223115 0 2.3731726836147916e-05 0.00074148347027043905 0 7.1586513031553751e-05 0.00062541699561246904 0 9.4794113747351532e-05 0.00068056969362689931 0 2.3731726836147916e-05 0.00074148347027043905 0 7.9189843761434603e-06 0.00074861167454223115 0 2.3731726836147916e-05 0.00074148347027043905 0 -8.7772835698493418e-06 0.00075866903705198692 0 -1.8099776462935286e-05 0.0007712894299359668 0 7.4703999767319275e-06 0.00077628572259424338 0 7.9189843761434603e-06 0.00074861167454223115 0 9.4794113747351532e-05 0.00068056969362689931 0 0.00010808134328798414 0.00073720359684738062 0 2.3731726836147916e-05 0.00074148347027043905 0 9.4794113747351532e-05 0.00068056969362689931 0 0.00014486866791854272 0.00065064365927942826 0 0.00010808134328798414 0.00073720359684738062 0 0.00012219358081733147 0.00062658121171071284 0 7.1586513031553751e-05 0.00062541699561246904 0 9.4794113747351532e-05 0.00068056969362689931 0 0.00012219358081733147 0.00062658121171071284 0 9.4794113747351532e-05 0.00068056969362689931 0 0.00014486866791854272 0.00065064365927942826 0 0.00015727496923973087 0.00062294128875402754 0 0.00012219358081733147 0.00062658121171071284 0 0.00014486866791854272 0.00065064365927942826 0 0.00018512874688455286 0.00067842268177103495 0 0.00014486866791854272 0.00065064365927942826 0 0.00010808134328798414 0.00073720359684738062 0 0.00019271074122259363 0.00076305638064868317 0 0.00010808134328798414 0.00073720359684738062 0 8.837606561228505e-05 0.00084685368546937479 0 0.00010808134328798414 0.00073720359684738062 0 1.715828399634728e-05 0.00080016755957990483 0 2.3731726836147916e-05 0.00074148347027043905 0 0.00010808134328798414 0.00073720359684738062 0 1.715828399634728e-05 0.00080016755957990483 0 8.837606561228505e-05 0.00084685368546937479 0 1.715828399634728e-05 0.00080016755957990483 0 2.3731726836147916e-05 0.00074148347027043905 0 -8.7772835698493418e-06 0.00075866903705198692 0 8.837606561228505e-05 0.00084685368546937479 0 2.6231063401421246e-05 0.00093142909849306993 0 -1.1480810458464304e-05 0.00085933687599443166 0 1.715828399634728e-05 0.00080016755957990483 0 8.837606561228505e-05 0.00084685368546937479 0 -1.1480810458464304e-05 0.00085933687599443166 0 0.00019271074122259363 0.00076305638064868317 0 8.837606561228505e-05 0.00084685368546937479 0 0.0001648811791899309 0.00089323520515927632 0 8.837606561228505e-05 0.00084685368546937479 0 0.0001648811791899309 0.00089323520515927632 0 0.00010474269204135019 0.00096702219176150132 0 0.0001648811791899309 0.00089323520515927632 0 0.00021477894792431055 0.0009824054317211122 0 0.00010474269204135019 0.00096702219176150132 0 8.837606561228505e-05 0.00084685368546937479 0 2.6231063401421246e-05 0.00093142909849306993 0 0.00010474269204135019 0.00096702219176150132 0 0.00030013989059582392 0.0007531145466466478 0 0.00024225043311496932 0.00086205270854452056 0 0.00034624688514695007 0.00085531012844410547 0 0.00019271074122259363 0.00076305638064868317 0 0.00030013989059582392 0.0007531145466466478 0 0.00024225043311496932 0.00086205270854452056 0 0.00019271074122259363 0.00076305638064868317 0 0.0001648811791899309 0.00089323520515927632 0 0.00024225043311496932 0.00086205270854452056 0 0.0001648811791899309 0.00089323520515927632 0 0.00024225043311496932 0.00086205270854452056 0 0.00021477894792431055 0.0009824054317211122 0 0.00024225043311496932 0.00086205270854452056 0 0.00021477894792431055 0.0009824054317211122 0 0.00035135837674035188 0.00095880263106600438 0 0.00024225043311496932 0.00086205270854452056 0 0.00034624688514695007 0.00085531012844410547 0 0.0003658914058502072 0.00094798178407225512 0 0.00024870505943159934 0.00086589412898790301 0 0.00035647036128261792 0.00095096711023377972 0 0.00021477894792431055 0.0009824054317211122 0 0.00034116001438154014 0.0010739022426012655 0 0.00035135837674035188 0.00095880263106600438 0 0.00021470254971651021 0.0010951851888155214 0 0.00021477894792431055 0.0009824054317211122 0 0.00012458356512797699 0.0010704821553657756 0 0.00021470254971651021 0.0010951851888155214 0 0.00021477894792431055 0.0009824054317211122 0 0.00034116001438154014 0.0010739022426012655 0 0.00021477894792431055 0.0009824054317211122 0 0.00010474269204135019 0.00096702219176150132 0 0.00012458356512797699 0.0010704821553657756 0 0.00010474269204135019 0.00096702219176150132 0 0.00012458356512797699 0.0010704821553657756 0 1.1603092256274572e-05 0.0010495094848171401 0 2.6231063401421246e-05 0.00093142909849306993 0 0.00010474269204135019 0.00096702219176150132 0 1.1603092256274572e-05 0.0010495094848171401 0 0.00012458356512797699 0.0010704821553657756 0 5.605852283033645e-05 0.0011651946092715545 0 1.1603092256274572e-05 0.0010495094848171401 0 0.00012458356512797699 0.0010704821553657756 0 0.00014610006070686659 0.0011521401703157722 0 5.605852283033645e-05 0.0011651946092715545 0 0.00021470254971651021 0.0010951851888155214 0 0.00012458356512797699 0.0010704821553657756 0 0.00014610006070686659 0.0011521401703157722 0 0.00014610006070686659 0.0011521401703157722 0 0.00012463647953350109 0.0012220182457432084 0 0.00024565825401940842 0.0011883666596371016 0 0.00014610006070686659 0.0011521401703157722 0 5.605852283033645e-05 0.0011651946092715545 0 0.00012463647953350109 0.0012220182457432084 0 5.605852283033645e-05 0.0011651946092715545 0 0.00012725239305665681 0.0012819658315248201 0 2.821419829552022e-05 0.0012384162095913937 0 6.0225365435788645e-05 0.0011681027683556893 0 0.00012377168690891742 0.0012504039749133404 0 0.00012725239305665681 0.0012819658315248201 0 3.0852048280086216e-05 0.0012869305655302393 0 2.821419829552022e-05 0.0012384162095913937 0 0.00012725239305665681 0.0012819658315248201 0 3.0852048280086216e-05 0.0012869305655302393 0 7.7165800825322706e-05 0.0013514084058854525 0 0.00012463647953350109 0.0012220182457432084 0 0.00024565825401940842 0.0011883666596371016 0 0.00018824077174385456 0.0013188318043471153 0 0.00024565825401940842 0.0011883666596371016 0 0.00034116001438154014 0.0010739022426012655 0 0.00041755423164493581 0.0011669359984553482 0 0.00021470254971651021 0.0010951851888155214 0 0.00024565825401940842 0.0011883666596371016 0 0.00034116001438154014 0.0010739022426012655 0 0.00021470254971651021 0.0010951851888155214 0 0.00014610006070686659 0.0011521401703157722 0 0.00024565825401940842 0.0011883666596371016 0 -8.9460485714679984e-05 0.0012860666268766315 0 -7.7012779164909568e-05 0.001280637214762006 0 -9.1509350818817458e-05 0.0013011506109879781 0 -8.9460485714679984e-05 0.0012860666268766315 0 -7.7012779164909568e-05 0.001280637214762006 0 -7.773818625951765e-05 0.0012626466313402879 0 -7.7012779164909568e-05 0.001280637214762006 0 -7.773818625951765e-05 0.0012626466313402879 0 -5.9609011442947059e-05 0.001251279697365999 0 -8.9460485714679984e-05 0.0012860666268766315 0 -7.773818625951765e-05 0.0012626466313402879 0 -9.1306333226705923e-05 0.0012759176877378418 0 -8.9460485714679984e-05 0.0012860666268766315 0 -9.8673857353216574e-05 0.0012968569828389722 0 -9.1306333226705923e-05 0.0012759176877378418 0 -9.8673857353216574e-05 0.0012968569828389722 0 -0.00010535647102167814 0.0012878845057073102 0 -0.0001040503693074735 0.0013210347535211775 0 -9.8673857353216574e-05 0.0012968569828389722 0 -0.00010535647102167814 0.0012878845057073102 0 -9.1306333226705923e-05 0.0012759176877378418 0 -9.8673857353216574e-05 0.0012968569828389722 0 -0.00010125690049742182 0.0013092546578314203 0 -0.0001040503693074735 0.0013210347535211775 0 -8.9460485714679984e-05 0.0012860666268766315 0 -9.8673857353216574e-05 0.0012968569828389722 0 -0.00010125690049742182 0.0013092546578314203 0 -8.2691350323242249e-06 0.001506011967697764 0 -0.0001040503693074735 0.0013210347535211775 0 -4.5624089233870187e-05 0.0015380924966672347 0 -0.00010125690049742182 0.0013092546578314203 0 -9.8521965560364872e-05 0.0013097683295427074 0 -9.1509350818817458e-05 0.0013011506109879781 0 -6.0394324314988342e-05 0.0014072468223509432 0 -0.00010507956269780225 0.0013278472874216434 0 -0.00010125690049742182 0.0013092546578314203 0 -0.00010553755907918116 0.0013151382071281104 0 -0.0001040503693074735 0.0013210347535211775 0 -8.9460485714679984e-05 0.0012860666268766315 0 -0.00010125690049742182 0.0013092546578314203 0 -9.1509350818817458e-05 0.0013011506109879781 0 -0.00010125690049742182 0.0013092546578314203 0 -0.00010553755907918116 0.0013151382071281104 0 -9.8521965560364872e-05 0.0013097683295427074 0 -0.00010553755907918116 0.0013151382071281104 0 -9.8521965560364872e-05 0.0013097683295427074 0 -9.0682706535171565e-05 0.001316126009182465 0 -9.0682706535171565e-05 0.001316126009182465 0 -9.1509350818817458e-05 0.0013011506109879781 0 -7.6999172417177689e-05 0.001304233869592225 0 -9.8521965560364872e-05 0.0013097683295427074 0 -9.0682706535171565e-05 0.001316126009182465 0 -9.1509350818817458e-05 0.0013011506109879781 0 -7.7012779164909568e-05 0.001280637214762006 0 -7.6999172417177689e-05 0.001304233869592225 0 -5.7170521502978886e-05 0.001287016801487049 0 -7.7012779164909568e-05 0.001280637214762006 0 -9.1509350818817458e-05 0.0013011506109879781 0 -7.6999172417177689e-05 0.001304233869592225 0 -9.0682706535171565e-05 0.001316126009182465 0 -7.6999172417177689e-05 0.001304233869592225 0 -7.8189992819658157e-05 0.001322471615180561 0 -7.6999172417177689e-05 0.001304233869592225 0 -6.208111954587021e-05 0.0013207420273139217 0 -7.8189992819658157e-05 0.001322471615180561 0 -5.7170521502978886e-05 0.001287016801487049 0 -1.5877777199434656e-05 0.001318609234019342 0 -2.9182780727823739e-05 0.0012605750948430812 0 -7.6999172417177689e-05 0.001304233869592225 0 -6.208111954587021e-05 0.0013207420273139217 0 -5.7170521502978886e-05 0.001287016801487049 0 -6.208111954587021e-05 0.0013207420273139217 0 -5.7170521502978886e-05 0.001287016801487049 0 -1.5877777199434656e-05 0.001318609234019342 0 -1.5877777199434656e-05 0.001318609234019342 0 3.0852048280086216e-05 0.0012869305655302393 0 -2.9182780727823739e-05 0.0012605750948430812 0 -1.5877777199434656e-05 0.001318609234019342 0 3.0852048280086216e-05 0.0012869305655302393 0 7.7165800825322706e-05 0.0013514084058854525 0 3.0852048280086216e-05 0.0012869305655302393 0 2.821419829552022e-05 0.0012384162095913937 0 -2.9182780727823739e-05 0.0012605750948430812 0 5.605852283033645e-05 0.0011651946092715545 0 2.821419829552022e-05 0.0012384162095913937 0 -3.7387226669837813e-05 0.0012009254273720378 0 2.821419829552022e-05 0.0012384162095913937 0 -2.9182780727823739e-05 0.0012605750948430812 0 -3.7387226669837813e-05 0.0012009254273720378 0 -7.7012779164909568e-05 0.001280637214762006 0 -5.7170521502978886e-05 0.001287016801487049 0 -5.9609011442947059e-05 0.001251279697365999 0 -5.7170521502978886e-05 0.001287016801487049 0 -2.9182780727823739e-05 0.0012605750948430812 0 -5.9609011442947059e-05 0.001251279697365999 0 -3.7387226669837813e-05 0.0012009254273720378 0 -5.9609011442947059e-05 0.001251279697365999 0 -6.4576644527101517e-05 0.0012396408579000845 0 -2.9182780727823739e-05 0.0012605750948430812 0 -3.7387226669837813e-05 0.0012009254273720378 0 -5.9609011442947059e-05 0.001251279697365999 0 -7.773818625951765e-05 0.0012626466313402879 0 -5.9609011442947059e-05 0.001251279697365999 0 -6.4576644527101517e-05 0.0012396408579000845 0 -4.2210089126424073e-05 0.0012009246574084041 0 -8.6790690934526689e-05 0.001143513104092699 0 -6.4576644527101517e-05 0.0012396408579000845 0 -7.2027811671711972e-05 0.0012491750474127499 0 -7.8890016217291872e-05 0.0012563599165871199 0 -3.7387226669837813e-05 0.0012009254273720378 0 -6.4576644527101517e-05 0.0012396408579000845 0 -7.2027811671711972e-05 0.0012491750474127499 0 5.605852283033645e-05 0.0011651946092715545 0 -3.7387226669837813e-05 0.0012009254273720378 0 1.1603092256274572e-05 0.0010495094848171401 0 -3.7387226669837813e-05 0.0012009254273720378 0 1.1603092256274572e-05 0.0010495094848171401 0 -0.00011091179630436753 0.0010294673765742612 0 1.1603092256274572e-05 0.0010495094848171401 0 -0.00011091179630436753 0.0010294673765742612 0 -6.074736573250644e-05 0.00094477873741471118 0 2.6231063401421246e-05 0.00093142909849306993 0 1.1603092256274572e-05 0.0010495094848171401 0 -6.074736573250644e-05 0.00094477873741471118 0 -7.2027811671711972e-05 0.0012491750474127499 0 -8.3016416405529977e-05 0.0012560816707186191 0 -8.3212085818583687e-05 0.0012521406364078996 0 -7.2027811671711972e-05 0.0012491750474127499 0 -8.3016416405529977e-05 0.0012560816707186191 0 -7.8890016217291872e-05 0.0012563599165871199 0 -8.3016416405529977e-05 0.0012560816707186191 0 -9.2700827371340863e-05 0.0012612813761048256 0 -9.1532111060117066e-05 0.0012561132379008465 0 -8.3016416405529977e-05 0.0012560816707186191 0 -9.1532111060117066e-05 0.0012561132379008465 0 -8.3212085818583687e-05 0.0012521406364078996 0 -8.3016416405529977e-05 0.0012560816707186191 0 -7.8890016217291872e-05 0.0012563599165871199 0 -9.2700827371340863e-05 0.0012612813761048256 0 -7.773818625951765e-05 0.0012626466313402879 0 -7.8890016217291872e-05 0.0012563599165871199 0 -9.1306333226705923e-05 0.0012759176877378418 0 -7.773818625951765e-05 0.0012626466313402879 0 -6.4576644527101517e-05 0.0012396408579000845 0 -7.8890016217291872e-05 0.0012563599165871199 0 -7.8890016217291872e-05 0.0012563599165871199 0 -9.1306333226705923e-05 0.0012759176877378418 0 -9.932971969419207e-05 0.0012703194957697972 0 -0.00010535647102167814 0.0012878845057073102 0 -9.1306333226705923e-05 0.0012759176877378418 0 -9.932971969419207e-05 0.0012703194957697972 0 -0.00010535647102167814 0.0012878845057073102 0 -9.932971969419207e-05 0.0012703194957697972 0 -0.00011951259936108948 0.0012802450764015883 0 -7.8890016217291872e-05 0.0012563599165871199 0 -9.932971969419207e-05 0.0012703194957697972 0 -9.2700827371340863e-05 0.0012612813761048256 0 -9.932971969419207e-05 0.0012703194957697972 0 -0.0001029978519678676 0.0012633824020188633 0 -0.00011335975668844839 0.0012718739960749211 0 -9.932971969419207e-05 0.0012703194957697972 0 -9.2700827371340863e-05 0.0012612813761048256 0 -0.0001029978519678676 0.0012633824020188633 0 -9.2700827371340863e-05 0.0012612813761048256 0 -0.0001029978519678676 0.0012633824020188633 0 -9.1532111060117066e-05 0.0012561132379008465 0 -0.0001029978519678676 0.0012633824020188633 0 -0.00011043656861868725 0.0012608047421463406 0 -0.00011335975668844839 0.0012718739960749211 0 -0.0001029978519678676 0.0012633824020188633 0 -0.00011043656861868725 0.0012608047421463406 0 -9.851856028241868e-05 0.0012554596073489825 0 -0.00011043656861868725 0.0012608047421463406 0 -9.8064742533960318e-05 0.0012435343061966953 0 -0.00011957071402497529 0.0012424721768761245 0 -0.00011043656861868725 0.0012608047421463406 0 -9.851856028241868e-05 0.0012554596073489825 0 -9.8064742533960318e-05 0.0012435343061966953 0 -9.851856028241868e-05 0.0012554596073489825 0 -9.0397647519856712e-05 0.00125073800981804 0 -9.8064742533960318e-05 0.0012435343061966953 0 -0.0001029978519678676 0.0012633824020188633 0 -9.851856028241868e-05 0.0012554596073489825 0 -9.1532111060117066e-05 0.0012561132379008465 0 -9.851856028241868e-05 0.0012554596073489825 0 -9.1532111060117066e-05 0.0012561132379008465 0 -9.0397647519856712e-05 0.00125073800981804 0 -7.2027811671711972e-05 0.0012491750474127499 0 -8.3212085818583687e-05 0.0012521406364078996 0 -8.2298264380889282e-05 0.0012472463595960327 0 -9.1532111060117066e-05 0.0012561132379008465 0 -8.3212085818583687e-05 0.0012521406364078996 0 -9.0397647519856712e-05 0.00125073800981804 0 -8.2298264380889282e-05 0.0012472463595960327 0 -9.0397647519856712e-05 0.00125073800981804 0 -9.8064742533960318e-05 0.0012435343061966953 0 -8.3212085818583687e-05 0.0012521406364078996 0 -8.2298264380889282e-05 0.0012472463595960327 0 -9.0397647519856712e-05 0.00125073800981804 0 -0.00012772620972302919 0.00090788623709038021 0 -0.00012499721164067567 0.00085175483698893045 0 -0.00019165076342655117 0.00080374326527226183 0 -0.00012499721164067567 0.00085175483698893045 0 -0.00010737916248425407 0.00082458461492501624 0 -0.00019165076342655117 0.00080374326527226183 0 -0.00014692122059915691 0.00080634270853802593 0 -0.00020928194221246237 0.0011060795192111071 0 -8.2298264380889282e-05 0.0012472463595960327 0 -9.8064742533960318e-05 0.0012435343061966953 0 -9.188005532996749e-05 0.0012235984685326335 0 -0.0001097751974160149 0.0010690889658685082 0 -0.00020928194221246237 0.0011060795192111071 0 -0.00014607675353525183 0.00091126965776533052 0 -0.00012772620972302919 0.00090788623709038021 0 -0.00017911357816055722 0.00085608836761153254 0 -0.00020928194221246237 0.0011060795192111071 0 -0.00026921325738703473 0.0013851877533490996 0 -9.8064742533960318e-05 0.0012435343061966953 0 -9.188005532996749e-05 0.0012235984685326335 0 -0.00011957071402497529 0.0012424721768761245 0 -0.00041969150740615402 0.0015609369795907097 0 -0.00054576813123692288 0.0015496077558179006 0 -0.00035038960368354439 0.0014259755729227775 0 2.6231063401421246e-05 0.00093142909849306993 0 -6.074736573250644e-05 0.00094477873741471118 0 -1.1480810458464304e-05 0.00085933687599443166 0 -6.074736573250644e-05 0.00094477873741471118 0 -7.4443334868249089e-05 0.00086993263075910664 0 -1.1480810458464304e-05 0.00085933687599443166 0 -0.00011091179630436753 0.0010294673765742612 0 -0.00014607675353525183 0.00091126965776533052 0 -0.00012772620972302919 0.00090788623709038021 0 -0.00011091179630436753 0.0010294673765742612 0 -6.074736573250644e-05 0.00094477873741471118 0 -0.00012772620972302919 0.00090788623709038021 0 -8.6790690934526689e-05 0.001143513104092699 0 -0.0001097751974160149 0.0010690889658685082 0 -6.074736573250644e-05 0.00094477873741471118 0 -0.00012772620972302919 0.00090788623709038021 0 -7.4443334868249089e-05 0.00086993263075910664 0 -0.00012772620972302919 0.00090788623709038021 0 -0.00012499721164067567 0.00085175483698893045 0 -7.4443334868249089e-05 0.00086993263075910664 0 -0.00012499721164067567 0.00085175483698893045 0 -0.00010737916248425407 0.00082458461492501624 0 -7.4443334868249089e-05 0.00086993263075910664 0 -0.00010737916248425407 0.00082458461492501624 0 -7.4443334868249089e-05 0.00086993263075910664 0 -4.7562063929205723e-05 0.00080628557981714548 0 1.715828399634728e-05 0.00080016755957990483 0 -1.1480810458464304e-05 0.00085933687599443166 0 -4.7562063929205723e-05 0.00080628557981714548 0 -7.4443334868249089e-05 0.00086993263075910664 0 -1.1480810458464304e-05 0.00085933687599443166 0 -4.7562063929205723e-05 0.00080628557981714548 0 1.715828399634728e-05 0.00080016755957990483 0 -8.7772835698493418e-06 0.00075866903705198692 0 -4.7562063929205723e-05 0.00080628557981714548 0 -8.7772835698493418e-06 0.00075866903705198692 0 -4.7562063929205723e-05 0.00080628557981714548 0 -5.5551402819433622e-05 0.00075739089713575331 0 -5.5551402819433622e-05 0.00075739089713575331 0 -9.8525293845634981e-05 0.00078802050855916435 0 -8.9365511051526193e-05 0.00074471106539213583 0 -6.1150117298851739e-05 0.00080296961747927263 0 -1.0883335497855313e-05 0.00084100458418707503 0 -0.00010737916248425407 0.00082458461492501624 0 -4.7562063929205723e-05 0.00080628557981714548 0 -9.8525293845634981e-05 0.00078802050855916435 0 -4.7562063929205723e-05 0.00080628557981714548 0 -5.5551402819433622e-05 0.00075739089713575331 0 -9.8525293845634981e-05 0.00078802050855916435 0 6.7729769605910076e-05 0.00079400496044555475 0 6.2330373132227516e-05 0.0007672061252950367 0 3.6721168998103986e-05 0.00077772278272278221 0 6.7729769605910076e-05 0.00079400496044555475 0 6.2330373132227516e-05 0.0007672061252950367 0 9.7086166559096334e-05 0.00078289074377527147 0 3.9650914998960268e-05 0.0008000578964956445 0 6.7729769605910076e-05 0.00079400496044555475 0 3.6721168998103986e-05 0.00077772278272278221 0 -5.5551402819433622e-05 0.00075739089713575331 0 -7.6755889070109003e-05 0.00074935339005273069 0 -1.3498893895219259e-05 0.00073616155675859782 0 -1.0883335497855313e-05 0.00084100458418707503 0 1.4318030088873857e-05 0.00075848598884625796 0 -8.7772835698493418e-06 0.00075866903705198692 0 -5.5551402819433622e-05 0.00075739089713575331 0 -1.3498893895219259e-05 0.00073616155675859782 0 7.4703999767319275e-06 0.00077628572259424338 0 7.9189843761434603e-06 0.00074861167454223115 0 -1.3498893895219259e-05 0.00073616155675859782 0 5.0135926349267598e-07 0.00077449928292531024 0 1.4318030088873857e-05 0.00075848598884625796 0 7.9189843761434603e-06 0.00074861167454223115 0 -8.7772835698493418e-06 0.00075866903705198692 0 -1.3498893895219259e-05 0.00073616155675859782 0 -0.00023063809881528801 0.0013333442327875208 0 -0.00020928194221246237 0.0011060795192111071 0 -0.00049210531331205106 0.0016307237572118593 0 -0.00041969150740615402 0.0015609369795907097 0 -0.00037911673627237681 0.0016464197601839543 0 -0.00049210531331205106 0.0016307237572118593 0 -0.00041969150740615402 0.0015609369795907097 0 -0.00054576813123692288 0.0015496077558179006 0 -9.8525293845634981e-05 0.00078802050855916435 0 -8.9365511051526193e-05 0.00074471106539213583 0 -0.00019165076342655117 0.00080374326527226183 0 -1.0883335497855313e-05 0.00084100458418707503 0 -0.00020928194221246237 0.0011060795192111071 0 -0.00010737916248425407 0.00082458461492501624 0 -9.8525293845634981e-05 0.00078802050855916435 0 -0.00019165076342655117 0.00080374326527226183 0 -4.2856810018815929e-05 0.0010486503286771076 0 -7.4635937274616839e-05 0.0010695590406181123 0 -6.7760140139669334e-05 0.0010537828037061377 0 -8.3712605565785858e-05 0.001055427834183643 0 -7.4635937274616839e-05 0.0010695590406181123 0 -6.7760140139669334e-05 0.0010537828037061377 0 0.00010660890135481473 0.00080934224716994196 0 6.7729769605910076e-05 0.00079400496044555475 0 9.7086166559096334e-05 0.00078289074377527147 0 -8.3712605565785858e-05 0.001055427834183643 0 -6.7760140139669334e-05 0.0010537828037061377 0 -6.9334864341345551e-05 0.001041528855590208 0 -4.2856810018815929e-05 0.0010486503286771076 0 -6.7760140139669334e-05 0.0010537828037061377 0 -6.9334864341345551e-05 0.001041528855590208 0 -1.0883335497855313e-05 0.00084100458418707503 0 2.4476031368776948e-05 0.00091321174597596138 0 -0.00049210531331205106 0.0016307237572118593 0 -0.00039895595485624327 0.0017699212329020961 0 -0.00037911673627237681 0.0016464197601839543 0 0.00010660890135481473 0.00080934224716994196 0 9.7086166559096334e-05 0.00078289074377527147 0 0.00013596915146301493 0.00080119426298021917 0 -8.3712605565785858e-05 0.001055427834183643 0 -6.9334864341345551e-05 0.001041528855590208 0 -9.4108278710499125e-05 0.0010344211777190888 0 2.4476031368776948e-05 0.00091321174597596138 0 -5.5810961302100113e-05 0.0010856774386282415 0 -0.00023063809881528801 0.0013333442327875208 0 -0.00015610058759726894 0.0013228936290355102 0 -0.00017536748336060513 0.0012869192298850007 0 -0.00018463588668680484 0.0012696151490965194 0 -0.00018158246150144143 0.0012708242558107318 0 -0.00023063809881528801 0.0013333442327875208 0 -5.5810961302100113e-05 0.0010856774386282415 0 -1.3209222328081941e-05 0.000915353233234733 0 -5.5810961302100113e-05 0.0010856774386282415 0 0.00014403418196555899 0.00081935055263010839 0 0.00014336533718707672 0.00080722664082389154 0 0.00013518988086262269 0.00080514233736813225 0 -0.00015610058759726894 0.0013228936290355102 0 -5.5810961302100113e-05 0.0010856774386282415 0 -0.00025129397308513171 0.0018254786844368927 0 -0.00039895595485624327 0.0017699212329020961 0 -0.00031543886856946648 0.0017229722876719151 0 -0.00025129397308513171 0.0018254786844368927 0 -0.00031543886856946648 0.0017229722876719151 0 -0.00024253568372516743 0.0017199860914399224 0 -0.00031543886856946648 0.0017229722876719151 0 -0.00028103845488725184 0.0016403211964537382 0 -0.00024253568372516743 0.0017199860914399224 0 -0.00031543886856946648 0.0017229722876719151 0 -0.00037911673627237681 0.0016464197601839543 0 -0.00028103845488725184 0.0016403211964537382 0 -0.00039895595485624327 0.0017699212329020961 0 -0.00031543886856946648 0.0017229722876719151 0 -0.00037911673627237681 0.0016464197601839543 0 -0.00041969150740615402 0.0015609369795907097 0 -0.00037911673627237681 0.0016464197601839543 0 -0.000339922350213064 0.0015573342814023089 0 -0.00037911673627237681 0.0016464197601839543 0 -0.00028103845488725184 0.0016403211964537382 0 -0.000339922350213064 0.0015573342814023089 0 -0.00028103845488725184 0.0016403211964537382 0 -0.000339922350213064 0.0015573342814023089 0 -0.00024951353234460447 0.0015246991897275308 0 -0.00012460674615860683 0.0015570808567374791 0 -0.00024951353234460447 0.0015246991897275308 0 -0.00018412332649705941 0.0016193114994235297 0 -0.00028103845488725184 0.0016403211964537382 0 -0.00024951353234460447 0.0015246991897275308 0 -0.00018412332649705941 0.0016193114994235297 0 -0.00012460674615860683 0.0015570808567374791 0 -0.00018412332649705941 0.0016193114994235297 0 -9.9282732698103255e-05 0.0016299899149291982 0 -0.00018412332649705941 0.0016193114994235297 0 -0.00015477085711256775 0.0017187520459700368 0 -9.9282732698103255e-05 0.0016299899149291982 0 -0.00018412332649705941 0.0016193114994235297 0 -0.00015477085711256775 0.0017187520459700368 0 -0.00024253568372516743 0.0017199860914399224 0 -0.00028103845488725184 0.0016403211964537382 0 -0.00018412332649705941 0.0016193114994235297 0 -0.00024253568372516743 0.0017199860914399224 0 -0.00025129397308513171 0.0018254786844368927 0 -0.00015477085711256775 0.0017187520459700368 0 -0.00024253568372516743 0.0017199860914399224 0 -0.00025129397308513171 0.0018254786844368927 0 -0.00015477085711256775 0.0017187520459700368 0 -0.00011703786718539391 0.0017958345587926769 0 -3.414967262448599e-05 0.0018146047526708502 0 -0.00011703786718539391 0.0017958345587926769 0 -4.235419108079416e-05 0.0017361397066761326 0 -0.00015477085711256775 0.0017187520459700368 0 -0.00011703786718539391 0.0017958345587926769 0 -4.235419108079416e-05 0.0017361397066761326 0 -0.00015339354904661185 0.0018899694065981059 0 6.9876082222656208e-05 0.0023880295013471949 0 -3.414967262448599e-05 0.0018146047526708502 0 -4.235419108079416e-05 0.0017361397066761326 0 3.7330567737969698e-05 0.0017879081917552967 0 -4.235419108079416e-05 0.0017361397066761326 0 2.8124072649350779e-05 0.0016507948201918436 0 -9.9282732698103255e-05 0.0016299899149291982 0 -4.235419108079416e-05 0.0017361397066761326 0 3.4216519441588279e-05 0.0017891453579971189 0 2.8124072649350779e-05 0.0016507948201918436 0 -0.00015477085711256775 0.0017187520459700368 0 -4.235419108079416e-05 0.0017361397066761326 0 -9.9282732698103255e-05 0.0016299899149291982 0 1.9682021159558022e-05 0.0031956990133085077 0 -4.2970999160370653e-06 0.0031262386246295728 0 8.4337261464858949e-05 0.0031544128756935395 0 1.9682021159558022e-05 0.0031956990133085077 0 -7.660847499598041e-05 0.0031994623170005006 0 -4.2970999160370653e-06 0.0031262386246295728 0 7.5440394575998187e-05 0.0033028779310048969 0 1.9682021159558022e-05 0.0031956990133085077 0 8.4337261464858949e-05 0.0031544128756935395 0 -7.660847499598041e-05 0.0031994623170005006 0 -4.2970999160370653e-06 0.0031262386246295728 0 -7.8895952467763279e-05 0.0030337250020342978 0 6.9876082222656208e-05 0.0023880295013471949 0 -2.3762624869084438e-05 0.0023889247670854205 0 4.9083762975401714e-05 0.0030618567220912834 0 -4.2970999160370653e-06 0.0031262386246295728 0 -7.8895952467763279e-05 0.0030337250020342978 0 4.9083762975401714e-05 0.0030618567220912834 0 -4.2970999160370653e-06 0.0031262386246295728 0 8.4337261464858949e-05 0.0031544128756935395 0 4.9083762975401714e-05 0.0030618567220912834 0 -7.8895952467763279e-05 0.0030337250020342978 0 6.5503503175585439e-05 0.0029525225006806054 0 -7.8895952467763279e-05 0.0030337250020342978 0 -8.0923162034583434e-05 0.0028688327417925054 0 6.5503503175585439e-05 0.0029525225006806054 0 -2.3762624869084438e-05 0.0023889247670854205 0 -0.00010919939538118593 0.0019880103448197757 0 2.8124072649350779e-05 0.0016507948201918436 0 -9.9282732698103255e-05 0.0016299899149291982 0 2.3474161393183505e-05 0.0015246769135302323 0 -9.9282732698103255e-05 0.0016299899149291982 0 -0.00010182066609656057 0.0015744810134353593 0 -8.8761734131873442e-05 0.0015657889272454248 0 -1.7416207187405813e-05 0.0015154810943816066 0 -0.00010919939538118593 0.0019880103448197757 0 -0.00012460674615860683 0.0015570808567374791 0 -9.9282732698103255e-05 0.0016299899149291982 0 -0.00010182066609656057 0.0015744810134353593 0 -0.00012460674615860683 0.0015570808567374791 0 -8.8799382886284339e-05 0.0013266678687673911 0 -0.00018919064113145974 0.0014206018929574901 0 -0.00012460674615860683 0.0015570808567374791 0 -9.8280980573881154e-05 0.0015684803956517205 0 -8.7516640699859358e-05 0.0015828065742079351 0 -0.00012214802003755724 0.0015504268403698121 0 -9.6451427294451072e-05 0.0014701889909257914 0 -9.8280980573881154e-05 0.0015684803956517205 0 -8.8761734131873442e-05 0.0015657889272454248 0 -0.0001034157750452169 0.0015780135740795058 0 -0.00012460674615860683 0.0015570808567374791 0 -0.00010182066609656057 0.0015744810134353593 0 -9.8280980573881154e-05 0.0015684803956517205 0 -0.00010182066609656057 0.0015744810134353593 0 -9.8280980573881154e-05 0.0015684803956517205 0 -8.8761734131873442e-05 0.0015657889272454248 0 -9.8280980573881154e-05 0.0015684803956517205 0 -0.0001034157750452169 0.0015780135740795058 0 -8.7516640699859358e-05 0.0015828065742079351 0 -0.00010423418175105681 0.0017345547310738322 0 -0.00010530318687408904 0.0016806623539420162 0 -4.0941705277061734e-05 0.0016671213953675572 0 -8.0923162034583434e-05 0.0028688327417925054 0 6.5503503175585439e-05 0.0029525225006806054 0 0.000148746339773415 0.0026497449431243407 0 -0.00010919939538118593 0.0019880103448197757 0 3.7130349038024183e-05 0.0022094601009776541 0 -0.00010919939538118593 0.0019880103448197757 0 -0.00010341221190168282 0.0015741670202711333 0 -0.00010530318687408904 0.0016806623539420162 0 -7.4956632992864984e-05 0.0016409704864073103 0 -4.0941705277061734e-05 0.0016671213953675572 0 -0.00010341221190168282 0.0015741670202711333 0 -0.00010102935651612977 0.0016361029259318134 0 -0.00010530318687408904 0.0016806623539420162 0 -7.4956632992864984e-05 0.0016409704864073103 0 -9.9665365370605409e-05 0.0016167055261335694 0 -0.0001034157750452169 0.0015780135740795058 0 -8.7516640699859358e-05 0.0015828065742079351 0 -9.9665365370605409e-05 0.0016167055261335694 0 -9.6451427294451072e-05 0.0014701889909257914 0 -0.00011275885119380916 0.0014221765583183627 0 -8.8799382886284339e-05 0.0013266678687673911 0 -0.00014949181229170853 0.0012955200635366905 0 -0.00013199248793391801 0.0012876807743377485 0 -0.00014949181229170853 0.0012955200635366905 0 -0.00013574056413424501 0.0012810487818675955 0 -0.00013883817086607125 0.0012832813353872534 0 -0.00014949181229170853 0.0012955200635366905 0 -0.00013574056413424501 0.0012810487818675955 0 -0.00012467321348738606 0.0012670589654522764 0 -0.00013548856462783604 0.0012775961047046236 0 -0.00026921325738703473 0.0013851877533490996 0 -8.8799382886284339e-05 0.0013266678687673911 0 -0.00014949181229170853 0.0012955200635366905 0 -0.00018919064113145974 0.0014206018929574901 0 -0.00014949181229170853 0.0012955200635366905 0 -0.00012467321348738606 0.0012670589654522764 0 -0.00011957071402497529 0.0012424721768761245 0 -0.00013574056413424501 0.0012810487818675955 0 -0.00012467321348738606 0.0012670589654522764 0 -0.00012622746947257062 0.0012755913251016665 0 -0.00011043656861868725 0.0012608047421463406 0 -0.00012467321348738606 0.0012670589654522764 0 -0.00012622746947257062 0.0012755913251016665 0 -0.00011043656861868725 0.0012608047421463406 0 -0.00012467321348738606 0.0012670589654522764 0 -0.00011957071402497529 0.0012424721768761245 0 -0.00041969150740615402 0.0015609369795907097 0 -0.000339922350213064 0.0015573342814023089 0 -0.00035038960368354439 0.0014259755729227775 0 -0.000339922350213064 0.0015573342814023089 0 -0.00024951353234460447 0.0015246991897275308 0 -0.00035038960368354439 0.0014259755729227775 0 -0.00024951353234460447 0.0015246991897275308 0 -0.00035038960368354439 0.0014259755729227775 0 -0.00018919064113145974 0.0014206018929574901 0 -0.00014949181229170853 0.0012955200635366905 0 -0.00035038960368354439 0.0014259755729227775 0 -0.00018919064113145974 0.0014206018929574901 0 -0.00012460674615860683 0.0015570808567374791 0 -0.00024951353234460447 0.0015246991897275308 0 -0.00018919064113145974 0.0014206018929574901 0 0.00057968160214388247 0.0030129934588557822 0 0.00070024007641639261 0.0028443275841202381 0 0.0007805592967713293 0.0030467798945098827 0 0.00057968160214388247 0.0030129934588557822 0 0.00055741350477872781 0.0028427178253049284 0 0.00070024007641639261 0.0028443275841202381 0 0.00057968160214388247 0.0030129934588557822 0 0.00065915302726279098 0.0031757648956546717 0 0.0007805592967713293 0.0030467798945098827 0 0.00057968160214388247 0.0030129934588557822 0 0.00065915302726279098 0.0031757648956546717 0 0.00051734644021238913 0.0032123612023360754 0 0.00039704635650333908 0.0032873081675661615 0 0.00051734644021238913 0.0032123612023360754 0 0.00042205293037748097 0.0030767572679065189 0 0.00057968160214388247 0.0030129934588557822 0 0.00051734644021238913 0.0032123612023360754 0 0.00042205293037748097 0.0030767572679065189 0 0.00057968160214388247 0.0030129934588557822 0 0.00042205293037748097 0.0030767572679065189 0 0.00043269521665060179 0.002895446596641895 0 0.00057968160214388247 0.0030129934588557822 0 0.00043269521665060179 0.002895446596641895 0 0.00055741350477872781 0.0028427178253049284 0 0.00043269521665060179 0.002895446596641895 0 0.00031609512506764674 0.0029847329110626007 0 0.0002437345566313698 0.0028549361977364095 0 0.00042205293037748097 0.0030767572679065189 0 0.00043269521665060179 0.002895446596641895 0 0.00031609512506764674 0.0029847329110626007 0 0.00031609512506764674 0.0029847329110626007 0 0.00017914750200811479 0.0030426677352730137 0 0.0002437345566313698 0.0028549361977364095 0 0.00031609512506764674 0.0029847329110626007 0 0.0003050876290215923 0.0031168250284680488 0 0.00017914750200811479 0.0030426677352730137 0 0.00039704635650333908 0.0032873081675661615 0 0.00042205293037748097 0.0030767572679065189 0 0.0003050876290215923 0.0031168250284680488 0 0.00039704635650333908 0.0032873081675661615 0 0.0003050876290215923 0.0031168250284680488 0 0.0002113579858232866 0.0031941618466646325 0 0.00042205293037748097 0.0030767572679065189 0 0.00031609512506764674 0.0029847329110626007 0 0.0003050876290215923 0.0031168250284680488 0 0.0003050876290215923 0.0031168250284680488 0 0.0002113579858232866 0.0031941618466646325 0 0.00017914750200811479 0.0030426677352730137 0 0.0002113579858232866 0.0031941618466646325 0 8.4337261464858949e-05 0.0031544128756935395 0 0.00017914750200811479 0.0030426677352730137 0 7.5440394575998187e-05 0.0033028779310048969 0 0.0002113579858232866 0.0031941618466646325 0 8.4337261464858949e-05 0.0031544128756935395 0 4.9083762975401714e-05 0.0030618567220912834 0 8.4337261464858949e-05 0.0031544128756935395 0 0.00017914750200811479 0.0030426677352730137 0 4.9083762975401714e-05 0.0030618567220912834 0 0.00017914750200811479 0.0030426677352730137 0 6.5503503175585439e-05 0.0029525225006806054 0 0.00017914750200811479 0.0030426677352730137 0 6.5503503175585439e-05 0.0029525225006806054 0 0.0002437345566313698 0.0028549361977364095 0 6.5503503175585439e-05 0.0029525225006806054 0 0.000148746339773415 0.0026497449431243407 0 0.0002437345566313698 0.0028549361977364095 0 -7.4956632992864984e-05 0.0016409704864073103 0 -4.0941705277061734e-05 0.0016671213953675572 0 -5.9067972860337932e-05 0.001622544735378452 0 0.000148746339773415 0.0026497449431243407 0 0.00037638505514473787 0.0026078548588259389 0 0.00033486220053297863 0.0027434618183989601 0 0.000148746339773415 0.0026497449431243407 0 0.00037638505514473787 0.0026078548588259389 0 0.00037881431605106997 0.0024234704407679443 0 0.00043269521665060179 0.002895446596641895 0 0.0002437345566313698 0.0028549361977364095 0 0.00033486220053297863 0.0027434618183989601 0 0.000148746339773415 0.0026497449431243407 0 0.0002437345566313698 0.0028549361977364095 0 0.00033486220053297863 0.0027434618183989601 0 0.00043269521665060179 0.002895446596641895 0 0.00033486220053297863 0.0027434618183989601 0 0.00047467789893901872 0.0027103277309730926 0 0.00043269521665060179 0.002895446596641895 0 0.00055741350477872781 0.0028427178253049284 0 0.00047467789893901872 0.0027103277309730926 0 0.00055741350477872781 0.0028427178253049284 0 0.00047467789893901872 0.0027103277309730926 0 0.00060459562552469658 0.0026970319844222767 0 0.00037638505514473787 0.0026078548588259389 0 0.00033486220053297863 0.0027434618183989601 0 0.00047467789893901872 0.0027103277309730926 0 0.00037638505514473787 0.0026078548588259389 0 0.00047467789893901872 0.0027103277309730926 0 0.00052358228822425802 0.0025057564056026626 0 0.00047467789893901872 0.0027103277309730926 0 0.00060459562552469658 0.0026970319844222767 0 0.00052358228822425802 0.0025057564056026626 0 0.00060459562552469658 0.0026970319844222767 0 0.0006695075641820874 0.0025846791678466566 0 0.00052358228822425802 0.0025057564056026626 0 0.00063973368719857189 0.0025622273239254605 0 0.00052616432375381778 0.0024811748644362193 0 0.0006695075641820874 0.0025846791678466566 0 0.0007072001516385143 0.0026929710254380208 0 0.00076739268955208328 0.0025953859698086001 0 0.00060459562552469658 0.0026970319844222767 0 0.0006695075641820874 0.0025846791678466566 0 0.0007072001516385143 0.0026929710254380208 0 0.00060459562552469658 0.0026970319844222767 0 0.0007072001516385143 0.0026929710254380208 0 0.00070024007641639261 0.0028443275841202381 0 0.00055741350477872781 0.0028427178253049284 0 0.00060459562552469658 0.0026970319844222767 0 0.00070024007641639261 0.0028443275841202381 0 0.00057241567581646253 0.0020720568248966723 0 0.00060131022701401672 0.0018003423497440696 0 0.00078015688483348443 0.0021785842584061393 0 0.00057241567581646253 0.0020720568248966723 0 0.00064577837276140048 0.0023528621541214212 0 0.00078015688483348443 0.0021785842584061393 0 0.00057241567581646253 0.0020720568248966723 0 0.00064577837276140048 0.0023528621541214212 0 0.00039932419592712305 0.0021396955847384513 0 0.00064577837276140048 0.0023528621541214212 0 0.00076739268955208328 0.0025953859698086001 0 0.00078015688483348443 0.0021785842584061393 0 0.0006695075641820874 0.0025846791678466566 0 0.00064577837276140048 0.0023528621541214212 0 0.00076739268955208328 0.0025953859698086001 0 0.0006695075641820874 0.0025846791678466566 0 0.00064577837276140048 0.0023528621541214212 0 0.00045625078487481131 0.0024350249226539021 0 0.00064577837276140048 0.0023528621541214212 0 0.00045625078487481131 0.0024350249226539021 0 0.00039932419592712305 0.0021396955847384513 0 0.00045625078487481131 0.0024350249226539021 0 0.00039932419592712305 0.0021396955847384513 0 0.00023189055377563592 0.0022957381623810468 0 0.00037638505514473787 0.0026078548588259389 0 0.00052358228822425802 0.0025057564056026626 0 0.00037881431605106997 0.0024234704407679443 0 0.00052616432375381778 0.0024811748644362193 0 0.00024467335381387495 0.0020608216323992411 0 0.00032855092930386161 0.0021525864280109749 0 0.00024467335381387495 0.0020608216323992411 0 0.00039932419592712305 0.0021396955847384513 0 0.00026679723124103651 0.0020618983851440442 0 0.00029362050759281714 0.0022219582904560485 0 0.00057241567581646253 0.0020720568248966723 0 0.00039932419592712305 0.0021396955847384513 0 0.0004404040316346988 0.0019297401794724685 0 0.00039932419592712305 0.0021396955847384513 0 0.00026679723124103651 0.0020618983851440442 0 0.0004404040316346988 0.0019297401794724685 0 0.00026679723124103651 0.0020618983851440442 0 8.239847035236584e-05 0.0020741768313309035 0 0.00024773638850923089 0.0018867915236005469 0 0.00024467335381387495 0.0020608216323992411 0 7.9086893051897733e-06 0.0018283472776831561 0 0.00026679723124103651 0.0020618983851440442 0 0.00029362050759281714 0.0022219582904560485 0 8.239847035236584e-05 0.0020741768313309035 0 1.0470368988268982e-05 0.0016204535416956421 0 -3.1104526200490718e-05 0.001625456194434485 0 -3.5324339560266531e-05 0.00159287706230863 0 3.7130349038024183e-05 0.0022094601009776541 0 0.00024467335381387495 0.0020608216323992411 0 -4.0941705277061734e-05 0.0016671213953675572 0 1.0470368988268982e-05 0.0016204535416956421 0 -3.1104526200490718e-05 0.001625456194434485 0 -3.1104526200490718e-05 0.001625456194434485 0 -5.9067972860337932e-05 0.001622544735378452 0 -3.5324339560266531e-05 0.00159287706230863 0 -4.0941705277061734e-05 0.0016671213953675572 0 -3.1104526200490718e-05 0.001625456194434485 0 -5.9067972860337932e-05 0.001622544735378452 0 -5.9067972860337932e-05 0.001622544735378452 0 -3.5324339560266531e-05 0.00159287706230863 0 -7.1874204760115733e-05 0.0016064976491823259 0 -3.5324339560266531e-05 0.00159287706230863 0 -7.1874204760115733e-05 0.0016064976491823259 0 -8.1144800470828938e-05 0.0015671875134078471 0 7.9086893051897733e-06 0.0018283472776831561 0 -8.1920303090665577e-05 0.0016045905837724387 0 8.239847035236584e-05 0.0020741768313309035 0 8.3818718452607265e-05 0.0018295865460450714 0 -0.00012061337481771157 0.0019247142720111429 0 8.3818718452607265e-05 0.0018295865460450714 0 -0.00012061337481771157 0.0019247142720111429 0 -3.3123422001007091e-05 0.0017306327356699802 0 8.3818718452607265e-05 0.0018295865460450714 0 5.021792849481172e-05 0.0016792586366042852 0 -3.3123422001007091e-05 0.0017306327356699802 0 5.021792849481172e-05 0.0016792586366042852 0 -3.3123422001007091e-05 0.0017306327356699802 0 -1.6785212766490359e-05 0.001678539786958608 0 5.021792849481172e-05 0.0016792586366042852 0 -1.6785212766490359e-05 0.001678539786958608 0 1.7869193223755325e-06 0.0016433345548812601 0 5.021792849481172e-05 0.0016792586366042852 0 4.0074778276649368e-05 0.0016463292123940659 0 1.7869193223755325e-06 0.0016433345548812601 0 5.021792849481172e-05 0.0016792586366042852 0 7.728954143498399e-05 0.0016476367213924836 0 4.0074778276649368e-05 0.0016463292123940659 0 0.00018569139321159128 0.001576320127173554 0 7.9108941155648521e-05 0.002256921120812752 0 8.3818718452607265e-05 0.0018295865460450714 0 5.021792849481172e-05 0.0016792586366042852 0 0.00020850013672338622 0.0017133775415961862 0 0.00020850013672338622 0.0017133775415961862 0 0.00024773638850923089 0.0018867915236005469 0 0.00038486511819106931 0.0016693559717851584 0 0.00020850013672338622 0.0017133775415961862 0 0.00038486511819106931 0.0016693559717851584 0 0.00018954686506246691 0.0015454625137658277 0 0.00023815310404062202 0.0020902441824641217 0 7.9108941155648521e-05 0.002256921120812752 0 5.021792849481172e-05 0.0016792586366042852 0 0.00020850013672338622 0.0017133775415961862 0 0.00018954686506246691 0.0015454625137658277 0 8.239847035236584e-05 0.0020741768313309035 0 8.3818718452607265e-05 0.0018295865460450714 0 0.00024773638850923089 0.0018867915236005469 0 8.3818718452607265e-05 0.0018295865460450714 0 0.00020850013672338622 0.0017133775415961862 0 0.00024773638850923089 0.0018867915236005469 0 0.0004404040316346988 0.0019297401794724685 0 0.00038486511819106931 0.0016693559717851584 0 0.00060131022701401672 0.0018003423497440696 0 0.00024773638850923089 0.0018867915236005469 0 0.0004404040316346988 0.0019297401794724685 0 0.00038486511819106931 0.0016693559717851584 0 0.00026679723124103651 0.0020618983851440442 0 0.00024773638850923089 0.0018867915236005469 0 0.0004404040316346988 0.0019297401794724685 0 0.00023815310404062202 0.0020902441824641217 0 0.00021851474850834946 0.0025326077392815545 0 0.00010659495204100541 0.0025707936841639772 0 2.1562555296615806e-05 0.002511977482885651 0 5.9658350296790893e-05 0.0026165609093184963 0 0.00010659495204100541 0.0025707936841639772 0 5.9658350296790893e-05 0.0026165609093184963 0 0.00012080098072162153 0.0026375488642429281 0 0.00021851474850834946 0.0025326077392815545 0 4.2733179579433672e-05 0.0029059107562970131 0 4.2219598011295563e-05 0.0031734354348507843 0 2.6231372301946698e-05 0.0031528008620932023 0 4.75091179716705e-05 0.0031659358679560546 0 4.2219598011295563e-05 0.0031734354348507843 0 3.6116779491360325e-05 0.0031756935602442358 0 2.6231372301946698e-05 0.0031528008620932023 0 0.00012791866920815019 0.0032426377306055392 0 0.00010035406788853405 0.0034402495849521386 0 0.00021851474850834946 0.0025326077392815545 0 0.00032328964787060118 0.0035302807013744015 0 0.00021851474850834946 0.0025326077392815545 0 0.00063465389737155998 0.0028917980683326461 0 4.2219598011295563e-05 0.0031734354348507843 0 5.063844679144195e-05 0.0031644777889248323 0 5.21766111337393e-05 0.0031887793279901412 0 0.00036533111972022141 0.0028317012839240647 0 0.00046637834446027756 0.0030699010998281309 0 0.00046202243686070519 0.0028970026374340752 0 4.2219598011295563e-05 0.0031734354348507843 0 3.6116779491360325e-05 0.0031756935602442358 0 5.21766111337393e-05 0.0031887793279901412 0 0.00057241567581646253 0.0020720568248966723 0 0.0004404040316346988 0.0019297401794724685 0 0.00060131022701401672 0.0018003423497440696 0 -0.00013616820021523804 0.0012871105318369141 0 -0.00014680654264041934 0.0012962121233067378 0 -0.00014396918220722408 0.001302892372997567 0 -0.00013616820021523804 0.0012871105318369141 0 -0.00012514038471194113 0.0012960958143083906 0 -0.00014396918220722408 0.001302892372997567 0 -0.00010535647102167814 0.0012878845057073102 0 -0.00012514038471194113 0.0012960958143083906 0 -0.00011951259936108948 0.0012802450764015883 0 -0.00013616820021523804 0.0012871105318369141 0 -0.00012514038471194113 0.0012960958143083906 0 -0.00011951259936108948 0.0012802450764015883 0 -0.00013616820021523804 0.0012871105318369141 0 -0.00011951259936108948 0.0012802450764015883 0 -0.00012622746947257062 0.0012755913251016665 0 -9.932971969419207e-05 0.0012703194957697972 0 -0.00011951259936108948 0.0012802450764015883 0 -0.00011335975668844839 0.0012718739960749211 0 -0.00011951259936108948 0.0012802450764015883 0 -0.00011335975668844839 0.0012718739960749211 0 -0.00012622746947257062 0.0012755913251016665 0 -0.00011043656861868725 0.0012608047421463406 0 -0.00011335975668844839 0.0012718739960749211 0 -0.00012622746947257062 0.0012755913251016665 0 -0.00013574056413424501 0.0012810487818675955 0 -0.00012622746947257062 0.0012755913251016665 0 -0.00013883817086607125 0.0012832813353872534 0 -0.00013616820021523804 0.0012871105318369141 0 -0.00012622746947257062 0.0012755913251016665 0 -0.00013883817086607125 0.0012832813353872534 0 -0.00013616820021523804 0.0012871105318369141 0 -0.00013883817086607125 0.0012832813353872534 0 -0.00013854499357734835 0.0012857518248394193 0 -0.00014949181229170853 0.0012955200635366905 0 -0.00013883817086607125 0.0012832813353872534 0 -0.00013199248793391801 0.0012876807743377485 0 -0.00013883817086607125 0.0012832813353872534 0 -0.00013199248793391801 0.0012876807743377485 0 -0.00013854499357734835 0.0012857518248394193 0 -8.7516640699859358e-05 0.0015828065742079351 0 -9.9665365370605409e-05 0.0016167055261335694 0 -9.7866180529268713e-05 0.0016240150154877898 0 -8.8799382886284339e-05 0.0013266678687673911 0 -0.00013199248793391801 0.0012876807743377485 0 -0.00013814261908880678 0.0012823734533095028 0 -0.00013199248793391801 0.0012876807743377485 0 -0.00013854499357734835 0.0012857518248394193 0 -0.00013814261908880678 0.0012823734533095028 0 -7.4956632992864984e-05 0.0016409704864073103 0 -5.9067972860337932e-05 0.001622544735378452 0 -8.3182417456140176e-05 0.001621788488650225 0 -7.4956632992864984e-05 0.0016409704864073103 0 -8.3182417456140176e-05 0.001621788488650225 0 -9.9665365370605409e-05 0.0016167055261335694 0 -8.3182417456140176e-05 0.001621788488650225 0 -9.9665365370605409e-05 0.0016167055261335694 0 -9.7866180529268713e-05 0.0016240150154877898 0 -8.3182417456140176e-05 0.001621788488650225 0 -9.7866180529268713e-05 0.0016240150154877898 0 -7.1874204760115733e-05 0.0016064976491823259 0 -5.9067972860337932e-05 0.001622544735378452 0 -8.3182417456140176e-05 0.001621788488650225 0 -7.1874204760115733e-05 0.0016064976491823259 0 -9.7866180529268713e-05 0.0016240150154877898 0 -7.1874204760115733e-05 0.0016064976491823259 0 -8.1144800470828938e-05 0.0015671875134078471 0 -0.00011275885119380916 0.0014221765583183627 0 -8.1920303090665577e-05 0.0016045905837724387 0 -0.00013814261908880678 0.0012823734533095028 0 -0.00014680654264041934 0.0012962121233067378 0 -0.00015844943804231099 0.0013028633861542919 0 -0.00013616820021523804 0.0012871105318369141 0 -0.00013854499357734835 0.0012857518248394193 0 -0.00014680654264041934 0.0012962121233067378 0 -0.00013854499357734835 0.0012857518248394193 0 -0.00013814261908880678 0.0012823734533095028 0 -0.00014680654264041934 0.0012962121233067378 0 -0.00014680654264041934 0.0012962121233067378 0 -0.00015675559820227177 0.0013159915578251627 0 -0.00015844943804231099 0.0013028633861542919 0 -0.00011373273256343256 0.0014911734151703594 0 -8.1920303090665577e-05 0.0016045905837724387 0 -0.00014680654264041934 0.0012962121233067378 0 -0.00015675559820227177 0.0013159915578251627 0 -0.00014396918220722408 0.001302892372997567 0 -6.0076666814975949e-05 0.0016853882636840305 0 -3.54729760121561e-05 0.0017236184412610794 0 -4.1461029481619221e-05 0.0016946850310156321 0 -3.54729760121561e-05 0.0017236184412610794 0 -3.3123422001007091e-05 0.0017306327356699802 0 -4.1461029481619221e-05 0.0016946850310156321 0 -8.1920303090665577e-05 0.0016045905837724387 0 -6.8539343854955199e-05 0.0017983875761924954 0 -3.3123422001007091e-05 0.0017306327356699802 0 -4.1461029481619221e-05 0.0016946850310156321 0 -1.6785212766490359e-05 0.001678539786958608 0 -4.1461029481619221e-05 0.0016946850310156321 0 -3.1921192069137153e-05 0.0016555343634053164 0 -1.6785212766490359e-05 0.001678539786958608 0 -4.1461029481619221e-05 0.0016946850310156321 0 -3.1921192069137153e-05 0.0016555343634053164 0 -4.9978584720302831e-05 0.0016521723786903318 0 -3.1921192069137153e-05 0.0016555343634053164 0 -1.6785212766490359e-05 0.001678539786958608 0 1.7869193223755325e-06 0.0016433345548812601 0 -6.0076666814975949e-05 0.0016853882636840305 0 -4.9978584720302831e-05 0.0016521723786903318 0 -6.2899629218239817e-05 0.001635662669181458 0 -6.0076666814975949e-05 0.0016853882636840305 0 -4.1461029481619221e-05 0.0016946850310156321 0 -4.9978584720302831e-05 0.0016521723786903318 0 -4.9978584720302831e-05 0.0016521723786903318 0 -6.2899629218239817e-05 0.001635662669181458 0 -5.6061012321894133e-05 0.0016239133059753519 0 -0.00011373273256343256 0.0014911734151703594 0 -0.00010336794172544422 0.0015061349341204061 0 -6.0076666814975949e-05 0.0016853882636840305 0 -6.2899629218239817e-05 0.001635662669181458 0 -7.6758643799873925e-05 0.0016178184602872155 0 -6.2899629218239817e-05 0.001635662669181458 0 -7.6758643799873925e-05 0.0016178184602872155 0 -6.7089028721331067e-05 0.0016071813851741236 0 -0.00015675559820227177 0.0013159915578251627 0 -0.000142453009556904 0.0013208878991654315 0 -0.00014396918220722408 0.001302892372997567 0 -0.00015675559820227177 0.0013159915578251627 0 -0.000142453009556904 0.0013208878991654315 0 -0.00015519769058407326 0.0013796017347327235 0 -0.00012514038471194113 0.0012960958143083906 0 -0.000142453009556904 0.0013208878991654315 0 -0.00014396918220722408 0.001302892372997567 0 -0.00010535647102167814 0.0012878845057073102 0 -0.00012514038471194113 0.0012960958143083906 0 -0.0001040503693074735 0.0013210347535211775 0 -0.00012514038471194113 0.0012960958143083906 0 -0.000142453009556904 0.0013208878991654315 0 -0.0001040503693074735 0.0013210347535211775 0 -0.00010336794172544422 0.0015061349341204061 0 -4.432530315629732e-05 0.0015389222089900823 0 -0.0001040503693074735 0.0013210347535211775 0 -0.00015519769058407326 0.0013796017347327235 0 -4.5624089233870187e-05 0.0015380924966672347 0 -0.000142453009556904 0.0013208878991654315 0 -0.0001040503693074735 0.0013210347535211775 0 -0.00015519769058407326 0.0013796017347327235 0 -7.6758643799873925e-05 0.0016178184602872155 0 -6.4669968743226669e-05 0.0015811864927470828 0 -4.5624089233870187e-05 0.0015380924966672347 0 -6.4669968743226669e-05 0.0015811864927470828 0 -4.5624089233870187e-05 0.0015380924966672347 0 -5.2656412264309915e-05 0.0015653567094788599 0 -7.6758643799873925e-05 0.0016178184602872155 0 -6.4669968743226669e-05 0.0015811864927470828 0 -6.7089028721331067e-05 0.0016071813851741236 0 -6.4669968743226669e-05 0.0015811864927470828 0 -5.5479610065626118e-05 0.0015793783207952315 0 -6.4309276969215436e-05 0.0015923067797540028 0 -6.4669968743226669e-05 0.0015811864927470828 0 -6.4309276969215436e-05 0.0015923067797540028 0 -6.7089028721331067e-05 0.0016071813851741236 0 -6.4669968743226669e-05 0.0015811864927470828 0 -5.5479610065626118e-05 0.0015793783207952315 0 -5.2656412264309915e-05 0.0015653567094788599 0 -6.4309276969215436e-05 0.0015923067797540028 0 -5.5732412623775189e-05 0.0015964368107306104 0 -6.2877954144291369e-05 0.0015978903188432719 0 -5.5479610065626118e-05 0.0015793783207952315 0 -5.5732412623775189e-05 0.0015964368107306104 0 -4.0148829967859836e-05 0.0015784474809969202 0 -5.5479610065626118e-05 0.0015793783207952315 0 -6.4309276969215436e-05 0.0015923067797540028 0 -5.5732412623775189e-05 0.0015964368107306104 0 -6.2877954144291369e-05 0.0015978903188432719 0 -5.450380592470357e-05 0.0016039858098374706 0 -6.3855313103552923e-05 0.0015992161101384065 0 -6.4309276969215436e-05 0.0015923067797540028 0 -6.2877954144291369e-05 0.0015978903188432719 0 -6.278162561297952e-05 0.0016035216388649678 0 -6.2877954144291369e-05 0.0015978903188432719 0 -6.278162561297952e-05 0.0016035216388649678 0 -5.450380592470357e-05 0.0016039858098374706 0 -6.278162561297952e-05 0.0016035216388649678 0 -6.7089028721331067e-05 0.0016071813851741236 0 -5.6061012321894133e-05 0.0016239133059753519 0 -6.4309276969215436e-05 0.0015923067797540028 0 -6.278162561297952e-05 0.0016035216388649678 0 -6.7089028721331067e-05 0.0016071813851741236 0 -6.2899629218239817e-05 0.001635662669181458 0 -6.7089028721331067e-05 0.0016071813851741236 0 -5.6061012321894133e-05 0.0016239133059753519 0 -4.9978584720302831e-05 0.0016521723786903318 0 -5.6061012321894133e-05 0.0016239133059753519 0 -3.8017959648743255e-05 0.0016224859912066048 0 -5.6061012321894133e-05 0.0016239133059753519 0 -3.8017959648743255e-05 0.0016224859912066048 0 -5.450380592470357e-05 0.0016039858098374706 0 -6.278162561297952e-05 0.0016035216388649678 0 -5.6061012321894133e-05 0.0016239133059753519 0 -5.450380592470357e-05 0.0016039858098374706 0 -3.1921192069137153e-05 0.0016555343634053164 0 -1.9205214982676063e-05 0.0016336419053816068 0 1.7869193223755325e-06 0.0016433345548812601 0 -3.1921192069137153e-05 0.0016555343634053164 0 -4.9978584720302831e-05 0.0016521723786903318 0 -3.8017959648743255e-05 0.0016224859912066048 0 -3.1921192069137153e-05 0.0016555343634053164 0 -1.9205214982676063e-05 0.0016336419053816068 0 -3.8017959648743255e-05 0.0016224859912066048 0 -1.9205214982676063e-05 0.0016336419053816068 0 -3.8017959648743255e-05 0.0016224859912066048 0 -8.7005523839556962e-06 0.0016159948009811394 0 -1.9205214982676063e-05 0.0016336419053816068 0 -8.7005523839556962e-06 0.0016159948009811394 0 1.7869193223755325e-06 0.0016433345548812601 0 -8.7005523839556962e-06 0.0016159948009811394 0 -3.1161102015228081e-05 0.0015975136139428933 0 2.0187467857501938e-05 0.0016144549759476495 0 -3.8064729077187925e-05 0.0022065781803486642 0 1.5260004828314697e-06 0.0023933145679194668 0 -0.00014459875650527218 0.001584707265407169 0 -3.8064729077187925e-05 0.0022065781803486642 0 -3.8017959648743255e-05 0.0016224859912066048 0 -8.7005523839556962e-06 0.0016159948009811394 0 -3.1524138028239342e-05 0.0015992233991423239 0 -3.8017959648743255e-05 0.0016224859912066048 0 -3.1524138028239342e-05 0.0015992233991423239 0 -5.450380592470357e-05 0.0016039858098374706 0 -3.1524138028239342e-05 0.0015992233991423239 0 -5.450380592470357e-05 0.0016039858098374706 0 -6.3855313103552923e-05 0.0015992161101384065 0 -0.00011909686015978583 0.0022763594127922743 0 -8.0023566620805522e-05 0.0023392444378017253 0 -6.1594294654396579e-05 0.0023182749370666087 0 -3.8064729077187925e-05 0.0022065781803486642 0 -7.4853395330781413e-05 0.0019258483552702084 0 -3.8064729077187925e-05 0.0022065781803486642 0 -5.9246147566819287e-05 0.0028253786076449651 0 -7.7872031832151663e-05 0.0031129102350269011 0 -4.2226129935801971e-05 0.0031150850502034136 0 -7.3494458579195936e-05 0.0030917346872097727 0 -5.320622903800449e-05 0.0031226605068975792 0 -7.7872031832151663e-05 0.0031129102350269011 0 -4.2226129935801971e-05 0.0031150850502034136 0 -5.6480030548543643e-05 0.003130722536991423 0 -5.320622903800449e-05 0.0031226605068975792 0 -3.8509022686774646e-05 0.003130025049709096 0 -5.6480030548543643e-05 0.003130722536991423 0 -5.320622903800449e-05 0.0031226605068975792 0 -7.7872031832151663e-05 0.0031129102350269011 0 -7.7872031832151663e-05 0.0031129102350269011 0 -9.9243995038482516e-05 0.0030842736112023251 0 -7.3494458579195936e-05 0.0030917346872097727 0 -4.2214775931851966e-05 0.0023560181097538094 0 -2.4736371452284891e-07 0.002358618671424775 0 -6.1594294654396579e-05 0.0023182749370666087 0 -8.0023566620805522e-05 0.0023392444378017253 0 -4.2214775931851966e-05 0.0023560181097538094 0 -3.8539116919763264e-05 0.0024027927861460271 0 -5.9246147566819287e-05 0.0028253786076449651 0 -0.00010181607194531745 0.0027024045718715499 0 -4.2214775931851966e-05 0.0023560181097538094 0 -2.4736371452284891e-07 0.002358618671424775 0 -3.8539116919763264e-05 0.0024027927861460271 0 -3.7593260207101685e-05 0.0019306780377086308 0 -7.4853395330781413e-05 0.0019258483552702084 0 -8.0023566620805522e-05 0.0023392444378017253 0 -4.2214775931851966e-05 0.0023560181097538094 0 -6.1594294654396579e-05 0.0023182749370666087 0 -5.5732412623775189e-05 0.0015964368107306104 0 -5.274942527490712e-05 0.0016190806521181023 0 -6.3855313103552923e-05 0.0015992161101384065 0 -5.5732412623775189e-05 0.0015964368107306104 0 -5.274942527490712e-05 0.0016190806521181023 0 -3.5391973572735546e-05 0.0016081488842697811 0 -5.5732412623775189e-05 0.0015964368107306104 0 -6.2877954144291369e-05 0.0015978903188432719 0 -6.3855313103552923e-05 0.0015992161101384065 0 3.1253713499365236e-05 0.0031216039238542879 0 4.4609628942810836e-05 0.0031361269471118993 0 4.3199253158033861e-05 0.0031103852469493987 0 3.0849566369088736e-05 0.0031393970459161857 0 3.1253713499365236e-05 0.0031216039238542879 0 4.4609628942810836e-05 0.0031361269471118993 0 3.0849566369088736e-05 0.0031393970459161857 0 4.75091179716705e-05 0.0031659358679560546 0 4.4609628942810836e-05 0.0031361269471118993 0 3.0849566369088736e-05 0.0031393970459161857 0 2.6231372301946698e-05 0.0031528008620932023 0 4.75091179716705e-05 0.0031659358679560546 0 4.2733179579433672e-05 0.0029059107562970131 0 -1.7265996938894073e-05 0.0030854884740578485 0 3.0849566369088736e-05 0.0031393970459161857 0 2.6231372301946698e-05 0.0031528008620932023 0 1.8216176830559194e-05 0.0031328068842432031 0 5.9658350296790893e-05 0.0026165609093184963 0 0.00012080098072162153 0.0026375488642429281 0 0.00010064543900865686 0.0027266625245422472 0 -2.4570136878159859e-05 0.0031435903755966089 0 -2.673680156263488e-05 0.0031383191955263738 0 -1.6051252300211877e-05 0.0031424849696284544 0 3.0849566369088736e-05 0.0031393970459161857 0 1.8216176830559194e-05 0.0031328068842432031 0 3.1253713499365236e-05 0.0031216039238542879 0 -2.7948725742786746e-05 0.0031361887820309563 0 -2.673680156263488e-05 0.0031383191955263738 0 -3.1978665124676592e-05 0.0031353438687226347 0 -1.7265996938894073e-05 0.0030854884740578485 0 7.5724637053887287e-06 0.0031326823424269248 0 -1.7265996938894073e-05 0.0030854884740578485 0 -1.3741911745085415e-05 0.0031354626003701866 0 -2.673680156263488e-05 0.0031383191955263738 0 -3.1978665124676592e-05 0.0031353438687226347 0 -3.0557493491537354e-05 0.0031337705738842146 0 -3.1978665124676592e-05 0.0031353438687226347 0 -3.8509022686774646e-05 0.003130025049709096 0 -3.0557493491537354e-05 0.0031337705738842146 0 0.00010659495204100541 0.0025707936841639772 0 0.00012080098072162153 0.0026375488642429281 0 0.00019679254259669974 0.002630672538716627 0 -1.7265996938894073e-05 0.0030854884740578485 0 7.9108941155648521e-05 0.002256921120812752 0 -3.1978665124676592e-05 0.0031353438687226347 0 -3.2919891645107691e-05 0.0031346183682235051 0 -4.1857862876532056e-05 0.003135282840961233 0 0.00012080098072162153 0.0026375488642429281 0 0.00010064543900865686 0.0027266625245422472 0 0.00019679254259669974 0.002630672538716627 0 -2.7948725742786746e-05 0.0031361887820309563 0 -3.1978665124676592e-05 0.0031353438687226347 0 -3.2919891645107691e-05 0.0031346183682235051 0 7.9108941155648521e-05 0.002256921120812752 0 1.5260004828314697e-06 0.0023933145679194668 0 7.728954143498399e-05 0.0016476367213924836 0 4.0074778276649368e-05 0.0016463292123940659 0 2.0187467857501938e-05 0.0016144549759476495 0 4.0074778276649368e-05 0.0016463292123940659 0 1.7869193223755325e-06 0.0016433345548812601 0 2.0187467857501938e-05 0.0016144549759476495 0 -8.7005523839556962e-06 0.0016159948009811394 0 1.7869193223755325e-06 0.0016433345548812601 0 2.0187467857501938e-05 0.0016144549759476495 0 -5.6480030548543643e-05 0.003130722536991423 0 -4.1857862876532056e-05 0.003135282840961233 0 -3.8509022686774646e-05 0.003130025049709096 0 -3.1978665124676592e-05 0.0031353438687226347 0 -4.1857862876532056e-05 0.003135282840961233 0 -3.8509022686774646e-05 0.003130025049709096 0 -5.320622903800449e-05 0.0031226605068975792 0 -3.8509022686774646e-05 0.003130025049709096 0 -4.2226129935801971e-05 0.0031150850502034136 0 -3.8509022686774646e-05 0.003130025049709096 0 -4.2226129935801971e-05 0.0031150850502034136 0 -3.15545188182643e-05 0.0031271099205483384 0 -4.2226129935801971e-05 0.0031150850502034136 0 -3.15545188182643e-05 0.0031271099205483384 0 -3.1498316524773543e-05 0.0031219934356114141 0 -3.15545188182643e-05 0.0031271099205483384 0 -2.3106059572737035e-05 0.0031308444788698997 0 -3.1498316524773543e-05 0.0031219934356114141 0 -3.15545188182643e-05 0.0031271099205483384 0 -3.0557493491537354e-05 0.0031337705738842146 0 -2.478329882336797e-05 0.0031348063349506167 0 -3.8509022686774646e-05 0.003130025049709096 0 -3.15545188182643e-05 0.0031271099205483384 0 -3.0557493491537354e-05 0.0031337705738842146 0 -2.673680156263488e-05 0.0031383191955263738 0 -2.0851610073919213e-05 0.0031388269820769692 0 -1.6051252300211877e-05 0.0031424849696284544 0 -2.673680156263488e-05 0.0031383191955263738 0 -3.0557493491537354e-05 0.0031337705738842146 0 -2.478329882336797e-05 0.0031348063349506167 0 -2.673680156263488e-05 0.0031383191955263738 0 -2.0851610073919213e-05 0.0031388269820769692 0 -2.478329882336797e-05 0.0031348063349506167 0 -2.0851610073919213e-05 0.0031388269820769692 0 -1.6071753434901727e-05 0.0031403416778725433 0 -1.6051252300211877e-05 0.0031424849696284544 0 -2.0851610073919213e-05 0.0031388269820769692 0 -2.478329882336797e-05 0.0031348063349506167 0 -1.6071753434901727e-05 0.0031403416778725433 0 -3.15545188182643e-05 0.0031271099205483384 0 -2.478329882336797e-05 0.0031348063349506167 0 -2.3106059572737035e-05 0.0031308444788698997 0 -2.3106059572737035e-05 0.0031308444788698997 0 -7.7863498075153088e-06 0.0031357223512088056 0 -1.6071753434901727e-05 0.0031403416778725433 0 -2.478329882336797e-05 0.0031348063349506167 0 -2.3106059572737035e-05 0.0031308444788698997 0 -1.6071753434901727e-05 0.0031403416778725433 0 -7.7863498075153088e-06 0.0031357223512088056 0 -7.5334773161460558e-06 0.0031454291090369435 0 -1.6071753434901727e-05 0.0031403416778725433 0 -7.7863498075153088e-06 0.0031357223512088056 0 -7.5334773161460558e-06 0.0031454291090369435 0 -8.7561080252270775e-08 0.0031445002264165194 0 -7.5334773161460558e-06 0.0031454291090369435 0 -1.0399631323215565e-05 0.0031457372002539705 0 -6.2381107399786946e-06 0.0031498215348578448 0 -1.0399631323215565e-05 0.0031457372002539705 0 -1.6051252300211877e-05 0.0031424849696284544 0 -6.2381107399786946e-06 0.0031498215348578448 0 -7.5334773161460558e-06 0.0031454291090369435 0 -6.2381107399786946e-06 0.0031498215348578448 0 -3.9534818024450262e-06 0.0031564582058858457 0 -7.5334773161460558e-06 0.0031454291090369435 0 -1.0399631323215565e-05 0.0031457372002539705 0 -1.6071753434901727e-05 0.0031403416778725433 0 -1.0399631323215565e-05 0.0031457372002539705 0 -1.6071753434901727e-05 0.0031403416778725433 0 -1.6051252300211877e-05 0.0031424849696284544 0 7.5724637053887287e-06 0.0031326823424269248 0 1.314617831484437e-05 0.003152984990260425 0 -1.4142715273292347e-05 0.0031235466198550528 0 4.9496491760401863e-06 0.0031292714539405565 0 1.1366285540452654e-05 0.0031231058980120798 0 -1.4142715273292347e-05 0.0031235466198550528 0 -1.2513612990354733e-05 0.0031049189647668588 0 1.1366285540452654e-05 0.0031231058980120798 0 -7.7863498075153088e-06 0.0031357223512088056 0 -1.4142715273292347e-05 0.0031235466198550528 0 4.9496491760401863e-06 0.0031292714539405565 0 -7.7863498075153088e-06 0.0031357223512088056 0 9.6268261527191004e-06 0.0031375600929568243 0 4.9496491760401863e-06 0.0031292714539405565 0 -2.3106059572737035e-05 0.0031308444788698997 0 -1.4142715273292347e-05 0.0031235466198550528 0 -3.1498316524773543e-05 0.0031219934356114141 0 -2.3106059572737035e-05 0.0031308444788698997 0 -7.7863498075153088e-06 0.0031357223512088056 0 -1.4142715273292347e-05 0.0031235466198550528 0 -1.4142715273292347e-05 0.0031235466198550528 0 -3.0235105796754561e-05 0.0031106973537342077 0 -3.1498316524773543e-05 0.0031219934356114141 0 -1.4142715273292347e-05 0.0031235466198550528 0 -3.0235105796754561e-05 0.0031106973537342077 0 -1.2513612990354733e-05 0.0031049189647668588 0 -3.0235105796754561e-05 0.0031106973537342077 0 -3.1498316524773543e-05 0.0031219934356114141 0 -3.8184872310197029e-05 0.0031167846504563954 0 -4.2226129935801971e-05 0.0031150850502034136 0 -3.1498316524773543e-05 0.0031219934356114141 0 -3.8184872310197029e-05 0.0031167846504563954 0 -4.2520262101903128e-05 0.0031148336427806716 0 -4.1116251303162007e-05 0.0030960721229378618 0 -4.2226129935801971e-05 0.0031150850502034136 0 -4.2777520664286446e-05 0.0030744235531340457 0 -5.8826135890985919e-05 0.0030831794443229301 0 -4.2777520664286446e-05 0.0030744235531340457 0 -5.8826135890985919e-05 0.0030831794443229301 0 -6.2485293123153404e-05 0.0030628811527531399 0 -4.6355081241445313e-05 0.0030545601233212933 0 -6.8870197107304772e-05 0.0030483510441739578 0 -5.6353156607072241e-05 0.0030453186868044579 0 -4.6355081241445313e-05 0.0030545601233212933 0 -6.2485293123153404e-05 0.0030628811527531399 0 -6.8870197107304772e-05 0.0030483510441739578 0 -4.2777520664286446e-05 0.0030744235531340457 0 -4.6355081241445313e-05 0.0030545601233212933 0 -6.2485293123153404e-05 0.0030628811527531399 0 -4.329986262840973e-05 0.0030930270611361842 0 -2.350811368160634e-05 0.0030778971488265518 0 -4.2694001628863123e-05 0.0030465133812978286 0 -4.424943217547879e-05 0.0030729910656344997 0 -4.2285839349818415e-05 0.00304743379962377 0 -3.0235105796754561e-05 0.0031106973537342077 0 -3.8184872310197029e-05 0.0031167846504563954 0 -4.329986262840973e-05 0.0030930270611361842 0 -4.1116251303162007e-05 0.0030960721229378618 0 -4.424943217547879e-05 0.0030729910656344997 0 -3.0235105796754561e-05 0.0031106973537342077 0 -4.329986262840973e-05 0.0030930270611361842 0 -1.2513612990354733e-05 0.0031049189647668588 0 -4.329986262840973e-05 0.0030930270611361842 0 -1.2513612990354733e-05 0.0031049189647668588 0 -2.350811368160634e-05 0.0030778971488265518 0 -2.350811368160634e-05 0.0030778971488265518 0 2.5334403894138108e-06 0.003085467379292692 0 -1.1565338853482774e-05 0.0030573604215416014 0 -1.2513612990354733e-05 0.0031049189647668588 0 -2.350811368160634e-05 0.0030778971488265518 0 2.5334403894138108e-06 0.003085467379292692 0 -1.2513612990354733e-05 0.0031049189647668588 0 2.5334403894138108e-06 0.003085467379292692 0 1.7705888102363115e-05 0.0031070850582403057 0 -1.2513612990354733e-05 0.0031049189647668588 0 1.1366285540452654e-05 0.0031231058980120798 0 1.7705888102363115e-05 0.0031070850582403057 0 -9.251887751750721e-05 0.003062114208336865 0 -8.1459830246342237e-05 0.0030671051629374757 0 -8.7149933681703203e-05 0.0030539394584760586 0 -9.251887751750721e-05 0.003062114208336865 0 -8.8535929044133052e-05 0.0030663545309349886 0 -8.1459830246342237e-05 0.0030671051629374757 0 -0.00011082409385144023 0.0026712754106494249 0 -0.0001136828273849774 0.0025588804201655217 0 -9.251887751750721e-05 0.003062114208336865 0 -8.7149933681703203e-05 0.0030539394584760586 0 -9.7333840233871274e-05 0.0030538311339952874 0 -0.00011781484680996574 0.0022813047073579752 0 -0.0001412626504093254 0.0022720238862123819 0 -0.00012442105328918401 0.002297813434478714 0 -6.7206831098291106e-05 0.0023253693212568084 0 -0.0001136828273849774 0.0025588804201655217 0 -0.00011781484680996574 0.0022813047073579752 0 -0.0001412626504093254 0.0022720238862123819 0 -0.00012264854870560829 0.0022533092238902004 0 -0.0001412626504093254 0.0022720238862123819 0 -0.00012264854870560829 0.0022533092238902004 0 -0.00015838997154844599 0.002247387738109851 0 -0.00013023494593241089 0.0022144173002537114 0 -0.00012264854870560829 0.0022533092238902004 0 -0.00015838997154844599 0.002247387738109851 0 -3.7593260207101685e-05 0.0019306780377086308 0 -0.00010181607194531745 0.0027024045718715499 0 -0.00011082409385144023 0.0026712754106494249 0 -0.00010181607194531745 0.0027024045718715499 0 -0.00010181607194531745 0.0027024045718715499 0 -0.00013162347068055493 0.0031584816273995528 0 -9.9243995038482516e-05 0.0030842736112023251 0 -7.3494458579195936e-05 0.0030917346872097727 0 -8.1459830246342237e-05 0.0030671051629374757 0 -7.3494458579195936e-05 0.0030917346872097727 0 -5.8826135890985919e-05 0.0030831794443229301 0 -8.1459830246342237e-05 0.0030671051629374757 0 -4.2226129935801971e-05 0.0031150850502034136 0 -7.3494458579195936e-05 0.0030917346872097727 0 -5.8826135890985919e-05 0.0030831794443229301 0 -5.8826135890985919e-05 0.0030831794443229301 0 -8.1459830246342237e-05 0.0030671051629374757 0 -6.2485293123153404e-05 0.0030628811527531399 0 -8.1459830246342237e-05 0.0030671051629374757 0 -7.6607910031734546e-05 0.0030542164262884136 0 -6.2485293123153404e-05 0.0030628811527531399 0 -8.1459830246342237e-05 0.0030671051629374757 0 -7.6607910031734546e-05 0.0030542164262884136 0 -8.7149933681703203e-05 0.0030539394584760586 0 -7.6607910031734546e-05 0.0030542164262884136 0 -6.2485293123153404e-05 0.0030628811527531399 0 -6.8870197107304772e-05 0.0030483510441739578 0 -7.6607910031734546e-05 0.0030542164262884136 0 -7.9390111450327425e-05 0.0030420707392377002 0 -8.7149933681703203e-05 0.0030539394584760586 0 -7.6607910031734546e-05 0.0030542164262884136 0 -6.8870197107304772e-05 0.0030483510441739578 0 -7.9390111450327425e-05 0.0030420707392377002 0 -7.9390111450327425e-05 0.0030420707392377002 0 -8.7149933681703203e-05 0.0030539394584760586 0 -9.1518324620442086e-05 0.0030427402751454298 0 -8.7149933681703203e-05 0.0030539394584760586 0 -9.7333840233871274e-05 0.0030538311339952874 0 -9.1518324620442086e-05 0.0030427402751454298 0 -0.00012655199825356748 0.0022970057350458679 0 -0.00012674399010790876 0.0023360862891512375 0 -0.00011085605489327123 0.0023176247317981524 0 -0.0001136828273849774 0.0025588804201655217 0 -0.00012710434988699355 0.0027189978418760618 0 -0.00012655199825356748 0.0022970057350458679 0 -0.00015142193854271433 0.0023422959405695136 0 -0.00012674399010790876 0.0023360862891512375 0 -0.00015142193854271433 0.0023422959405695136 0 -0.00012674399010790876 0.0023360862891512375 0 -0.00015413774095582983 0.0023819480598320981 0 -0.00012674399010790876 0.0023360862891512375 0 -0.00010493703580252455 0.002349870892722926 0 -0.00015413774095582983 0.0023819480598320981 0 -0.00010493703580252455 0.002349870892722926 0 -6.0822783172719061e-05 0.0023185931202808047 0 -0.00011085605489327123 0.0023176247317981524 0 -0.00012674399010790876 0.0023360862891512375 0 -0.00010493703580252455 0.002349870892722926 0 -0.00011085605489327123 0.0023176247317981524 0 -8.2968793835885247e-05 0.002322866063050771 0 -3.2697872306187788e-05 0.0023170222211286737 0 -6.8537588883545603e-05 0.00230662110523055 0 1.7279358951380902e-05 0.0022407986285678245 0 9.8021319063548052e-06 0.0023175091999143903 0 -6.0822783172719061e-05 0.0023185931202808047 0 -8.5629274096075985e-05 0.0022915391770672055 0 -0.00011085605489327123 0.0023176247317981524 0 -6.0822783172719061e-05 0.0023185931202808047 0 -8.5629274096075985e-05 0.0022915391770672055 0 -5.6566133100391772e-05 0.0022611818064403088 0 -8.5629274096075985e-05 0.0022915391770672055 0 -0.00011085605489327123 0.0023176247317981524 0 -0.00010711900233887084 0.0022907809464676387 0 -0.0001246580161424472 0.0022955314613474541 0 -0.00011085605489327123 0.0023176247317981524 0 -0.00010711900233887084 0.0022907809464676387 0 -0.0001136828273849774 0.0025588804201655217 0 -0.00016407181322366862 0.0022821150130507891 0 -0.00011781484680996574 0.0022813047073579752 0 -0.00010711900233887084 0.0022907809464676387 0 -9.590369774603389e-05 0.0022680103117772603 0 -0.00011781484680996574 0.0022813047073579752 0 -0.0001246580161424472 0.0022955314613474541 0 -0.00010711900233887084 0.0022907809464676387 0 -0.00011781484680996574 0.0022813047073579752 0 -0.00012264854870560829 0.0022533092238902004 0 -9.590369774603389e-05 0.0022680103117772603 0 -8.5629274096075985e-05 0.0022915391770672055 0 -0.00010711900233887084 0.0022907809464676387 0 -9.590369774603389e-05 0.0022680103117772603 0 -8.5629274096075985e-05 0.0022915391770672055 0 -9.590369774603389e-05 0.0022680103117772603 0 -5.6566133100391772e-05 0.0022611818064403088 0 -9.590369774603389e-05 0.0022680103117772603 0 -5.6566133100391772e-05 0.0022611818064403088 0 -9.4030999020793953e-05 0.0022385567536639343 0 -2.9174683999546007e-05 0.0019341006774003164 0 -6.1619201062292799e-05 0.0019059691212568856 0 -4.4561721808001964e-07 0.0016059449145663508 0 -1.3689145443612024e-05 0.0015846334025415715 0 4.8580743899893797e-06 0.001565884994604776 0 -0.00013023494593241089 0.0022144173002537114 0 -0.00012264854870560829 0.0022533092238902004 0 -9.4030999020793953e-05 0.0022385567536639343 0 -0.00012264854870560829 0.0022533092238902004 0 -9.590369774603389e-05 0.0022680103117772603 0 -9.4030999020793953e-05 0.0022385567536639343 0 3.0245750727828673e-05 0.0015812570388601145 0 3.397710869944951e-05 0.001613352411680614 0 7.5962336844934665e-05 0.0015997160789992903 0 3.0245750727828673e-05 0.0015812570388601145 0 7.5962336844934665e-05 0.0015997160789992903 0 7.0461128369740593e-05 0.0015679527610487211 0 -4.4561721808001964e-07 0.0016059449145663508 0 3.0245750727828673e-05 0.0015812570388601145 0 4.8580743899893797e-06 0.001565884994604776 0 -4.4561721808001964e-07 0.0016059449145663508 0 3.0245750727828673e-05 0.0015812570388601145 0 3.397710869944951e-05 0.001613352411680614 0 -4.4561721808001964e-07 0.0016059449145663508 0 3.1819670076012467e-05 0.0016423756819436144 0 3.397710869944951e-05 0.001613352411680614 0 -2.9174683999546007e-05 0.0019341006774003164 0 2.7954851564800483e-05 0.001966844775722283 0 2.7954851564800483e-05 0.001966844775722283 0 0.00011475998287892609 0.0016377312415677822 0 3.1819670076012467e-05 0.0016423756819436144 0 3.397710869944951e-05 0.001613352411680614 0 6.1362820595372197e-05 0.001630364803350736 0 3.397710869944951e-05 0.001613352411680614 0 6.1362820595372197e-05 0.001630364803350736 0 7.5962336844934665e-05 0.0015997160789992903 0 0.00010094427165812248 0.0021794969999184882 0 8.8592189003254692e-05 0.0022808693447993536 0 0.00018532202972790959 0.0022359509273238007 0 2.7954851564800483e-05 0.001966844775722283 0 0.00015738681308803592 0.0020119376037807768 0 1.4614770163173588e-05 0.0016647547469732262 0 6.1362820595372197e-05 0.001630364803350736 0 9.8116434783222399e-05 0.0017219452966947691 0 -6.0822783172719061e-05 0.0023185931202808047 0 -5.6566133100391772e-05 0.0022611818064403088 0 -1.6804331910859542e-05 0.0022854295360514778 0 1.7279358951380902e-05 0.0022407986285678245 0 0.00010094427165812248 0.0021794969999184882 0 8.8592189003254692e-05 0.0022808693447993536 0 -3.2697872306187788e-05 0.0023170222211286737 0 2.7954851564800483e-05 0.001966844775722283 0 1.7279358951380902e-05 0.0022407986285678245 0 8.8592189003254692e-05 0.0022808693447993536 0 9.8021319063548052e-06 0.0023175091999143903 0 8.8592189003254692e-05 0.0022808693447993536 0 0.00018532202972790959 0.0022359509273238007 0 0.00016138413667254778 0.0023322860793557366 0 0.00026676922996723393 0.0022870617802541364 0 0.00018532202972790959 0.0022359509273238007 0 0.00016138413667254778 0.0023322860793557366 0 0.00018195664250394682 0.0017786624398187195 0 0.00016332175785689154 0.0017018635024608616 0 9.8116434783222399e-05 0.0017219452966947691 0 0.00022549868777678811 0.0017630943334086338 0 0.00015738681308803592 0.0020119376037807768 0 0.00018195664250394682 0.0017786624398187195 0 0.00016332175785689154 0.0017018635024608616 0 0.00022194293849296708 0.0017032784317730213 0 0.00016332175785689154 0.0017018635024608616 0 0.00022194293849296708 0.0017032784317730213 0 0.00018760137397304233 0.001652947985610974 0 0.00016332175785689154 0.0017018635024608616 0 0.00012768722207546248 0.0016526962487261505 0 0.00018760137397304233 0.001652947985610974 0 6.1362820595372197e-05 0.001630364803350736 0 9.8116434783222399e-05 0.0017219452966947691 0 0.00012768722207546248 0.0016526962487261505 0 0.00016332175785689154 0.0017018635024608616 0 9.8116434783222399e-05 0.0017219452966947691 0 0.00012768722207546248 0.0016526962487261505 0 0.00031257147384495312 0.0011999595232471644 0 0.00024103479786999723 0.0012264407219688385 0 0.00029857600476960907 0.0012323014773068439 0 0.0003059146955025688 0.0012026950819321403 0 0.00027222222466524899 0.0012148978010469698 0 0.00035386198648948251 0.0012181662702925886 0 0.00029857600476960907 0.0012323014773068439 0 0.0003059146955025688 0.0012026950819321403 0 0.00022549868777678811 0.0017630943334086338 0 0.00030312180606040327 0.0014553505418067215 0 0.00018195664250394682 0.0017786624398187195 0 0.00028455125919682001 0.0017420619900651189 0 0.00022194293849296708 0.0017032784317730213 0 0.00022194293849296708 0.0017032784317730213 0 0.00024272394610606532 0.0016549653552169917 0 0.00018760137397304233 0.001652947985610974 0 0.00022194293849296708 0.0017032784317730213 0 0.00026398213774093325 0.0016906522854958693 0 0.00024272394610606532 0.0016549653552169917 0 0.00028455125919682001 0.0017420619900651189 0 0.00022194293849296708 0.0017032784317730213 0 0.00026398213774093325 0.0016906522854958693 0 0.00028455125919682001 0.0017420619900651189 0 0.00026398213774093325 0.0016906522854958693 0 0.00030005945654494593 0.001681998440482995 0 0.00026398213774093325 0.0016906522854958693 0 0.00028052450096774557 0.0016497789807281039 0 0.00024272394610606532 0.0016549653552169917 0 0.00026398213774093325 0.0016906522854958693 0 0.00030005945654494593 0.001681998440482995 0 0.00028052450096774557 0.0016497789807281039 0 0.00030005945654494593 0.001681998440482995 0 0.00032036409253726822 0.001640277890101611 0 0.0003409879062015223 0.0016788636953401761 0 0.00028455125919682001 0.0017420619900651189 0 0.00030005945654494593 0.001681998440482995 0 0.0003409879062015223 0.0016788636953401761 0 0.00031229061325484925 0.0015986476505968118 0 0.00032208815190563298 0.0015783949780106478 0 0.00033356897916646651 0.0016079742537777437 0 0.00031229061325484925 0.0015986476505968118 0 0.00031572667117761366 0.001615404707386649 0 0.00033356897916646651 0.0016079742537777437 0 0.00031229061325484925 0.0015986476505968118 0 0.00029625188861397351 0.0016202183701287676 0 0.00028392560707012765 0.0016007381790539409 0 0.00031229061325484925 0.0015986476505968118 0 0.00029625188861397351 0.0016202183701287676 0 0.00031572667117761366 0.001615404707386649 0 0.00031572667117761366 0.001615404707386649 0 0.00032036409253726822 0.001640277890101611 0 0.00033356897916646651 0.0016079742537777437 0 0.00029625188861397351 0.0016202183701287676 0 0.00031572667117761366 0.001615404707386649 0 0.00032036409253726822 0.001640277890101611 0 0.00030005945654494593 0.001681998440482995 0 0.00032036409253726822 0.001640277890101611 0 0.00028052450096774557 0.0016497789807281039 0 0.00029625188861397351 0.0016202183701287676 0 0.00032036409253726822 0.001640277890101611 0 0.00028052450096774557 0.0016497789807281039 0 0.00028052450096774557 0.0016497789807281039 0 0.00026231931774095741 0.0016175904628085887 0 0.00024272394610606532 0.0016549653552169917 0 0.00029625188861397351 0.0016202183701287676 0 0.00028052450096774557 0.0016497789807281039 0 0.00026231931774095741 0.0016175904628085887 0 0.00029625188861397351 0.0016202183701287676 0 0.00026231931774095741 0.0016175904628085887 0 0.00028392560707012765 0.0016007381790539409 0 0.00026231931774095741 0.0016175904628085887 0 0.00028392560707012765 0.0016007381790539409 0 0.00026460516210993513 0.0015868885850169481 0 0.00026231931774095741 0.0016175904628085887 0 0.00022621084983460125 0.0016184820687674289 0 0.00023005782522902773 0.0015861644916687653 0 0.00026231931774095741 0.0016175904628085887 0 0.00024272394610606532 0.0016549653552169917 0 0.00022621084983460125 0.0016184820687674289 0 0.00024272394610606532 0.0016549653552169917 0 0.00022621084983460125 0.0016184820687674289 0 0.00018760137397304233 0.001652947985610974 0 0.00022621084983460125 0.0016184820687674289 0 0.00018760137397304233 0.001652947985610974 0 0.00019234709856764652 0.00161113538838842 0 0.00022621084983460125 0.0016184820687674289 0 0.00023005782522902773 0.0015861644916687653 0 0.00019234709856764652 0.00161113538838842 0 0.00019971866488371074 0.0015787711226103826 0 0.00023005782522902773 0.0015861644916687653 0 0.00019234709856764652 0.00161113538838842 0 0.00019971866488371074 0.0015787711226103826 0 0.00022796261000152855 0.0015553053070921149 0 0.00023005782522902773 0.0015861644916687653 0 0.00019971866488371074 0.0015787711226103826 0 0.00022796261000152855 0.0015553053070921149 0 0.00019584880382392231 0.0015446913912070556 0 0.00022796261000152855 0.0015553053070921149 0 0.00026524215259916617 0.0015524864403266101 0 0.00023944565940113436 0.0015251902680689861 0 0.00022796261000152855 0.0015553053070921149 0 0.00023005782522902773 0.0015861644916687653 0 0.00026524215259916617 0.0015524864403266101 0 0.00026231931774095741 0.0016175904628085887 0 0.00023005782522902773 0.0015861644916687653 0 0.00026460516210993513 0.0015868885850169481 0 0.00023005782522902773 0.0015861644916687653 0 0.00026460516210993513 0.0015868885850169481 0 0.00026524215259916617 0.0015524864403266101 0 0.00026460516210993513 0.0015868885850169481 0 0.00029471559440361576 0.0015770235987847547 0 0.00026524215259916617 0.0015524864403266101 0 0.00028392560707012765 0.0016007381790539409 0 0.00026460516210993513 0.0015868885850169481 0 0.00029471559440361576 0.0015770235987847547 0 0.00029471559440361576 0.0015770235987847547 0 0.00026524215259916617 0.0015524864403266101 0 0.00031309643544788317 0.0015454631169144306 0 0.00029471559440361576 0.0015770235987847547 0 0.00031309643544788317 0.0015454631169144306 0 0.00032208815190563298 0.0015783949780106478 0 0.00031229061325484925 0.0015986476505968118 0 0.00028392560707012765 0.0016007381790539409 0 0.00029471559440361576 0.0015770235987847547 0 0.00031229061325484925 0.0015986476505968118 0 0.00029471559440361576 0.0015770235987847547 0 0.00032208815190563298 0.0015783949780106478 0 0.00012768722207546248 0.0016526962487261505 0 0.00011876124926969752 0.0015954466703138937 0 7.5962336844934665e-05 0.0015997160789992903 0 6.1362820595372197e-05 0.001630364803350736 0 0.00012768722207546248 0.0016526962487261505 0 7.5962336844934665e-05 0.0015997160789992903 0 0.00012768722207546248 0.0016526962487261505 0 0.00018760137397304233 0.001652947985610974 0 0.00015723315384003162 0.0016190989915677518 0 0.00012768722207546248 0.0016526962487261505 0 0.00015723315384003162 0.0016190989915677518 0 0.00011876124926969752 0.0015954466703138937 0 0.00018760137397304233 0.001652947985610974 0 0.00019234709856764652 0.00161113538838842 0 0.00015723315384003162 0.0016190989915677518 0 0.00015723315384003162 0.0016190989915677518 0 0.00016116180072531206 0.0015835405845722394 0 0.00011876124926969752 0.0015954466703138937 0 0.00019234709856764652 0.00161113538838842 0 0.00015723315384003162 0.0016190989915677518 0 0.00016116180072531206 0.0015835405845722394 0 0.00019971866488371074 0.0015787711226103826 0 0.00019234709856764652 0.00161113538838842 0 0.00016116180072531206 0.0015835405845722394 0 0.00019971866488371074 0.0015787711226103826 0 0.00016116180072531206 0.0015835405845722394 0 0.00019584880382392231 0.0015446913912070556 0 0.00016116180072531206 0.0015835405845722394 0 0.00014328380194655765 0.0015501601610322787 0 0.00019584880382392231 0.0015446913912070556 0 0.00016116180072531206 0.0015835405845722394 0 0.00011876124926969752 0.0015954466703138937 0 0.00014328380194655765 0.0015501601610322787 0 0.00011876124926969752 0.0015954466703138937 0 7.0461128369740593e-05 0.0015679527610487211 0 0.00014328380194655765 0.0015501601610322787 0 0.00011876124926969752 0.0015954466703138937 0 7.5962336844934665e-05 0.0015997160789992903 0 7.0461128369740593e-05 0.0015679527610487211 0 7.0461128369740593e-05 0.0015679527610487211 0 0.00010817504651804643 0.0015235194944123081 0 0.00014328380194655765 0.0015501601610322787 0 7.0461128369740593e-05 0.0015679527610487211 0 0.00010817504651804643 0.0015235194944123081 0 3.5090404405769578e-05 0.0015356872773072423 0 0.00010817504651804643 0.0015235194944123081 0 0.00014328380194655765 0.0015501601610322787 0 0.00021893983551553726 0.0014691320255137696 0 0.00014328380194655765 0.0015501601610322787 0 0.00019584880382392231 0.0015446913912070556 0 0.00021893983551553726 0.0014691320255137696 0 0.00011429274872346259 0.001519326094222614 0 0.00021143424780801058 0.0014813239789189419 0 0.00010817504651804643 0.0015235194944123081 0 0.00014365557092117112 0.0014549049935476874 0 0.00020508465958535562 0.0014912707382424601 0 0.00014365557092117112 0.0014549049935476874 0 0.00020508465958535562 0.0014912707382424601 0 0.00018460787125452427 0.0014265339982801779 0 0.00010817504651804643 0.0015235194944123081 0 0.00014365557092117112 0.0014549049935476874 0 8.2307334593186812e-05 0.0014304295916215165 0 0.00010817504651804643 0.0015235194944123081 0 8.2307334593186812e-05 0.0014304295916215165 0 2.7919472278347863e-05 0.0014613384816418802 0 0.00028655912575056863 0.0015046793212787546 0 0.00035583822711000352 0.0015087229909959449 0 0.0003332102711805966 0.0014306424060978329 0 0.00031309643544788317 0.0015454631169144306 0 0.00028655912575056863 0.0015046793212787546 0 0.00035583822711000352 0.0015087229909959449 0 0.00026524215259916617 0.0015524864403266101 0 0.00031309643544788317 0.0015454631169144306 0 0.00028655912575056863 0.0015046793212787546 0 0.00026524215259916617 0.0015524864403266101 0 0.00028655912575056863 0.0015046793212787546 0 0.00023944565940113436 0.0015251902680689861 0 0.00023944565940113436 0.0015251902680689861 0 0.00019584880382392231 0.0015446913912070556 0 0.00021893983551553726 0.0014691320255137696 0 0.00028655912575056863 0.0015046793212787546 0 0.00023944565940113436 0.0015251902680689861 0 0.00021893983551553726 0.0014691320255137696 0 0.00022796261000152855 0.0015553053070921149 0 0.00023944565940113436 0.0015251902680689861 0 0.00019584880382392231 0.0015446913912070556 0 0.00020508465958535562 0.0014912707382424601 0 0.00025726350724264592 0.0014342041503855589 0 0.00018460787125452427 0.0014265339982801779 0 0.00028655912575056863 0.0015046793212787546 0 0.00021893983551553726 0.0014691320255137696 0 0.0003332102711805966 0.0014306424060978329 0 0.00021143424780801058 0.0014813239789189419 0 0.00033363839541120549 0.0014389602838425061 0 0.00020508465958535562 0.0014912707382424601 0 0.00025726350724264592 0.0014342041503855589 0 0.00033151690749410272 0.0014483163724442918 0 0.00025726350724264592 0.0014342041503855589 0 0.00029962203642337304 0.0013703220093864701 0 0.00033151690749410272 0.0014483163724442918 0 0.00025334286163956833 0.0014299399197907807 0 0.00019046635731305201 0.0013428249438261863 0 0.00025726350724264592 0.0014342041503855589 0 0.00029962203642337304 0.0013703220093864701 0 0.00018824077174385456 0.0013188318043471153 0 0.00025726350724264592 0.0014342041503855589 0 0.00018460787125452427 0.0014265339982801779 0 0.00018859264111230125 0.0013622858843532662 0 0.00029962203642337304 0.0013703220093864701 0 0.00018824077174385456 0.0013188318043471153 0 0.00033861312025773723 0.0012864235761256943 0 0.00024565825401940842 0.0011883666596371016 0 0.00018824077174385456 0.0013188318043471153 0 0.00033861312025773723 0.0012864235761256943 0 8.2307334593186812e-05 0.0014304295916215165 0 7.7165800825322706e-05 0.0013514084058854525 0 9.8292509686887971e-06 0.0013833120248016306 0 8.2307334593186812e-05 0.0014304295916215165 0 0.00013545159302258701 0.0014052601528227447 0 7.7165800825322706e-05 0.0013514084058854525 0 0.00014365557092117112 0.0014549049935476874 0 8.2307334593186812e-05 0.0014304295916215165 0 0.00013545159302258701 0.0014052601528227447 0 0.00018460787125452427 0.0014265339982801779 0 0.00018859264111230125 0.0013622858843532662 0 0.00013545159302258701 0.0014052601528227447 0 0.00014365557092117112 0.0014549049935476874 0 0.00018460787125452427 0.0014265339982801779 0 0.00013545159302258701 0.0014052601528227447 0 0.00012377168690891742 0.0012504039749133404 0 0.00019046635731305201 0.0013428249438261863 0 0.00018859264111230125 0.0013622858843532662 0 0.00013545159302258701 0.0014052601528227447 0 7.7165800825322706e-05 0.0013514084058854525 0 0.00012725239305665681 0.0012819658315248201 0 0.00018859264111230125 0.0013622858843532662 0 7.7165800825322706e-05 0.0013514084058854525 0 -1.5877777199434656e-05 0.001318609234019342 0 7.7165800825322706e-05 0.0013514084058854525 0 9.8292509686887971e-06 0.0013833120248016306 0 9.8292509686887971e-06 0.0013833120248016306 0 -3.8886974638751345e-05 0.0013972969135612888 0 2.7919472278347863e-05 0.0014613384816418802 0 8.2307334593186812e-05 0.0014304295916215165 0 9.8292509686887971e-06 0.0013833120248016306 0 2.7919472278347863e-05 0.0014613384816418802 0 3.2884840160752157e-06 0.0015695096366138014 0 3.1245691767100928e-06 0.0015633316283006624 0 8.6670832755509822e-06 0.0015533361599546136 0 9.8292509686887971e-06 0.0013833120248016306 0 -3.8886974638751345e-05 0.0013972969135612888 0 -5.3608149321001797e-05 0.0013503549068876115 0 -3.8886974638751345e-05 0.0013972969135612888 0 -8.7020616825402228e-05 0.0013737589691439507 0 -3.5954412068375985e-05 0.0014520659016861626 0 -3.9046910379572582e-05 0.001469953978792442 0 -1.0281644607366803e-05 0.0015040865603449839 0 -3.8886974638751345e-05 0.0013972969135612888 0 2.7919472278347863e-05 0.0014613384816418802 0 -3.5954412068375985e-05 0.0014520659016861626 0 -3.8886974638751345e-05 0.0013972969135612888 0 -5.3608149321001797e-05 0.0013503549068876115 0 -8.7020616825402228e-05 0.0013737589691439507 0 -1.5877777199434656e-05 0.001318609234019342 0 9.8292509686887971e-06 0.0013833120248016306 0 -5.3608149321001797e-05 0.0013503549068876115 0 -6.208111954587021e-05 0.0013207420273139217 0 -1.5877777199434656e-05 0.001318609234019342 0 -5.3608149321001797e-05 0.0013503549068876115 0 -6.208111954587021e-05 0.0013207420273139217 0 -5.3608149321001797e-05 0.0013503549068876115 0 -8.0851325652020069e-05 0.0013375231388821072 0 -8.2691350323242249e-06 0.001506011967697764 0 -1.5958359605171082e-05 0.0015523935760745227 0 3.2884840160752157e-06 0.0015695096366138014 0 -6.208111954587021e-05 0.0013207420273139217 0 -8.0851325652020069e-05 0.0013375231388821072 0 -7.8189992819658157e-05 0.001322471615180561 0 -0.00010553755907918116 0.0013151382071281104 0 -8.0851325652020069e-05 0.0013375231388821072 0 -8.7020616825402228e-05 0.0013737589691439507 0 -6.0394324314988342e-05 0.0014072468223509432 0 -3.9046910379572582e-05 0.001469953978792442 0 -9.0682706535171565e-05 0.001316126009182465 0 -8.0851325652020069e-05 0.0013375231388821072 0 -7.8189992819658157e-05 0.001322471615180561 0 -0.00010553755907918116 0.0013151382071281104 0 -9.0682706535171565e-05 0.001316126009182465 0 -8.0851325652020069e-05 0.0013375231388821072 0 -1.5958359605171082e-05 0.0015523935760745227 0 3.2884840160752157e-06 0.0015695096366138014 0 -8.6844483304029641e-06 0.0015682804193183147 0 -5.3608149321001797e-05 0.0013503549068876115 0 -8.0851325652020069e-05 0.0013375231388821072 0 -8.7020616825402228e-05 0.0013737589691439507 0 -8.2691350323242249e-06 0.001506011967697764 0 -4.5624089233870187e-05 0.0015380924966672347 0 -1.5958359605171082e-05 0.0015523935760745227 0 -4.5624089233870187e-05 0.0015380924966672347 0 -1.5958359605171082e-05 0.0015523935760745227 0 -3.8378195547784424e-05 0.0015611848565610807 0 -1.5958359605171082e-05 0.0015523935760745227 0 -2.1906033001571196e-05 0.0015658320422374124 0 -8.6844483304029641e-06 0.0015682804193183147 0 -1.5958359605171082e-05 0.0015523935760745227 0 -3.8378195547784424e-05 0.0015611848565610807 0 -2.1906033001571196e-05 0.0015658320422374124 0 -5.5479610065626118e-05 0.0015793783207952315 0 -3.8378195547784424e-05 0.0015611848565610807 0 -5.2656412264309915e-05 0.0015653567094788599 0 -4.5624089233870187e-05 0.0015380924966672347 0 -3.8378195547784424e-05 0.0015611848565610807 0 -5.2656412264309915e-05 0.0015653567094788599 0 -2.7951858334074007e-05 0.0015854171067211612 0 -1.264956373822805e-07 0.0015703181348961125 0 -3.5391973572735546e-05 0.0016081488842697811 0 -5.5732412623775189e-05 0.0015964368107306104 0 -4.0148829967859836e-05 0.0015784474809969202 0 -2.7951858334074007e-05 0.0015854171067211612 0 -3.8378195547784424e-05 0.0015611848565610807 0 -4.0148829967859836e-05 0.0015784474809969202 0 -2.1906033001571196e-05 0.0015658320422374124 0 -5.5479610065626118e-05 0.0015793783207952315 0 -3.8378195547784424e-05 0.0015611848565610807 0 -4.0148829967859836e-05 0.0015784474809969202 0 -4.0148829967859836e-05 0.0015784474809969202 0 -2.1906033001571196e-05 0.0015658320422374124 0 -2.7951858334074007e-05 0.0015854171067211612 0 -2.1906033001571196e-05 0.0015658320422374124 0 -2.7951858334074007e-05 0.0015854171067211612 0 -8.6844483304029641e-06 0.0015682804193183147 0 3.2884840160752157e-06 0.0015695096366138014 0 -8.6844483304029641e-06 0.0015682804193183147 0 -1.264956373822805e-07 0.0015703181348961125 0 -2.7951858334074007e-05 0.0015854171067211612 0 -8.6844483304029641e-06 0.0015682804193183147 0 -1.264956373822805e-07 0.0015703181348961125 0 3.2884840160752157e-06 0.0015695096366138014 0 -1.264956373822805e-07 0.0015703181348961125 0 3.1245691767100928e-06 0.0015633316283006624 0 -1.264956373822805e-07 0.0015703181348961125 0 3.1245691767100928e-06 0.0015633316283006624 0 1.0466414918261929e-07 0.0015618482955095964 0 1.0466414918261929e-07 0.0015618482955095964 0 -8.5589499404697236e-06 0.0015627030442867396 0 -6.7727528854740105e-06 0.0015696013660710544 0 -1.264956373822805e-07 0.0015703181348961125 0 1.0466414918261929e-07 0.0015618482955095964 0 -8.5589499404697236e-06 0.0015627030442867396 0 -5.5732412623775189e-05 0.0015964368107306104 0 -2.7951858334074007e-05 0.0015854171067211612 0 -3.5391973572735546e-05 0.0016081488842697811 0 -1.5259415441547399e-05 0.0015873744776125273 0 2.1714002336764341e-06 0.0015376598124713552 0 -3.7593260207101685e-05 0.0019306780377086308 0 2.1714002336764341e-06 0.0015376598124713552 0 -3.7593260207101685e-05 0.0019306780377086308 0 -6.1619201062292799e-05 0.0019059691212568856 0 -2.3526936137727617e-05 0.001575242456409166 0 -8.5589499404697236e-06 0.0015627030442867396 0 -6.7727528854740105e-06 0.0015696013660710544 0 -2.3526936137727617e-05 0.001575242456409166 0 -1.3689145443612024e-05 0.0015846334025415715 0 -6.7727528854740105e-06 0.0015696013660710544 0 -1.3689145443612024e-05 0.0015846334025415715 0 -6.7727528854740105e-06 0.0015696013660710544 0 4.8580743899893797e-06 0.001565884994604776 0 1.0466414918261929e-07 0.0015618482955095964 0 -6.7727528854740105e-06 0.0015696013660710544 0 4.8580743899893797e-06 0.001565884994604776 0 3.0245750727828673e-05 0.0015812570388601145 0 4.8580743899893797e-06 0.001565884994604776 0 3.5090404405769578e-05 0.0015356872773072423 0 4.8580743899893797e-06 0.001565884994604776 0 3.5090404405769578e-05 0.0015356872773072423 0 8.6670832755509822e-06 0.0015533361599546136 0 3.0245750727828673e-05 0.0015812570388601145 0 7.0461128369740593e-05 0.0015679527610487211 0 3.5090404405769578e-05 0.0015356872773072423 0 0.00010817504651804643 0.0015235194944123081 0 3.5090404405769578e-05 0.0015356872773072423 0 2.7919472278347863e-05 0.0014613384816418802 0 3.0739200686296762e-05 0.0015361208626544411 0 -1.0281644607366803e-05 0.0015040865603449839 0 3.5090404405769578e-05 0.0015356872773072423 0 2.7919472278347863e-05 0.0014613384816418802 0 -3.5954412068375985e-05 0.0014520659016861626 0 1.0466414918261929e-07 0.0015618482955095964 0 4.8580743899893797e-06 0.001565884994604776 0 8.6670832755509822e-06 0.0015533361599546136 0 3.1245691767100928e-06 0.0015633316283006624 0 1.0466414918261929e-07 0.0015618482955095964 0 8.6670832755509822e-06 0.0015533361599546136 0 2.8570140469758424e-06 0.004987966035838092 0 3.2398329482051425e-06 0.0049925428516686618 0 8.8288648339768993e-06 0.0049844540695552168 0 2.8570140469758424e-06 0.004987966035838092 0 2.6566692214124275e-06 0.0049854724683074583 0 2.7044646905193923e-06 0.004989843482075239 0 2.8570140469758424e-06 0.004987966035838092 0 3.2398329482051425e-06 0.0049925428516686618 0 2.7044646905193923e-06 0.004989843482075239 0 3.2398329482051425e-06 0.0049925428516686618 0 1.5416654961195926e-08 0.0049999857522445238 0 8.8288648339768993e-06 0.0049844540695552168 0 4.3440715364390387e-10 0.0049999946371168591 0 3.9164636067818445e-06 0.0049922527666012902 0 5.7146867894546472e-11 0.0049999996650249498 0 -1.3186520219680981e-07 0.0050001566384540582 0 -1.7834321756783539e-10 0.0050000009973486048 0 -1.3186520219680981e-07 0.0050001566384540582 0 -1.7834321756783539e-10 0.0050000009973486048 0 -4.5305299505382435e-07 0.0050004369563720697 0 2.8570140469758424e-06 0.004987966035838092 0 8.8288648339768993e-06 0.0049844540695552168 0 2.2749323816760531e-06 0.0049821419947031539 0 2.2749323816760531e-06 0.0049821419947031539 0 -2.9440380500472557e-07 0.0049853270992476868 0 1.5684690562510103e-06 0.0049852715850138337 0 1.6014976356492714e-05 0.0049349277501676723 0 8.0553771085503007e-06 0.0049230606496871686 0 9.9889027298631853e-06 0.0049207291402407509 0 7.3052207446772721e-06 0.0049600659159374618 0 2.2920771015800362e-06 0.0049460778910153502 0 2.2749323816760531e-06 0.0049821419947031539 0 -2.9440380500472557e-07 0.0049853270992476868 0 -6.5978992892111325e-06 0.0049709018228399401 0 7.3052207446772721e-06 0.0049600659159374618 0 7.4922143792670811e-06 0.0049726420912434063 0 -2.9440380500472557e-07 0.0049853270992476868 0 2.5302117466374156e-06 0.0049819811771766743 0 7.7013835211854277e-06 0.0049735130757777961 0 -2.9440380500472557e-07 0.0049853270992476868 0 1.5684690562510103e-06 0.0049852715850138337 0 2.5302117466374156e-06 0.0049819811771766743 0 2.8570140469758424e-06 0.004987966035838092 0 2.2749323816760531e-06 0.0049821419947031539 0 1.5684690562510103e-06 0.0049852715850138337 0 1.5684690562510103e-06 0.0049852715850138337 0 2.6566692214124275e-06 0.0049854724683074583 0 2.5302117466374156e-06 0.0049819811771766743 0 2.8570140469758424e-06 0.004987966035838092 0 1.5684690562510103e-06 0.0049852715850138337 0 2.6566692214124275e-06 0.0049854724683074583 0 2.6566692214124275e-06 0.0049854724683074583 0 3.8038502858577895e-06 0.0049834584804652401 0 2.7044646905193923e-06 0.004989843482075239 0 2.6566692214124275e-06 0.0049854724683074583 0 4.9707387104426989e-06 0.0049799242553618239 0 3.8038502858577895e-06 0.0049834584804652401 0 2.6566692214124275e-06 0.0049854724683074583 0 2.5302117466374156e-06 0.0049819811771766743 0 4.9707387104426989e-06 0.0049799242553618239 0 4.9707387104426989e-06 0.0049799242553618239 0 6.5900353610469911e-06 0.0049790362612164843 0 7.7013835211854277e-06 0.0049735130757777961 0 2.5302117466374156e-06 0.0049819811771766743 0 4.9707387104426989e-06 0.0049799242553618239 0 7.7013835211854277e-06 0.0049735130757777961 0 4.9707387104426989e-06 0.0049799242553618239 0 5.5702888279301041e-06 0.0049800807678388407 0 6.5900353610469911e-06 0.0049790362612164843 0 4.9707387104426989e-06 0.0049799242553618239 0 5.5702888279301041e-06 0.0049800807678388407 0 3.8038502858577895e-06 0.0049834584804652401 0 5.5702888279301041e-06 0.0049800807678388407 0 7.3472674328622156e-06 0.0049781539507501331 0 6.5900353610469911e-06 0.0049790362612164843 0 3.8038502858577895e-06 0.0049834584804652401 0 1.5093655804820481e-06 0.0049854582586550756 0 3.9362340565475225e-06 0.0049790550396672439 0 5.5702888279301041e-06 0.0049800807678388407 0 3.8038502858577895e-06 0.0049834584804652401 0 3.9362340565475225e-06 0.0049790550396672439 0 3.8038502858577895e-06 0.0049834584804652401 0 1.5093655804820481e-06 0.0049854582586550756 0 2.7044646905193923e-06 0.004989843482075239 0 1.5093655804820481e-06 0.0049854582586550756 0 2.7044646905193923e-06 0.004989843482075239 0 1.4600045777799841e-06 0.0049945819874013192 0 3.2398329482051425e-06 0.0049925428516686618 0 2.7044646905193923e-06 0.004989843482075239 0 1.4600045777799841e-06 0.0049945819874013192 0 1.5093655804820481e-06 0.0049854582586550756 0 1.4600045777799841e-06 0.0049945819874013192 0 -8.228570961147091e-09 0.0049999855395516553 0 1.5416654961195926e-08 0.0049999857522445238 0 1.4600045777799841e-06 0.0049945819874013192 0 -8.228570961147091e-09 0.0049999855395516553 0 3.2398329482051425e-06 0.0049925428516686618 0 1.5416654961195926e-08 0.0049999857522445238 0 1.4600045777799841e-06 0.0049945819874013192 0 8.3135655186831905e-06 0.0049896537436075064 0 -3.2473227261647608e-09 0.0050000006996775937 0 5.7723187247985229e-06 0.005001119519861652 0 -2.7747425120902958e-09 0.0050000069273737078 0 6.1734407162610266e-09 0.0049999948818938893 0 5.7723187247985229e-06 0.005001119519861652 0 6.1734407162610266e-09 0.0049999948818938893 0 5.8271660818028923e-06 0.0049974820068639462 0 8.1913220397827555e-10 0.0050000002053254677 0 3.1968743485720293e-06 0.0049993322581660775 0 -8.2835783657635842e-11 0.0050000000227654121 0 5.4699161564362581e-07 0.0050008424242801728 0 7.4672694269572556e-10 0.0050000024874966601 0 5.8271660818028923e-06 0.0049974820068639462 0 1.1468618793872975e-05 0.0049965311566375565 0 1.2165487994370676e-05 0.0049985773186113575 0 5.7723187247985229e-06 0.005001119519861652 0 5.8271660818028923e-06 0.0049974820068639462 0 1.2165487994370676e-05 0.0049985773186113575 0 8.3135655186831905e-06 0.0049896537436075064 0 -9.5973466971050896e-06 0.005007696459810136 0 3.1968743485720293e-06 0.0049993322581660775 0 7.8693985824167128e-06 0.0049992574526252758 0 5.4699161564362581e-07 0.0050008424242801728 0 3.4432291248943818e-06 0.0050017112218786663 0 4.0319155603494782e-07 0.0049998906246188643 0 5.4699161564362581e-07 0.0050008424242801728 0 7.4672694269572556e-10 0.0050000024874966601 0 4.0319155603494782e-07 0.0049998906246188643 0 7.4672694269572556e-10 0.0050000024874966601 0 4.0319155603494782e-07 0.0049998906246188643 0 -1.8435189282312149e-09 0.0049999939468104619 0 4.0319155603494782e-07 0.0049998906246188643 0 -3.5011851318584275e-07 0.0049939993455535214 0 -1.8435189282312149e-09 0.0049999939468104619 0 3.4432291248943818e-06 0.0050017112218786663 0 4.0319155603494782e-07 0.0049998906246188643 0 5.4842726293422393e-06 0.0049982772885355997 0 4.0319155603494782e-07 0.0049998906246188643 0 -3.5011851318584275e-07 0.0049939993455535214 0 5.4842726293422393e-06 0.0049982772885355997 0 -2.1482686699204251e-07 0.0049843334787106012 0 -3.5011851318584275e-07 0.0049939993455535214 0 4.6580494457217684e-06 0.0049882073561673367 0 -3.5011851318584275e-07 0.0049939993455535214 0 4.6580494457217684e-06 0.0049882073561673367 0 5.4842726293422393e-06 0.0049982772885355997 0 -1.4182389090313702e-09 0.0049999855292595973 0 -3.5011851318584275e-07 0.0049939993455535214 0 -1.8435189282312149e-09 0.0049999939468104619 0 1.9370730353085955e-05 0.004971698213706478 0 2.5820539861508762e-05 0.0049883252199847839 0 6.5432848418047005e-05 0.0049875755854779233 0 2.5820539861508762e-05 0.0049883252199847839 0 1.5633101699808545e-05 0.0050000756682174793 0 3.9754673833136484e-05 0.005000100287297948 0 2.5820539861508762e-05 0.0049883252199847839 0 1.2778088135446646e-05 0.0049926941964419155 0 1.5633101699808545e-05 0.0050000756682174793 0 2.5820539861508762e-05 0.0049883252199847839 0 3.9754673833136484e-05 0.005000100287297948 0 6.5432848418047005e-05 0.0049875755854779233 0 1.9370730353085955e-05 0.004971698213706478 0 2.5820539861508762e-05 0.0049883252199847839 0 1.2778088135446646e-05 0.0049926941964419155 0 1.9370730353085955e-05 0.004971698213706478 0 4.6580494457217684e-06 0.0049882073561673367 0 1.2778088135446646e-05 0.0049926941964419155 0 4.6580494457217684e-06 0.0049882073561673367 0 1.2778088135446646e-05 0.0049926941964419155 0 5.4842726293422393e-06 0.0049982772885355997 0 3.4432291248943818e-06 0.0050017112218786663 0 1.4790907822304725e-05 0.0049996006166393419 0 5.4842726293422393e-06 0.0049982772885355997 0 1.2778088135446646e-05 0.0049926941964419155 0 1.4790907822304725e-05 0.0049996006166393419 0 1.5633101699808545e-05 0.0050000756682174793 0 1.1468618793872975e-05 0.0049965311566375565 0 1.4790907822304725e-05 0.0049996006166393419 0 1.3511392770792691e-05 0.0049976246326611041 0 1.4790907822304725e-05 0.0049996006166393419 0 1.5633101699808545e-05 0.0050000756682174793 0 1.3511392770792691e-05 0.0049976246326611041 0 7.8693985824167128e-06 0.0049992574526252758 0 1.364418028231824e-05 0.0049988249899321976 0 1.2778088135446646e-05 0.0049926941964419155 0 1.4790907822304725e-05 0.0049996006166393419 0 5.4842726293422393e-06 0.0049982772885355997 0 1.5886633974864373e-05 0.005058619859983203 0 7.5542721930137391e-05 0.0048736410968143063 0 1.5633101699808545e-05 0.0050000756682174793 0 5.0171391384515385e-05 0.0050192896942067794 0 4.4695202767926945e-05 0.0050642925023141553 0 1.5633101699808545e-05 0.0050000756682174793 0 1.3178027785360577e-05 0.0049968836447303452 0 1.3511392770792691e-05 0.0049976246326611041 0 3.9754673833136484e-05 0.005000100287297948 0 5.0171391384515385e-05 0.0050192896942067794 0 6.5432848418047005e-05 0.0049875755854779233 0 1.5633101699808545e-05 0.0050000756682174793 0 3.9754673833136484e-05 0.005000100287297948 0 5.0171391384515385e-05 0.0050192896942067794 0 1.3178027785360577e-05 0.0049968836447303452 0 1.3511392770792691e-05 0.0049976246326611041 0 1.2165487994370676e-05 0.0049985773186113575 0 1.1468618793872975e-05 0.0049965311566375565 0 1.3511392770792691e-05 0.0049976246326611041 0 1.2165487994370676e-05 0.0049985773186113575 0 6.8779100491022692e-06 0.0049752631151214971 0 3.9362340565475225e-06 0.0049790550396672439 0 7.3472674328622156e-06 0.0049781539507501331 0 7.5542721930137391e-05 0.0048736410968143063 0 -9.5973466971050896e-06 0.005007696459810136 0 5.5702888279301041e-06 0.0049800807678388407 0 3.9362340565475225e-06 0.0049790550396672439 0 7.3472674328622156e-06 0.0049781539507501331 0 0.00022028034628408715 0.0045130838065186489 0 0.00021718627954848019 0.0046229963678092222 0 0.00021360983604571776 0.0045506403985611484 0 0.00021702204793560881 0.0045465237940023025 0 0.00021742597464143924 0.0045602443116893277 0 0.00021380788449727823 0.0045500790740069649 0 0.00021360983604571776 0.0045506403985611484 0 0.00021702204793560881 0.0045465237940023025 0 7.5542721930137391e-05 0.0048736410968143063 0 0.00011014324367768136 0.004764866126294569 0 0.00037725769429671494 0.0040896803973101163 0 0.00040792245308419642 0.0041492012923630486 0 0.0003454820257499641 0.0041565576662092839 0 0.00021702204793560881 0.0045465237940023025 0 0.00021012625702376871 0.0045323947691205671 0 0.00022402614870172392 0.0045185736135769008 0 0.00029692830013098166 0.0042974512326383989 0 0.00027592236803157375 0.0043578889127608026 0 0.00021702204793560881 0.0045465237940023025 0 0.00021300706340598486 0.004549672364312367 0 0.00021012625702376871 0.0045323947691205671 0 0.00021702204793560881 0.0045465237940023025 0 0.00021300706340598486 0.004549672364312367 0 0.00021512717853052279 0.0045491544517023098 0 0.00021300706340598486 0.004549672364312367 0 0.00021512717853052279 0.0045491544517023098 0 0.00021429645653146435 0.0045501804335534909 0 0.00021380788449727823 0.0045500790740069649 0 0.00021702204793560881 0.0045465237940023025 0 0.00021512717853052279 0.0045491544517023098 0 5.0171391384515385e-05 0.0050192896942067794 0 4.4695202767926945e-05 0.0050642925023141553 0 8.9228909105287761e-05 0.0050349385859604703 0 7.5542721930137391e-05 0.0048736410968143063 0 0.00012020567052387704 0.0048243207267406468 0 0.00021380788449727823 0.0045500790740069649 0 0.00021512717853052279 0.0045491544517023098 0 0.00021429645653146435 0.0045501804335534909 0 5.0171391384515385e-05 0.0050192896942067794 0 8.9228909105287761e-05 0.0050349385859604703 0 6.5432848418047005e-05 0.0049875755854779233 0 8.9228909105287761e-05 0.0050349385859604703 0 0.00013881941157261164 0.0050033520565969094 0 6.5432848418047005e-05 0.0049875755854779233 0 0.00029692830013098166 0.0042974512326383989 0 0.00032291793974766351 0.004421875670483179 0 0.00012020567052387704 0.0048243207267406468 0 0.00032291793974766351 0.004421875670483179 0 0.00021300706340598486 0.004549672364312367 0 0.00021429645653146435 0.0045501804335534909 0 0.00021565680886512307 0.0045481770892186607 0 0.00015992563702741495 0.0049160292393847279 0 0.00013881941157261164 0.0050033520565969094 0 0.00011324888762509113 0.0049567842708961758 0 0.00013881941157261164 0.0050033520565969094 0 0.00011324888762509113 0.0049567842708961758 0 6.5432848418047005e-05 0.0049875755854779233 0 0.00042612269193080987 0.0040868092046451318 0 0.0004353499126155321 0.0040995376155948402 0 0.00042393337272293681 0.0040797584898774825 0 0.00042612269193080987 0.0040868092046451318 0 0.0004247052774496661 0.0040953097659502963 0 0.00042056595439249035 0.0040871421013276244 0 0.00042612269193080987 0.0040868092046451318 0 0.00042393281620769433 0.0040774538774163514 0 0.00042056595439249035 0.0040871421013276244 0 0.00042612269193080987 0.0040868092046451318 0 0.0004247052774496661 0.0040953097659502963 0 0.0004353499126155321 0.0040995376155948402 0 0.00042424176361808782 0.0041086368809894443 0 0.0004247052774496661 0.0040953097659502963 0 0.0004353499126155321 0.0040995376155948402 0 0.00055813384906060713 0.0042342189270558684 0 0.0005702822622828985 0.0039863426194445889 0 0.0004687992740285537 0.0041093790814425175 0 0.00032291793974766351 0.004421875670483179 0 0.00053086099250175913 0.0039646031008657512 0 0.0005702822622828985 0.0039863426194445889 0 0.0004353499126155321 0.0040995376155948402 0 0.0004687992740285537 0.0041093790814425175 0 0.00041099563648664637 0.0040717568156273375 0 0.0004353499126155321 0.0040995376155948402 0 0.00042393337272293681 0.0040797584898774825 0 0.0003757413375723078 0.0045761099298968905 0 0.00032291793974766351 0.004421875670483179 0 0.00041099563648664637 0.0040717568156273375 0 0.00042393337272293681 0.0040797584898774825 0 0.00042089972595809043 0.004076169727056933 0 0.00042393337272293681 0.0040797584898774825 0 0.00042393281620769433 0.0040774538774163514 0 0.00042089972595809043 0.004076169727056933 0 0.00042393281620769433 0.0040774538774163514 0 0.00042089972595809043 0.004076169727056933 0 0.00041955948342321879 0.0040638477031938909 0 0.00042612269193080987 0.0040868092046451318 0 0.00042393337272293681 0.0040797584898774825 0 0.00042393281620769433 0.0040774538774163514 0 0.00042089972595809043 0.004076169727056933 0 0.00041306912894168053 0.0040531399061033823 0 0.00041955948342321879 0.0040638477031938909 0 0.00037725769429671494 0.0040896803973101163 0 0.00041099563648664637 0.0040717568156273375 0 0.00042089972595809043 0.004076169727056933 0 0.00037725769429671494 0.0040896803973101163 0 0.00042089972595809043 0.004076169727056933 0 0.00040792245308419642 0.0041492012923630486 0 0.00041878366543812717 0.0040777975681013465 0 0.00040728144154043746 0.0041017366068798614 0 0.00042089972595809043 0.004076169727056933 0 0.00040854506047675312 0.0040530717469369716 0 0.00041306912894168053 0.0040531399061033823 0 0.00040854506047675312 0.0040530717469369716 0 0.00041306912894168053 0.0040531399061033823 0 0.00040472097910147645 0.0040569815743839851 0 0.00041306912894168053 0.0040531399061033823 0 0.00040472097910147645 0.0040569815743839851 0 0.00041932403182245927 0.0040534253403328993 0 0.00038263079848234466 0.0040659741123713613 0 0.00039288004191454174 0.0040834087582680614 0 0.00040865458713393527 0.0040666537465741878 0 0.00040472097910147645 0.0040569815743839851 0 0.00038263079848234466 0.0040659741123713613 0 0.00040865458713393527 0.0040666537465741878 0 0.00040854506047675312 0.0040530717469369716 0 0.00040472097910147645 0.0040569815743839851 0 0.00038263079848234466 0.0040659741123713613 0 0.00040792245308419642 0.0041492012923630486 0 0.00038287779382205952 0.0042222484698902297 0 0.00036359879961366627 0.0041894357860149389 0 0.00040792245308419642 0.0041492012923630486 0 0.00036359879961366627 0.0041894357860149389 0 0.0003454820257499641 0.0041565576662092839 0 0.00040728144154043746 0.0041017366068798614 0 0.00038219762032924969 0.004144031802549763 0 0.00021012625702376871 0.0045323947691205671 0 0.00022402614870172392 0.0045185736135769008 0 0.00021482679457576192 0.0044975702461714619 0 0.00027592236803157375 0.0043578889127608026 0 0.00028664047967923032 0.0043171200366973438 0 0.00036359879961366627 0.0041894357860149389 0 0.0003454820257499641 0.0041565576662092839 0 0.00032645163890742605 0.0042198398412580298 0 0.00011014324367768136 0.004764866126294569 0 0.00021718627954848019 0.0046229963678092222 0 7.3472674328622156e-06 0.0049781539507501331 0 3.2191204729222249e-06 0.0049801337051173511 0 6.5900353610469911e-06 0.0049790362612164843 0 3.2191204729222249e-06 0.0049801337051173511 0 6.5900353610469911e-06 0.0049790362612164843 0 7.7013835211854277e-06 0.0049735130757777961 0 0.00034700415169057204 0.0043607114387897604 0 0.0003254410981040243 0.0043144025512834713 0 0.00034994276394478444 0.0042728815246116788 0 3.2191204729222249e-06 0.0049801337051173511 0 7.7013835211854277e-06 0.0049735130757777961 0 2.0825537533269047e-07 0.0049517340703703122 0 0.00021718627954848019 0.0046229963678092222 0 0.00017351808914951785 0.0046235182623928358 0 0.00021718627954848019 0.0046229963678092222 0 0.00028664047967923032 0.0043171200366973438 0 0.0003254410981040243 0.0043144025512834713 0 0.00033936235674167917 0.0042717221353880371 0 0.00034994276394478444 0.0042728815246116788 0 0.00038287779382205952 0.0042222484698902297 0 0.00032645163890742605 0.0042198398412580298 0 0.00033904728243182888 0.0042629445117631738 0 0.00038287779382205952 0.0042222484698902297 0 0.00036359879961366627 0.0041894357860149389 0 0.00032645163890742605 0.0042198398412580298 0 0.00028664047967923032 0.0043171200366973438 0 0.00032977919632004663 0.0042690144790214143 0 0.00028664047967923032 0.0043171200366973438 0 0.00033826380548742047 0.00424605829024019 0 0.00033716328805496993 0.0042787936001477565 0 0.00033936235674167917 0.0042717221353880371 0 0.00033904728243182888 0.0042629445117631738 0 0.00033936235674167917 0.0042717221353880371 0 0.00033932450333171063 0.0042664402298382351 0 0.00033904728243182888 0.0042629445117631738 0 0.00033932450333171063 0.0042664402298382351 0 0.00033904728243182888 0.0042629445117631738 0 0.00033907764082960777 0.0042644246357438319 0 0.00033904728243182888 0.0042629445117631738 0 0.00033907764082960777 0.0042644246357438319 0 0.00034754081771989779 0.0042668100215428823 0 1.6014976356492714e-05 0.0049349277501676723 0 7.7013835211854277e-06 0.0049735130757777961 0 2.0825537533269047e-07 0.0049517340703703122 0 0.00033936235674167917 0.0042717221353880371 0 0.00033932450333171063 0.0042664402298382351 0 0.00034994276394478444 0.0042728815246116788 0 0.00033932450333171063 0.0042664402298382351 0 0.00034994276394478444 0.0042728815246116788 0 0.0003413830140916976 0.0042657498557187234 0 0.00017351808914951785 0.0046235182623928358 0 0.00014292457775948669 0.0045947662965728879 0 1.6014976356492714e-05 0.0049349277501676723 0 2.0825537533269047e-07 0.0049517340703703122 0 8.0553771085503007e-06 0.0049230606496871686 0 0.00034994276394478444 0.0042728815246116788 0 0.0003413830140916976 0.0042657498557187234 0 0.00034064146280776225 0.0042645532806891472 0 0.0003413830140916976 0.0042657498557187234 0 0.00034064146280776225 0.0042645532806891472 0 0.00033992493175042971 0.0042643929070497492 0 0.00034829680693822056 0.0042312346134196497 0 0.00019737855797221623 0.0043245386547030532 0 0.00014292457775948669 0.0045947662965728879 0 0.00019737855797221623 0.0043245386547030532 0 0.00033907764082960777 0.0042644246357438319 0 0.00033628915804080107 0.0042579984357644486 0 0.0003244535895075671 0.0042498741366089072 0 0.0003413830140916976 0.0042657498557187234 0 0.00033907764082960777 0.0042644246357438319 0 0.00033628915804080107 0.0042579984357644486 0 0.00033932450333171063 0.0042664402298382351 0 0.0003413830140916976 0.0042657498557187234 0 0.00033907764082960777 0.0042644246357438319 0 0.0003413830140916976 0.0042657498557187234 0 0.00033628915804080107 0.0042579984357644486 0 0.00034556404674302875 0.0042557447271715345 0 0.00035535230815633635 0.0041016693007293412 0 0.00036282350886609685 0.0041365314156266535 0 0.0003283796265361022 0.004160243328179985 0 0.00033907764082960777 0.0042644246357438319 0 0.00034754081771989779 0.0042668100215428823 0 0.0003244535895075671 0.0042498741366089072 0 0.00035190774041021739 0.0041831382678239526 0 0.00032797844888505612 0.0042061835722720002 0 0.00035535230815633635 0.0041016693007293412 0 0.00038382042941388324 0.0041073326849230957 0 0.00036282350886609685 0.0041365314156266535 0 0.00038382042941388324 0.0041073326849230957 0 0.0003971550740279178 0.0041369649251129991 0 0.00036282350886609685 0.0041365314156266535 0 0.00038382042941388324 0.0041073326849230957 0 0.00039288004191454174 0.0040834087582680614 0 0.00041757295908812967 0.0040885701762496717 0 0.00035535230815633635 0.0041016693007293412 0 0.00038382042941388324 0.0041073326849230957 0 0.00039288004191454174 0.0040834087582680614 0 0.00038287779382205952 0.0042222484698902297 0 0.00033904728243182888 0.0042629445117631738 0 0.00034754081771989779 0.0042668100215428823 0 0.00038263079848234466 0.0040659741123713613 0 0.00035535230815633635 0.0041016693007293412 0 0.00039288004191454174 0.0040834087582680614 0 0.00038219762032924969 0.004144031802549763 0 0.00035190774041021739 0.0041831382678239526 0 0.00041757295908812967 0.0040885701762496717 0 0.00044728743978234779 0.0041171740892959174 0 0.00045707421933983126 0.0040787069910270864 0 0.00041757295908812967 0.0040885701762496717 0 0.00045707421933983126 0.0040787069910270864 0 0.00043630518880529746 0.0040631076980402331 0 0.00039288004191454174 0.0040834087582680614 0 0.00041757295908812967 0.0040885701762496717 0 0.00040865458713393527 0.0040666537465741878 0 0.00038382042941388324 0.0041073326849230957 0 0.00041757295908812967 0.0040885701762496717 0 0.0003971550740279178 0.0041369649251129991 0 0.00041757295908812967 0.0040885701762496717 0 0.00044728743978234779 0.0041171740892959174 0 0.0003971550740279178 0.0041369649251129991 0 0.00044728743978234779 0.0041171740892959174 0 0.00048296357756602007 0.0040933063964560534 0 0.00045707421933983126 0.0040787069910270864 0 0.00048296357756602007 0.0040933063964560534 0 0.00047910644485747868 0.0040679318994998256 0 0.00048233840349472983 0.0040770213475510584 0 0.00048296357756602007 0.0040933063964560534 0 0.00048233840349472983 0.0040770213475510584 0 0.00048246589855947992 0.0040753859405625288 0 0.00048296357756602007 0.0040933063964560534 0 0.00047910644485747868 0.0040679318994998256 0 0.00045707421933983126 0.0040787069910270864 0 0.00047910644485747868 0.0040679318994998256 0 0.00045707421933983126 0.0040787069910270864 0 0.00045964863452835239 0.0040584834058075177 0 0.00045707421933983126 0.0040787069910270864 0 0.00045964863452835239 0.0040584834058075177 0 0.00043630518880529746 0.0040631076980402331 0 0.00047910644485747868 0.0040679318994998256 0 0.00045964863452835239 0.0040584834058075177 0 0.00047457636570296438 0.0040385036300723065 0 0.00045964863452835239 0.0040584834058075177 0 0.0004445013709639633 0.0040460352294990802 0 0.00043630518880529746 0.0040631076980402331 0 0.00045964863452835239 0.0040584834058075177 0 0.00047457636570296438 0.0040385036300723065 0 0.0004445013709639633 0.0040460352294990802 0 0.0004445013709639633 0.0040460352294990802 0 0.00043630518880529746 0.0040631076980402331 0 0.00041932403182245927 0.0040534253403328993 0 0.00043630518880529746 0.0040631076980402331 0 0.00040865458713393527 0.0040666537465741878 0 0.00041932403182245927 0.0040534253403328993 0 0.00041757295908812967 0.0040885701762496717 0 0.00043630518880529746 0.0040631076980402331 0 0.00040865458713393527 0.0040666537465741878 0 0.00040472097910147645 0.0040569815743839851 0 0.00040865458713393527 0.0040666537465741878 0 0.00041932403182245927 0.0040534253403328993 0 0.00041306912894168053 0.0040531399061033823 0 0.00041932403182245927 0.0040534253403328993 0 0.00041762723652708059 0.004043230348312634 0 0.0004445013709639633 0.0040460352294990802 0 0.00041762723652708059 0.004043230348312634 0 0.00044945690879999412 0.0040278311198360004 0 0.0004445013709639633 0.0040460352294990802 0 0.00041932403182245927 0.0040534253403328993 0 0.00041762723652708059 0.004043230348312634 0 0.00041637496063765125 0.0040419863703091965 0 0.00041506673907407729 0.0040353054530276799 0 0.00041762723652708059 0.004043230348312634 0 0.00044245877287451684 0.0040013515076661897 0 0.00044945690879999412 0.0040278311198360004 0 0.00041306912894168053 0.0040531399061033823 0 0.00041762723652708059 0.004043230348312634 0 0.00041955948342321879 0.0040638477031938909 0 0.00041762723652708059 0.004043230348312634 0 0.00041955948342321879 0.0040638477031938909 0 0.00040305069621106619 0.0040783621051308453 0 0.00042393281620769433 0.0040774538774163514 0 0.00041955948342321879 0.0040638477031938909 0 0.00041593468310703298 0.0040804149069648714 0 0.00041955948342321879 0.0040638477031938909 0 0.00041593468310703298 0.0040804149069648714 0 0.00040305069621106619 0.0040783621051308453 0 0.00042393281620769433 0.0040774538774163514 0 0.00041593468310703298 0.0040804149069648714 0 0.00042056595439249035 0.0040871421013276244 0 0.00041593468310703298 0.0040804149069648714 0 0.00040305069621106619 0.0040783621051308453 0 0.00041356786922352274 0.0040887628826092983 0 0.00044245877287451684 0.0040013515076661897 0 0.0004246973731443007 0.0039875548749471095 0 0.00045964370407155391 0.0039559786707368122 0 0.00041762723652708059 0.004043230348312634 0 0.00044245877287451684 0.0040013515076661897 0 0.0004246973731443007 0.0039875548749471095 0 0.00044555027745856243 0.0039213709495900806 0 0.0004246973731443007 0.0039875548749471095 0 0.00045964370407155391 0.0039559786707368122 0 0.00042588684853947924 0.0040055518034657553 0 0.00041506673907407729 0.0040353054530276799 0 0.0004040014619161005 0.0041082655552174994 0 0.00040305069621106619 0.0040783621051308453 0 0.00041138482551442075 0.0040993575332121755 0 0.00044555027745856243 0.0039213709495900806 0 0.00045964370407155391 0.0039559786707368122 0 0.00047578563556159207 0.0039296423855662748 0 0.00041820929944639927 0.0041073485104110245 0 0.00041138482551442075 0.0040993575332121755 0 0.00041718877731725866 0.0040961528817944712 0 0.00041138482551442075 0.0040993575332121755 0 0.00041718877731725866 0.0040961528817944712 0 0.00041356786922352274 0.0040887628826092983 0 0.00040305069621106619 0.0040783621051308453 0 0.00041138482551442075 0.0040993575332121755 0 0.00041356786922352274 0.0040887628826092983 0 0.00042424176361808782 0.0041086368809894443 0 0.0004247052774496661 0.0040953097659502963 0 0.00041718877731725866 0.0040961528817944712 0 0.00041820929944639927 0.0041073485104110245 0 0.00042424176361808782 0.0041086368809894443 0 0.00041718877731725866 0.0040961528817944712 0 0.00041718877731725866 0.0040961528817944712 0 0.00042056595439249035 0.0040871421013276244 0 0.00041356786922352274 0.0040887628826092983 0 0.00041593468310703298 0.0040804149069648714 0 0.00042056595439249035 0.0040871421013276244 0 0.00041356786922352274 0.0040887628826092983 0 0.0004247052774496661 0.0040953097659502963 0 0.00041718877731725866 0.0040961528817944712 0 0.00042056595439249035 0.0040871421013276244 0 0.00046903554331116084 0.0039660696205205343 0 0.00049987701978027803 0.004007595794566699 0 0.00053488079398908656 0.0039700404498013578 0 0.00045964370407155391 0.0039559786707368122 0 0.00050722183369378174 0.0039443790182783524 0 0.00047578563556159207 0.0039296423855662748 0 0.00044245877287451684 0.0040013515076661897 0 0.00045964370407155391 0.0039559786707368122 0 0.00050722183369378174 0.0039443790182783524 0 0.00044245877287451684 0.0040013515076661897 0 0.00046903554331116084 0.0039660696205205343 0 0.00046704416997490374 0.0040056945712459617 0 0.00044535637197609847 0.0039984669551943004 0 0.00048724019100743334 0.0039551796319716752 0 0.00046903554331116084 0.0039660696205205343 0 0.00046704416997490374 0.0040056945712459617 0 0.00049987701978027803 0.004007595794566699 0 0.00046853205778684125 0.0040283234952181741 0 0.00048053970811270306 0.0040205887993189178 0 0.00047153035715274413 0.0040046284840221848 0 0.00046877508093061122 0.0040293225146855616 0 0.0004913826830283632 0.0039965070482337996 0 0.00046704416997490374 0.0040056945712459617 0 0.00046853205778684125 0.0040283234952181741 0 0.00049987701978027803 0.004007595794566699 0 0.00044245877287451684 0.0040013515076661897 0 0.00046704416997490374 0.0040056945712459617 0 0.00044945690879999412 0.0040278311198360004 0 0.00046704416997490374 0.0040056945712459617 0 0.00044945690879999412 0.0040278311198360004 0 0.00046853205778684125 0.0040283234952181741 0 0.00047457636570296438 0.0040385036300723065 0 0.0004445013709639633 0.0040460352294990802 0 0.00046853205778684125 0.0040283234952181741 0 0.0004445013709639633 0.0040460352294990802 0 0.00044945690879999412 0.0040278311198360004 0 0.00046853205778684125 0.0040283234952181741 0 0.00047457636570296438 0.0040385036300723065 0 0.00046853205778684125 0.0040283234952181741 0 0.00048053970811270306 0.0040205887993189178 0 0.00047457636570296438 0.0040385036300723065 0 0.00048053970811270306 0.0040205887993189178 0 0.00048618635249070286 0.0040283320773904976 0 0.00048808904695919162 0.0040212087036123065 0 0.00048053970811270306 0.0040205887993189178 0 0.00048618635249070286 0.0040283320773904976 0 0.00048808904695919162 0.0040212087036123065 0 0.00048484873156723384 0.0040191240612553912 0 0.00048830425528913028 0.0040247317208086161 0 0.00048808904695919162 0.0040212087036123065 0 0.00048830425528913028 0.0040247317208086161 0 0.00048618635249070286 0.0040283320773904976 0 0.00048808904695919162 0.0040212087036123065 0 0.00048822970251148433 0.0040081251211154254 0 0.00048993760755562145 0.0040165986002790761 0 0.00048808904695919162 0.0040212087036123065 0 0.00048822970251148433 0.0040081251211154254 0 0.00048053970811270306 0.0040205887993189178 0 0.00048822970251148433 0.0040081251211154254 0 0.00048053970811270306 0.0040205887993189178 0 0.00047153035715274413 0.0040046284840221848 0 0.0004913826830283632 0.0039965070482337996 0 0.00048265404988295172 0.0040145140111751366 0 0.00048822970251148433 0.0040081251211154254 0 0.00047153035715274413 0.0040046284840221848 0 0.00047848616423679802 0.0039819522854146793 0 0.00048822970251148433 0.0040081251211154254 0 0.00047848616423679802 0.0039819522854146793 0 0.00050011290610355464 0.0039842912216737133 0 0.00066216995390511082 0.003751132576186476 0 0.00076447622543931331 0.0035394966655221036 0 0.00049318117268348717 0.0039544337366432302 0 0.00047848616423679802 0.0039819522854146793 0 0.00050011290610355464 0.0039842912216737133 0 0.00051483973204248632 0.0039162143955288808 0 0.00046903554331116084 0.0039660696205205343 0 0.00053488079398908656 0.0039700404498013578 0 0.00078753507180646443 0.0032803666776480243 0 0.00065915302726279098 0.0031757648956546717 0 0.0007805592967713293 0.0030467798945098827 0 0.00078753507180646443 0.0032803666776480243 0 0.0010055735322512605 0.0031213380770468654 0 0.0007805592967713293 0.0030467798945098827 0 0.0010055735322512605 0.0031213380770468654 0 0.0007805592967713293 0.0030467798945098827 0 0.00093267593269989876 0.0028668046715455064 0 0.00048822970251148433 0.0040081251211154254 0 0.00050011290610355464 0.0039842912216737133 0 0.00049764207580035077 0.0040071854339170116 0 0.00076447622543931331 0.0035394966655221036 0 0.00070887530041996005 0.0034236716649862992 0 0.00070024007641639261 0.0028443275841202381 0 0.0007805592967713293 0.0030467798945098827 0 0.00093267593269989876 0.0028668046715455064 0 0.00079246470910607919 0.0027399490706953794 0 0.00093267593269989876 0.0028668046715455064 0 0.00084234215339541697 0.002601201326708295 0 0.00070887530041996005 0.0034236716649862992 0 0.00067093562075812643 0.0033754946645599185 0 0.00070024007641639261 0.0028443275841202381 0 0.00079246470910607919 0.0027399490706953794 0 0.00093267593269989876 0.0028668046715455064 0 0.0007072001516385143 0.0026929710254380208 0 0.00070024007641639261 0.0028443275841202381 0 0.00079246470910607919 0.0027399490706953794 0 0.00048822970251148433 0.0040081251211154254 0 0.00049764207580035077 0.0040071854339170116 0 0.00048993760755562145 0.0040165986002790761 0 0.00049764207580035077 0.0040071854339170116 0 0.00048993760755562145 0.0040165986002790761 0 0.00048218604429684951 0.004017917455163892 0 0.00048993760755562145 0.0040165986002790761 0 0.00048218604429684951 0.004017917455163892 0 0.00048484873156723384 0.0040191240612553912 0 0.00048808904695919162 0.0040212087036123065 0 0.00048993760755562145 0.0040165986002790761 0 0.00048484873156723384 0.0040191240612553912 0 0.00079246470910607919 0.0027399490706953794 0 0.00084234215339541697 0.002601201326708295 0 0.00076739268955208328 0.0025953859698086001 0 0.0007072001516385143 0.0026929710254380208 0 0.00079246470910607919 0.0027399490706953794 0 0.00076739268955208328 0.0025953859698086001 0 0.00067093562075812643 0.0033754946645599185 0 0.00063465389737155998 0.0028917980683326461 0 0.00079147864764704567 0.0023416710080990358 0 0.00063465389737155998 0.0028917980683326461 0 0.00048218604429684951 0.004017917455163892 0 0.0004748377854129843 0.0040105747838728731 0 0.00045729868003824183 0.0040006702259764489 0 0.00084234215339541697 0.002601201326708295 0 0.00076739268955208328 0.0025953859698086001 0 0.00076320142527689294 0.0024419859296967408 0 0.00048218604429684951 0.004017917455163892 0 0.0004748377854129843 0.0040105747838728731 0 0.00048484873156723384 0.0040191240612553912 0 0.00045729868003824183 0.0040006702259764489 0 0.00046494269158453447 0.0039954516366795369 0 0.00045030942404191218 0.0039801357358561166 0 0.00063465389737155998 0.0028917980683326461 0 0.00032328964787060118 0.0035302807013744015 0 0.00045729868003824183 0.0040006702259764489 0 0.00044715722953581798 0.0039778796912855324 0 0.00045030942404191218 0.0039801357358561166 0 0.0004748377854129843 0.0040105747838728731 0 0.00045729868003824183 0.0040006702259764489 0 0.00046494269158453447 0.0039954516366795369 0 0.0004748377854129843 0.0040105747838728731 0 0.00046494269158453447 0.0039954516366795369 0 0.00048296691056109938 0.0040132612984444668 0 0.00046494269158453447 0.0039954516366795369 0 0.00048296691056109938 0.0040132612984444668 0 0.00047542125413493907 0.0039885718629496629 0 0.00048296691056109938 0.0040132612984444668 0 0.00049633913015178892 0.0039926452881849494 0 0.00047542125413493907 0.0039885718629496629 0 0.0004748377854129843 0.0040105747838728731 0 0.00048296691056109938 0.0040132612984444668 0 0.00048484873156723384 0.0040191240612553912 0 0.00048296691056109938 0.0040132612984444668 0 0.00048484873156723384 0.0040191240612553912 0 0.00048830425528913028 0.0040247317208086161 0 0.00048296691056109938 0.0040132612984444668 0 0.00048830425528913028 0.0040247317208086161 0 0.00049196485643065004 0.0040361124293598824 0 0.00048830425528913028 0.0040247317208086161 0 0.00048618635249070286 0.0040283320773904976 0 0.00049196485643065004 0.0040361124293598824 0 0.00047457636570296438 0.0040385036300723065 0 0.00048618635249070286 0.0040283320773904976 0 0.00049196485643065004 0.0040361124293598824 0 0.00047910644485747868 0.0040679318994998256 0 0.00047457636570296438 0.0040385036300723065 0 0.00049196485643065004 0.0040361124293598824 0 0.00047910644485747868 0.0040679318994998256 0 0.00049196485643065004 0.0040361124293598824 0 0.00049113780250314542 0.0040671718037111563 0 0.00048296691056109938 0.0040132612984444668 0 0.00049196485643065004 0.0040361124293598824 0 0.00049633913015178892 0.0039926452881849494 0 0.00049488636856988874 0.004038788206350884 0 0.000483586236627002 0.0040137717935695757 0 0.000483586236627002 0.0040137717935695757 0 0.00052270200525219549 0.0040806730218024686 0 0.00047910644485747868 0.0040679318994998256 0 0.00049113780250314542 0.0040671718037111563 0 0.00048233840349472983 0.0040770213475510584 0 0.00048233840349472983 0.0040770213475510584 0 0.00047866980079647588 0.0040732480446632746 0 0.0004770796920133276 0.0040692768769202249 0 0.00049113780250314542 0.0040671718037111563 0 0.00048233840349472983 0.0040770213475510584 0 0.00047866980079647588 0.0040732480446632746 0 0.00048653093964673585 0.0039540651480670661 0 0.00046468790996980109 0.0039463364603072688 0 0.00046685185315024062 0.0039150334146313085 0 0.00048653093964673585 0.0039540651480670661 0 0.00046468790996980109 0.0039463364603072688 0 0.00046428605115217256 0.003964735415933781 0 0.00046468790996980109 0.0039463364603072688 0 0.00044076994001852763 0.0039509845048927858 0 0.00046685185315024062 0.0039150334146313085 0 0.00044076994001852763 0.0039509845048927858 0 0.00046428605115217256 0.003964735415933781 0 0.00045299787423084311 0.0039712379538973828 0 0.00046468790996980109 0.0039463364603072688 0 0.00044076994001852763 0.0039509845048927858 0 0.00046428605115217256 0.003964735415933781 0 0.00010035406788853405 0.0034402495849521386 0 0.00032328964787060118 0.0035302807013744015 0 0.00046428605115217256 0.003964735415933781 0 0.00046264571867909722 0.0039813824211349831 0 0.00047542125413493907 0.0039885718629496629 0 0.00044076994001852763 0.0039509845048927858 0 0.00045299787423084311 0.0039712379538973828 0 0.00044584264619215572 0.0039775640987626216 0 0.00046428605115217256 0.003964735415933781 0 0.00045299787423084311 0.0039712379538973828 0 0.00046264571867909722 0.0039813824211349831 0 0.00045299787423084311 0.0039712379538973828 0 0.00045030942404191218 0.0039801357358561166 0 0.00046264571867909722 0.0039813824211349831 0 0.00045299787423084311 0.0039712379538973828 0 0.00044584264619215572 0.0039775640987626216 0 0.00045030942404191218 0.0039801357358561166 0 0.00032328964787060118 0.0035302807013744015 0 0.00037313723811482202 0.0035845041283948014 0 0.00046494269158453447 0.0039954516366795369 0 0.00046264571867909722 0.0039813824211349831 0 0.00047542125413493907 0.0039885718629496629 0 0.00046494269158453447 0.0039954516366795369 0 0.00045030942404191218 0.0039801357358561166 0 0.00046264571867909722 0.0039813824211349831 0 0.00048653093964673585 0.0039540651480670661 0 0.00046428605115217256 0.003964735415933781 0 0.00047542125413493907 0.0039885718629496629 0 0.00049633913015178892 0.0039926452881849494 0 0.00048653093964673585 0.0039540651480670661 0 0.00047542125413493907 0.0039885718629496629 0 0.00046788462732052827 0.0040631308464119647 0 0.000472151441058333 0.0040654333861294134 0 0.00046985353578678256 0.0040547475151591237 0 1.8605602469743289e-05 0.0035946308473275065 0 9.7573410582861014e-05 0.0034939447506096423 0 2.2201979907865869e-05 0.0034519805537059759 0 0.00019773376338963773 0.0036622996086777054 0 0.00028326041585292514 0.0038000553004848749 0 0.00019773376338963773 0.0036622996086777054 0 1.2406005069761599e-05 0.0032635616237605275 0 4.0782662150719966e-05 0.0032988431852027751 0 5.2795794148818902e-05 0.0032832904589910044 0 -4.4860201980200701e-06 0.0032154529921967845 0 -2.2855186246344692e-05 0.0032809283033972216 0 5.5693798607922288e-05 0.0033161055419405946 0 -4.4860201980200701e-06 0.0032154529921967845 0 -2.2855186246344692e-05 0.0032809283033972216 0 -4.4860201980200701e-06 0.0032154529921967845 0 -1.8486872192996797e-05 0.003166146938496824 0 5.2795794148818902e-05 0.0032832904589910044 0 -4.4860201980200701e-06 0.0032154529921967845 0 1.7543150206725819e-05 0.0031846361196246451 0 0.00024298880508611881 0.0036650692975879785 0 -8.2017307298923501e-05 0.0030739743530167726 0 9.7718771041091689e-07 0.0031738722767928589 0 1.314617831484437e-05 0.003152984990260425 0 0.00010035406788853405 0.0034402495849521386 0 0.00024298880508611881 0.0036650692975879785 0 -2.0306823558007511e-05 0.0034118273632956558 0 -2.2855186246344692e-05 0.0032809283033972216 0 5.5693798607922288e-05 0.0033161055419405946 0 0.00010035406788853405 0.0034402495849521386 0 9.7718771041091689e-07 0.0031738722767928589 0 0.00052270200525219549 0.0040806730218024686 0 0.00024298880508611881 0.0036650692975879785 0 0.00047866980079647588 0.0040732480446632746 0 0.00046808794167225944 0.004063950755391163 0 0.000472151441058333 0.0040654333861294134 0 0.00047866980079647588 0.0040732480446632746 0 0.00046572613942440097 0.0040641032219899164 0 0.00046808794167225944 0.004063950755391163 0 0.00046808794167225944 0.004063950755391163 0 0.00046788462732052827 0.0040631308464119647 0 0.000472151441058333 0.0040654333861294134 0 0.00046572613942440097 0.0040641032219899164 0 0.00046808794167225944 0.004063950755391163 0 0.00046752783225911744 0.0040594205148998409 0 0.00022033744316190277 0.0037946303774979732 0 0.00019773376338963773 0.0036622996086777054 0 0.00024298880508611881 0.0036650692975879785 0 0.00019773376338963773 0.0036622996086777054 0 0.00047866980079647588 0.0040732480446632746 0 0.000472151441058333 0.0040654333861294134 0 0.0004770796920133276 0.0040692768769202249 0 0.00048233840349472983 0.0040770213475510584 0 0.0004770796920133276 0.0040692768769202249 0 0.00048246589855947992 0.0040753859405625288 0 0.0004770796920133276 0.0040692768769202249 0 0.00048316655086959748 0.0040586161527371312 0 0.00048246589855947992 0.0040753859405625288 0 0.0004770796920133276 0.0040692768769202249 0 0.00046985353578678256 0.0040547475151591237 0 0.00048316655086959748 0.0040586161527371312 0 0.000472151441058333 0.0040654333861294134 0 0.0004770796920133276 0.0040692768769202249 0 0.00046985353578678256 0.0040547475151591237 0 9.7573410582861014e-05 0.0034939447506096423 0 0.0001061916293474946 0.0034636899728044857 0 0.00016643034294293421 0.0034269554255789286 0 9.7573410582861014e-05 0.0034939447506096423 0 0.0001061916293474946 0.0034636899728044857 0 2.2201979907865869e-05 0.0034519805537059759 0 0.00028326041585292514 0.0038000553004848749 0 0.00031995762701137598 0.0037358783103214506 0 0.00046985353578678256 0.0040547475151591237 0 0.00047489912564093183 0.0040397701637039304 0 0.00048316655086959748 0.0040586161527371312 0 0.00016643034294293421 0.0034269554255789286 0 0.00017153729929920966 0.0034165520700153089 0 0.00023123135978175537 0.0033813054127811446 0 0.0001061916293474946 0.0034636899728044857 0 0.00016643034294293421 0.0034269554255789286 0 0.00017153729929920966 0.0034165520700153089 0 0.00018590333025236694 0.0033700255529013796 0 0.00013982788590994141 0.0033620159677585737 0 0.00016659326769106079 0.0033365283648879741 0 0.00010546037433798921 0.003470803737437926 0 0.00018136446775912301 0.0033566785763327962 0 0.0001061916293474946 0.0034636899728044857 0 0.00018590333025236694 0.0033700255529013796 0 0.00011782966109834508 0.0033947218727113913 0 0.0001061916293474946 0.0034636899728044857 0 7.2204672376598506e-05 0.0033949444659886288 0 0.00011782966109834508 0.0033947218727113913 0 0.00011782966109834508 0.0033947218727113913 0 0.00013982788590994141 0.0033620159677585737 0 9.6396024446029473e-05 0.0033504026495744803 0 0.00018590333025236694 0.0033700255529013796 0 0.00011782966109834508 0.0033947218727113913 0 0.00013982788590994141 0.0033620159677585737 0 7.2204672376598506e-05 0.0033949444659886288 0 0.00011782966109834508 0.0033947218727113913 0 9.6396024446029473e-05 0.0033504026495744803 0 7.2204672376598506e-05 0.0033949444659886288 0 9.6396024446029473e-05 0.0033504026495744803 0 2.4923389996527075e-05 0.0032999386309394358 0 4.5781643760046411e-05 0.0031726584929241738 0 1.7178223530298967e-05 0.003150076425260555 0 2.784624138931598e-05 0.0031296220624407556 0 7.2204672376598506e-05 0.0033949444659886288 0 2.2201979907865869e-05 0.0034519805537059759 0 2.4923389996527075e-05 0.0032999386309394358 0 1.2406005069761599e-05 0.0032635616237605275 0 3.1187796976542458e-05 0.0032263170168216277 0 0.0001061916293474946 0.0034636899728044857 0 7.2204672376598506e-05 0.0033949444659886288 0 2.2201979907865869e-05 0.0034519805537059759 0 5.2795794148818902e-05 0.0032832904589910044 0 4.5781643760046411e-05 0.0031726584929241738 0 1.7543150206725819e-05 0.0031846361196246451 0 -4.4860201980200701e-06 0.0032154529921967845 0 1.7543150206725819e-05 0.0031846361196246451 0 -1.8486872192996797e-05 0.003166146938496824 0 1.7543150206725819e-05 0.0031846361196246451 0 -3.9534818024450262e-06 0.0031564582058858457 0 1.7178223530298967e-05 0.003150076425260555 0 4.5781643760046411e-05 0.0031726584929241738 0 1.7543150206725819e-05 0.0031846361196246451 0 1.7178223530298967e-05 0.003150076425260555 0 1.7543150206725819e-05 0.0031846361196246451 0 -1.8486872192996797e-05 0.003166146938496824 0 -3.9534818024450262e-06 0.0031564582058858457 0 1.314617831484437e-05 0.003152984990260425 0 6.0394321129365658e-06 0.0031572622507900433 0 -3.9534818024450262e-06 0.0031564582058858457 0 -8.7561080252270775e-08 0.0031445002264165194 0 1.7178223530298967e-05 0.003150076425260555 0 -7.5334773161460558e-06 0.0031454291090369435 0 -3.9534818024450262e-06 0.0031564582058858457 0 -8.7561080252270775e-08 0.0031445002264165194 0 1.7178223530298967e-05 0.003150076425260555 0 9.6268261527191004e-06 0.0031375600929568243 0 2.784624138931598e-05 0.0031296220624407556 0 -8.7561080252270775e-08 0.0031445002264165194 0 1.7178223530298967e-05 0.003150076425260555 0 9.6268261527191004e-06 0.0031375600929568243 0 -7.7863498075153088e-06 0.0031357223512088056 0 -8.7561080252270775e-08 0.0031445002264165194 0 9.6268261527191004e-06 0.0031375600929568243 0 9.6268261527191004e-06 0.0031375600929568243 0 4.9496491760401863e-06 0.0031292714539405565 0 2.784624138931598e-05 0.0031296220624407556 0 4.9496491760401863e-06 0.0031292714539405565 0 2.784624138931598e-05 0.0031296220624407556 0 1.1366285540452654e-05 0.0031231058980120798 0 2.784624138931598e-05 0.0031296220624407556 0 1.1366285540452654e-05 0.0031231058980120798 0 4.1022388389026887e-05 0.0031335019005789208 0 3.1187796976542458e-05 0.0032263170168216277 0 3.8090825416761501e-05 0.0031316661013875342 0 2.4923389996527075e-05 0.0032999386309394358 0 4.1022388389026887e-05 0.0031335019005789208 0 0.00010416327171896025 0.003202439421035516 0 1.1366285540452654e-05 0.0031231058980120798 0 1.7705888102363115e-05 0.0031070850582403057 0 4.1022388389026887e-05 0.0031335019005789208 0 1.7705888102363115e-05 0.0031070850582403057 0 4.1022388389026887e-05 0.0031335019005789208 0 4.7116689606701367e-05 0.00309837580465216 0 4.1022388389026887e-05 0.0031335019005789208 0 4.7116689606701367e-05 0.00309837580465216 0 8.8309707118864857e-05 0.0031216824350120717 0 4.7116689606701367e-05 0.00309837580465216 0 5.8176174712443562e-05 0.0030780289813220397 0 3.1410452131531852e-05 0.003086303678901036 0 4.7116689606701367e-05 0.00309837580465216 0 7.3376756999900451e-05 0.0030833457454362383 0 5.8176174712443562e-05 0.0030780289813220397 0 4.7116689606701367e-05 0.00309837580465216 0 7.3376756999900451e-05 0.0030833457454362383 0 8.8309707118864857e-05 0.0031216824350120717 0 7.3376756999900451e-05 0.0030833457454362383 0 5.8176174712443562e-05 0.0030780289813220397 0 6.0113211650617881e-05 0.0030692020578194337 0 9.9011591540890413e-05 0.0030341925089086385 0 0.00025404149208781672 0.0033380063681241992 0 5.8176174712443562e-05 0.0030780289813220397 0 6.0113211650617881e-05 0.0030692020578194337 0 5.7257621961298616e-05 0.0030693557684886943 0 5.8176174712443562e-05 0.0030780289813220397 0 4.2881415736247021e-05 0.0030729873872948192 0 5.7257621961298616e-05 0.0030693557684886943 0 5.8176174712443562e-05 0.0030780289813220397 0 3.1410452131531852e-05 0.003086303678901036 0 4.2881415736247021e-05 0.0030729873872948192 0 1.7705888102363115e-05 0.0031070850582403057 0 4.7116689606701367e-05 0.00309837580465216 0 3.1410452131531852e-05 0.003086303678901036 0 2.5334403894138108e-06 0.003085467379292692 0 3.1410452131531852e-05 0.003086303678901036 0 2.9934291337426902e-05 0.0030639821844294186 0 3.1410452131531852e-05 0.003086303678901036 0 2.9934291337426902e-05 0.0030639821844294186 0 4.2881415736247021e-05 0.0030729873872948192 0 2.5334403894138108e-06 0.003085467379292692 0 1.7705888102363115e-05 0.0031070850582403057 0 3.1410452131531852e-05 0.003086303678901036 0 0.00017089098535742983 0.0031054676467991409 0 0.00017694753986894832 0.0030552591916827979 0 0.00012214759711584979 0.0030918991036539725 0 0.00017089098535742983 0.0031054676467991409 0 0.00017694753986894832 0.0030552591916827979 0 0.00022709234561982166 0.003124276971279373 0 0.00017694753986894832 0.0030552591916827979 0 0.00012214759711584979 0.0030918991036539725 0 6.1554674072933647e-05 0.0030401788791640052 0 0.00032882512678826818 0.0034840326638168905 0 0.00025404149208781672 0.0033380063681241992 0 7.3376756999900451e-05 0.0030833457454362383 0 0.00012214759711584979 0.0030918991036539725 0 6.1554674072933647e-05 0.0030401788791640052 0 7.3376756999900451e-05 0.0030833457454362383 0 0.00012214759711584979 0.0030918991036539725 0 8.8309707118864857e-05 0.0031216824350120717 0 8.8309707118864857e-05 0.0031216824350120717 0 0.0001575842263464333 0.0031492664909137224 0 0.00010416327171896025 0.003202439421035516 0 4.1022388389026887e-05 0.0031335019005789208 0 8.8309707118864857e-05 0.0031216824350120717 0 0.00010416327171896025 0.003202439421035516 0 0.00012214759711584979 0.0030918991036539725 0 8.8309707118864857e-05 0.0031216824350120717 0 0.0001575842263464333 0.0031492664909137224 0 0.0001575842263464333 0.0031492664909137224 0 0.00021579237627389878 0.0032101766398837271 0 0.00022709234561982166 0.003124276971279373 0 0.00017089098535742983 0.0031054676467991409 0 0.0001575842263464333 0.0031492664909137224 0 0.00022709234561982166 0.003124276971279373 0 0.00017089098535742983 0.0031054676467991409 0 0.00012214759711584979 0.0030918991036539725 0 0.0001575842263464333 0.0031492664909137224 0 0.00021579237627389878 0.0032101766398837271 0 0.00015135996297609863 0.0032585431943700257 0 0.00019865806731576827 0.0032979140914931671 0 0.0001575842263464333 0.0031492664909137224 0 0.00021579237627389878 0.0032101766398837271 0 0.00015637299374682501 0.0032038524852608646 0 0.00021579237627389878 0.0032101766398837271 0 0.00015637299374682501 0.0032038524852608646 0 0.00015135996297609863 0.0032585431943700257 0 0.0001575842263464333 0.0031492664909137224 0 0.00015637299374682501 0.0032038524852608646 0 0.00010416327171896025 0.003202439421035516 0 0.00015637299374682501 0.0032038524852608646 0 0.00010416327171896025 0.003202439421035516 0 0.00015135996297609863 0.0032585431943700257 0 0.00010416327171896025 0.003202439421035516 0 0.00015135996297609863 0.0032585431943700257 0 0.00010410113474690443 0.0032858629655007294 0 2.4923389996527075e-05 0.0032999386309394358 0 0.00010416327171896025 0.003202439421035516 0 0.00010410113474690443 0.0032858629655007294 0 0.00015135996297609863 0.0032585431943700257 0 0.00010410113474690443 0.0032858629655007294 0 0.00014085544049309654 0.0033172085726489368 0 0.00013982788590994141 0.0033620159677585737 0 0.00014085544049309654 0.0033172085726489368 0 0.00016659326769106079 0.0033365283648879741 0 0.00013982788590994141 0.0033620159677585737 0 9.6396024446029473e-05 0.0033504026495744803 0 0.00014085544049309654 0.0033172085726489368 0 9.6396024446029473e-05 0.0033504026495744803 0 0.00010410113474690443 0.0032858629655007294 0 0.00014085544049309654 0.0033172085726489368 0 9.6396024446029473e-05 0.0033504026495744803 0 2.4923389996527075e-05 0.0032999386309394358 0 0.00010410113474690443 0.0032858629655007294 0 0.00021579237627389878 0.0032101766398837271 0 0.00019865806731576827 0.0032979140914931671 0 0.0002548951127249857 0.0032872054758805564 0 0.00031995762701137598 0.0037358783103214506 0 0.00036667860049409792 0.0036599707588908553 0 0.00018136446775912301 0.0033566785763327962 0 0.00036667860049409792 0.0036599707588908553 0 0.00018590333025236694 0.0033700255529013796 0 0.00019865806731576827 0.0032979140914931671 0 0.0002548951127249857 0.0032872054758805564 0 0.00015135996297609863 0.0032585431943700257 0 0.00014085544049309654 0.0033172085726489368 0 0.00019865806731576827 0.0032979140914931671 0 0.00014085544049309654 0.0033172085726489368 0 0.00019865806731576827 0.0032979140914931671 0 0.00016659326769106079 0.0033365283648879741 0 0.00018590333025236694 0.0033700255529013796 0 0.00019865806731576827 0.0032979140914931671 0 0.00016659326769106079 0.0033365283648879741 0 0.00048556294172117607 0.0040219208461209424 0 0.00049744259242240948 0.0040238470139145419 0 0.00049237171975388173 0.0040379670267469787 0 0.00048556294172117607 0.0040219208461209424 0 0.00049744259242240948 0.0040238470139145419 0 0.00049499652120712449 0.0040124174898446959 0 0.00049744259242240948 0.0040238470139145419 0 0.00050970632339729393 0.0040299320692148977 0 0.00049237171975388173 0.0040379670267469787 0 0.00049744259242240948 0.0040238470139145419 0 0.00050369409681297404 0.0040155658123443988 0 0.00050970632339729393 0.0040299320692148977 0 0.00050369409681297404 0.0040155658123443988 0 0.00049499652120712449 0.0040124174898446959 0 0.00050644967009887696 0.0040039654857122022 0 0.00049744259242240948 0.0040238470139145419 0 0.00050369409681297404 0.0040155658123443988 0 0.00049499652120712449 0.0040124174898446959 0 0.00048653628180403468 0.0040125534395368933 0 0.00051100354507305267 0.0039953382181833865 0 0.00051182874916395091 0.0039790070512072265 0 0.00051015020036784104 0.0039966449093763422 0 0.00050644967009887696 0.0040039654857122022 0 0.00036667860049409792 0.0036599707588908553 0 0.0004426864487912274 0.0035266885243870837 0 0.00021579237627389878 0.0032101766398837271 0 0.0002548951127249857 0.0032872054758805564 0 0.00032932115998490297 0.003192695658222818 0 0.00051897081265250627 0.0039502577185699297 0 0.00051182874916395091 0.0039790070512072265 0 0.00051015020036784104 0.0039966449093763422 0 0.00036667860049409792 0.0036599707588908553 0 0.00048653628180403468 0.0040125534395368933 0 0.00021579237627389878 0.0032101766398837271 0 0.00022709234561982166 0.003124276971279373 0 0.00032932115998490297 0.003192695658222818 0 0.00022709234561982166 0.003124276971279373 0 0.00032932115998490297 0.003192695658222818 0 0.00029414243075444405 0.0030812782049219733 0 0.00051015020036784104 0.0039966449093763422 0 0.00050644967009887696 0.0040039654857122022 0 0.00050357059645450477 0.0040189977261889135 0 0.00044775578619811717 0.0038660450026379695 0 0.00041377002316897487 0.0038611729479683635 0 0.0004214892789630845 0.0038932401683150152 0 0.00032932115998490297 0.003192695658222818 0 0.00029414243075444405 0.0030812782049219733 0 0.00040360656278086443 0.0031075655615680855 0 0.000357545480904379 0.0034263885220085703 0 0.00043113384894378728 0.0038996524870904782 0 0.00017694753986894832 0.0030552591916827979 0 0.00022709234561982166 0.003124276971279373 0 0.00029414243075444405 0.0030812782049219733 0 0.00032882512678826818 0.0034840326638168905 0 0.000357545480904379 0.0034263885220085703 0 0.00040722381257476053 0.004354436964351594 0 0.00033647731550384073 0.0046293022072734251 0 0.00034621135345570548 0.00472454809271757 0 0.00042295846860828913 0.0046541309528884914 0 0.0003014343624014681 0.0046390112258219299 0 0.00034621135345570548 0.00472454809271757 0 0.00050068958977872858 0.0046635799839707158 0 0.00034584473018942633 0.0048470486620431682 0 0.00034621135345570548 0.00472454809271757 0 0.00042295846860828913 0.0046541309528884914 0 0.00050068958977872858 0.0046635799839707158 0 0.00040722381257476053 0.004354436964351594 0 0.00043113384894378728 0.0038996524870904782 0 0.00049826406001800857 0.0040164239392538317 0 0.00050357059645450477 0.0040189977261889135 0 0.00050397063201296081 0.0040115111998468098 0 0.00040722381257476053 0.004354436964351594 0 0.00048936500519142201 0.0042394999656164703 0 0.00049826406001800857 0.0040164239392538317 0 0.00050397063201296081 0.0040115111998468098 0 0.00050869599719657258 0.0040097773687826545 0 0.0004426864487912274 0.0035266885243870837 0 0.00043113384894378728 0.0038996524870904782 0 0.00050644967009887696 0.0040039654857122022 0 0.00050357059645450477 0.0040189977261889135 0 0.00050397063201296081 0.0040115111998468098 0 0.00050644967009887696 0.0040039654857122022 0 0.00050397063201296081 0.0040115111998468098 0 0.00050869599719657258 0.0040097773687826545 0 0.00041592970663939527 0.0046517402290901268 0 0.00036609935564196227 0.0045443103391575477 0 0.00045997466843020256 0.0044773374926379891 0 0.00041592970663939527 0.0046517402290901268 0 0.00036609935564196227 0.0045443103391575477 0 0.0003014343624014681 0.0046390112258219299 0 0.00036609935564196227 0.0045443103391575477 0 0.00045997466843020256 0.0044773374926379891 0 0.00040874820973923521 0.0043847778608767565 0 0.00036609935564196227 0.0045443103391575477 0 0.00040874820973923521 0.0043847778608767565 0 0.00032684263973170705 0.0043845885997929749 0 0.00050369409681297404 0.0040155658123443988 0 0.00050869599719657258 0.0040097773687826545 0 0.00050970632339729393 0.0040299320692148977 0 0.00050369409681297404 0.0040155658123443988 0 0.00050644967009887696 0.0040039654857122022 0 0.00050869599719657258 0.0040097773687826545 0 0.00045997466843020256 0.0044773374926379891 0 0.00047927355105974314 0.00433962481597433 0 0.00040874820973923521 0.0043847778608767565 0 0.00048936500519142201 0.0042394999656164703 0 0.00049308818859035365 0.0041875725086888502 0 0.00047927355105974314 0.00433962481597433 0 0.00040874820973923521 0.0043847778608767565 0 0.00038039568673501619 0.0043059377980630004 0 0.00040874820973923521 0.0043847778608767565 0 0.00038039568673501619 0.0043059377980630004 0 0.00032684263973170705 0.0043845885997929749 0 0.00047927355105974314 0.00433962481597433 0 0.00038039568673501619 0.0043059377980630004 0 0.00042155846763534027 0.004246613329292841 0 0.00042155846763534027 0.004246613329292841 0 0.00039676872444656679 0.0041953167115435673 0 0.00035877071050073172 0.0042410808988736885 0 0.00038039568673501619 0.0043059377980630004 0 0.00042155846763534027 0.004246613329292841 0 0.00035877071050073172 0.0042410808988736885 0 0.00042155846763534027 0.004246613329292841 0 0.00048744211610551234 0.0042476541247077424 0 0.00044020270953981985 0.0041772616117824396 0 0.00049308818859035365 0.0041875725086888502 0 0.00049584487799702139 0.0041497884575125293 0 0.00047927355105974314 0.00433962481597433 0 0.00042155846763534027 0.004246613329292841 0 0.00048744211610551234 0.0042476541247077424 0 0.00050970632339729393 0.0040299320692148977 0 0.00049237171975388173 0.0040379670267469787 0 0.00050448670884171575 0.0040509249092269039 0 0.00047489912564093183 0.0040397701637039304 0 0.00048556294172117607 0.0040219208461209424 0 0.00049237171975388173 0.0040379670267469787 0 0.00049237171975388173 0.0040379670267469787 0 0.00050448670884171575 0.0040509249092269039 0 0.00048316655086959748 0.0040586161527371312 0 0.00047489912564093183 0.0040397701637039304 0 0.00049237171975388173 0.0040379670267469787 0 0.00048316655086959748 0.0040586161527371312 0 0.00049584487799702139 0.0041497884575125293 0 0.00049273080966418285 0.0041199635081818429 0 0.00050448670884171575 0.0040509249092269039 0 0.0004978253711256605 0.0040699068026941697 0 0.00048316655086959748 0.0040586161527371312 0 0.0004978253711256605 0.0040699068026941697 0 0.00048316655086959748 0.0040586161527371312 0 0.00048246589855947992 0.0040753859405625288 0 0.00048296357756602007 0.0040933063964560534 0 0.0004978253711256605 0.0040699068026941697 0 0.00048246589855947992 0.0040753859405625288 0 0.00044728743978234779 0.0041171740892959174 0 0.00048296357756602007 0.0040933063964560534 0 0.00049026207281666642 0.0041690453494602868 0 0.00048586913102990757 0.0040963745335687142 0 0.00049273080966418285 0.0041199635081818429 0 0.00044728743978234779 0.0041171740892959174 0 0.00049026207281666642 0.0041690453494602868 0 0.00044020270953981985 0.0041772616117824396 0 0.0003971550740279178 0.0041369649251129991 0 0.00039676872444656679 0.0041953167115435673 0 0.00044020270953981985 0.0041772616117824396 0 0.00044728743978234779 0.0041171740892959174 0 0.0003971550740279178 0.0041369649251129991 0 0.00044020270953981985 0.0041772616117824396 0 0.00042155846763534027 0.004246613329292841 0 0.00039676872444656679 0.0041953167115435673 0 0.00044020270953981985 0.0041772616117824396 0 0.00048744211610551234 0.0042476541247077424 0 0.00049026207281666642 0.0041690453494602868 0 0.00044020270953981985 0.0041772616117824396 0 0.00032797844888505612 0.0042061835722720002 0 0.00031878281877878673 0.0042375786881381208 0 0.0003244535895075671 0.0042498741366089072 0 0.0003206096589132862 0.0042345894788311748 0 0.00031769481280348688 0.0042402946196109627 0 0.00035621537668564725 0.0041909896815271836 0 0.0003283796265361022 0.004160243328179985 0 0.00031769481280348688 0.0042402946196109627 0 0.00035621537668564725 0.0041909896815271836 0 0.00031769481280348688 0.0042402946196109627 0 0.00035877071050073172 0.0042410808988736885 0 0.00039676872444656679 0.0041953167115435673 0 0.00035621537668564725 0.0041909896815271836 0 0.00035877071050073172 0.0042410808988736885 0 0.0003971550740279178 0.0041369649251129991 0 0.00035621537668564725 0.0041909896815271836 0 0.00036282350886609685 0.0041365314156266535 0 0.0003971550740279178 0.0041369649251129991 0 0.00039676872444656679 0.0041953167115435673 0 0.00035621537668564725 0.0041909896815271836 0 0.00035621537668564725 0.0041909896815271836 0 0.00036282350886609685 0.0041365314156266535 0 0.0003283796265361022 0.004160243328179985 0 0.0003244535895075671 0.0042498741366089072 0 0.0003313833621802729 0.0042498194286089922 0 0.0003206096589132862 0.0042345894788311748 0 0.0003313833621802729 0.0042498194286089922 0 0.00034556404674302875 0.0042557447271715345 0 0.0003206096589132862 0.0042345894788311748 0 0.00019737855797221623 0.0043245386547030532 0 0.00022571300106375303 0.0042551631509000834 0 0.00033628915804080107 0.0042579984357644486 0 0.0003244535895075671 0.0042498741366089072 0 0.0003313833621802729 0.0042498194286089922 0 0.00033628915804080107 0.0042579984357644486 0 0.0003313833621802729 0.0042498194286089922 0 0.00034556404674302875 0.0042557447271715345 0 9.076889346777414e-05 0.0042427052247943518 0 7.6897745092228454e-05 0.0042806499880911333 0 0.00012958610272425169 0.0043003866074881134 0 8.0553771085503007e-06 0.0049230606496871686 0 1.2890698788800802e-05 0.0049226678058212009 0 9.9889027298631853e-06 0.0049207291402407509 0 0.00011299528106022026 0.0044599566109108403 0 0.00013227996280652804 0.0044922824116458652 0 9.7722625256944334e-05 0.0045914332087295517 0 0.00014292457775948669 0.0045947662965728879 0 5.2461372530785664e-05 0.0046172678641943849 0 0.00019737855797221623 0.0043245386547030532 0 5.2461372530785664e-05 0.0046172678641943849 0 5.2461372530785664e-05 0.0046172678641943849 0 1.2290867354158905e-05 0.0048143160697972451 0 7.6897745092228454e-05 0.0042806499880911333 0 0.00012958610272425169 0.0043003866074881134 0 6.4475559904273981e-05 0.0043532730176570706 0 0.00012958610272425169 0.0043003866074881134 0 0.00012057184055897173 0.0043508784855810336 0 6.4475559904273981e-05 0.0043532730176570706 0 0.00012958610272425169 0.0043003866074881134 0 0.00012057184055897173 0.0043508784855810336 0 0.00017868791275258951 0.0043626303353530215 0 4.2593986353337803e-05 0.0046095089942836962 0 3.4494790475144541e-05 0.0046765708955794853 0 2.448086495465179e-05 0.0046598761333416661 0 5.2461372530785664e-05 0.0046172678641943849 0 5.5231245668195958e-05 0.0044544914215269337 0 5.5231245668195958e-05 0.0044544914215269337 0 1.7425624215944115e-05 0.0047046521138889756 0 6.4475559904273981e-05 0.0043532730176570706 0 8.9077304283057411e-05 0.0043995772627036921 0 4.7742855713246529e-05 0.0044430505029891361 0 0.00012057184055897173 0.0043508784855810336 0 6.4475559904273981e-05 0.0043532730176570706 0 8.9077304283057411e-05 0.0043995772627036921 0 0.00012057184055897173 0.0043508784855810336 0 8.9077304283057411e-05 0.0043995772627036921 0 0.00012723391073726995 0.0044184183728528548 0 0.00012057184055897173 0.0043508784855810336 0 0.00017868791275258951 0.0043626303353530215 0 0.00012723391073726995 0.0044184183728528548 0 0.00024584010115362827 0.0043241817289053405 0 0.00029209426785306781 0.0044131170052348718 0 0.00030851569248888067 0.0042758405383787777 0 0.00031769481280348688 0.0042402946196109627 0 0.00035877071050073172 0.0042410808988736885 0 0.00022571300106375303 0.0042551631509000834 0 0.00024584010115362827 0.0043241817289053405 0 0.0003206096589132862 0.0042345894788311748 0 0.00030851569248888067 0.0042758405383787777 0 0.00031769481280348688 0.0042402946196109627 0 0.00038039568673501619 0.0043059377980630004 0 0.00030851569248888067 0.0042758405383787777 0 0.00035877071050073172 0.0042410808988736885 0 0.00038039568673501619 0.0043059377980630004 0 0.00030851569248888067 0.0042758405383787777 0 0.00032684263973170705 0.0043845885997929749 0 0.00017868791275258951 0.0043626303353530215 0 0.00017536914755850503 0.0044317230002414417 0 0.00012723391073726995 0.0044184183728528548 0 0.00017868791275258951 0.0043626303353530215 0 0.00025079319550730232 0.004431736812180522 0 0.00017536914755850503 0.0044317230002414417 0 0.00017536914755850503 0.0044317230002414417 0 0.00017737318729084802 0.0045259646987307195 0 0.00012565145534038113 0.0044791952372887148 0 0.00025079319550730232 0.004431736812180522 0 0.00017536914755850503 0.0044317230002414417 0 0.00017737318729084802 0.0045259646987307195 0 0.00036609935564196227 0.0045443103391575477 0 0.00025079319550730232 0.004431736812180522 0 0.00017737318729084802 0.0045259646987307195 0 0.00036461491331658076 0.0045405976821349444 0 0.00029209426785306781 0.0044131170052348718 0 0.00036609935564196227 0.0045443103391575477 0 0.00017737318729084802 0.0045259646987307195 0 0.0003014343624014681 0.0046390112258219299 0 0.00017737318729084802 0.0045259646987307195 0 0.00017622123780556428 0.0046468481264319112 0 0.0003014343624014681 0.0046390112258219299 0 0.00017737318729084802 0.0045259646987307195 0 0.00017622123780556428 0.0046468481264319112 0 0.00010131396660595565 0.0046122821700579006 0 0.00017622123780556428 0.0046468481264319112 0 0.0002300824732811564 0.0047437063883815009 0 7.8603311807768142e-05 0.0047232979124365053 0 0.00017622123780556428 0.0046468481264319112 0 7.8603311807768142e-05 0.0047232979124365053 0 0.00010131396660595565 0.0046122821700579006 0 0.00017622123780556428 0.0046468481264319112 0 0.0002300824732811564 0.0047437063883815009 0 0.0003014343624014681 0.0046390112258219299 0 0.00034621135345570548 0.00472454809271757 0 0.0002300824732811564 0.0047437063883815009 0 0.0003014343624014681 0.0046390112258219299 0 9.2087672095758619e-05 0.0049005490679738745 0 7.1132007853778984e-05 0.0048877369230805323 0 6.845403991026195e-05 0.0049129135857855109 0 9.2087672095758619e-05 0.0049005490679738745 0 6.845403991026195e-05 0.0049129135857855109 0 9.2549154582166523e-05 0.0049173448637017305 0 9.2087672095758619e-05 0.0049005490679738745 0 0.00012116844227616222 0.0049010352424421026 0 0.00010102721961776673 0.0048801976903074546 0 9.2087672095758619e-05 0.0049005490679738745 0 0.00012116844227616222 0.0049010352424421026 0 9.2549154582166523e-05 0.0049173448637017305 0 9.9748570374723236e-05 0.0048180758134297695 0 7.4381032120373938e-05 0.0046925764203098264 0 0.00016255271241060864 0.004496807417236218 0 7.4381032120373938e-05 0.0046925764203098264 0 7.8603311807768142e-05 0.0047232979124365053 0 0.00010131396660595565 0.0046122821700579006 0 -1.3828582055264752e-05 0.0045630968525400169 0 0.00017737318729084802 0.0045259646987307195 0 0.00010131396660595565 0.0046122821700579006 0 -1.3828582055264752e-05 0.0045630968525400169 0 6.0910487638089296e-05 0.0047817315537143287 0 3.6375971154672105e-05 0.0047413411795236204 0 2.9038206304912483e-06 0.0047948043565220061 0 9.2087672095758619e-05 0.0049005490679738745 0 0.00010102721961776673 0.0048801976903074546 0 7.1132007853778984e-05 0.0048877369230805323 0 7.4381032120373938e-05 0.0046925764203098264 0 2.1117583642469912e-05 0.004884603788638307 0 7.2197983449054818e-05 0.0044895178345411959 0 0.00012565145534038113 0.0044791952372887148 0 9.127818969014421e-05 0.0044447385326133858 0 3.6375971154672105e-05 0.0047413411795236204 0 7.3794407002055612e-06 0.0047478338113713997 0 2.9038206304912483e-06 0.0047948043565220061 0 7.4381032120373938e-05 0.0046925764203098264 0 4.1062460107160692e-05 0.004600480556285997 0 4.1062460107160692e-05 0.004600480556285997 0 1.7425624215944115e-05 0.0047046521138889756 0 3.6375971154672105e-05 0.0047413411795236204 0 1.2127156939619846e-05 0.0047009183717567973 0 7.3794407002055612e-06 0.0047478338113713997 0 9.7805968518733572e-05 0.0045361421083058321 0 7.2197983449054818e-05 0.0044895178345411959 0 0.00012565145534038113 0.0044791952372887148 0 0.00017737318729084802 0.0045259646987307195 0 9.7805968518733572e-05 0.0045361421083058321 0 0.00012565145534038113 0.0044791952372887148 0 0.00012565145534038113 0.0044791952372887148 0 0.00012723391073726995 0.0044184183728528548 0 9.127818969014421e-05 0.0044447385326133858 0 0.00017536914755850503 0.0044317230002414417 0 0.00012565145534038113 0.0044791952372887148 0 0.00012723391073726995 0.0044184183728528548 0 8.9077304283057411e-05 0.0043995772627036921 0 0.00012723391073726995 0.0044184183728528548 0 9.127818969014421e-05 0.0044447385326133858 0 7.2197983449054818e-05 0.0044895178345411959 0 9.127818969014421e-05 0.0044447385326133858 0 4.7742855713246529e-05 0.0044430505029891361 0 8.9077304283057411e-05 0.0043995772627036921 0 9.127818969014421e-05 0.0044447385326133858 0 4.7742855713246529e-05 0.0044430505029891361 0 -1.8279132404752515e-05 0.004979280678506985 0 -2.7639076760650859e-05 0.0049721521552493512 0 -1.9955627747587511e-05 0.0049844290210118427 0 1.7425624215944115e-05 0.0047046521138889756 0 5.7181844682290019e-06 0.0048947372265898204 0 -1.8279132404752515e-05 0.004979280678506985 0 -1.3367389167801072e-05 0.0049813798579115623 0 -1.9076775007769357e-05 0.0049850736807380306 0 -1.8279132404752515e-05 0.004979280678506985 0 -1.7594846571736427e-05 0.0049696113360475722 0 -2.7639076760650859e-05 0.0049721521552493512 0 -1.8279132404752515e-05 0.004979280678506985 0 -1.7594846571736427e-05 0.0049696113360475722 0 -1.2189488636697764e-05 0.0049757098692799579 0 -8.8762605429891399e-06 0.0049808224554452243 0 -1.2189488636697764e-05 0.0049757098692799579 0 -5.6566053621764581e-06 0.0049766005110311083 0 -4.8760714041054681e-06 0.0049831133831104105 0 -5.6566053621764581e-06 0.0049766005110311083 0 -3.2475563548366745e-06 0.0049791726805231288 0 -4.8760714041054681e-06 0.0049831133831104105 0 -8.8762605429891399e-06 0.0049808224554452243 0 -5.6566053621764581e-06 0.0049766005110311083 0 -1.8279132404752515e-05 0.004979280678506985 0 -1.3367389167801072e-05 0.0049813798579115623 0 -1.2189488636697764e-05 0.0049757098692799579 0 -8.8762605429891399e-06 0.0049808224554452243 0 -1.3367389167801072e-05 0.0049813798579115623 0 -1.2189488636697764e-05 0.0049757098692799579 0 -1.7594846571736427e-05 0.0049696113360475722 0 -1.2189488636697764e-05 0.0049757098692799579 0 -8.1905062374288632e-06 0.0049691161278042949 0 -5.6566053621764581e-06 0.0049766005110311083 0 -8.1905062374288632e-06 0.0049691161278042949 0 -5.6380430716757717e-07 0.004970219878431657 0 -1.2189488636697764e-05 0.0049757098692799579 0 -5.6566053621764581e-06 0.0049766005110311083 0 -8.1905062374288632e-06 0.0049691161278042949 0 -1.6849565555769383e-06 0.0049624796346824512 0 -8.1905062374288632e-06 0.0049691161278042949 0 -5.6380430716757717e-07 0.004970219878431657 0 -1.6849565555769383e-06 0.0049624796346824512 0 -8.1905062374288632e-06 0.0049691161278042949 0 -1.2622268531849847e-05 0.004961218706727619 0 -1.7594846571736427e-05 0.0049696113360475722 0 -8.1905062374288632e-06 0.0049691161278042949 0 -1.2622268531849847e-05 0.004961218706727619 0 -1.2622268531849847e-05 0.004961218706727619 0 -1.6275932315766502e-05 0.0049519175835305591 0 -5.9876849534457022e-06 0.004954108950481882 0 -1.6849565555769383e-06 0.0049624796346824512 0 -1.2622268531849847e-05 0.004961218706727619 0 -5.9876849534457022e-06 0.004954108950481882 0 -1.6849565555769383e-06 0.0049624796346824512 0 -5.9876849534457022e-06 0.004954108950481882 0 7.5022620520092447e-06 0.0049500661932579005 0 1.7425624215944115e-05 0.0047046521138889756 0 -9.4966297871997689e-06 0.0048712656277607787 0 -1.7594846571736427e-05 0.0049696113360475722 0 -2.7639076760650859e-05 0.0049721521552493512 0 -2.6772438141080336e-05 0.0049588232012342821 0 -1.7594846571736427e-05 0.0049696113360475722 0 -1.2622268531849847e-05 0.004961218706727619 0 -2.6772438141080336e-05 0.0049588232012342821 0 -1.2622268531849847e-05 0.004961218706727619 0 -2.6772438141080336e-05 0.0049588232012342821 0 -1.6275932315766502e-05 0.0049519175835305591 0 -2.5621267536682391e-05 0.0049436681031942084 0 -1.6275932315766502e-05 0.0049519175835305591 0 -9.1414248102894009e-06 0.0049401475685242396 0 -9.4966297871997689e-06 0.0048712656277607787 0 2.1117583642469912e-05 0.004884603788638307 0 6.8040248841217982e-05 0.0049033609323775379 0 4.7930855493627541e-05 0.004913476986342937 0 6.845403991026195e-05 0.0049129135857855109 0 2.1117583642469912e-05 0.004884603788638307 0 1.8785037894866977e-05 0.0049271968574490944 0 -2.6772438141080336e-05 0.0049588232012342821 0 -2.5621267536682391e-05 0.0049436681031942084 0 -1.6275932315766502e-05 0.0049519175835305591 0 2.1117583642469912e-05 0.004884603788638307 0 5.3501544575659843e-05 0.0049087870180001582 0 1.8785037894866977e-05 0.0049271968574490944 0 1.8498726164085939e-05 0.0049332215467216937 0 -1.6275932315766502e-05 0.0049519175835305591 0 -5.9876849534457022e-06 0.004954108950481882 0 -9.1414248102894009e-06 0.0049401475685242396 0 -9.1414248102894009e-06 0.0049401475685242396 0 1.7035272054036687e-05 0.0049370775428397955 0 7.5022620520092447e-06 0.0049500661932579005 0 -5.9876849534457022e-06 0.004954108950481882 0 -9.1414248102894009e-06 0.0049401475685242396 0 7.5022620520092447e-06 0.0049500661932579005 0 4.7930855493627541e-05 0.004913476986342937 0 3.3130790921840353e-05 0.004942644302615643 0 1.7035272054036687e-05 0.0049370775428397955 0 4.7930855493627541e-05 0.004913476986342937 0 3.3130790921840353e-05 0.004942644302615643 0 5.1294345366821249e-05 0.0049321813280036753 0 5.1294345366821249e-05 0.0049321813280036753 0 6.845403991026195e-05 0.0049129135857855109 0 6.5380774440537782e-05 0.0049351906416363212 0 6.845403991026195e-05 0.0049129135857855109 0 6.5380774440537782e-05 0.0049351906416363212 0 9.2549154582166523e-05 0.0049173448637017305 0 4.7930855493627541e-05 0.004913476986342937 0 5.1294345366821249e-05 0.0049321813280036753 0 6.845403991026195e-05 0.0049129135857855109 0 1.1227877150969283e-05 0.0049702308562408933 0 1.0059191469496121e-05 0.0049412296135616278 0 1.4850168665050044e-06 0.0049913293598065301 0 1.1227877150969283e-05 0.0049702308562408933 0 1.4982077249365677e-05 0.0049572364742533478 0 1.0059191469496121e-05 0.0049412296135616278 0 5.036438873105368e-06 0.0049728064067380172 0 2.0880715841394392e-06 0.0049902524051518874 0 2.7111147020710167e-09 0.0050000011363970929 0 -6.9591745201524752e-07 0.0050005031330017102 0 1.4850168665050044e-06 0.0049913293598065301 0 1.4982077249365677e-05 0.0049572364742533478 0 1.4105175592208528e-05 0.0049461729455084636 0 1.0059191469496121e-05 0.0049412296135616278 0 1.4982077249365677e-05 0.0049572364742533478 0 1.6582816521652891e-05 0.0049460776657220783 0 1.4105175592208528e-05 0.0049461729455084636 0 1.1227877150969283e-05 0.0049702308562408933 0 1.4982077249365677e-05 0.0049572364742533478 0 1.8088260915293664e-05 0.0049665286776516262 0 1.4982077249365677e-05 0.0049572364742533478 0 2.0686191183759065e-05 0.0049504403321735209 0 1.8088260915293664e-05 0.0049665286776516262 0 3.3130790921840353e-05 0.004942644302615643 0 2.0686191183759065e-05 0.0049504403321735209 0 2.7093180543639507e-05 0.0049610353090056526 0 3.3130790921840353e-05 0.004942644302615643 0 2.0686191183759065e-05 0.0049504403321735209 0 1.7035272054036687e-05 0.0049370775428397955 0 2.0686191183759065e-05 0.0049504403321735209 0 1.7035272054036687e-05 0.0049370775428397955 0 1.6582816521652891e-05 0.0049460776657220783 0 1.4982077249365677e-05 0.0049572364742533478 0 2.0686191183759065e-05 0.0049504403321735209 0 1.6582816521652891e-05 0.0049460776657220783 0 1.6582816521652891e-05 0.0049460776657220783 0 1.4255212361034864e-05 0.0049452428056288075 0 1.4105175592208528e-05 0.0049461729455084636 0 1.7035272054036687e-05 0.0049370775428397955 0 1.6582816521652891e-05 0.0049460776657220783 0 1.4255212361034864e-05 0.0049452428056288075 0 1.7035272054036687e-05 0.0049370775428397955 0 1.4255212361034864e-05 0.0049452428056288075 0 7.5022620520092447e-06 0.0049500661932579005 0 1.4255212361034864e-05 0.0049452428056288075 0 1.0735590535512727e-05 0.0049516933900621597 0 1.2490800184114704e-05 0.0049479499129714095 0 7.5022620520092447e-06 0.0049500661932579005 0 1.0735590535512727e-05 0.0049516933900621597 0 6.4550355543559546e-06 0.0049572495743133976 0 1.4255212361034864e-05 0.0049452428056288075 0 7.5022620520092447e-06 0.0049500661932579005 0 1.0735590535512727e-05 0.0049516933900621597 0 2.7111147020710167e-09 0.0050000011363970929 0 -6.9591745201524752e-07 0.0050005031330017102 0 -3.9539975480202336e-09 0.0050000040103829989 0 1.0735590535512727e-05 0.0049516933900621597 0 1.2490800184114704e-05 0.0049479499129714095 0 1.2763759382372962e-05 0.0049536499358800836 0 1.3033218269948928e-05 0.0049516805117730579 0 1.2490800184114704e-05 0.0049479499129714095 0 1.231148826484494e-05 0.0049447683823611241 0 1.3033218269948928e-05 0.0049516805117730579 0 1.2490800184114704e-05 0.0049479499129714095 0 1.2763759382372962e-05 0.0049536499358800836 0 1.231148826484494e-05 0.0049447683823611241 0 1.4105175592208528e-05 0.0049461729455084636 0 1.0059191469496121e-05 0.0049412296135616278 0 1.4255212361034864e-05 0.0049452428056288075 0 1.2490800184114704e-05 0.0049479499129714095 0 1.231148826484494e-05 0.0049447683823611241 0 1.4255212361034864e-05 0.0049452428056288075 0 1.231148826484494e-05 0.0049447683823611241 0 1.4105175592208528e-05 0.0049461729455084636 0 1.3033218269948928e-05 0.0049516805117730579 0 1.231148826484494e-05 0.0049447683823611241 0 1.0059191469496121e-05 0.0049412296135616278 0 5.036438873105368e-06 0.0049728064067380172 0 9.0779250819890437e-06 0.0049832297486902648 0 1.3033218269948928e-05 0.0049516805117730579 0 1.5016705451675283e-05 0.0049595162970966535 0 2.1444893019044231e-05 0.0049669485128528371 0 1.3033218269948928e-05 0.0049516805117730579 0 1.0059191469496121e-05 0.0049412296135616278 0 2.1444893019044231e-05 0.0049669485128528371 0 -6.9591745201524752e-07 0.0050005031330017102 0 -3.9539975480202336e-09 0.0050000040103829989 0 1.0332063389855303e-07 0.0050000072232506661 0 1.3033218269948928e-05 0.0049516805117730579 0 1.2763759382372962e-05 0.0049536499358800836 0 1.5016705451675283e-05 0.0049595162970966535 0 1.0735590535512727e-05 0.0049516933900621597 0 1.2763759382372962e-05 0.0049536499358800836 0 9.6332885974576966e-06 0.0049586400986077212 0 1.2763759382372962e-05 0.0049536499358800836 0 1.2329235211603466e-05 0.0049590515841122949 0 9.6332885974576966e-06 0.0049586400986077212 0 1.2329235211603466e-05 0.0049590515841122949 0 1.2006675900476791e-05 0.0049646909233379936 0 9.6332885974576966e-06 0.0049586400986077212 0 1.2763759382372962e-05 0.0049536499358800836 0 1.2329235211603466e-05 0.0049590515841122949 0 1.5016705451675283e-05 0.0049595162970966535 0 1.2329235211603466e-05 0.0049590515841122949 0 1.5016705451675283e-05 0.0049595162970966535 0 1.2006675900476791e-05 0.0049646909233379936 0 1.5016705451675283e-05 0.0049595162970966535 0 1.2006675900476791e-05 0.0049646909233379936 0 1.4553401290783166e-05 0.0049686597645668719 0 1.2006675900476791e-05 0.0049646909233379936 0 9.6332885974576966e-06 0.0049586400986077212 0 8.2103011488510846e-06 0.0049653035610282142 0 1.2006675900476791e-05 0.0049646909233379936 0 8.2103011488510846e-06 0.0049653035610282142 0 9.925694069388435e-06 0.0049699397901823922 0 8.2103011488510846e-06 0.0049653035610282142 0 6.49032475739435e-06 0.004971183478386345 0 9.925694069388435e-06 0.0049699397901823922 0 1.2006675900476791e-05 0.0049646909233379936 0 1.4553401290783166e-05 0.0049686597645668719 0 9.925694069388435e-06 0.0049699397901823922 0 1.4553401290783166e-05 0.0049686597645668719 0 2.1444893019044231e-05 0.0049669485128528371 0 1.6013389315838042e-05 0.0049730412631092376 0 1.5016705451675283e-05 0.0049595162970966535 0 1.4553401290783166e-05 0.0049686597645668719 0 2.1444893019044231e-05 0.0049669485128528371 0 -1.6849565555769383e-06 0.0049624796346824512 0 7.5022620520092447e-06 0.0049500661932579005 0 6.4550355543559546e-06 0.0049572495743133976 0 6.4550355543559546e-06 0.0049572495743133976 0 9.6332885974576966e-06 0.0049586400986077212 0 4.5552026122075753e-06 0.0049657332579662108 0 1.0735590535512727e-05 0.0049516933900621597 0 6.4550355543559546e-06 0.0049572495743133976 0 9.6332885974576966e-06 0.0049586400986077212 0 9.6332885974576966e-06 0.0049586400986077212 0 8.2103011488510846e-06 0.0049653035610282142 0 4.5552026122075753e-06 0.0049657332579662108 0 8.2103011488510846e-06 0.0049653035610282142 0 4.5552026122075753e-06 0.0049657332579662108 0 6.49032475739435e-06 0.004971183478386345 0 4.5552026122075753e-06 0.0049657332579662108 0 3.1875530505920455e-06 0.0049713483988625146 0 6.49032475739435e-06 0.004971183478386345 0 -1.6849565555769383e-06 0.0049624796346824512 0 6.4550355543559546e-06 0.0049572495743133976 0 4.5552026122075753e-06 0.0049657332579662108 0 -1.6849565555769383e-06 0.0049624796346824512 0 4.5552026122075753e-06 0.0049657332579662108 0 -5.6380430716757717e-07 0.004970219878431657 0 4.5552026122075753e-06 0.0049657332579662108 0 -5.6380430716757717e-07 0.004970219878431657 0 3.1875530505920455e-06 0.0049713483988625146 0 -5.6566053621764581e-06 0.0049766005110311083 0 -5.6380430716757717e-07 0.004970219878431657 0 -7.1891731617922501e-07 0.0049757993427786305 0 -5.6380430716757717e-07 0.004970219878431657 0 -7.1891731617922501e-07 0.0049757993427786305 0 3.1875530505920455e-06 0.0049713483988625146 0 -7.1891731617922501e-07 0.0049757993427786305 0 2.4284098464236273e-06 0.0049762264950094703 0 3.1875530505920455e-06 0.0049713483988625146 0 2.4284098464236273e-06 0.0049762264950094703 0 3.1875530505920455e-06 0.0049713483988625146 0 6.49032475739435e-06 0.004971183478386345 0 2.4284098464236273e-06 0.0049762264950094703 0 6.49032475739435e-06 0.004971183478386345 0 5.7836782977135733e-06 0.0049763450962357018 0 2.4284098464236273e-06 0.0049762264950094703 0 5.7836782977135733e-06 0.0049763450962357018 0 4.4473464539804546e-06 0.0049810728802209487 0 2.4284098464236273e-06 0.0049762264950094703 0 4.4473464539804546e-06 0.0049810728802209487 0 1.7733454930420886e-06 0.0049811520837043828 0 2.9799554661947471e-06 0.0049855158629510182 0 1.7733454930420886e-06 0.0049811520837043828 0 9.2056182657012013e-07 0.004985946601745248 0 4.4473464539804546e-06 0.0049810728802209487 0 2.9799554661947471e-06 0.0049855158629510182 0 1.7733454930420886e-06 0.0049811520837043828 0 1.7733454930420886e-06 0.0049811520837043828 0 -8.8847578147993487e-07 0.0049810974207122622 0 9.2056182657012013e-07 0.004985946601745248 0 2.4284098464236273e-06 0.0049762264950094703 0 1.7733454930420886e-06 0.0049811520837043828 0 -8.8847578147993487e-07 0.0049810974207122622 0 -7.1891731617922501e-07 0.0049757993427786305 0 2.4284098464236273e-06 0.0049762264950094703 0 -8.8847578147993487e-07 0.0049810974207122622 0 -8.8847578147993487e-07 0.0049810974207122622 0 9.2056182657012013e-07 0.004985946601745248 0 -1.7679667860437957e-06 0.0049849596890298191 0 -4.8760714041054681e-06 0.0049831133831104105 0 -8.8847578147993487e-07 0.0049810974207122622 0 -1.7679667860437957e-06 0.0049849596890298191 0 -4.8760714041054681e-06 0.0049831133831104105 0 -8.8847578147993487e-07 0.0049810974207122622 0 -3.2475563548366745e-06 0.0049791726805231288 0 -7.1891731617922501e-07 0.0049757993427786305 0 -8.8847578147993487e-07 0.0049810974207122622 0 -3.2475563548366745e-06 0.0049791726805231288 0 -5.6566053621764581e-06 0.0049766005110311083 0 -7.1891731617922501e-07 0.0049757993427786305 0 -3.2475563548366745e-06 0.0049791726805231288 0 1.0332063389855303e-07 0.0050000072232506661 0 1.3291691602917005e-08 0.0049999862323526793 0 1.6895057481375143e-06 0.0049991395423815655 0 9.0779250819890437e-06 0.0049832297486902648 0 3.769210790738037e-06 0.0049968326688464891 0 2.1444893019044231e-05 0.0049669485128528371 0 8.5811189719106767e-06 0.0049858564601117129 0 1.6895057481375143e-06 0.0049991395423815655 0 -3.9539975480202336e-09 0.0050000040103829989 0 1.0332063389855303e-07 0.0050000072232506661 0 1.3291691602917005e-08 0.0049999862323526793 0 2.1444893019044231e-05 0.0049669485128528371 0 1.6013389315838042e-05 0.0049730412631092376 0 8.5811189719106767e-06 0.0049858564601117129 0 1.6013389315838042e-05 0.0049730412631092376 0 1.1205122348422101e-05 0.0049748244093913941 0 1.0834425775765039e-05 0.0049794726515545902 0 1.4553401290783166e-05 0.0049686597645668719 0 1.6013389315838042e-05 0.0049730412631092376 0 1.1205122348422101e-05 0.0049748244093913941 0 9.925694069388435e-06 0.0049699397901823922 0 8.1174023302607533e-06 0.0049742482698376675 0 1.1205122348422101e-05 0.0049748244093913941 0 1.4553401290783166e-05 0.0049686597645668719 0 9.925694069388435e-06 0.0049699397901823922 0 1.1205122348422101e-05 0.0049748244093913941 0 6.49032475739435e-06 0.004971183478386345 0 9.925694069388435e-06 0.0049699397901823922 0 8.1174023302607533e-06 0.0049742482698376675 0 6.49032475739435e-06 0.004971183478386345 0 5.7836782977135733e-06 0.0049763450962357018 0 8.1174023302607533e-06 0.0049742482698376675 0 5.7836782977135733e-06 0.0049763450962357018 0 4.4473464539804546e-06 0.0049810728802209487 0 7.5314190789391245e-06 0.0049788943320908646 0 5.7836782977135733e-06 0.0049763450962357018 0 8.1174023302607533e-06 0.0049742482698376675 0 7.5314190789391245e-06 0.0049788943320908646 0 7.5314190789391245e-06 0.0049788943320908646 0 1.1205122348422101e-05 0.0049748244093913941 0 9.0022545283750251e-06 0.0049798398699881534 0 1.1205122348422101e-05 0.0049748244093913941 0 9.0022545283750251e-06 0.0049798398699881534 0 1.0834425775765039e-05 0.0049794726515545902 0 8.1174023302607533e-06 0.0049742482698376675 0 7.5314190789391245e-06 0.0049788943320908646 0 1.1205122348422101e-05 0.0049748244093913941 0 9.0022545283750251e-06 0.0049798398699881534 0 8.6088626125009363e-06 0.0049829891454427813 0 1.0834425775765039e-05 0.0049794726515545902 0 7.5314190789391245e-06 0.0049788943320908646 0 9.0022545283750251e-06 0.0049798398699881534 0 6.8438884659240568e-06 0.0049827698739108054 0 9.0022545283750251e-06 0.0049798398699881534 0 6.8438884659240568e-06 0.0049827698739108054 0 8.6088626125009363e-06 0.0049829891454427813 0 4.4473464539804546e-06 0.0049810728802209487 0 7.5314190789391245e-06 0.0049788943320908646 0 6.8438884659240568e-06 0.0049827698739108054 0 4.4473464539804546e-06 0.0049810728802209487 0 6.8438884659240568e-06 0.0049827698739108054 0 4.7559505638011579e-06 0.004986396156480331 0 4.4473464539804546e-06 0.0049810728802209487 0 2.9799554661947471e-06 0.0049855158629510182 0 4.7559505638011579e-06 0.004986396156480331 0 6.8438884659240568e-06 0.0049827698739108054 0 6.2910034126839415e-06 0.0049870136049721238 0 8.6088626125009363e-06 0.0049829891454427813 0 6.8438884659240568e-06 0.0049827698739108054 0 4.7559505638011579e-06 0.004986396156480331 0 6.2910034126839415e-06 0.0049870136049721238 0 1.6013389315838042e-05 0.0049730412631092376 0 8.5811189719106767e-06 0.0049858564601117129 0 1.0834425775765039e-05 0.0049794726515545902 0 6.2910034126839415e-06 0.0049870136049721238 0 8.5811189719106767e-06 0.0049858564601117129 0 5.716628703953605e-06 0.0049896052773527842 0 6.2910034126839415e-06 0.0049870136049721238 0 8.5811189719106767e-06 0.0049858564601117129 0 8.6088626125009363e-06 0.0049829891454427813 0 8.5811189719106767e-06 0.0049858564601117129 0 8.6088626125009363e-06 0.0049829891454427813 0 1.0834425775765039e-05 0.0049794726515545902 0 8.5811189719106767e-06 0.0049858564601117129 0 4.3824223407208097e-06 0.0049931734273612124 0 1.6895057481375143e-06 0.0049991395423815655 0 8.5811189719106767e-06 0.0049858564601117129 0 5.716628703953605e-06 0.0049896052773527842 0 4.3824223407208097e-06 0.0049931734273612124 0 5.716628703953605e-06 0.0049896052773527842 0 4.3824223407208097e-06 0.0049931734273612124 0 4.2472404864463951e-06 0.0049913547221217261 0 4.3824223407208097e-06 0.0049931734273612124 0 3.0597388241919164e-06 0.0049951143115986212 0 1.6895057481375143e-06 0.0049991395423815655 0 4.3824223407208097e-06 0.0049931734273612124 0 3.0597388241919164e-06 0.0049951143115986212 0 4.2472404864463951e-06 0.0049913547221217261 0 2.9799554661947471e-06 0.0049855158629510182 0 3.3337176613887508e-06 0.0049896320326941789 0 1.724036290687844e-06 0.0049912174118251522 0 2.9799554661947471e-06 0.0049855158629510182 0 4.7559505638011579e-06 0.004986396156480331 0 3.3337176613887508e-06 0.0049896320326941789 0 3.3337176613887508e-06 0.0049896320326941789 0 4.2472404864463951e-06 0.0049913547221217261 0 3.014734307692035e-06 0.0049929503899504516 0 6.2910034126839415e-06 0.0049870136049721238 0 5.716628703953605e-06 0.0049896052773527842 0 4.2472404864463951e-06 0.0049913547221217261 0 4.7559505638011579e-06 0.004986396156480331 0 3.3337176613887508e-06 0.0049896320326941789 0 4.2472404864463951e-06 0.0049913547221217261 0 4.7559505638011579e-06 0.004986396156480331 0 6.2910034126839415e-06 0.0049870136049721238 0 4.2472404864463951e-06 0.0049913547221217261 0 3.0597388241919164e-06 0.0049951143115986212 0 3.014734307692035e-06 0.0049929503899504516 0 2.381241823486193e-06 0.0049964108046320031 0 3.0597388241919164e-06 0.0049951143115986212 0 4.2472404864463951e-06 0.0049913547221217261 0 3.014734307692035e-06 0.0049929503899504516 0 3.014734307692035e-06 0.0049929503899504516 0 2.381241823486193e-06 0.0049964108046320031 0 1.724036290687844e-06 0.0049912174118251522 0 3.3337176613887508e-06 0.0049896320326941789 0 3.014734307692035e-06 0.0049929503899504516 0 1.724036290687844e-06 0.0049912174118251522 0 2.381241823486193e-06 0.0049964108046320031 0 -2.6231073190735279e-07 0.0049953909951163727 0 1.724036290687844e-06 0.0049912174118251522 0 2.381241823486193e-06 0.0049964108046320031 0 1.3291691602917005e-08 0.0049999862323526793 0 9.7536149158921748e-07 0.0049980983937786272 0 2.381241823486193e-06 0.0049964108046320031 0 1.3291691602917005e-08 0.0049999862323526793 0 1.6895057481375143e-06 0.0049991395423815655 0 3.0597388241919164e-06 0.0049951143115986212 0 2.381241823486193e-06 0.0049964108046320031 0 1.6895057481375143e-06 0.0049991395423815655 0 1.3291691602917005e-08 0.0049999862323526793 0 9.7536149158921748e-07 0.0049980983937786272 0 -1.5777718945351107e-09 0.0050000004042657668 0 9.7536149158921748e-07 0.0049980983937786272 0 -1.5777718945351107e-09 0.0050000004042657668 0 -1.3155385383620568e-06 0.0049994395358194258 0 2.381241823486193e-06 0.0049964108046320031 0 9.7536149158921748e-07 0.0049980983937786272 0 -2.6231073190735279e-07 0.0049953909951163727 0 -2.6231073190735279e-07 0.0049953909951163727 0 -5.5738714576821362e-06 0.0049936050811223561 0 -1.3155385383620568e-06 0.0049994395358194258 0 9.7536149158921748e-07 0.0049980983937786272 0 -2.6231073190735279e-07 0.0049953909951163727 0 -1.3155385383620568e-06 0.0049994395358194258 0 -2.6231073190735279e-07 0.0049953909951163727 0 -2.520610158770425e-06 0.0049893797307447437 0 -5.5738714576821362e-06 0.0049936050811223561 0 -2.6231073190735279e-07 0.0049953909951163727 0 1.724036290687844e-06 0.0049912174118251522 0 -2.520610158770425e-06 0.0049893797307447437 0 1.724036290687844e-06 0.0049912174118251522 0 9.2056182657012013e-07 0.004985946601745248 0 -2.520610158770425e-06 0.0049893797307447437 0 2.9799554661947471e-06 0.0049855158629510182 0 1.724036290687844e-06 0.0049912174118251522 0 9.2056182657012013e-07 0.004985946601745248 0 9.2056182657012013e-07 0.004985946601745248 0 -2.520610158770425e-06 0.0049893797307447437 0 -1.7679667860437957e-06 0.0049849596890298191 0 -4.8760714041054681e-06 0.0049831133831104105 0 -2.520610158770425e-06 0.0049893797307447437 0 -1.7679667860437957e-06 0.0049849596890298191 0 -8.5278101345255802e-06 0.0049866379191287813 0 -5.5738714576821362e-06 0.0049936050811223561 0 -1.9076775007769357e-05 0.0049850736807380306 0 -5.5738714576821362e-06 0.0049936050811223561 0 -1.9076775007769357e-05 0.0049850736807380306 0 -7.938933769046527e-06 0.0049981815720692652 0 -4.8760714041054681e-06 0.0049831133831104105 0 -2.520610158770425e-06 0.0049893797307447437 0 -8.5278101345255802e-06 0.0049866379191287813 0 -4.8760714041054681e-06 0.0049831133831104105 0 -8.8762605429891399e-06 0.0049808224554452243 0 -8.5278101345255802e-06 0.0049866379191287813 0 -8.8762605429891399e-06 0.0049808224554452243 0 -1.3367389167801072e-05 0.0049813798579115623 0 -8.5278101345255802e-06 0.0049866379191287813 0 -1.3367389167801072e-05 0.0049813798579115623 0 -8.5278101345255802e-06 0.0049866379191287813 0 -1.9076775007769357e-05 0.0049850736807380306 0 -2.520610158770425e-06 0.0049893797307447437 0 -8.5278101345255802e-06 0.0049866379191287813 0 -5.5738714576821362e-06 0.0049936050811223561 0 5.7181844682290019e-06 0.0048947372265898204 0 -1.7494506873891438e-06 0.0049818752721120301 0 5.7181844682290019e-06 0.0048947372265898204 0 1.2290867354158905e-05 0.0048143160697972451 0 3.4494790475144541e-05 0.0046765708955794853 0 2.7111806321029814e-05 0.0047442358814211525 0 6.9431925811764793e-06 0.0047106804425256551 0 3.4494790475144541e-05 0.0046765708955794853 0 6.9431925811764793e-06 0.0047106804425256551 0 2.448086495465179e-05 0.0046598761333416661 0 -1.6777844875899662e-05 0.0049671510230862225 0 5.7181844682290019e-06 0.0048947372265898204 0 5.5984417569473148e-06 0.0049457251934240387 0 6.4137120181023083e-06 0.004935998524247376 0 1.070169012824902e-05 0.004936985576321864 0 5.5984417569473148e-06 0.0049457251934240387 0 6.4137120181023083e-06 0.004935998524247376 0 1.0496327736276235e-06 0.004938958967947802 0 6.4137120181023083e-06 0.004935998524247376 0 1.0496327736276235e-06 0.004938958967947802 0 8.362957592084836e-06 0.0049304706214542571 0 6.4137120181023083e-06 0.004935998524247376 0 1.070169012824902e-05 0.004936985576321864 0 8.362957592084836e-06 0.0049304706214542571 0 5.5984417569473148e-06 0.0049457251934240387 0 1.0496327736276235e-06 0.004938958967947802 0 1.7188088566293123e-06 0.0049391911977068976 0 -5.5738714576821362e-06 0.0049936050811223561 0 -7.938933769046527e-06 0.0049981815720692652 0 -1.3155385383620568e-06 0.0049994395358194258 0 1.0496327736276235e-06 0.004938958967947802 0 1.7188088566293123e-06 0.0049391911977068976 0 1.7038173197463482e-06 0.0049540423871053769 0 1.7038173197463482e-06 0.0049540423871053769 0 -6.5978992892111325e-06 0.0049709018228399401 0 1.0993829414411472e-05 0.0049677676312654068 0 1.7188088566293123e-06 0.0049391911977068976 0 1.7038173197463482e-06 0.0049540423871053769 0 1.0993829414411472e-05 0.0049677676312654068 0 -1.7494506873891438e-06 0.0049818752721120301 0 3.2377503872327438e-06 0.0049811289031028265 0 1.0496327736276235e-06 0.004938958967947802 0 1.7038173197463482e-06 0.0049540423871053769 0 -6.5978992892111325e-06 0.0049709018228399401 0 1.2890698788800802e-05 0.0049226678058212009 0 1.070169012824902e-05 0.004936985576321864 0 8.362957592084836e-06 0.0049304706214542571 0 1.1757822151712622e-06 0.0049394281510726163 0 2.2920771015800362e-06 0.0049460778910153502 0 1.2890698788800802e-05 0.0049226678058212009 0 8.362957592084836e-06 0.0049304706214542571 0 9.9889027298631853e-06 0.0049207291402407509 0 1.0496327736276235e-06 0.004938958967947802 0 8.362957592084836e-06 0.0049304706214542571 0 9.9889027298631853e-06 0.0049207291402407509 0 2.2749323816760531e-06 0.0049821419947031539 0 -6.5978992892111325e-06 0.0049709018228399401 0 1.0993829414411472e-05 0.0049677676312654068 0 3.9164636067818445e-06 0.0049922527666012902 0 3.2377503872327438e-06 0.0049811289031028265 0 -1.3186520219680981e-07 0.0050001566384540582 0 -1.551926676731858e-06 0.0050009699759862459 0 -4.5305299505382435e-07 0.0050004369563720697 0 8.8288648339768993e-06 0.0049844540695552168 0 2.2749323816760531e-06 0.0049821419947031539 0 1.0993829414411472e-05 0.0049677676312654068 0 -1.7834321756783539e-10 0.0050000009973486048 0 -4.5305299505382435e-07 0.0050004369563720697 0 -1.5777718945351107e-09 0.0050000004042657668 0 -4.5305299505382435e-07 0.0050004369563720697 0 -1.5777718945351107e-09 0.0050000004042657668 0 -1.3155385383620568e-06 0.0049994395358194258 0 -7.938933769046527e-06 0.0049981815720692652 0 -1.551926676731858e-06 0.0050009699759862459 0 -1.3155385383620568e-06 0.0049994395358194258 0 -1.551926676731858e-06 0.0050009699759862459 0 -4.5305299505382435e-07 0.0050004369563720697 0 -1.3155385383620568e-06 0.0049994395358194258 0 1.9590732038108293e-05 0.0049945776438193937 0 3.1519526967417837e-05 0.004978568454520698 0 1.1595484586308533e-05 0.004986625559463582 0 1.9590732038108293e-05 0.0049945776438193937 0 6.9916012375267734e-06 0.0049975933783497533 0 1.2327178819308086e-05 0.0050006791001116135 0 1.9590732038108293e-05 0.0049945776438193937 0 6.9916012375267734e-06 0.0049975933783497533 0 1.1595484586308533e-05 0.004986625559463582 0 3.5298911857854555e-09 0.0049999747323588349 0 6.9916012375267734e-06 0.0049975933783497533 0 5.6248950320361157e-09 0.0050000070915760799 0 3.5298911857854555e-09 0.0049999747323588349 0 6.9916012375267734e-06 0.0049975933783497533 0 1.1595484586308533e-05 0.004986625559463582 0 4.8746378061773891e-09 0.0049999960755093345 0 5.1641317292415497e-06 0.0049938696594036677 0 6.9916012375267734e-06 0.0049975933783497533 0 5.6248950320361157e-09 0.0050000070915760799 0 1.2327178819308086e-05 0.0050006791001116135 0 5.6248950320361157e-09 0.0050000070915760799 0 1.2327178819308086e-05 0.0050006791001116135 0 7.6126186288702154e-06 0.0050022274265083995 0 1.2327178819308086e-05 0.0050006791001116135 0 2.570519384906234e-05 0.0050048456659462521 0 7.6126186288702154e-06 0.0050022274265083995 0 1.2327178819308086e-05 0.0050006791001116135 0 2.4219185775251759e-05 0.0050001439137971294 0 2.570519384906234e-05 0.0050048456659462521 0 1.9590732038108293e-05 0.0049945776438193937 0 1.2327178819308086e-05 0.0050006791001116135 0 2.4219185775251759e-05 0.0050001439137971294 0 0.00010092469687814297 0.0042736000091606217 0 0.00019767700387350695 0.0041179865404673268 0 0.00022192387981690397 0.0043494179592657176 0 2.4219185775251759e-05 0.0050001439137971294 0 2.570519384906234e-05 0.0050048456659462521 0 4.0522085589670824e-05 0.0049980671861827274 0 6.4051425940310245e-05 0.0046391605329056161 0 0.00012747719985917429 0.0045592925035793496 0 2.570519384906234e-05 0.0050048456659462521 0 5.489769974362181e-05 0.0050004479090198237 0 4.0522085589670824e-05 0.0049980671861827274 0 5.489769974362181e-05 0.0050004479090198237 0 4.0522085589670824e-05 0.0049980671861827274 0 5.3077271285529401e-05 0.0049995270612052545 0 4.1620030149041695e-05 0.0049966728905113554 0 2.8769257536174049e-05 0.0049977553237930093 0 4.0522085589670824e-05 0.0049980671861827274 0 5.2315700259918204e-05 0.0049998867876963676 0 4.9862894978304755e-05 0.0049993667775734899 0 1.9590732038108293e-05 0.0049945776438193937 0 4.0522085589670824e-05 0.0049980671861827274 0 3.1519526967417837e-05 0.004978568454520698 0 1.9590732038108293e-05 0.0049945776438193937 0 2.4219185775251759e-05 0.0050001439137971294 0 4.0522085589670824e-05 0.0049980671861827274 0 4.0522085589670824e-05 0.0049980671861827274 0 4.9862894978304755e-05 0.0049993667775734899 0 5.3077271285529401e-05 0.0049995270612052545 0 2.8769257536174049e-05 0.0049977553237930093 0 3.399247340485733e-05 0.0049970704926199736 0 4.9862894978304755e-05 0.0049993667775734899 0 5.3840004564846595e-05 0.0049995882591836538 0 5.3077271285529401e-05 0.0049995270612052545 0 4.9862894978304755e-05 0.0049993667775734899 0 5.1071613657267206e-05 0.0050003955494283252 0 5.3840004564846595e-05 0.0049995882591836538 0 5.2315700259918204e-05 0.0049998867876963676 0 4.9862894978304755e-05 0.0049993667775734899 0 5.1071613657267206e-05 0.0050003955494283252 0 4.9882169314021931e-05 0.0050010730181687113 0 5.1071613657267206e-05 0.0050003955494283252 0 5.2963381774323202e-05 0.0049969685877490387 0 5.1071613657267206e-05 0.0050003955494283252 0 5.3840004564846595e-05 0.0049995882591836538 0 5.2963381774323202e-05 0.0049969685877490387 0 5.489769974362181e-05 0.0050004479090198237 0 5.3077271285529401e-05 0.0049995270612052545 0 6.2493724815731929e-05 0.0050004297741234058 0 5.489769974362181e-05 0.0050004479090198237 0 6.2493724815731929e-05 0.0050004297741234058 0 8.175706244367089e-05 0.0050030475997553288 0 5.3840004564846595e-05 0.0049995882591836538 0 5.3077271285529401e-05 0.0049995270612052545 0 6.2493724815731929e-05 0.0050004297741234058 0 5.3840004564846595e-05 0.0049995882591836538 0 6.2493724815731929e-05 0.0050004297741234058 0 5.2963381774323202e-05 0.0049969685877490387 0 6.2493724815731929e-05 0.0050004297741234058 0 5.9773106245975625e-05 0.0049896769469030431 0 5.2963381774323202e-05 0.0049969685877490387 0 6.2493724815731929e-05 0.0050004297741234058 0 5.9773106245975625e-05 0.0049896769469030431 0 8.175706244367089e-05 0.0050030475997553288 0 4.9882169314021931e-05 0.0050010730181687113 0 5.2963381774323202e-05 0.0049969685877490387 0 4.1793850636180212e-05 0.0049886357549398805 0 5.9773106245975625e-05 0.0049896769469030431 0 5.2963381774323202e-05 0.0049969685877490387 0 4.1793850636180212e-05 0.0049886357549398805 0 2.8769257536174049e-05 0.0049977553237930093 0 2.1050316400336757e-05 0.0049948143766766926 0 1.0512151934852812e-06 0.0050000965836394856 0 8.7739061829199535e-07 0.0050001204054219246 0 9.1399883625302406e-07 0.0050003573816837987 0 8.7739061829199535e-07 0.0050001204054219246 0 1.4673968330897706e-06 0.0050006609312586913 0 9.1399883625302406e-07 0.0050003573816837987 0 1.0512151934852812e-06 0.0050000965836394856 0 8.7739061829199535e-07 0.0050001204054219246 0 6.2505197162113678e-07 0.0050002219433212848 0 2.8769257536174049e-05 0.0049977553237930093 0 5.1641317292415497e-06 0.0049938696594036677 0 8.7739061829199535e-07 0.0050001204054219246 0 6.2505197162113678e-07 0.0050002219433212848 0 1.1030465873540917e-09 0.0049999974183532712 0 6.6031786009427507e-11 0.0050000021584195135 0 6.2505197162113678e-07 0.0050002219433212848 0 1.1030465873540917e-09 0.0049999974183532712 0 8.7739061829199535e-07 0.0050001204054219246 0 1.1030465873540917e-09 0.0049999974183532712 0 1.4673968330897706e-06 0.0050006609312586913 0 1.1030465873540917e-09 0.0049999974183532712 0 1.4673968330897706e-06 0.0050006609312586913 0 2.9167413936674771e-09 0.0050000137150164889 0 4.1793850636180212e-05 0.0049886357549398805 0 3.1617018974074447e-05 0.004972684339060055 0 4.4801814194523671e-05 0.004977978013686696 0 2.1050316400336757e-05 0.0049948143766766926 0 1.7074039886662539e-05 0.0049864673552248474 0 1.4673968330897706e-06 0.0050006609312586913 0 9.1399883625302406e-07 0.0050003573816837987 0 3.8500466378793524e-06 0.0050020442585460758 0 3.1617018974074447e-05 0.004972684339060055 0 4.208014083178159e-05 0.0049674499958212368 0 4.4801814194523671e-05 0.004977978013686696 0 1.4673968330897706e-06 0.0050006609312586913 0 3.8500466378793524e-06 0.0050020442585460758 0 2.9167413936674771e-09 0.0050000137150164889 0 3.8500466378793524e-06 0.0050020442585460758 0 2.9167413936674771e-09 0.0050000137150164889 0 2.3728363226505677e-06 0.0049977202023725161 0 3.8500466378793524e-06 0.0050020442585460758 0 2.3728363226505677e-06 0.0049977202023725161 0 1.135846165112227e-05 0.0049831219031949685 0 2.9167413936674771e-09 0.0050000137150164889 0 2.3728363226505677e-06 0.0049977202023725161 0 -2.2910224379897636e-11 0.0049999489935386374 0 3.1617018974074447e-05 0.004972684339060055 0 3.1004553488635299e-05 0.0049681913588349846 0 2.2884733002108158e-05 0.0049738305732070394 0 3.1617018974074447e-05 0.004972684339060055 0 3.1004553488635299e-05 0.0049681913588349846 0 4.208014083178159e-05 0.0049674499958212368 0 1.7074039886662539e-05 0.0049864673552248474 0 1.1734480766353096e-05 0.0049813473399318506 0 3.1617018974074447e-05 0.004972684339060055 0 2.2884733002108158e-05 0.0049738305732070394 0 1.135846165112227e-05 0.0049831219031949685 0 2.2884733002108158e-05 0.0049738305732070394 0 1.8088260915293664e-05 0.0049665286776516262 0 1.135846165112227e-05 0.0049831219031949685 0 3.1004553488635299e-05 0.0049681913588349846 0 2.2884733002108158e-05 0.0049738305732070394 0 2.7093180543639507e-05 0.0049610353090056526 0 2.0686191183759065e-05 0.0049504403321735209 0 2.7093180543639507e-05 0.0049610353090056526 0 1.8088260915293664e-05 0.0049665286776516262 0 2.2884733002108158e-05 0.0049738305732070394 0 2.7093180543639507e-05 0.0049610353090056526 0 1.8088260915293664e-05 0.0049665286776516262 0 2.7111147020710167e-09 0.0050000011363970929 0 1.4850168665050044e-06 0.0049913293598065301 0 -2.2910224379897636e-11 0.0049999489935386374 0 1.1227877150969283e-05 0.0049702308562408933 0 1.8088260915293664e-05 0.0049665286776516262 0 1.135846165112227e-05 0.0049831219031949685 0 1.1227877150969283e-05 0.0049702308562408933 0 1.4850168665050044e-06 0.0049913293598065301 0 1.135846165112227e-05 0.0049831219031949685 0 1.4850168665050044e-06 0.0049913293598065301 0 -2.2910224379897636e-11 0.0049999489935386374 0 1.135846165112227e-05 0.0049831219031949685 0 2.3728363226505677e-06 0.0049977202023725161 0 -2.2910224379897636e-11 0.0049999489935386374 0 1.135846165112227e-05 0.0049831219031949685 0 5.1294345366821249e-05 0.0049321813280036753 0 6.5380774440537782e-05 0.0049351906416363212 0 4.2097643474406571e-05 0.0049531310369529428 0 6.5380774440537782e-05 0.0049351906416363212 0 5.9570716664750426e-05 0.0049539096182184229 0 8.5379177121070344e-05 0.004938912697446343 0 6.5380774440537782e-05 0.0049351906416363212 0 4.2097643474406571e-05 0.0049531310369529428 0 5.9570716664750426e-05 0.0049539096182184229 0 3.3130790921840353e-05 0.004942644302615643 0 5.1294345366821249e-05 0.0049321813280036753 0 4.2097643474406571e-05 0.0049531310369529428 0 3.3130790921840353e-05 0.004942644302615643 0 2.7093180543639507e-05 0.0049610353090056526 0 4.2097643474406571e-05 0.0049531310369529428 0 3.1004553488635299e-05 0.0049681913588349846 0 2.7093180543639507e-05 0.0049610353090056526 0 4.2097643474406571e-05 0.0049531310369529428 0 3.1004553488635299e-05 0.0049681913588349846 0 4.2097643474406571e-05 0.0049531310369529428 0 4.208014083178159e-05 0.0049674499958212368 0 4.208014083178159e-05 0.0049674499958212368 0 5.9570716664750426e-05 0.0049539096182184229 0 5.8374541448858507e-05 0.0049716631419077541 0 4.2097643474406571e-05 0.0049531310369529428 0 4.208014083178159e-05 0.0049674499958212368 0 5.9570716664750426e-05 0.0049539096182184229 0 5.9570716664750426e-05 0.0049539096182184229 0 5.8374541448858507e-05 0.0049716631419077541 0 7.7763995133218187e-05 0.0049594675679198921 0 5.9570716664750426e-05 0.0049539096182184229 0 7.7763995133218187e-05 0.0049594675679198921 0 8.5379177121070344e-05 0.004938912697446343 0 5.8374541448858507e-05 0.0049716631419077541 0 8.1732923037289136e-05 0.0049786183757830269 0 7.7763995133218187e-05 0.0049594675679198921 0 4.208014083178159e-05 0.0049674499958212368 0 5.8374541448858507e-05 0.0049716631419077541 0 4.4801814194523671e-05 0.004977978013686696 0 5.9773106245975625e-05 0.0049896769469030431 0 4.1793850636180212e-05 0.0049886357549398805 0 4.4801814194523671e-05 0.004977978013686696 0 5.9773106245975625e-05 0.0049896769469030431 0 5.8374541448858507e-05 0.0049716631419077541 0 4.4801814194523671e-05 0.004977978013686696 0 5.9773106245975625e-05 0.0049896769469030431 0 5.8374541448858507e-05 0.0049716631419077541 0 8.1732923037289136e-05 0.0049786183757830269 0 8.1732923037289136e-05 0.0049786183757830269 0 0.00012186764572737269 0.0049938950322966739 0 8.175706244367089e-05 0.0050030475997553288 0 8.1732923037289136e-05 0.0049786183757830269 0 0.00012186764572737269 0.0049938950322966739 0 0.00011043748331650559 0.0049536411533685851 0 8.1732923037289136e-05 0.0049786183757830269 0 0.00011043748331650559 0.0049536411533685851 0 7.7763995133218187e-05 0.0049594675679198921 0 0.00011043748331650559 0.0049536411533685851 0 7.7763995133218187e-05 0.0049594675679198921 0 8.5379177121070344e-05 0.004938912697446343 0 0.00011043748331650559 0.0049536411533685851 0 8.5379177121070344e-05 0.004938912697446343 0 0.00011521795054224801 0.0049179109076538195 0 0.00011043748331650559 0.0049536411533685851 0 0.00011521795054224801 0.0049179109076538195 0 0.00016437031417142038 0.004896028047058909 0 0.00012116844227616222 0.0049010352424421026 0 0.00011521795054224801 0.0049179109076538195 0 0.00016437031417142038 0.004896028047058909 0 0.00012116844227616222 0.0049010352424421026 0 0.00011521795054224801 0.0049179109076538195 0 9.2549154582166523e-05 0.0049173448637017305 0 6.5380774440537782e-05 0.0049351906416363212 0 8.5379177121070344e-05 0.004938912697446343 0 9.2549154582166523e-05 0.0049173448637017305 0 8.5379177121070344e-05 0.004938912697446343 0 0.00011521795054224801 0.0049179109076538195 0 9.2549154582166523e-05 0.0049173448637017305 0 0.0002300824732811564 0.0047437063883815009 0 0.00016437031417142038 0.004896028047058909 0 0.00034584473018942633 0.0048470486620431682 0 0.00034621135345570548 0.00472454809271757 0 0.0002300824732811564 0.0047437063883815009 0 0.00034584473018942633 0.0048470486620431682 0 9.9748570374723236e-05 0.0048180758134297695 0 0.00016086156189325744 0.0048933653294954945 0 0.0002300824732811564 0.0047437063883815009 0 7.8603311807768142e-05 0.0047232979124365053 0 0.00016437031417142038 0.004896028047058909 0 0.00011043748331650559 0.0049536411533685851 0 0.00016437031417142038 0.004896028047058909 0 0.00019101922828113107 0.0049679026378238109 0 0.00016437031417142038 0.004896028047058909 0 0.00019101922828113107 0.0049679026378238109 0 0.00034584473018942633 0.0048470486620431682 0 0.00027898412923417552 0.0044343583506679862 0 0.00035357842737616463 0.004438334813268368 0 0.00035244484771273246 0.0039328100176405003 0 0.00036028683047256618 0.0039718081611149082 0 0.00040298822162942262 0.0039342664417610414 0 0.00012186764572737269 0.0049938950322966739 0 0.00011043748331650559 0.0049536411533685851 0 0.00019101922828113107 0.0049679026378238109 0 0.00021652137991070121 0.0044881798213057475 0 0.00027898412923417552 0.0044343583506679862 0 0.00031180790846790593 0.0039777872894457564 0 0.00035244484771273246 0.0039328100176405003 0 0.00036028683047256618 0.0039718081611149082 0 0.0003475616133738757 0.0040337952599055898 0 0.00039911044572893959 0.0040636784106227652 0 0.00039456078431553479 0.0039928128925604761 0 0.00036028683047256618 0.0039718081611149082 0 0.0003475616133738757 0.0040337952599055898 0 0.00039456078431553479 0.0039928128925604761 0 0.00031180790846790593 0.0039777872894457564 0 0.00036028683047256618 0.0039718081611149082 0 0.0003475616133738757 0.0040337952599055898 0 0.00031180790846790593 0.0039777872894457564 0 0.0003475616133738757 0.0040337952599055898 0 0.0002652813605884195 0.0040358474016365742 0 5.9773106245975625e-05 0.0049896769469030431 0 8.1732923037289136e-05 0.0049786183757830269 0 8.175706244367089e-05 0.0050030475997553288 0 0.00021652137991070121 0.0044881798213057475 0 0.00017436822520927161 0.004518042159357802 0 0.0003475616133738757 0.0040337952599055898 0 0.0002652813605884195 0.0040358474016365742 0 0.00029468197348479785 0.004107685695805564 0 0.00012747719985917429 0.0045592925035793496 0 0.00017436822520927161 0.004518042159357802 0 0.00019767700387350695 0.0041179865404673268 0 0.00029566134364410114 0.0042141040971507464 0 0.00022192387981690397 0.0043494179592657176 0 0.00019767700387350695 0.0041179865404673268 0 0.0002652813605884195 0.0040358474016365742 0 0.00029468197348479785 0.004107685695805564 0 0.00019767700387350695 0.0041179865404673268 0 0.00029468197348479785 0.004107685695805564 0 0.00029566134364410114 0.0042141040971507464 0 0.00029468197348479785 0.004107685695805564 0 0.00034758050191242531 0.0041056749059836667 0 0.00029566134364410114 0.0042141040971507464 0 0.00034758050191242531 0.0041056749059836667 0 0.00034628318200545527 0.0041797700870417091 0 0.00029566134364410114 0.0042141040971507464 0 0.00034758050191242531 0.0041056749059836667 0 0.00035452088239750103 0.004092852060987179 0 0.00034628318200545527 0.0041797700870417091 0 0.00034758050191242531 0.0041056749059836667 0 0.00035596188419394686 0.0040138020284602718 0 0.00035452088239750103 0.004092852060987179 0 0.00034984917792833282 0.0040955404718002915 0 0.00038029201603139432 0.0040396664991008916 0 0.0003475616133738757 0.0040337952599055898 0 0.00034758050191242531 0.0041056749059836667 0 0.00039911044572893959 0.0040636784106227652 0 0.0003475616133738757 0.0040337952599055898 0 0.00029468197348479785 0.004107685695805564 0 0.00034758050191242531 0.0041056749059836667 0 0.00035596188419394686 0.0040138020284602718 0 0.00036197546783448193 0.0040178089095764978 0 0.00041671905634876113 0.0039232416460828444 0 0.00038029201603139432 0.0040396664991008916 0 0.00043104274431011921 0.0039754203725170219 0 0.00039911044572893959 0.0040636784106227652 0 0.00044231136330303823 0.0040241324376381719 0 0.00042390917980192355 0.0040036001165371527 0 0.00035596188419394686 0.0040138020284602718 0 0.00036197546783448193 0.0040178089095764978 0 0.00035452088239750103 0.004092852060987179 0 0.00036197546783448193 0.0040178089095764978 0 0.00041199733120252118 0.0039696246497715592 0 0.00041671905634876113 0.0039232416460828444 0 0.00041199733120252118 0.0039696246497715592 0 0.00047509782589763035 0.0039343385179236101 0 0.00041671905634876113 0.0039232416460828444 0 0.00043104274431011921 0.0039754203725170219 0 0.00048904424094784545 0.0039406069216160657 0 0.00047509782589763035 0.0039343385179236101 0 0.00041671905634876113 0.0039232416460828444 0 0.00050516324194607731 0.0038930337192172207 0 0.00044231136330303823 0.0040241324376381719 0 0.00045217251896120965 0.0039757401349793664 0 0.00042390917980192355 0.0040036001165371527 0 0.00044231136330303823 0.0040241324376381719 0 0.00045217251896120965 0.0039757401349793664 0 0.00047940530058103957 0.0039839958886257855 0 0.00045217251896120965 0.0039757401349793664 0 0.00048100118594213235 0.0039490259938425977 0 0.00047940530058103957 0.0039839958886257855 0 0.00045217251896120965 0.0039757401349793664 0 0.00042390917980192355 0.0040036001165371527 0 0.00042548293389007246 0.0039666114357870966 0 0.00042390917980192355 0.0040036001165371527 0 0.00039456078431553479 0.0039928128925604761 0 0.00042548293389007246 0.0039666114357870966 0 0.00039911044572893959 0.0040636784106227652 0 0.00042390917980192355 0.0040036001165371527 0 0.00039456078431553479 0.0039928128925604761 0 0.00039456078431553479 0.0039928128925604761 0 0.00042548293389007246 0.0039666114357870966 0 0.00040298822162942262 0.0039342664417610414 0 0.00036028683047256618 0.0039718081611149082 0 0.00039456078431553479 0.0039928128925604761 0 0.00040298822162942262 0.0039342664417610414 0 0.00042548293389007246 0.0039666114357870966 0 0.00040298822162942262 0.0039342664417610414 0 0.00044648368854995437 0.003938883306432741 0 0.00040298822162942262 0.0039342664417610414 0 0.0004307132011266262 0.0039175439596337274 0 0.00044648368854995437 0.003938883306432741 0 0.00035244484771273246 0.0039328100176405003 0 0.00040298822162942262 0.0039342664417610414 0 0.00038519244940324858 0.0038955226198171839 0 0.00040298822162942262 0.0039342664417610414 0 0.0004214892789630845 0.0038932401683150152 0 0.00038519244940324858 0.0038955226198171839 0 0.00040298822162942262 0.0039342664417610414 0 0.0004214892789630845 0.0038932401683150152 0 0.0004307132011266262 0.0039175439596337274 0 0.00041377002316897487 0.0038611729479683635 0 0.0004214892789630845 0.0038932401683150152 0 0.00038519244940324858 0.0038955226198171839 0 0.00043113384894378728 0.0038996524870904782 0 0.00035357842737616463 0.004438334813268368 0 0.00044775578619811717 0.0038660450026379695 0 0.00046376743854037331 0.0038835944412639756 0 0.00045089631377265234 0.0039017124766789701 0 0.00047189831106401629 0.0038763897947290149 0 0.00044775578619811717 0.0038660450026379695 0 0.00046376743854037331 0.0038835944412639756 0 0.00044775578619811717 0.0038660450026379695 0 0.0004214892789630845 0.0038932401683150152 0 0.00045089631377265234 0.0039017124766789701 0 0.0004214892789630845 0.0038932401683150152 0 0.0004307132011266262 0.0039175439596337274 0 0.00045089631377265234 0.0039017124766789701 0 0.00046376743854037331 0.0038835944412639756 0 0.00045089631377265234 0.0039017124766789701 0 0.00047126737374536602 0.0039016982652701994 0 0.00045089631377265234 0.0039017124766789701 0 0.0004729799055016081 0.0039262400745302137 0 0.00047126737374536602 0.0039016982652701994 0 0.00045089631377265234 0.0039017124766789701 0 0.00044648368854995437 0.003938883306432741 0 0.0004729799055016081 0.0039262400745302137 0 0.0004307132011266262 0.0039175439596337274 0 0.00045089631377265234 0.0039017124766789701 0 0.00044648368854995437 0.003938883306432741 0 0.00045217251896120965 0.0039757401349793664 0 0.00042548293389007246 0.0039666114357870966 0 0.00044648368854995437 0.003938883306432741 0 0.00044648368854995437 0.003938883306432741 0 0.0004729799055016081 0.0039262400745302137 0 0.00048100118594213235 0.0039490259938425977 0 0.00045217251896120965 0.0039757401349793664 0 0.00044648368854995437 0.003938883306432741 0 0.00048100118594213235 0.0039490259938425977 0 0.00049739629167427186 0.0039337749884683481 0 0.0004729799055016081 0.0039262400745302137 0 0.00048100118594213235 0.0039490259938425977 0 0.00049739629167427186 0.0039337749884683481 0 0.00048913712124248182 0.0039145850332541312 0 0.0004729799055016081 0.0039262400745302137 0 0.00048913712124248182 0.0039145850332541312 0 0.0004729799055016081 0.0039262400745302137 0 0.00047126737374536602 0.0039016982652701994 0 0.00047126737374536602 0.0039016982652701994 0 0.00048669046996211433 0.0038979153584383155 0 0.00047275826899008063 0.0038778559918000916 0 0.00049608501480765061 0.0039039221022656796 0 0.00048669046996211433 0.0038979153584383155 0 0.00050455913434927413 0.0038887827548419705 0 0.00048913712124248182 0.0039145850332541312 0 0.00047126737374536602 0.0039016982652701994 0 0.00048669046996211433 0.0038979153584383155 0 0.00048913712124248182 0.0039145850332541312 0 0.00049608501480765061 0.0039039221022656796 0 0.00048669046996211433 0.0038979153584383155 0 0.00047275826899008063 0.0038778559918000916 0 0.00044728740915464532 0.00387216985539055 0 0.00044224191373204848 0.0038568263666902483 0 0.00048669046996211433 0.0038979153584383155 0 0.00047275826899008063 0.0038778559918000916 0 0.00050455913434927413 0.0038887827548419705 0 0.00047189831106401629 0.0038763897947290149 0 0.00047275826899008063 0.0038778559918000916 0 0.00044728740915464532 0.00387216985539055 0 0.00057195921151540147 0.0039907248904064042 0 0.00027215801664572169 0.0034872840890320051 0 0.00046376743854037331 0.0038835944412639756 0 0.00047126737374536602 0.0039016982652701994 0 0.00047275826899008063 0.0038778559918000916 0 0.00047189831106401629 0.0038763897947290149 0 0.00046376743854037331 0.0038835944412639756 0 0.00047275826899008063 0.0038778559918000916 0 2.9934291337426902e-05 0.0030639821844294186 0 5.3316812333001398e-05 0.0030514819393971967 0 1.0449734125123674e-05 0.0030407894064497488 0 2.9934291337426902e-05 0.0030639821844294186 0 4.2881415736247021e-05 0.0030729873872948192 0 4.579368584523366e-05 0.0030643737520919408 0 4.2881415736247021e-05 0.0030729873872948192 0 4.579368584523366e-05 0.0030643737520919408 0 5.7257621961298616e-05 0.0030693557684886943 0 6.0105545749303125e-05 0.0030699745656148532 0 5.7257621961298616e-05 0.0030693557684886943 0 5.3316812333001398e-05 0.0030514819393971967 0 4.579368584523366e-05 0.0030643737520919408 0 5.7257621961298616e-05 0.0030693557684886943 0 5.3316812333001398e-05 0.0030514819393971967 0 0.00025404149208781672 0.0033380063681241992 0 0.00022962925048067783 0.0033272366224748845 0 0.00025404149208781672 0.0033380063681241992 0 0.00027215801664572169 0.0034872840890320051 0 2.9934291337426902e-05 0.0030639821844294186 0 4.579368584523366e-05 0.0030643737520919408 0 5.3316812333001398e-05 0.0030514819393971967 0 0.00049608501480765061 0.0039039221022656796 0 0.00050455913434927413 0.0038887827548419705 0 0.00050577647959004551 0.0039190211949467714 0 0.00027215801664572169 0.0034872840890320051 0 0.00029109683026359108 0.0034842434975217856 0 0.00027215801664572169 0.0034872840890320051 0 -3.2242920601444124e-05 0.0030096794644905445 0 9.1560580570460343e-05 0.0031076907310600916 0 6.9178293665843061e-05 0.0030433810142434796 0 2.9282750131661426e-05 0.0030859256195506567 0 6.9178293665843061e-05 0.0030433810142434796 0 2.9282750131661426e-05 0.0030859256195506567 0 8.7165418577783742e-06 0.0030451619733026978 0 6.9178293665843061e-05 0.0030433810142434796 0 2.9668577441406873e-05 0.0030183254449878049 0 8.7165418577783742e-06 0.0030451619733026978 0 0.00049739629167427186 0.0039337749884683481 0 0.00048913712124248182 0.0039145850332541312 0 0.00050577647959004551 0.0039190211949467714 0 0.00048913712124248182 0.0039145850332541312 0 0.00049608501480765061 0.0039039221022656796 0 0.00050577647959004551 0.0039190211949467714 0 0.00049739629167427186 0.0039337749884683481 0 0.00050577647959004551 0.0039190211949467714 0 0.00049665002681407023 0.0039349676658671793 0 0.00029109683026359108 0.0034842434975217856 0 0.00026876279000530984 0.0034618433475671019 0 6.9178293665843061e-05 0.0030433810142434796 0 4.7053117888290599e-05 0.0029920277964201941 0 2.9668577441406873e-05 0.0030183254449878049 0 4.7053117888290599e-05 0.0029920277964201941 0 2.9668577441406873e-05 0.0030183254449878049 0 1.1018620873885856e-05 0.0029750701980604225 0 4.7053117888290599e-05 0.0029920277964201941 0 2.7829451889545485e-05 0.0029468683925945195 0 1.1018620873885856e-05 0.0029750701980604225 0 0.00026876279000530984 0.0034618433475671019 0 0.00026712156878282508 0.0034319967381620771 0 0.00049665002681407023 0.0039349676658671793 0 0.00047345982985371859 0.0039202530887504161 0 0.00049558956865726445 0.0039214950667364693 0 0.00049665002681407023 0.0039349676658671793 0 0.00051006492381971394 0.0039343591210742636 0 0.00049558956865726445 0.0039214950667364693 0 0.00049739629167427186 0.0039337749884683481 0 0.00049665002681407023 0.0039349676658671793 0 0.00051006492381971394 0.0039343591210742636 0 0.00049739629167427186 0.0039337749884683481 0 0.00048100118594213235 0.0039490259938425977 0 0.00051006492381971394 0.0039343591210742636 0 0.00048100118594213235 0.0039490259938425977 0 0.00047940530058103957 0.0039839958886257855 0 0.00051006492381971394 0.0039343591210742636 0 0.00048904424094784545 0.0039406069216160657 0 0.00050570953732689209 0.0039349900994367403 0 0.00051006492381971394 0.0039343591210742636 0 0.0005256226807074031 0.0039011102953429504 0 0.00052970098086049279 0.003891842248919212 0 0.00050516324194607731 0.0038930337192172207 0 0.00051006492381971394 0.0039343591210742636 0 0.0005256226807074031 0.0039011102953429504 0 0.00047509782589763035 0.0039343385179236101 0 0.00050516324194607731 0.0038930337192172207 0 0.0005256226807074031 0.0039011102953429504 0 0.00047509782589763035 0.0039343385179236101 0 0.0005256226807074031 0.0039011102953429504 0 0.00053527091958283047 0.0038946633843849735 0 0.00052970098086049279 0.003891842248919212 0 0.00056740408841710597 0.0038541718430773158 0 0.00053527091958283047 0.0038946633843849735 0 0.0005256226807074031 0.0039011102953429504 0 0.00052970098086049279 0.003891842248919212 0 0.00053527091958283047 0.0038946633843849735 0 0.00052970098086049279 0.003891842248919212 0 0.00048396185073283372 0.003886523549965118 0 0.0005279372743632883 0.0038616058992569924 0 0.00048396185073283372 0.003886523549965118 0 0.00046228698327753493 0.0038361749042023531 0 0.0005279372743632883 0.0038616058992569924 0 0.00052970098086049279 0.003891842248919212 0 0.0005279372743632883 0.0038616058992569924 0 0.00056740408841710597 0.0038541718430773158 0 0.00048396185073283372 0.003886523549965118 0 0.00046228698327753493 0.0038361749042023531 0 0.00044240341831148133 0.0038731569623466507 0 0.00047345982985371859 0.0039202530887504161 0 0.00048396185073283372 0.003886523549965118 0 0.00044240341831148133 0.0038731569623466507 0 0.00047345982985371859 0.0039202530887504161 0 0.00048396185073283372 0.003886523549965118 0 0.00049558956865726445 0.0039214950667364693 0 0.00052970098086049279 0.003891842248919212 0 0.00048396185073283372 0.003886523549965118 0 0.00049558956865726445 0.0039214950667364693 0 0.00051006492381971394 0.0039343591210742636 0 0.00052970098086049279 0.003891842248919212 0 0.00049558956865726445 0.0039214950667364693 0 0.0004244779483559827 0.0036273476366662318 0 0.00021529729556139462 0.003616453260694842 0 0.00055519783409167973 0.003383875884614653 0 0.0004244779483559827 0.0036273476366662318 0 0.00061781577817970185 0.0036353829413176132 0 0.00031149068894986514 0.003818403158993238 0 0.00061781577817970185 0.0036353829413176132 0 0.00068767748535018684 0.0035196602970797514 0 0.00055519783409167973 0.003383875884614653 0 0.0004244779483559827 0.0036273476366662318 0 0.00061781577817970185 0.0036353829413176132 0 0.00055519783409167973 0.003383875884614653 0 0.00028132877853632077 0.0035078324496530255 0 0.00054556522508026283 0.0033711638200470298 0 0.00035592054422033299 0.0033397063152996631 0 0.00040147231926371794 0.0031953808255326026 0 0.0002280988613891678 0.0030512748769573046 0 0.00035592054422033299 0.0033397063152996631 0 0.00055519783409167973 0.003383875884614653 0 0.00040147231926371794 0.0031953808255326026 0 0.0004244779483559827 0.0036273476366662318 0 0.00021529729556139462 0.003616453260694842 0 0.00031149068894986514 0.003818403158993238 0 0.00038496469508128101 0.0038834340256746307 0 0.00010111065297762611 0.0034097917109356451 0 0.00021529729556139462 0.003616453260694842 0 0.00031149068894986514 0.003818403158993238 0 -3.8159259621903056e-05 0.0037588948102910019 0 0.00061653139945702098 0.0036291694943635469 0 0.00038496469508128101 0.0038834340256746307 0 0.00046228698327753493 0.0038361749042023531 0 0.0005279372743632883 0.0038616058992569924 0 0.00059767356517129394 0.0037727346530772171 0 0.00061781577817970185 0.0036353829413176132 0 0.00046228698327753493 0.0038361749042023531 0 0.00059767356517129394 0.0037727346530772171 0 0.0005279372743632883 0.0038616058992569924 0 0.00059767356517129394 0.0037727346530772171 0 0.00056740408841710597 0.0038541718430773158 0 0.00059767356517129394 0.0037727346530772171 0 0.00056740408841710597 0.0038541718430773158 0 0.00053698682314914632 0.0039467151051468183 0 0.00056740408841710597 0.0038541718430773158 0 0.00053527091958283047 0.0038946633843849735 0 0.00053698682314914632 0.0039467151051468183 0 0.00047509782589763035 0.0039343385179236101 0 0.00053527091958283047 0.0038946633843849735 0 0.00048221786587834516 0.0039583545648006558 0 0.00053527091958283047 0.0038946633843849735 0 0.00053698682314914632 0.0039467151051468183 0 0.00048221786587834516 0.0039583545648006558 0 0.00072831737769138492 0.003592619682296416 0 0.00066347125044035726 0.0036489356351236128 0 0.00057344658122247545 0.0036432973927855473 0 0.00061803472179016784 0.0037760655736512687 0 0.00051347804128215764 0.0038348618875115284 0 0.00072831737769138492 0.003592619682296416 0 0.00070734158089449549 0.0035958109781208886 0 0.00066347125044035726 0.0036489356351236128 0 0.00059767356517129394 0.0037727346530772171 0 0.00072831737769138492 0.003592619682296416 0 0.00067982583179060677 0.0036111104054825046 0 0.00058609876598471593 0.0037778677747607489 0 0.00061803472179016784 0.0037760655736512687 0 0.00061781577817970185 0.0036353829413176132 0 0.00059767356517129394 0.0037727346530772171 0 0.00067982583179060677 0.0036111104054825046 0 0.00072831737769138492 0.003592619682296416 0 0.00070734158089449549 0.0035958109781208886 0 0.00067982583179060677 0.0036111104054825046 0 0.00061781577817970185 0.0036353829413176132 0 0.00067982583179060677 0.0036111104054825046 0 0.00068767748535018684 0.0035196602970797514 0 0.00070734158089449549 0.0035958109781208886 0 0.00067982583179060677 0.0036111104054825046 0 0.00068767748535018684 0.0035196602970797514 0 0.00034211816147090179 0.0036451782625203182 0 0.00031457776428541677 0.0034274449593145384 0 0.00068767748535018684 0.0035196602970797514 0 0.00069669512931718554 0.0036418569753048071 0 0.00071048816813992788 0.0035339402557068682 0 1.793383728132968e-05 0.0035993924939872303 0 -0.00010523877124812656 0.0035552920278096394 0 -0.00013008382789657255 0.0036247738814403595 0 0.00070734158089449549 0.0035958109781208886 0 0.00068767748535018684 0.0035196602970797514 0 0.00069669512931718554 0.0036418569753048071 0 0.00034211816147090179 0.0036451782625203182 0 0.00031420870599528443 0.0037283217087167881 0 0.00066347125044035726 0.0036489356351236128 0 0.00069669512931718554 0.0036418569753048071 0 0.0005633845189549838 0.0038124447796344719 0 0.00070734158089449549 0.0035958109781208886 0 0.00066347125044035726 0.0036489356351236128 0 0.00069669512931718554 0.0036418569753048071 0 1.793383728132968e-05 0.0035993924939872303 0 1.3758410388126156e-05 0.0035012694586266367 0 5.650600917427573e-05 0.0035648964611169616 0 1.793383728132968e-05 0.0035993924939872303 0 -5.6669907529982976e-05 0.0034943627326739935 0 -0.00010523877124812656 0.0035552920278096394 0 1.793383728132968e-05 0.0035993924939872303 0 -5.6669907529982976e-05 0.0034943627326739935 0 1.3758410388126156e-05 0.0035012694586266367 0 -0.00010523877124812656 0.0035552920278096394 0 -0.00019385462033903074 0.0035903410429738427 0 -0.00021254572981599281 0.0034426957650174968 0 -5.6669907529982976e-05 0.0034943627326739935 0 -0.00010523877124812656 0.0035552920278096394 0 -0.00021254572981599281 0.0034426957650174968 0 0.00031457776428541677 0.0034274449593145384 0 0.0001239224332641306 0.0032603356150857233 0 -0.00010523877124812656 0.0035552920278096394 0 -0.00013008382789657255 0.0036247738814403595 0 -0.00019385462033903074 0.0035903410429738427 0 0.00055519783409167973 0.003383875884614653 0 0.00040147231926371794 0.0031953808255326026 0 0.00046896236976725903 0.0029532323231749504 0 0.0005614464503652393 0.003165264917371088 0 0.00055519783409167973 0.003383875884614653 0 0.00046896236976725903 0.0029532323231749504 0 0.00069661976431192462 0.0035202590601292067 0 0.00031457776428541677 0.0034274449593145384 0 0.00068767748535018684 0.0035196602970797514 0 0.0005614464503652393 0.003165264917371088 0 0.00055519783409167973 0.003383875884614653 0 0.00040147231926371794 0.0031953808255326026 0 0.00046896236976725903 0.0029532323231749504 0 0.0002280988613891678 0.0030512748769573046 0 -0.00019385462033903074 0.0035903410429738427 0 -0.00021254572981599281 0.0034426957650174968 0 -0.00039146605927504682 0.0034674290535632664 0 0.00046896236976725903 0.0029532323231749504 0 0.00021025318459104317 0.0025388598438172596 0 0.0002280988613891678 0.0030512748769573046 0 0.0001239224332641306 0.0032603356150857233 0 -9.2354090627791205e-05 0.0029956943109296971 0 -0.00021254572981599281 0.0034426957650174968 0 -0.00030744984578438372 0.0033239445836445941 0 -0.00019672662175506417 0.0031946096689247716 0 -0.00021254572981599281 0.0034426957650174968 0 -0.00030744984578438372 0.0033239445836445941 0 -0.00039146605927504682 0.0034674290535632664 0 -5.9028508000974516e-05 0.0027701101547433597 0 -6.3372526182026502e-08 0.0028642616462162007 0 -3.2158187425622129e-07 0.0021824439068011208 0 -0.00021254572981599281 0.0034426957650174968 0 -0.00019672662175506417 0.0031946096689247716 0 -3.8149408781225893e-05 0.0033264767526133619 0 -5.6669907529982976e-05 0.0034943627326739935 0 -0.00021254572981599281 0.0034426957650174968 0 -3.8149408781225893e-05 0.0033264767526133619 0 -0.00019672662175506417 0.0031946096689247716 0 -2.3564352831522076e-05 0.0030495499374637324 0 -3.8149408781225893e-05 0.0033264767526133619 0 -0.00030744984578438372 0.0033239445836445941 0 -0.00019672662175506417 0.0031946096689247716 0 -0.00043244035684512363 0.0032037687254592132 0 -6.6796579344794064e-05 0.0027449997794057155 0 -0.00018184465175262861 0.002721032163138687 0 -0.00019672662175506417 0.0031946096689247716 0 -5.9028508000974516e-05 0.0027701101547433597 0 -0.0004059928049381123 0.0029113044717354909 0 -0.00019672662175506417 0.0031946096689247716 0 -2.3564352831522076e-05 0.0030495499374637324 0 -5.9028508000974516e-05 0.0027701101547433597 0 -2.3564352831522076e-05 0.0030495499374637324 0 -5.9028508000974516e-05 0.0027701101547433597 0 -6.3372526182026502e-08 0.0028642616462162007 0 -6.3372526182026502e-08 0.0028642616462162007 0 3.0718110419428334e-05 0.0032231005353159431 0 1.6633849584608992e-07 0.0033839978630287528 0 -2.3564352831522076e-05 0.0030495499374637324 0 -6.3372526182026502e-08 0.0028642616462162007 0 3.0718110419428334e-05 0.0032231005353159431 0 3.0718110419428334e-05 0.0032231005353159431 0 3.1816627289747118e-05 0.0034097307000971011 0 5.1724499667463616e-05 0.003479009744334541 0 -2.3564352831522076e-05 0.0030495499374637324 0 3.0718110419428334e-05 0.0032231005353159431 0 -3.8149408781225893e-05 0.0033264767526133619 0 3.0718110419428334e-05 0.0032231005353159431 0 3.1816627289747118e-05 0.0034097307000971011 0 -3.8149408781225893e-05 0.0033264767526133619 0 -5.6669907529982976e-05 0.0034943627326739935 0 -3.8149408781225893e-05 0.0033264767526133619 0 1.3758410388126156e-05 0.0035012694586266367 0 3.1816627289747118e-05 0.0034097307000971011 0 -3.8149408781225893e-05 0.0033264767526133619 0 1.3758410388126156e-05 0.0035012694586266367 0 3.1816627289747118e-05 0.0034097307000971011 0 1.3758410388126156e-05 0.0035012694586266367 0 5.650600917427573e-05 0.0035648964611169616 0 3.1816627289747118e-05 0.0034097307000971011 0 5.650600917427573e-05 0.0035648964611169616 0 5.1724499667463616e-05 0.003479009744334541 0 7.6981899269146399e-05 0.0036692568415462486 0 5.1724499667463616e-05 0.003479009744334541 0 6.9418297106663631e-05 0.0037177933884864384 0 5.650600917427573e-05 0.0035648964611169616 0 7.6981899269146399e-05 0.0036692568415462486 0 5.1724499667463616e-05 0.003479009744334541 0 1.6633849584608992e-07 0.0033839978630287528 0 6.9418297106663631e-05 0.0037177933884864384 0 1.8869127494414728e-07 0.0040768024122491532 0 3.0718110419428334e-05 0.0032231005353159431 0 5.1724499667463616e-05 0.003479009744334541 0 1.6633849584608992e-07 0.0033839978630287528 0 5.1724499667463616e-05 0.003479009744334541 0 1.6633849584608992e-07 0.0033839978630287528 0 6.9418297106663631e-05 0.0037177933884864384 0 6.9418297106663631e-05 0.0037177933884864384 0 9.6199986822384934e-05 0.0038270008696308895 0 9.7395083643487344e-05 0.0040010322155561171 0 7.6981899269146399e-05 0.0036692568415462486 0 6.9418297106663631e-05 0.0037177933884864384 0 9.6199986822384934e-05 0.0038270008696308895 0 9.6199986822384934e-05 0.0038270008696308895 0 0.00015741825375106588 0.0040055702449813841 0 9.7395083643487344e-05 0.0040010322155561171 0 9.6199986822384934e-05 0.0038270008696308895 0 8.7933028983313389e-05 0.0037807095948211578 0 0.00015741825375106588 0.0040055702449813841 0 0.00021083873324195571 0.0038743614877097569 0 0.00016916343287097177 0.0039807889990173878 0 0.0002282796516117487 0.0040020885145758212 0 0.00031959822468429725 0.0039648540909139737 0 0.00015741825375106588 0.0040055702449813841 0 0.0002282796516117487 0.0040020885145758212 0 0.00019241857748188973 0.0040356554110019989 0 0.00015741825375106588 0.0040055702449813841 0 0.0002282796516117487 0.0040020885145758212 0 0.00031859197366266423 0.0040313262100585782 0 0.00019241857748188973 0.0040356554110019989 0 0.0002282796516117487 0.0040020885145758212 0 0.00035214093049788558 0.0040486721881074772 0 0.00031859197366266423 0.0040313262100585782 0 0.0002282796516117487 0.0040020885145758212 0 0.00037126102089105457 0.0037931375701067689 0 0.00031959822468429725 0.0039648540909139737 0 0.00024961179672578323 0.003986693537841474 0 0.00036900272294898854 0.0039191938468724607 0 7.6981899269146399e-05 0.0036692568415462486 0 9.6199986822384934e-05 0.0038270008696308895 0 8.7933028983313389e-05 0.0037807095948211578 0 0.00021083873324195571 0.0038743614877097569 0 0.00031420870599528443 0.0037283217087167881 0 7.6981899269146399e-05 0.0036692568415462486 0 8.7933028983313389e-05 0.0037807095948211578 0 7.0456254933494661e-05 0.0036443162313003837 0 1.793383728132968e-05 0.0035993924939872303 0 5.650600917427573e-05 0.0035648964611169616 0 7.0456254933494661e-05 0.0036443162313003837 0 5.650600917427573e-05 0.0035648964611169616 0 7.6981899269146399e-05 0.0036692568415462486 0 7.0456254933494661e-05 0.0036443162313003837 0 0.00066347125044035726 0.0036489356351236128 0 0.0005633845189549838 0.0038124447796344719 0 0.00057344658122247545 0.0036432973927855473 0 0.00036900272294898854 0.0039191938468724607 0 0.00051347804128215764 0.0038348618875115284 0 0.00037126102089105457 0.0037931375701067689 0 0.00031959822468429725 0.0039648540909139737 0 0.0005633845189549838 0.0038124447796344719 0 0.00037126102089105457 0.0037931375701067689 0 0.0005633845189549838 0.0038124447796344719 0 0.00057344658122247545 0.0036432973927855473 0 0.00035214093049788558 0.0040486721881074772 0 0.00044863558451813655 0.0040255388225766678 0 0.00039978480166635665 0.0039944208967623903 0 0.00053698682314914632 0.0039467151051468183 0 0.00044863558451813655 0.0040255388225766678 0 0.00048221786587834516 0.0039583545648006558 0 0.00044863558451813655 0.0040255388225766678 0 0.00048221786587834516 0.0039583545648006558 0 0.00039978480166635665 0.0039944208967623903 0 0.00047509782589763035 0.0039343385179236101 0 0.00048221786587834516 0.0039583545648006558 0 0.00039978480166635665 0.0039944208967623903 0 0.00041199733120252118 0.0039696246497715592 0 0.00047509782589763035 0.0039343385179236101 0 0.00039978480166635665 0.0039944208967623903 0 0.00036197546783448193 0.0040178089095764978 0 0.00041199733120252118 0.0039696246497715592 0 0.00039978480166635665 0.0039944208967623903 0 0.00036197546783448193 0.0040178089095764978 0 0.00039978480166635665 0.0039944208967623903 0 0.00031859197366266423 0.0040313262100585782 0 0.00036197546783448193 0.0040178089095764978 0 0.00031859197366266423 0.0040313262100585782 0 0.00035452088239750103 0.004092852060987179 0 0.0003075700584116605 0.0040419628937304625 0 0.00026332599809274172 0.0041060132508054063 0 0.00035214093049788558 0.0040486721881074772 0 0.00039978480166635665 0.0039944208967623903 0 0.00031859197366266423 0.0040313262100585782 0 0.00026332599809274172 0.0041060132508054063 0 0.00021793723922012835 0.0042462818495371075 0 0.00036181516496967879 0.004174530388178989 0 0.00034628318200545527 0.0041797700870417091 0 0.00033138826657012297 0.004337817800442418 0 0.00031859197366266423 0.0040313262100585782 0 0.00036181516496967879 0.004174530388178989 0 0.00035452088239750103 0.004092852060987179 0 0.00031859197366266423 0.0040313262100585782 0 0.0001721300817649966 0.0040256991991346443 0 0.00019241857748188973 0.0040356554110019989 0 0.00036181516496967879 0.004174530388178989 0 0.00035452088239750103 0.004092852060987179 0 0.00034628318200545527 0.0041797700870417091 0 0.00029566134364410114 0.0042141040971507464 0 0.00033138826657012297 0.004337817800442418 0 0.00022192387981690397 0.0043494179592657176 0 0.00034628318200545527 0.0041797700870417091 0 0.00029566134364410114 0.0042141040971507464 0 0.00033138826657012297 0.004337817800442418 0 0.00033138826657012297 0.004337817800442418 0 0.00023872234268745095 0.0045158499394950761 0 0.00022192387981690397 0.0043494179592657176 0 0.00010511208488809237 0.0041507464787772837 0 8.1583625747117948e-05 0.0042791156902998971 0 0.0001348986666611648 0.0041226658680622082 0 0.00010511208488809237 0.0041507464787772837 0 8.1583625747117948e-05 0.0042791156902998971 0 4.6576896169474569e-05 0.0043450087679285376 0 0.00021793723922012835 0.0042462818495371075 0 0.00014463532856342487 0.0044325041678045414 0 8.1583625747117948e-05 0.0042791156902998971 0 4.1012743960178543e-05 0.0044728028304368405 0 4.6576896169474569e-05 0.0043450087679285376 0 8.1583625747117948e-05 0.0042791156902998971 0 0.0001348986666611648 0.0041226658680622082 0 6.9441392140739939e-05 0.0042630708124198197 0 0.0001721300817649966 0.0040256991991346443 0 0.00010511208488809237 0.0041507464787772837 0 0.0001348986666611648 0.0041226658680622082 0 0.0001721300817649966 0.0040256991991346443 0 0.0001348986666611648 0.0041226658680622082 0 0.00019241857748188973 0.0040356554110019989 0 0.0001348986666611648 0.0041226658680622082 0 0.00015741825375106588 0.0040055702449813841 0 9.7395083643487344e-05 0.0040010322155561171 0 0.0001348986666611648 0.0041226658680622082 0 0.00019241857748188973 0.0040356554110019989 0 0.00015741825375106588 0.0040055702449813841 0 0.0001348986666611648 0.0041226658680622082 0 9.7395083643487344e-05 0.0040010322155561171 0 6.9441392140739939e-05 0.0042630708124198197 0 9.7395083643487344e-05 0.0040010322155561171 0 1.8869127494414728e-07 0.0040768024122491532 0 6.9441392140739939e-05 0.0042630708124198197 0 6.9418297106663631e-05 0.0037177933884864384 0 9.7395083643487344e-05 0.0040010322155561171 0 1.8869127494414728e-07 0.0040768024122491532 0 1.8869127494414728e-07 0.0040768024122491532 0 6.9441392140739939e-05 0.0042630708124198197 0 2.4133256418883845e-05 0.0045355184965831007 0 8.1583625747117948e-05 0.0042791156902998971 0 6.9441392140739939e-05 0.0042630708124198197 0 4.1012743960178543e-05 0.0044728028304368405 0 1.8869127494414728e-07 0.0040768024122491532 0 2.4133256418883845e-05 0.0045355184965831007 0 -2.6323163027167238e-08 0.0049997252883967735 0 6.9441392140739939e-05 0.0042630708124198197 0 4.1012743960178543e-05 0.0044728028304368405 0 2.4133256418883845e-05 0.0045355184965831007 0 4.1012743960178543e-05 0.0044728028304368405 0 2.4133256418883845e-05 0.0045355184965831007 0 4.5325657620459614e-06 0.004738778304960365 0 2.4133256418883845e-05 0.0045355184965831007 0 5.6080012141630037e-06 0.0048187933159908871 0 4.5325657620459614e-06 0.004738778304960365 0 -2.6323163027167238e-08 0.0049997252883967735 0 5.6310665880508969e-08 0.0049996482734665608 0 5.6080012141630037e-06 0.0048187933159908871 0 2.4133256418883845e-05 0.0045355184965831007 0 -2.6323163027167238e-08 0.0049997252883967735 0 5.6080012141630037e-06 0.0048187933159908871 0 5.6310665880508969e-08 0.0049996482734665608 0 5.6080012141630037e-06 0.0048187933159908871 0 4.5325657620459614e-06 0.004738778304960365 0 5.6310665880508969e-08 0.0049996482734665608 0 4.5325657620459614e-06 0.004738778304960365 0 -7.481931416545728e-06 0.0049446175494882285 0 5.6310665880508969e-08 0.0049996482734665608 0 -7.481931416545728e-06 0.0049446175494882285 0 -2.279559161987815e-07 0.0049992833450202149 0 -2.279559161987815e-07 0.0049992833450202149 0 2.2672168163757407e-05 0.004785396857374025 0 -1.7002586550513496e-05 0.0045303458287408024 0 -7.481931416545728e-06 0.0049446175494882285 0 -2.279559161987815e-07 0.0049992833450202149 0 2.2672168163757407e-05 0.004785396857374025 0 1.1615397261925905e-08 0.004999893324727926 0 9.1848448550697323e-06 0.0047633970160101636 0 2.2672168163757407e-05 0.004785396857374025 0 9.5542093714040544e-05 0.0047346701627603771 0 0.00012528857148960646 0.0045221306608521829 0 -7.481931416545728e-06 0.0049446175494882285 0 2.2672168163757407e-05 0.004785396857374025 0 9.5542093714040544e-05 0.0047346701627603771 0 4.5325657620459614e-06 0.004738778304960365 0 -7.481931416545728e-06 0.0049446175494882285 0 5.1393188598756305e-06 0.0046040062250069826 0 -4.9873065232623402e-06 0.0048990044074026639 0 5.6578204114432055e-05 0.0046768534419219417 0 4.1012743960178543e-05 0.0044728028304368405 0 4.5325657620459614e-06 0.004738778304960365 0 5.1393188598756305e-06 0.0046040062250069826 0 4.1012743960178543e-05 0.0044728028304368405 0 4.6576896169474569e-05 0.0043450087679285376 0 5.1393188598756305e-06 0.0046040062250069826 0 0.00023872234268745095 0.0045158499394950761 0 9.5542093714040544e-05 0.0047346701627603771 0 0.00012528857148960646 0.0045221306608521829 0 0.00014463532856342487 0.0044325041678045414 0 5.6578204114432055e-05 0.0046768534419219417 0 0.00023872234268745095 0.0045158499394950761 0 0.00012528857148960646 0.0045221306608521829 0 0.00022192387981690397 0.0043494179592657176 0 0.00010092469687814297 0.0042736000091606217 0 0.00012528857148960646 0.0045221306608521829 0 0.00022192387981690397 0.0043494179592657176 0 6.4051425940310245e-05 0.0046391605329056161 0 9.1848448550697323e-06 0.0047633970160101636 0 2.570519384906234e-05 0.0050048456659462521 0 7.6126186288702154e-06 0.0050022274265083995 0 6.203417036202369e-06 0.005002755515332408 0 5.6248950320361157e-09 0.0050000070915760799 0 7.6126186288702154e-06 0.0050022274265083995 0 6.6120030690090208e-09 0.0050000042818663581 0 -2.6421198770551008e-09 0.0050000016736965322 0 6.6120030690090208e-09 0.0050000042818663581 0 6.203417036202369e-06 0.005002755515332408 0 7.6126186288702154e-06 0.0050022274265083995 0 6.6120030690090208e-09 0.0050000042818663581 0 6.203417036202369e-06 0.005002755515332408 0 0.00010092469687814297 0.0042736000091606217 0 0.00012528857148960646 0.0045221306608521829 0 -1.7002586550513496e-05 0.0045303458287408024 0 2.2672168163757407e-05 0.004785396857374025 0 0.00012528857148960646 0.0045221306608521829 0 -1.7002586550513496e-05 0.0045303458287408024 0 7.5254475733555314e-05 0.0018632313293618962 0 7.7533439305487283e-05 0.001845963008823289 0 5.4893332287730905e-05 0.0018633809274552823 0 -3.4219153239969385e-05 0.00085052526030122901 0 -4.6468932484752266e-05 0.00086039595946634602 0 -2.4085977374036136e-05 0.00085931109670994124 0 8.3274365540922736e-06 0.0013577038210879817 0 3.9944376087355154e-06 0.0012074027114266871 0 -3.4219153239969385e-05 0.00085052526030122901 0 -2.4085977374036136e-05 0.00085931109670994124 0 -9.5381298649573473e-06 0.00084854068087913189 0 -3.4219153239969385e-05 0.00085052526030122901 0 -1.1250534754167805e-05 0.00083651074526367906 0 -9.5381298649573473e-06 0.00084854068087913189 0 9.564345203230264e-05 0.0018397647871991516 0 9.2847149013682579e-05 0.0018338806871612955 0 7.7533439305487283e-05 0.001845963008823289 0 7.5254475733555314e-05 0.0018632313293618962 0 9.564345203230264e-05 0.0018397647871991516 0 7.7533439305487283e-05 0.001845963008823289 0 7.5254475733555314e-05 0.0018632313293618962 0 9.8280645337467574e-05 0.0018394147157670788 0 9.564345203230264e-05 0.0018397647871991516 0 8.3274365540922736e-06 0.0013577038210879817 0 4.400854689086574e-05 0.0013401534328989309 0 4.400854689086574e-05 0.0013401534328989309 0 5.920339708462976e-05 0.0013680621351266269 0 9.8984276242340661e-05 0.0018396419206184425 0 9.564345203230264e-05 0.0018397647871991516 0 9.2847149013682579e-05 0.0018338806871612955 0 9.2847149013682579e-05 0.0018338806871612955 0 7.7533439305487283e-05 0.001845963008823289 0 6.4528704773424316e-05 0.0018393798444923529 0 7.7533439305487283e-05 0.001845963008823289 0 5.4893332287730905e-05 0.0018633809274552823 0 6.4528704773424316e-05 0.0018393798444923529 0 4.791519053036549e-05 0.0018523605371047604 0 5.4893332287730905e-05 0.0018633809274552823 0 6.4528704773424316e-05 0.0018393798444923529 0 -4.3828024440332788e-05 0.0023932933936080215 0 -1.960583452551648e-05 0.0023689948938216765 0 4.791519053036549e-05 0.0018523605371047604 0 3.50257096548027e-05 0.0018633195524474066 0 3.7585007378786906e-05 0.0018436057498539982 0 4.791519053036549e-05 0.0018523605371047604 0 3.50257096548027e-05 0.0018633195524474066 0 5.4893332287730905e-05 0.0018633809274552823 0 -4.3828024440332788e-05 0.0023932933936080215 0 -6.1346211100907864e-05 0.0024964460675278659 0 3.50257096548027e-05 0.0018633195524474066 0 5.4893332287730905e-05 0.0018633809274552823 0 3.1867158529246254e-05 0.0018849328105902425 0 5.4893332287730905e-05 0.0018633809274552823 0 6.3653363130592973e-05 0.0018748695778998308 0 5.2982986619663106e-05 0.001885514620836993 0 7.5254475733555314e-05 0.0018632313293618962 0 5.4893332287730905e-05 0.0018633809274552823 0 6.3653363130592973e-05 0.0018748695778998308 0 3.9944376087355154e-06 0.0012074027114266871 0 0.00010852299372046898 0.0013643182102324558 0 0.00010565278126812262 0.0010552669815017954 0 0.00011427964533521205 0.0010487578735830141 0 0.0001050626901985404 0.0010365870030330778 0 5.2982986619663106e-05 0.001885514620836993 0 3.1867158529246254e-05 0.0018849328105902425 0 2.875332343985059e-05 0.0019073263529070207 0 5.4893332287730905e-05 0.0018633809274552823 0 5.2982986619663106e-05 0.001885514620836993 0 3.1867158529246254e-05 0.0018849328105902425 0 0.00011427964533521205 0.0010487578735830141 0 0.00011592130277527918 0.0010334485019219725 0 0.00013078656093088614 0.0010389055781265407 0 0.00010852299372046898 0.0013643182102324558 0 3.061015078382367e-06 0.0019066159246259717 0 0.00011592130277527918 0.0010334485019219725 0 0.00013078656093088614 0.0010389055781265407 0 0.00012169081146752883 0.0010219785393435507 0 0.00011427964533521205 0.0010487578735830141 0 0.00011592130277527918 0.0010334485019219725 0 0.0001050626901985404 0.0010365870030330778 0 0.00011592130277527918 0.0010334485019219725 0 0.0001050626901985404 0.0010365870030330778 0 0.00010761938356981312 0.001020537839681064 0 0.0001050626901985404 0.0010365870030330778 0 9.6427899735779984e-05 0.0010236824048329804 0 8.7621546157753429e-05 0.0010350883293184711 0 0.0001050626901985404 0.0010365870030330778 0 9.6427899735779984e-05 0.0010236824048329804 0 0.00010761938356981312 0.001020537839681064 0 3.9944376087355154e-06 0.0012074027114266871 0 2.4218703003408207e-05 0.00091643997119163949 0 -4.6468932484752266e-05 0.00086039595946634602 0 -2.4085977374036136e-05 0.00085931109670994124 0 -2.7220647936167014e-05 0.00087962369527380625 0 0.00010565278126812262 0.0010552669815017954 0 0.0001050626901985404 0.0010365870030330778 0 8.7621546157753429e-05 0.0010350883293184711 0 -2.4085977374036136e-05 0.00085931109670994124 0 -5.6621064778108376e-06 0.00086128817989501001 0 -9.5381298649573473e-06 0.00084854068087913189 0 -2.4085977374036136e-05 0.00085931109670994124 0 -2.7220647936167014e-05 0.00087962369527380625 0 -5.6621064778108376e-06 0.00086128817989501001 0 -2.7220647936167014e-05 0.00087962369527380625 0 2.6985180731296112e-06 0.00089190219905071816 0 -5.6621064778108376e-06 0.00086128817989501001 0 9.6427899735779984e-05 0.0010236824048329804 0 8.7621546157753429e-05 0.0010350883293184711 0 8.6717126148864944e-05 0.001012142110419095 0 8.7621546157753429e-05 0.0010350883293184711 0 8.6717126148864944e-05 0.001012142110419095 0 6.9904761222177442e-05 0.0010120694011431001 0 2.6985180731296112e-06 0.00089190219905071816 0 3.76738617654476e-05 0.00089702864233351463 0 1.086250444465252e-05 0.00092863811161744778 0 2.4218703003408207e-05 0.00091643997119163949 0 4.5791018630418601e-05 0.00097802065626044271 0 -2.7220647936167014e-05 0.00087962369527380625 0 2.6985180731296112e-06 0.00089190219905071816 0 1.086250444465252e-05 0.00092863811161744778 0 2.6985180731296112e-06 0.00089190219905071816 0 3.76738617654476e-05 0.00089702864233351463 0 -5.6621064778108376e-06 0.00086128817989501001 0 3.76738617654476e-05 0.00089702864233351463 0 5.3208814140966323e-05 0.00093938633483254023 0 1.086250444465252e-05 0.00092863811161744778 0 5.2549173401782073e-06 0.00084337418864019193 0 4.8618000219198445e-06 0.00084330250731851238 0 7.5951395683751664e-07 0.00085048167054566526 0 5.2549173401782073e-06 0.00084337418864019193 0 4.8618000219198445e-06 0.00084330250731851238 0 5.8384245338091535e-06 0.00083790049674683262 0 4.8618000219198445e-06 0.00084330250731851238 0 7.5951395683751664e-07 0.00085048167054566526 0 1.0107659472956562e-06 0.00084456029236703787 0 1.8137276622016034e-05 0.00086977241767091336 0 -3.9759297221647364e-06 0.00086028826180646232 0 5.2549173401782073e-06 0.00084337418864019193 0 7.5951395683751664e-07 0.00085048167054566526 0 -5.6621064778108376e-06 0.00086128817989501001 0 7.5951395683751664e-07 0.00085048167054566526 0 -5.6621064778108376e-06 0.00086128817989501001 0 -9.5381298649573473e-06 0.00084854068087913189 0 -7.0497266262065628e-06 0.00079090485822142897 0 1.9551258455293767e-05 0.00081604359730192322 0 8.6066085960431904e-06 0.00083231811620952298 0 5.4428685977134367e-06 0.00083310503685848881 0 2.2812374026703714e-05 0.00081662237648791574 0 -2.7956317021651638e-05 0.00074527128470426032 0 2.2812374026703714e-05 0.00081662237648791574 0 4.5127323296111985e-05 0.00075679548393810443 0 1.8137276622016034e-05 0.00086977241767091336 0 4.9601407609747999e-05 0.00088160588643526367 0 5.8384245338091535e-06 0.00083790049674683262 0 8.6066085960431904e-06 0.00083231811620952298 0 5.4428685977134367e-06 0.00083310503685848881 0 5.2549173401782073e-06 0.00084337418864019193 0 5.8384245338091535e-06 0.00083790049674683262 0 5.4428685977134367e-06 0.00083310503685848881 0 3.76738617654476e-05 0.00089702864233351463 0 7.9437083215522613e-05 0.00093421218507397906 0 5.3208814140966323e-05 0.00093938633483254023 0 4.8618000219198445e-06 0.00084330250731851238 0 8.6066085960431904e-06 0.00083231811620952298 0 5.7719219207123391e-06 0.00084157091795554874 0 4.8618000219198445e-06 0.00084330250731851238 0 5.8384245338091535e-06 0.00083790049674683262 0 8.6066085960431904e-06 0.00083231811620952298 0 -7.0497266262065628e-06 0.00079090485822142897 0 -3.4767139740518589e-05 0.00075658939165944858 0 -2.7956317021651638e-05 0.00074527128470426032 0 -1.2557598803796314e-05 0.00067511896138077788 0 -7.2025177472705059e-05 0.00068327088351247491 0 -2.7956317021651638e-05 0.00074527128470426032 0 -1.2557598803796314e-05 0.00067511896138077788 0 3.5268738519604671e-05 0.00070255478434163427 0 -1.2557598803796314e-05 0.00067511896138077788 0 2.4973705562106949e-05 0.00066873299630886712 0 2.7356364850579887e-05 0.00063134112529453722 0 -1.2557598803796314e-05 0.00067511896138077788 0 3.5268738519604671e-05 0.00070255478434163427 0 2.4973705562106949e-05 0.00066873299630886712 0 -1.2557598803796314e-05 0.00067511896138077788 0 -7.2025177472705059e-05 0.00068327088351247491 0 -4.6306458459226698e-05 0.00062929054625780463 0 -9.4750080222549319e-06 0.00062292872829283297 0 -6.444810577996804e-05 0.00077352137687981858 0 -7.2025177472705059e-05 0.00068327088351247491 0 -4.6306458459226698e-05 0.00062929054625780463 0 -0.00011556220286041438 0.00062647837743750841 0 2.7761135091642643e-05 0.00063127914180758661 0 -3.6174681736027325e-07 0.00063213120739974904 0 1.664618571467138e-05 0.00061758754718274471 0 2.7761135091642643e-05 0.00063127914180758661 0 2.9265353112145906e-05 0.00061811852910605917 0 1.664618571467138e-05 0.00061758754718274471 0 2.7761135091642643e-05 0.00063127914180758661 0 4.2867440912664474e-05 0.00061958563060720683 0 5.9523814128989808e-05 0.00063309381416720408 0 -1.2557598803796314e-05 0.00067511896138077788 0 -4.6306458459226698e-05 0.00062929054625780463 0 2.7356364850579887e-05 0.00063134112529453722 0 -9.4750080222549319e-06 0.00062292872829283297 0 4.4917730333777067e-05 0.0006327839536559353 0 2.7761135091642643e-05 0.00063127914180758661 0 4.2867440912664474e-05 0.00061958563060720683 0 2.9265353112145906e-05 0.00061811852910605917 0 7.5951395683751664e-07 0.00085048167054566526 0 -9.5381298649573473e-06 0.00084854068087913189 0 1.0107659472956562e-06 0.00084456029236703787 0 -1.1250534754167805e-05 0.00083651074526367906 0 -9.5381298649573473e-06 0.00084854068087913189 0 1.0107659472956562e-06 0.00084456029236703787 0 -3.4767139740518589e-05 0.00075658939165944858 0 -6.444810577996804e-05 0.00077352137687981858 0 5.7719219207123391e-06 0.00084157091795554874 0 1.0107659472956562e-06 0.00084456029236703787 0 2.8719326644483611e-06 0.00083756812440721881 0 4.8618000219198445e-06 0.00084330250731851238 0 5.7719219207123391e-06 0.00084157091795554874 0 1.0107659472956562e-06 0.00084456029236703787 0 -3.6174681736027325e-07 0.00063213120739974904 0 6.9404415880114812e-08 0.00061714037412022944 0 1.664618571467138e-05 0.00061758754718274471 0 -6.444810577996804e-05 0.00077352137687981858 0 4.4668273063180296e-05 0.001294670200845954 0 4.400854689086574e-05 0.0013401534328989309 0 -6.444810577996804e-05 0.00077352137687981858 0 -1.1250534754167805e-05 0.00083651074526367906 0 1.0107659472956562e-06 0.00084456029236703787 0 2.8719326644483611e-06 0.00083756812440721881 0 7.0435902065868087e-05 0.0011105818828026431 0 -6.8956954112590226e-05 0.0010976676784680611 0 -1.0275900236745164e-05 0.0011745513324554378 0 9.8984276242340661e-05 0.0018396419206184425 0 0.00010817234331007273 0.0018179781122149318 0 0.00011498127651470474 0.0018200278433924855 0 9.8984276242340661e-05 0.0018396419206184425 0 0.00010817234331007273 0.0018179781122149318 0 9.9431034227658811e-05 0.0018194513410164611 0 4.400854689086574e-05 0.0013401534328989309 0 4.4668273063180296e-05 0.001294670200845954 0 0.00011015757301909876 0.0018114337496291581 0 0.00010609253335476182 0.0018065462524955052 0 9.9431034227658811e-05 0.0018194513410164611 0 0.00010817234331007273 0.0018179781122149318 0 0.00011015757301909876 0.0018114337496291581 0 0.00011210374327870349 0.0018158056867774613 0 0.00010817234331007273 0.0018179781122149318 0 0.00011015757301909876 0.0018114337496291581 0 9.9431034227658811e-05 0.0018194513410164611 0 0.00011015757301909876 0.0018114337496291581 0 0.00010609253335476182 0.0018065462524955052 0 0.00011931220208798037 0.0018031729414214913 0 0.00011518051698339197 0.0018139829519182018 0 0.00011880412043291575 0.0018179811976361034 0 0.00011931220208798037 0.0018031729414214913 0 0.00011015757301909876 0.0018114337496291581 0 0.00011518051698339197 0.0018139829519182018 0 0.00011931220208798037 0.0018031729414214913 0 0.00011210374327870349 0.0018158056867774613 0 0.00011518051698339197 0.0018139829519182018 0 0.00011498127651470474 0.0018200278433924855 0 0.00011015757301909876 0.0018114337496291581 0 0.00011210374327870349 0.0018158056867774613 0 0.00011518051698339197 0.0018139829519182018 0 0.00011518051698339197 0.0018139829519182018 0 0.00011932766857283551 0.001818371251803642 0 0.00011498127651470474 0.0018200278433924855 0 9.8984276242340661e-05 0.0018396419206184425 0 0.00011957078192627527 0.0018183931234151648 0 0.00011498127651470474 0.0018200278433924855 0 0.00015468453137969812 0.0015121195034011347 0 4.4668273063180296e-05 0.001294670200845954 0 4.4668273063180296e-05 0.001294670200845954 0 4.7957371774856623e-05 0.0013448523591825889 0 0.00010817234331007273 0.0018179781122149318 0 0.00011210374327870349 0.0018158056867774613 0 0.00011498127651470474 0.0018200278433924855 0 -3.6174681736027325e-07 0.00063213120739974904 0 -1.4082016405758884e-05 0.0006173817369015198 0 6.9404415880114812e-08 0.00061714037412022944 0 1.5476706045816747e-05 0.0011710704477685093 0 6.7053839264061944e-05 0.0011499825637893894 0 6.6308748117922743e-05 0.0011284945804001236 0 4.4668273063180296e-05 0.001294670200845954 0 0.0001199115797651197 0.001506024397359443 0 0.00011880412043291575 0.0018179811976361034 0 0.00012834305276304296 0.0017952551077758429 0 0.00011931220208798037 0.0018031729414214913 0 4.4668273063180296e-05 0.001294670200845954 0 5.3135864894526697e-05 0.00085693016500025066 0 -1.4082016405758884e-05 0.0006173817369015198 0 6.9404415880114812e-08 0.00061714037412022944 0 1.0924577353111641e-05 0.00060270267160208708 0 6.9404415880114812e-08 0.00061714037412022944 0 1.664618571467138e-05 0.00061758754718274471 0 1.0924577353111641e-05 0.00060270267160208708 0 0.00012834305276304296 0.0017952551077758429 0 0.00011987081928194246 0.0017832015562186743 0 0.00011931220208798037 0.0018031729414214913 0 0.00011880412043291575 0.0018179811976361034 0 0.00012834305276304296 0.0017952551077758429 0 0.00014386553134909682 0.0017950798483385257 0 0.00015064104816869231 0.0017032431630608573 0 0.0001199115797651197 0.001506024397359443 0 0.00012834305276304296 0.0017952551077758429 0 0.00014461623369576622 0.0017957538868552394 0 0.00013671407977278605 0.0017745199156171025 0 0.00012834305276304296 0.0017952551077758429 0 0.00011987081928194246 0.0017832015562186743 0 0.00013671407977278605 0.0017745199156171025 0 0.00011987081928194246 0.0017832015562186743 0 0.00010537979080199627 0.0017942544961801752 0 0.00011931220208798037 0.0018031729414214913 0 0.00010537979080199627 0.0017942544961801752 0 0.00010609253335476182 0.0018065462524955052 0 0.00011931220208798037 0.0018031729414214913 0 0.00010537979080199627 0.0017942544961801752 0 0.00010609253335476182 0.0018065462524955052 0 9.2458025220743762e-05 0.0018051460617232284 0 4.2644338839486343e-05 0.00059553914354374467 0 3.030288008922852e-05 0.00060364162526087685 0 5.105139808467139e-05 0.0005974326011276809 0 4.2867440912664474e-05 0.00061958563060720683 0 3.030288008922852e-05 0.00060364162526087685 0 6.6861127433560146e-05 0.00061208887793939891 0 4.2644338839486343e-05 0.00059553914354374467 0 3.4241159346616617e-05 0.00059218870130898582 0 5.3137286170345243e-05 0.00058902792622875168 0 2.1692713728052776e-05 0.00059032663248858447 0 7.6692998493894273e-05 0.000653234335407119 0 4.2867440912664474e-05 0.00061958563060720683 0 3.030288008922852e-05 0.00060364162526087685 0 2.9265353112145906e-05 0.00061811852910605917 0 4.2644338839486343e-05 0.00059553914354374467 0 3.030288008922852e-05 0.00060364162526087685 0 3.4241159346616617e-05 0.00059218870130898582 0 3.030288008922852e-05 0.00060364162526087685 0 1.0924577353111641e-05 0.00060270267160208708 0 3.4241159346616617e-05 0.00059218870130898582 0 3.030288008922852e-05 0.00060364162526087685 0 2.9265353112145906e-05 0.00061811852910605917 0 1.664618571467138e-05 0.00061758754718274471 0 3.030288008922852e-05 0.00060364162526087685 0 1.664618571467138e-05 0.00061758754718274471 0 1.0924577353111641e-05 0.00060270267160208708 0 0.00014461623369576622 0.0017957538868552394 0 0.0001692791474352686 0.0017747649496551862 0 0.00013671407977278605 0.0017745199156171025 0 0.00011535361677628194 0.0012767408027456963 0 0.00012481422634707303 0.0012755345552564307 0 0.00012381253915500151 0.0012691085240211575 0 5.3135864894526697e-05 0.00085693016500025066 0 7.5190406505988894e-05 0.00088479190105865164 0 0.0001199115797651197 0.001506024397359443 0 7.5190406505988894e-05 0.00088479190105865164 0 6.7053839264061944e-05 0.0011499825637893894 0 6.6308748117922743e-05 0.0011284945804001236 0 0.00011467453066047243 0.0011309711107609359 0 0.0001199115797651197 0.001506024397359443 0 0.00016171900183080526 0.0016489572288640674 0 0.00012481422634707303 0.0012755345552564307 0 0.00012874946485934782 0.0012709983762537371 0 0.00013397752299089511 0.0012712180358052927 0 7.5190406505988894e-05 0.00088479190105865164 0 6.1498413929963588e-05 0.00060486411313570869 0 0.00012874946485934782 0.0012709983762537371 0 0.00012381253915500151 0.0012691085240211575 0 0.00013287649501691061 0.0012675176404981507 0 7.5190406505988894e-05 0.00088479190105865164 0 0.00011509573048836765 0.00093310998038847797 0 0.00012481422634707303 0.0012755345552564307 0 0.00012874946485934782 0.0012709983762537371 0 0.00012381253915500151 0.0012691085240211575 0 0.00012874946485934782 0.0012709983762537371 0 0.00013287649501691061 0.0012675176404981507 0 0.00013397752299089511 0.0012712180358052927 0 0.00015364668605371634 0.0017586899610855847 0 0.00015458756051757116 0.0017585260365730235 0 0.0001517486903546932 0.0017507779685414007 0 0.00016171900183080526 0.0016489572288640674 0 0.00013534594012980271 0.0015038143936211214 0 0.00015317613165970968 0.0017559137221917788 0 0.00015364668605371634 0.0017586899610855847 0 0.00015140869201254442 0.0017530002590342892 0 0.00015317613165970968 0.0017559137221917788 0 0.00015364668605371634 0.0017586899610855847 0 0.0001517486903546932 0.0017507779685414007 0 0.00013682540572871981 0.001691529251383872 0 0.00016171900183080526 0.0016489572288640674 0 0.00016171900183080526 0.0016489572288640674 0 0.00013991952958853555 0.0017839042059389367 0 0.00015195307089761715 0.0017633048942863141 0 0.00014867841747723612 0.0017598031744751044 0 0.00013671407977278605 0.0017745199156171025 0 0.00015364668605371634 0.0017586899610855847 0 0.00014867841747723612 0.0017598031744751044 0 0.00015140869201254442 0.0017530002590342892 0 0.00015364668605371634 0.0017586899610855847 0 0.00015195307089761715 0.0017633048942863141 0 0.00014867841747723612 0.0017598031744751044 0 0.00014867841747723612 0.0017598031744751044 0 0.00014028192174697749 0.0017581111116613843 0 0.00013671407977278605 0.0017745199156171025 0 0.00022549868777678811 0.0017630943334086338 0 0.00021332428568889393 0.0014378079093701546 0 0.00035386198648948251 0.0012181662702925886 0 0.00031636762306190455 0.0011856621653086802 0 0.0003059146955025688 0.0012026950819321403 0 0.00013670685163462949 0.0017403148745807405 0 0.00014028192174697749 0.0017581111116613843 0 0.00015140869201254442 0.0017530002590342892 0 0.00014867841747723612 0.0017598031744751044 0 0.00014028192174697749 0.0017581111116613843 0 0.00015140869201254442 0.0017530002590342892 0 0.00027479798578723604 0.0011506629619713073 0 0.00031636762306190455 0.0011856621653086802 0 0.00027925987667677584 0.0011857054549410152 0 0.00023562317028157336 0.0014822836741768077 0 0.00021332428568889393 0.0014378079093701546 0 0.0003059146955025688 0.0012026950819321403 0 0.00027925987667677584 0.0011857054549410152 0 0.00026278712354930886 0.0012075671149207549 0 0.00031636762306190455 0.0011856621653086802 0 0.0003059146955025688 0.0012026950819321403 0 0.00027925987667677584 0.0011857054549410152 0 0.00011987081928194246 0.0017832015562186743 0 0.00010687386246278803 0.0017754707393754759 0 0.00012557467998736434 0.0017582219275977516 0 0.00010537979080199627 0.0017942544961801752 0 0.00010687386246278803 0.0017754707393754759 0 8.6798724810214877e-05 0.0017854066443428983 0 0.00011987081928194246 0.0017832015562186743 0 0.00010537979080199627 0.0017942544961801752 0 0.00010687386246278803 0.0017754707393754759 0 0.00014028192174697749 0.0017581111116613843 0 0.00013671407977278605 0.0017745199156171025 0 0.00012557467998736434 0.0017582219275977516 0 0.00011987081928194246 0.0017832015562186743 0 0.00013671407977278605 0.0017745199156171025 0 0.00012557467998736434 0.0017582219275977516 0 0.00013670685163462949 0.0017403148745807405 0 0.00014028192174697749 0.0017581111116613843 0 0.00012557467998736434 0.0017582219275977516 0 0.00013670685163462949 0.0017403148745807405 0 0.00012557467998736434 0.0017582219275977516 0 0.00010097960900368643 0.0017528782236968688 0 0.00022549868777678811 0.0017630943334086338 0 0.000118251274402694 0.0020861323564586517 0 0.00010687386246278803 0.0017754707393754759 0 0.00012557467998736434 0.0017582219275977516 0 0.00010097960900368643 0.0017528782236968688 0 8.8592189003254692e-05 0.0022808693447993536 0 0.00016138413667254778 0.0023322860793557366 0 5.1946758797961578e-05 0.0023808761304976635 0 0.000118251274402694 0.0020861323564586517 0 5.6058472075488676e-05 0.002034431719526511 0 8.8592189003254692e-05 0.0022808693447993536 0 5.1946758797961578e-05 0.0023808761304976635 0 9.8021319063548052e-06 0.0023175091999143903 0 5.9775411350094472e-05 0.0017709631961267739 0 7.1216479034770392e-05 0.0018042201413007949 0 4.4700765292915311e-05 0.0018015556029002278 0 5.9775411350094472e-05 0.0017709631961267739 0 8.6798724810214877e-05 0.0017854066443428983 0 7.1216479034770392e-05 0.0018042201413007949 0 0.00010687386246278803 0.0017754707393754759 0 0.00010097960900368643 0.0017528782236968688 0 8.6798724810214877e-05 0.0017854066443428983 0 0.00010097960900368643 0.0017528782236968688 0 5.9775411350094472e-05 0.0017709631961267739 0 8.6798724810214877e-05 0.0017854066443428983 0 0.00010537979080199627 0.0017942544961801752 0 8.6798724810214877e-05 0.0017854066443428983 0 9.2458025220743762e-05 0.0018051460617232284 0 9.2458025220743762e-05 0.0018051460617232284 0 7.1216479034770392e-05 0.0018042201413007949 0 8.1933039694384786e-05 0.0018195979398687976 0 8.6798724810214877e-05 0.0017854066443428983 0 9.2458025220743762e-05 0.0018051460617232284 0 7.1216479034770392e-05 0.0018042201413007949 0 7.1216479034770392e-05 0.0018042201413007949 0 5.3359500867485875e-05 0.0018355782380819043 0 4.4700765292915311e-05 0.0018015556029002278 0 9.2847149013682579e-05 0.0018338806871612955 0 5.3359500867485875e-05 0.0018355782380819043 0 8.1933039694384786e-05 0.0018195979398687976 0 7.1216479034770392e-05 0.0018042201413007949 0 5.3359500867485875e-05 0.0018355782380819043 0 8.1933039694384786e-05 0.0018195979398687976 0 9.127471992656161e-05 0.0018504276654770456 0 6.2326707872437817e-05 0.0017728959545889969 0 9.8984276242340661e-05 0.0018396419206184425 0 9.2847149013682579e-05 0.0018338806871612955 0 9.9431034227658811e-05 0.0018194513410164611 0 9.2847149013682579e-05 0.0018338806871612955 0 9.9431034227658811e-05 0.0018194513410164611 0 8.1933039694384786e-05 0.0018195979398687976 0 9.2458025220743762e-05 0.0018051460617232284 0 9.9431034227658811e-05 0.0018194513410164611 0 8.1933039694384786e-05 0.0018195979398687976 0 0.00010609253335476182 0.0018065462524955052 0 9.2458025220743762e-05 0.0018051460617232284 0 9.9431034227658811e-05 0.0018194513410164611 0 1.3097053257777252e-05 0.00183804757369453 0 3.4434015253108885e-05 0.0018235815709499227 0 1.5589292937931686e-05 0.0018141810144139882 0 -1.960583452551648e-05 0.0023689948938216765 0 5.1107135642213726e-06 0.0023646011903125639 0 -1.1280924931000009e-05 0.0029621850091453837 0 -4.860693266798303e-06 0.0029158869503866955 0 -3.3825379286403136e-05 0.0029388622709073495 0 6.2326707872437817e-05 0.0017728959545889969 0 -1.960583452551648e-05 0.0023689948938216765 0 5.3359500867485875e-05 0.0018355782380819043 0 1.3097053257777252e-05 0.00183804757369453 0 3.4434015253108885e-05 0.0018235815709499227 0 4.791519053036549e-05 0.0018523605371047604 0 6.4528704773424316e-05 0.0018393798444923529 0 3.7585007378786906e-05 0.0018436057498539982 0 5.3359500867485875e-05 0.0018355782380819043 0 3.4434015253108885e-05 0.0018235815709499227 0 4.4700765292915311e-05 0.0018015556029002278 0 3.4434015253108885e-05 0.0018235815709499227 0 4.4700765292915311e-05 0.0018015556029002278 0 1.5589292937931686e-05 0.0018141810144139882 0 -4.860693266798303e-06 0.0029158869503866955 0 1.5553730892026163e-06 0.0028632242253741553 0 -6.9731465132347975e-05 0.0028990462333728893 0 4.4700765292915311e-05 0.0018015556029002278 0 1.5589292937931686e-05 0.0018141810144139882 0 1.7936067099581841e-05 0.0017915464673697611 0 5.1107135642213726e-06 0.0023646011903125639 0 2.5154997475726094e-05 0.0023586556540209128 0 2.5154997475726094e-05 0.0023586556540209128 0 -2.6162279212538843e-05 0.0024119432674892436 0 -6.1575319775746551e-05 0.0024352896708672968 0 -5.6315129951056506e-05 0.0023903803152814131 0 -0.00010784515841967154 0.0024081491356741473 0 5.6058472075488676e-05 0.002034431719526511 0 2.5154997475726094e-05 0.0023586556540209128 0 5.1946758797961578e-05 0.0023808761304976635 0 -6.0245799529760489e-05 0.002429654468660621 0 -5.6315129951056506e-05 0.0023903803152814131 0 5.9775411350094472e-05 0.0017709631961267739 0 4.4700765292915311e-05 0.0018015556029002278 0 1.7936067099581841e-05 0.0017915464673697611 0 5.1946758797961578e-05 0.0023808761304976635 0 -5.6315129951056506e-05 0.0023903803152814131 0 9.8021319063548052e-06 0.0023175091999143903 0 -6.8537588883545603e-05 0.00230662110523055 0 -5.6315129951056506e-05 0.0023903803152814131 0 9.8021319063548052e-06 0.0023175091999143903 0 -6.8537588883545603e-05 0.00230662110523055 0 -5.6315129951056506e-05 0.0023903803152814131 0 -0.00010784515841967154 0.0024081491356741473 0 -8.2968793835885247e-05 0.002322866063050771 0 -0.00015180034560731268 0.0023795887091050461 0 -6.8537588883545603e-05 0.00230662110523055 0 -0.00015413774095582983 0.0023819480598320981 0 -0.00010784515841967154 0.0024081491356741473 0 -6.1575319775746551e-05 0.0024352896708672968 0 -0.00010784515841967154 0.0024081491356741473 0 -0.00014783501264842953 0.0024677178658596118 0 2.5154997475726094e-05 0.0023586556540209128 0 -0.00012844075182535882 0.0027048730883481053 0 -0.00015413774095582983 0.0023819480598320981 0 -0.00010784515841967154 0.0024081491356741473 0 -0.00014783501264842953 0.0024677178658596118 0 -0.00018976349388638141 0.0024036279769604524 0 -0.00023415242133397458 0.0025035884842981864 0 -0.00014783501264842953 0.0024677178658596118 0 -0.00013406873335951452 0.0027009945191362158 0 -0.00015711472242965394 0.0028224221796835309 0 -0.00015413774095582983 0.0023819480598320981 0 -0.00018976349388638141 0.0024036279769604524 0 -0.00014783501264842953 0.0024677178658596118 0 -7.9390111450327425e-05 0.0030420707392377002 0 -9.1518324620442086e-05 0.0030427402751454298 0 -8.5833706983506233e-05 0.0030307779106483372 0 -0.00015142193854271433 0.0023422959405695136 0 -0.00015413774095582983 0.0023819480598320981 0 -0.00018976349388638141 0.0024036279769604524 0 -0.00012710434988699355 0.0027189978418760618 0 -0.00013406873335951452 0.0027009945191362158 0 -7.9390111450327425e-05 0.0030420707392377002 0 -8.5833706983506233e-05 0.0030307779106483372 0 -7.8384813379594486e-05 0.0030305234874036121 0 -7.9390111450327425e-05 0.0030420707392377002 0 -6.8371256835017134e-05 0.0030364555653655772 0 -7.8384813379594486e-05 0.0030305234874036121 0 -6.8870197107304772e-05 0.0030483510441739578 0 -7.9390111450327425e-05 0.0030420707392377002 0 -6.8371256835017134e-05 0.0030364555653655772 0 -6.8870197107304772e-05 0.0030483510441739578 0 -6.8371256835017134e-05 0.0030364555653655772 0 -5.6353156607072241e-05 0.0030453186868044579 0 -6.8371256835017134e-05 0.0030364555653655772 0 -7.8384813379594486e-05 0.0030305234874036121 0 -7.3491821970639616e-05 0.0030254793928276443 0 -6.8371256835017134e-05 0.0030364555653655772 0 -7.3491821970639616e-05 0.0030254793928276443 0 -6.0025999678346961e-05 0.0030309295621729826 0 -8.5833706983506233e-05 0.0030307779106483372 0 -7.8384813379594486e-05 0.0030305234874036121 0 -8.2337561316519776e-05 0.003019331874238296 0 -0.00011994731377334695 0.0029568602603587363 0 -0.00012162566546690408 0.0029555910750866271 0 -0.00010606225164493985 0.0029803275986435298 0 -7.8384813379594486e-05 0.0030305234874036121 0 -8.2337561316519776e-05 0.003019331874238296 0 -7.3491821970639616e-05 0.0030254793928276443 0 -0.00015711472242965394 0.0028224221796835309 0 -8.240160352055753e-05 0.0030100819418575528 0 -0.00011994731377334695 0.0029568602603587363 0 -0.00012075013267831504 0.0029404490359498025 0 -0.00011110421920965881 0.0029594015005096337 0 -0.00016534515225195517 0.0028920300546538143 0 -0.00015711472242965394 0.0028224221796835309 0 -8.2337561316519776e-05 0.003019331874238296 0 -7.3491821970639616e-05 0.0030254793928276443 0 -7.351896254697047e-05 0.0030137371447944805 0 -7.3491821970639616e-05 0.0030254793928276443 0 -7.351896254697047e-05 0.0030137371447944805 0 -6.0025999678346961e-05 0.0030309295621729826 0 -0.00010606225164493985 0.0029803275986435298 0 -0.00011411097261346544 0.0029631505983879944 0 -9.6689004963147171e-05 0.0029697292884927934 0 -0.00010606225164493985 0.0029803275986435298 0 -0.00011659756148567238 0.0029621476300969269 0 -0.00011411097261346544 0.0029631505983879944 0 -0.00011994731377334695 0.0029568602603587363 0 -0.00010606225164493985 0.0029803275986435298 0 -0.00011659756148567238 0.0029621476300969269 0 -0.00011994731377334695 0.0029568602603587363 0 -0.00011659756148567238 0.0029621476300969269 0 -0.00011110421920965881 0.0029594015005096337 0 -0.00011633289601676669 0.0029540096428823199 0 -0.00011618222735554083 0.0029517746961328912 0 -0.0001165379005055818 0.0029555544671574074 0 -0.00011659756148567238 0.0029621476300969269 0 -0.00011110421920965881 0.0029594015005096337 0 -0.0001165379005055818 0.0029555544671574074 0 -0.00011110421920965881 0.0029594015005096337 0 -0.00011633289601676669 0.0029540096428823199 0 -0.0001165379005055818 0.0029555544671574074 0 -0.00010992461314125485 0.0029575696834220166 0 -8.3740284384615772e-05 0.0029501807466988713 0 -0.00011905979349888274 0.0029501017221042736 0 -0.00011633289601676669 0.0029540096428823199 0 -0.00011618222735554083 0.0029517746961328912 0 -1.960583452551648e-05 0.0023689948938216765 0 -8.3740284384615772e-05 0.0029501807466988713 0 -1.1280924931000009e-05 0.0029621850091453837 0 -6.248250073605176e-05 0.0029602377525817006 0 -3.3825379286403136e-05 0.0029388622709073495 0 -4.860693266798303e-06 0.0029158869503866955 0 -3.3825379286403136e-05 0.0029388622709073495 0 -6.9731465132347975e-05 0.0028990462333728893 0 -6.248250073605176e-05 0.0029602377525817006 0 -3.3825379286403136e-05 0.0029388622709073495 0 -6.9731465132347975e-05 0.0028990462333728893 0 -0.00011110421920965881 0.0029594015005096337 0 -6.248250073605176e-05 0.0029602377525817006 0 -6.9731465132347975e-05 0.0028990462333728893 0 -0.00012075013267831504 0.0029404490359498025 0 -0.00011110421920965881 0.0029594015005096337 0 -6.9731465132347975e-05 0.0028990462333728893 0 -0.00015711472242965394 0.0028224221796835309 0 -0.00012844075182535882 0.0027048730883481053 0 1.0449734125123674e-05 0.0030407894064497488 0 -1.1565338853482774e-05 0.0030573604215416014 0 -3.0398777173286967e-05 0.0030315580567136435 0 2.9282750131661426e-05 0.0030859256195506567 0 -2.3420857623385729e-05 0.0030599435132509446 0 8.7165418577783742e-06 0.0030451619733026978 0 -3.2242920601444124e-05 0.0030096794644905445 0 -1.2766741701634976e-05 0.0030536895941703445 0 2.5334403894138108e-06 0.003085467379292692 0 2.9934291337426902e-05 0.0030639821844294186 0 -1.1565338853482774e-05 0.0030573604215416014 0 2.9934291337426902e-05 0.0030639821844294186 0 1.0449734125123674e-05 0.0030407894064497488 0 -1.1565338853482774e-05 0.0030573604215416014 0 -2.350811368160634e-05 0.0030778971488265518 0 -1.1565338853482774e-05 0.0030573604215416014 0 -4.2694001628863123e-05 0.0030465133812978286 0 -1.1565338853482774e-05 0.0030573604215416014 0 -3.0398777173286967e-05 0.0030315580567136435 0 -4.2694001628863123e-05 0.0030465133812978286 0 -4.2694001628863123e-05 0.0030465133812978286 0 -5.6240127096633216e-05 0.0030399649457284496 0 -6.0025999678346961e-05 0.0030309295621729826 0 -1.2766741701634976e-05 0.0030536895941703445 0 -6.2877072298337159e-05 0.0030304944338910315 0 -3.0398777173286967e-05 0.0030315580567136435 0 -4.2694001628863123e-05 0.0030465133812978286 0 -6.0025999678346961e-05 0.0030309295621729826 0 -4.2694001628863123e-05 0.0030465133812978286 0 -5.6353156607072241e-05 0.0030453186868044579 0 -5.6240127096633216e-05 0.0030399649457284496 0 -4.6355081241445313e-05 0.0030545601233212933 0 -4.2694001628863123e-05 0.0030465133812978286 0 -5.6353156607072241e-05 0.0030453186868044579 0 -6.8371256835017134e-05 0.0030364555653655772 0 -5.6353156607072241e-05 0.0030453186868044579 0 -5.6240127096633216e-05 0.0030399649457284496 0 -6.8371256835017134e-05 0.0030364555653655772 0 -5.6240127096633216e-05 0.0030399649457284496 0 -6.0025999678346961e-05 0.0030309295621729826 0 -7.351896254697047e-05 0.0030137371447944805 0 -6.0025999678346961e-05 0.0030309295621729826 0 -6.2765070619883909e-05 0.0029991136462824415 0 -8.240160352055753e-05 0.0030100819418575528 0 -6.3896163697599841e-05 0.0029943069221676916 0 -0.00010606225164493985 0.0029803275986435298 0 -6.2765070619883909e-05 0.0029991136462824415 0 -9.6689004963147171e-05 0.0029697292884927934 0 -6.2765070619883909e-05 0.0029991136462824415 0 -3.6322913356141806e-05 0.0030244463225483072 0 -1.3702159938650506e-05 0.003005586748683179 0 -6.0025999678346961e-05 0.0030309295621729826 0 -6.2765070619883909e-05 0.0029991136462824415 0 -3.6322913356141806e-05 0.0030244463225483072 0 -2.3420857623385729e-05 0.0030599435132509446 0 -6.0025999678346961e-05 0.0030309295621729826 0 -3.6322913356141806e-05 0.0030244463225483072 0 -3.6322913356141806e-05 0.0030244463225483072 0 -1.3702159938650506e-05 0.003005586748683179 0 8.7165418577783742e-06 0.0030451619733026978 0 -2.3420857623385729e-05 0.0030599435132509446 0 -3.6322913356141806e-05 0.0030244463225483072 0 8.7165418577783742e-06 0.0030451619733026978 0 -1.3702159938650506e-05 0.003005586748683179 0 2.9668577441406873e-05 0.0030183254449878049 0 1.1018620873885856e-05 0.0029750701980604225 0 -1.3702159938650506e-05 0.003005586748683179 0 2.9668577441406873e-05 0.0030183254449878049 0 8.7165418577783742e-06 0.0030451619733026978 0 2.7829451889545485e-05 0.0029468683925945195 0 1.1018620873885856e-05 0.0029750701980604225 0 1.2016561125548109e-06 0.0029393034598360654 0 -1.3702159938650506e-05 0.003005586748683179 0 1.1018620873885856e-05 0.0029750701980604225 0 -2.7643099609402852e-05 0.0029655648585435847 0 1.1018620873885856e-05 0.0029750701980604225 0 -2.7643099609402852e-05 0.0029655648585435847 0 1.2016561125548109e-06 0.0029393034598360654 0 -2.7643099609402852e-05 0.0029655648585435847 0 -2.6516107621159897e-05 0.002928038904842693 0 1.2016561125548109e-06 0.0029393034598360654 0 -2.7643099609402852e-05 0.0029655648585435847 0 -7.9392158776848401e-05 0.0029526361005300684 0 -2.6516107621159897e-05 0.002928038904842693 0 -7.9392158776848401e-05 0.0029526361005300684 0 -8.4844957103000617e-05 0.0029433995166801021 0 -8.0584634190690007e-05 0.0029425782845066083 0 -8.3333087730790429e-05 0.0029786697502063478 0 -5.9205077948002368e-05 0.002857150858461287 0 -6.2765070619883909e-05 0.0029991136462824415 0 -1.3702159938650506e-05 0.003005586748683179 0 -2.7643099609402852e-05 0.0029655648585435847 0 -6.2765070619883909e-05 0.0029991136462824415 0 -2.7643099609402852e-05 0.0029655648585435847 0 -7.9392158776848401e-05 0.0029526361005300684 0 -6.2765070619883909e-05 0.0029991136462824415 0 -7.9392158776848401e-05 0.0029526361005300684 0 -9.6689004963147171e-05 0.0029697292884927934 0 -7.9392158776848401e-05 0.0029526361005300684 0 -9.6689004963147171e-05 0.0029697292884927934 0 -0.00010678978381964872 0.0029507913512650747 0 -7.9392158776848401e-05 0.0029526361005300684 0 -8.4844957103000617e-05 0.0029433995166801021 0 -0.00010678978381964872 0.0029507913512650747 0 -8.4844957103000617e-05 0.0029433995166801021 0 -8.3019600554369458e-05 0.0029417716203268586 0 -9.3377582116924336e-05 0.002932686928173436 0 -8.4844957103000617e-05 0.0029433995166801021 0 -0.00010678978381964872 0.0029507913512650747 0 -9.3377582116924336e-05 0.002932686928173436 0 -0.00032355530493118653 0.0030507996691480528 0 -0.00034352433707516894 0.0030441485332057304 0 -0.0003401164015423397 0.0030577926055694554 0 -0.00017126333225349919 0.0029562147017261056 0 -0.00021554368449099175 0.0029977746425932689 0 -7.9715691053835824e-05 0.0029469016733845543 0 -8.3019600554369458e-05 0.0029417716203268586 0 -9.3377582116924336e-05 0.002932686928173436 0 -0.00032355530493118653 0.0030507996691480528 0 -0.00026552238677240731 0.0030708975093797215 0 -0.00034352433707516894 0.0030441485332057304 0 -0.00032355530493118653 0.0030507996691480528 0 -0.0003401164015423397 0.0030577926055694554 0 -0.00036828108813564855 0.0030277777944971518 0 -7.9715691053835824e-05 0.0029469016733845543 0 -8.3019600554369458e-05 0.0029417716203268586 0 -8.0584634190690007e-05 0.0029425782845066083 0 -8.4844957103000617e-05 0.0029433995166801021 0 -8.3019600554369458e-05 0.0029417716203268586 0 -8.0584634190690007e-05 0.0029425782845066083 0 -2.6516107621159897e-05 0.002928038904842693 0 1.3727986128068357e-05 0.0029085747922910059 0 1.2016561125548109e-06 0.0029393034598360654 0 -5.9205077948002368e-05 0.002857150858461287 0 0.00010111065297762611 0.0034097917109356451 0 -7.9715691053835824e-05 0.0029469016733845543 0 -8.0584634190690007e-05 0.0029425782845066083 0 -8.868820270408079e-05 0.0029528355586025284 0 0.00026712156878282508 0.0034319967381620771 0 0.00010111065297762611 0.0034097917109356451 0 2.7829451889545485e-05 0.0029468683925945195 0 1.3727986128068357e-05 0.0029085747922910059 0 1.2016561125548109e-06 0.0029393034598360654 0 -0.00011542441051590051 0.0029450496215103648 0 -0.00014276326763744973 0.0029447375306728375 0 -9.2750791315770483e-05 0.0029472632981714067 0 -0.00011542441051590051 0.0029450496215103648 0 -0.00011092014653797921 0.0029494924064041362 0 -0.00011593354214552487 0.0029502279596959973 0 -0.00011542441051590051 0.0029450496215103648 0 -0.00011593354214552487 0.0029502279596959973 0 -0.00012450477155278488 0.0029522330711718244 0 -0.00011542441051590051 0.0029450496215103648 0 -0.00011092014653797921 0.0029494924064041362 0 -9.2750791315770483e-05 0.0029472632981714067 0 -0.00012172164015220275 0.0029485946173475747 0 -0.00013392179951553132 0.0029286463766008911 0 -0.00011092014653797921 0.0029494924064041362 0 -0.00013392179951553132 0.0029286463766008911 0 -0.00011092014653797921 0.0029494924064041362 0 -9.2750791315770483e-05 0.0029472632981714067 0 -0.00011092014653797921 0.0029494924064041362 0 -0.00011618222735554083 0.0029517746961328912 0 -0.00011593354214552487 0.0029502279596959973 0 -0.00012172164015220275 0.0029485946173475747 0 -0.00011905979349888274 0.0029501017221042736 0 -0.00011618222735554083 0.0029517746961328912 0 -0.00012172164015220275 0.0029485946173475747 0 -0.00011092014653797921 0.0029494924064041362 0 -0.00011618222735554083 0.0029517746961328912 0 -0.00011618222735554083 0.0029517746961328912 0 -0.00011593354214552487 0.0029502279596959973 0 -0.0001165379005055818 0.0029555544671574074 0 -0.00011593354214552487 0.0029502279596959973 0 -0.0001165379005055818 0.0029555544671574074 0 -0.00012450477155278488 0.0029522330711718244 0 -0.0001165379005055818 0.0029555544671574074 0 -0.00011411097261346544 0.0029631505983879944 0 -0.00012450477155278488 0.0029522330711718244 0 -0.00011659756148567238 0.0029621476300969269 0 -0.0001165379005055818 0.0029555544671574074 0 -0.00011411097261346544 0.0029631505983879944 0 -0.00011411097261346544 0.0029631505983879944 0 -0.00010678978381964872 0.0029507913512650747 0 -0.00012450477155278488 0.0029522330711718244 0 -0.00011411097261346544 0.0029631505983879944 0 -9.6689004963147171e-05 0.0029697292884927934 0 -0.00010678978381964872 0.0029507913512650747 0 -0.00010678978381964872 0.0029507913512650747 0 -0.00012450477155278488 0.0029522330711718244 0 -0.00014276326763744973 0.0029447375306728375 0 -0.00011542441051590051 0.0029450496215103648 0 -0.00012450477155278488 0.0029522330711718244 0 -0.00014276326763744973 0.0029447375306728375 0 -0.00014276326763744973 0.0029447375306728375 0 -0.00019576145292313145 0.0030323779763327089 0 -0.00013970708596979214 0.0030328700870010739 0 -0.00014276326763744973 0.0029447375306728375 0 -0.00019576145292313145 0.0030323779763327089 0 -0.00026051899000421972 0.00304280571098637 0 -0.0001477269385660921 0.002944610522188691 0 -0.00021554368449099175 0.0029977746425932689 0 -0.00010678978381964872 0.0029507913512650747 0 -0.00014276326763744973 0.0029447375306728375 0 -9.3377582116924336e-05 0.002932686928173436 0 -0.00014276326763744973 0.0029447375306728375 0 -0.00034352433707516894 0.0030441485332057304 0 -0.00026051899000421972 0.00304280571098637 0 -0.0003401164015423397 0.0030577926055694554 0 -0.00026051899000421972 0.00304280571098637 0 -0.00020350044243600283 0.0031200065837956054 0 -0.0003401164015423397 0.0030577926055694554 0 -0.0003940965109617759 0.0030328567407743525 0 -0.00036828108813564855 0.0030277777944971518 0 -0.00034668878546199281 0.0030454726163943483 0 -0.00028922410309270292 0.0031283691193649396 0 -0.00034352433707516894 0.0030441485332057304 0 -0.0003401164015423397 0.0030577926055694554 0 -0.00026051899000421972 0.00304280571098637 0 -0.00019576145292313145 0.0030323779763327089 0 -0.00026051899000421972 0.00304280571098637 0 -0.00020350044243600283 0.0031200065837956054 0 -0.00019576145292313145 0.0030323779763327089 0 -0.00020350044243600283 0.0031200065837956054 0 -0.00013970708596979214 0.0030328700870010739 0 -0.00020350044243600283 0.0031200065837956054 0 -0.00012351881061024628 0.0031097630320402023 0 -0.00013970708596979214 0.0030328700870010739 0 -0.00012351881061024628 0.0031097630320402023 0 -8.4465393114082274e-05 0.0030603676332024549 0 -0.00013970708596979214 0.0030328700870010739 0 -0.00014276326763744973 0.0029447375306728375 0 -0.00013970708596979214 0.0030328700870010739 0 -9.2750791315770483e-05 0.0029472632981714067 0 -8.4465393114082274e-05 0.0030603676332024549 0 -0.00013970708596979214 0.0030328700870010739 0 -9.2750791315770483e-05 0.0029472632981714067 0 -7.8217691894872613e-05 0.003032952392536481 0 -8.4473639500230713e-05 0.0029213419385101806 0 -6.1346211100907864e-05 0.0024964460675278659 0 3.061015078382367e-06 0.0019066159246259717 0 -6.2263956466804775e-05 0.0028579406719229971 0 -9.2750791315770483e-05 0.0029472632981714067 0 -0.00010664099755945095 0.0028990816726001617 0 -0.00013392179951553132 0.0029286463766008911 0 -0.00010664099755945095 0.0028990816726001617 0 -0.00014198374721207562 0.0028381715126994528 0 -0.00013392179951553132 0.0029286463766008911 0 -9.2750791315770483e-05 0.0029472632981714067 0 -0.00010664099755945095 0.0028990816726001617 0 -6.2263956466804775e-05 0.0028579406719229971 0 -0.00010664099755945095 0.0028990816726001617 0 -0.00014198374721207562 0.0028381715126994528 0 -6.2263956466804775e-05 0.0028579406719229971 0 -0.00014198374721207562 0.0028381715126994528 0 -5.031303221116927e-05 0.0027569419178398212 0 3.061015078382367e-06 0.0019066159246259717 0 -0.00016073265667616575 0.0025840060297943283 0 -9.6109484470702444e-05 0.0019757760656276685 0 -8.683565328872099e-05 0.00187866516590126 0 -2.3914162713946095e-05 0.0019184607264030066 0 3.061015078382367e-06 0.0019066159246259717 0 -5.4590588806202787e-05 0.001317099481151434 0 -0.00031041581562597136 0.001825347738743676 0 -0.00029345751183885218 0.0016654213652554353 0 -3.3021571541072351e-05 0.0019863625720612384 0 -5.4590588806202787e-05 0.001317099481151434 0 -0.00016073265667616575 0.0025840060297943283 0 -5.4590588806202787e-05 0.001317099481151434 0 -0.00013324420971853906 0.0011962650440016009 0 -1.3903763006139745e-05 0.00092393325473153528 0 -1.7335409683306962e-05 0.00094967932176409642 0 9.2739715894068196e-06 0.00096406456878716693 0 -0.00023044792272142948 0.0023118985390466959 0 -0.00028625417138277717 0.002470651275204678 0 -0.00012865916896038829 0.0023427089855697449 0 -0.00023044792272142948 0.0023118985390466959 0 -0.00028625417138277717 0.002470651275204678 0 -0.00026260249654590267 0.0022618854520179811 0 -0.00016073265667616575 0.0025840060297943283 0 -0.00038294668817588363 0.0027713541954032671 0 -0.00029345751183885218 0.0016654213652554353 0 -3.3021571541072351e-05 0.0019863625720612384 0 1.3240839628096496e-05 0.0016019850343284374 0 -0.00016073265667616575 0.0025840060297943283 0 -0.00010890300386794348 0.0016529232632548603 0 -0.00020350044243600283 0.0031200065837956054 0 -0.00012351881061024628 0.0031097630320402023 0 -9.5738327918728423e-05 0.0031667625626104708 0 -0.00012351881061024628 0.0031097630320402023 0 -8.4465393114082274e-05 0.0030603676332024549 0 -9.5738327918728423e-05 0.0031667625626104708 0 -7.8217691894872613e-05 0.003032952392536481 0 -0.00016073265667616575 0.0025840060297943283 0 -0.0003940965109617759 0.0030328567407743525 0 -0.00042108921534020393 0.003011093326448474 0 -0.00039813124265291748 0.0030132618249840565 0 -0.0003940965109617759 0.0030328567407743525 0 -0.00039813124265291748 0.0030132618249840565 0 -0.00036828108813564855 0.0030277777944971518 0 -0.00039813124265291748 0.0030132618249840565 0 -0.00036828108813564855 0.0030277777944971518 0 -0.00039489892921244633 0.0029900455112491639 0 -0.00028922410309270292 0.0031283691193649396 0 -0.00016073265667616575 0.0025840060297943283 0 -0.00038033008441889463 0.0030858768923424538 0 -0.00038294668817588363 0.0027713541954032671 0 -0.00040333260362197923 0.0029318064055129599 0 -0.00049755167842028734 0.0029250725543043159 0 -0.00042946452596537022 0.0028643574190933222 0 -0.00036828108813564855 0.0030277777944971518 0 -0.00040333260362197923 0.0029318064055129599 0 -0.00049755167842028734 0.0029250725543043159 0 -0.00040333260362197923 0.0029318064055129599 0 -0.00042946452596537022 0.0028643574190933222 0 -0.0003859495539719219 0.0028940858095857342 0 -0.00042108921534020393 0.003011093326448474 0 -0.00039813124265291748 0.0030132618249840565 0 -0.00039489892921244633 0.0029900455112491639 0 -0.00038294668817588363 0.0027713541954032671 0 -0.00029305286646124983 0.0023314834859109799 0 -0.00023044792272142948 0.0023118985390466959 0 -0.00012865916896038829 0.0023427089855697449 0 -0.0001901486529005621 0.0022740945498884993 0 -0.00046997665427399575 0.0028919060221757375 0 -0.00047917372808603894 0.00286041568890438 0 -0.00042946452596537022 0.0028643574190933222 0 -0.00046997665427399575 0.0028919060221757375 0 -0.00048922005023112401 0.0028697017933844229 0 -0.00047917372808603894 0.00286041568890438 0 -0.00058585865559509251 0.0023393900239473621 0 -0.00059940581444352023 0.0019769739312061763 0 -0.00029305286646124983 0.0023314834859109799 0 -0.00024386102682873054 0.0019651173808983486 0 -0.00010277154015830129 0.0013678044456318672 0 -9.6150612644953912e-05 0.0013729692613345585 0 -9.4970516678164981e-05 0.0013668458973725695 0 -0.00032925296802762939 0.0020387402117747659 0 -0.00050588322959511781 0.0022071782106436242 0 -0.00023297461586975634 0.0021445862523436212 0 -0.00058585865559509251 0.0023393900239473621 0 -0.00024386102682873054 0.0019651173808983486 0 -0.00029305286646124983 0.0023314834859109799 0 -0.00058585865559509251 0.0023393900239473621 0 -9.6150612644953912e-05 0.0013729692613345585 0 -9.8123465868909607e-05 0.0013807659791830833 0 -8.8662151170530411e-05 0.0013714183804024206 0 -0.00010277154015830129 0.0013678044456318672 0 -9.6150612644953912e-05 0.0013729692613345585 0 -9.8123465868909607e-05 0.0013807659791830833 0 -0.00047917372808603894 0.00286041568890438 0 -0.00042946452596537022 0.0028643574190933222 0 -0.00041058713124195526 0.0028438825065032992 0 -0.00058585865559509251 0.0023393900239473621 0 -0.00072584225504103645 0.0028932493748581832 0 -0.0013218919546973947 0.0028897895321734761 0 -0.00089409888088389194 0.0028148797116942974 0 -0.0010532088693773587 0.0026256592324695048 0 -0.00042946452596537022 0.0028643574190933222 0 -0.00041058713124195526 0.0028438825065032992 0 -0.0003859495539719219 0.0028940858095857342 0 -0.00038294668817588363 0.0027713541954032671 0 -0.00047804933417986084 0.0029058075137961786 0 -0.000130190091259797 0.0013716191063090786 0 -0.00023678327006979437 0.0014437021857521381 0 -0.0001369513437132956 0.0014186778420397369 0 -0.00059940581444352023 0.0019769739312061763 0 -0.00048034020812164573 0.0018678352800574585 0 -0.00089409888088389194 0.0028148797116942974 0 -0.0010532088693773587 0.0026256592324695048 0 -0.00080838993372753742 0.0025601216919261564 0 -0.000130190091259797 0.0013716191063090786 0 -0.00010482462055130117 0.0013937441042024383 0 -0.0001369513437132956 0.0014186778420397369 0 -0.000130190091259797 0.0013716191063090786 0 -9.8123465868909607e-05 0.0013807659791830833 0 -0.00010482462055130117 0.0013937441042024383 0 -0.00010277154015830129 0.0013678044456318672 0 -0.000130190091259797 0.0013716191063090786 0 -9.8123465868909607e-05 0.0013807659791830833 0 -9.8123465868909607e-05 0.0013807659791830833 0 -0.00010482462055130117 0.0013937441042024383 0 -8.8232597146511253e-05 0.0013950139740048593 0 -9.8123465868909607e-05 0.0013807659791830833 0 -8.8232597146511253e-05 0.0013950139740048593 0 -8.8662151170530411e-05 0.0013714183804024206 0 -5.1723891607272943e-05 0.0012074183400564774 0 1.0766905739223338e-05 0.0012050455314023291 0 -4.470948662861133e-05 0.001146777228682818 0 -6.4094693874379422e-05 0.0012943760325703952 0 -0.00014795568151485384 0.0012944900454952665 0 -5.5730413714202843e-06 0.0010854087759734718 0 -0.00014795568151485384 0.0012944900454952665 0 -2.9026057103959944e-05 0.0010049595037014123 0 -3.4630110864426213e-05 0.0010385649141929456 0 2.5734669342690047e-05 0.0010087107228343882 0 -2.9026057103959944e-05 0.0010049595037014123 0 -3.4630110864426213e-05 0.0010385649141929456 0 -6.8173211495216237e-05 0.00099276006161130056 0 -2.9496593390431959e-05 0.00097343208704320813 0 -2.9026057103959944e-05 0.0010049595037014123 0 -4.4248401900837331e-05 0.00098844473218612076 0 -2.9496593390431959e-05 0.00097343208704320813 0 -4.4248401900837331e-05 0.00098844473218612076 0 -6.5292477359057499e-05 0.00098062664784145112 0 -0.00013324420971853906 0.0011962650440016009 0 -0.00010890300386794348 0.0016529232632548603 0 -0.00013324420971853906 0.0011962650440016009 0 -1.3804497392943217e-05 0.00091464493557728344 0 -1.7335409683306962e-05 0.00094967932176409642 0 -2.9026057103959944e-05 0.0010049595037014123 0 9.2739715894068196e-06 0.00096406456878716693 0 -2.9026057103959944e-05 0.0010049595037014123 0 -4.4248401900837331e-05 0.00098844473218612076 0 -6.8173211495216237e-05 0.00099276006161130056 0 -4.4248401900837331e-05 0.00098844473218612076 0 -6.5292477359057499e-05 0.00098062664784145112 0 -6.8173211495216237e-05 0.00099276006161130056 0 -0.00024092589358654334 0.0022953221127412814 0 -0.00029305286646124983 0.0023314834859109799 0 -0.00023044792272142948 0.0023118985390466959 0 -0.00018821058505214794 0.0022711194089204754 0 -0.00020788803511072508 0.0022490930749848597 0 -0.00023044792272142948 0.0023118985390466959 0 -0.00026260249654590267 0.0022618854520179811 0 -0.00020788803511072508 0.0022490930749848597 0 -0.00010890300386794348 0.0016529232632548603 0 -0.00024386102682873054 0.0019651173808983486 0 -0.00024386102682873054 0.0019651173808983486 0 -0.00014795568151485384 0.0012944900454952665 0 -0.00010890300386794348 0.0016529232632548603 0 -0.00014795568151485384 0.0012944900454952665 0 -0.00020454270546491478 0.0017226454220856599 0 -0.00010544216362456362 0.0017005036427952555 0 -0.00019051348883853542 0.001605194878590424 0 -9.6150612644953912e-05 0.0013729692613345585 0 -9.4970516678164981e-05 0.0013668458973725695 0 -8.8662151170530411e-05 0.0013714183804024206 0 0.00028132877853632077 0.0035078324496530255 0 -5.1052647402269562e-05 0.0033114703019893896 0 0.00035592054422033299 0.0033397063152996631 0 0.00013481965596132779 0.0032106854690520407 0 3.1332929451443759e-05 0.0035382100191563158 0 0.00035592054422033299 0.0033397063152996631 0 0.00013481965596132779 0.0032106854690520407 0 0.0002280988613891678 0.0030512748769573046 0 0.00013481965596132779 0.0032106854690520407 0 3.1332929451443759e-05 0.0035382100191563158 0 -0.00010408602595323734 0.0029164824004035781 0 0.00010111065297762611 0.0034097917109356451 0 -5.1052647402269562e-05 0.0033114703019893896 0 0.00031149068894986514 0.003818403158993238 0 4.208653580499231e-05 0.0040201472610745404 0 -3.8159259621903056e-05 0.0037588948102910019 0 -0.00017126333225349919 0.0029562147017261056 0 -5.1052647402269562e-05 0.0033114703019893896 0 -7.9715691053835824e-05 0.0029469016733845543 0 -8.868820270408079e-05 0.0029528355586025284 0 -8.7441696933309029e-05 0.0029610210975777253 0 -0.00026552238677240731 0.0030708975093797215 0 -0.00012262347349556815 0.0030268683941464423 0 -0.00021984386763247626 0.0029828272313245736 0 -5.1052647402269562e-05 0.0033114703019893896 0 -0.00010627472151205412 0.0029211499904825133 0 -0.00012262347349556815 0.0030268683941464423 0 -0.00021984386763247626 0.0029828272313245736 0 -0.00010408602595323734 0.0029164824004035781 0 -0.00021984386763247626 0.0029828272313245736 0 -0.00034623962131233641 0.0029446407179996767 0 -0.00033288729262100336 0.0028749072787624865 0 -0.00021984386763247626 0.0029828272313245736 0 -0.00030948852757799536 0.0030205080846713124 0 -0.00034623962131233641 0.0029446407179996767 0 -0.00026552238677240731 0.0030708975093797215 0 -0.00021984386763247626 0.0029828272313245736 0 -0.00030948852757799536 0.0030205080846713124 0 -0.00032355530493118653 0.0030507996691480528 0 -0.00026552238677240731 0.0030708975093797215 0 -0.00030948852757799536 0.0030205080846713124 0 -0.00032355530493118653 0.0030507996691480528 0 -0.00036828108813564855 0.0030277777944971518 0 -0.00030948852757799536 0.0030205080846713124 0 -0.00036828108813564855 0.0030277777944971518 0 -0.00030948852757799536 0.0030205080846713124 0 -0.00034623962131233641 0.0029446407179996767 0 -0.00036828108813564855 0.0030277777944971518 0 -0.00040333260362197923 0.0029318064055129599 0 -0.00034623962131233641 0.0029446407179996767 0 -0.00034623962131233641 0.0029446407179996767 0 -0.0003859495539719219 0.0028940858095857342 0 -0.00033288729262100336 0.0028749072787624865 0 -0.00040333260362197923 0.0029318064055129599 0 -0.00034623962131233641 0.0029446407179996767 0 -0.0003859495539719219 0.0028940858095857342 0 -0.00041058713124195526 0.0028438825065032992 0 -0.00032752807290086975 0.0027420919564249938 0 -0.00033288729262100336 0.0028749072787624865 0 -0.00072584225504103645 0.0028932493748581832 0 -0.00030354446113543739 0.0027293295769448326 0 -0.00041058713124195526 0.0028438825065032992 0 -0.0003859495539719219 0.0028940858095857342 0 -0.00033288729262100336 0.0028749072787624865 0 -0.00080838993372753742 0.0025601216919261564 0 -0.00056034190119531749 0.0024755946914863216 0 -0.00032752807290086975 0.0027420919564249938 0 -0.00089409888088389194 0.0028148797116942974 0 -0.00080838993372753742 0.0025601216919261564 0 -0.00032752807290086975 0.0027420919564249938 0 -0.0010532088693773587 0.0026256592324695048 0 -0.00080838993372753742 0.0025601216919261564 0 -0.00075558332585213812 0.0022775148158967443 0 -0.00080838993372753742 0.0025601216919261564 0 -0.00056034190119531749 0.0024755946914863216 0 -0.00075558332585213812 0.0022775148158967443 0 -0.00032752807290086975 0.0027420919564249938 0 -0.00011748651017259649 0.0025508022680508155 0 -0.00034408094818464628 0.0023253796253793423 0 -0.00056034190119531749 0.0024755946914863216 0 -0.00032752807290086975 0.0027420919564249938 0 -0.00034408094818464628 0.0023253796253793423 0 -0.00032752807290086975 0.0027420919564249938 0 -0.00033288729262100336 0.0028749072787624865 0 -0.00010408602595323734 0.0029164824004035781 0 -0.00021984386763247626 0.0029828272313245736 0 -0.00033288729262100336 0.0028749072787624865 0 -0.00010408602595323734 0.0029164824004035781 0 -0.00010408602595323734 0.0029164824004035781 0 -0.00011748651017259649 0.0025508022680508155 0 0.00021025318459104317 0.0025388598438172596 0 -0.00032752807290086975 0.0027420919564249938 0 -0.00010408602595323734 0.0029164824004035781 0 -0.00011748651017259649 0.0025508022680508155 0 -0.00010408602595323734 0.0029164824004035781 0 0.00021025318459104317 0.0025388598438172596 0 0.0002280988613891678 0.0030512748769573046 0 0.00013481965596132779 0.0032106854690520407 0 -0.00010408602595323734 0.0029164824004035781 0 0.0002280988613891678 0.0030512748769573046 0 -0.00019672662175506417 0.0031946096689247716 0 -0.00043244035684512363 0.0032037687254592132 0 -0.0004059928049381123 0.0029113044717354909 0 -0.00039146605927504682 0.0034674290535632664 0 -0.00043244035684512363 0.0032037687254592132 0 -0.00064131630593631693 0.0032820490353222156 0 -9.2354090627791205e-05 0.0029956943109296971 0 -0.00040416028350701992 0.0026833060823068943 0 -0.00030744984578438372 0.0033239445836445941 0 -0.00039146605927504682 0.0034674290535632664 0 -0.00043244035684512363 0.0032037687254592132 0 -0.00011748651017259649 0.0025508022680508155 0 0.00021025318459104317 0.0025388598438172596 0 -8.0952689143190017e-05 0.0020745308626618905 0 -0.00011748651017259649 0.0025508022680508155 0 -8.0952689143190017e-05 0.0020745308626618905 0 -0.00034408094818464628 0.0023253796253793423 0 -0.00043244035684512363 0.0032037687254592132 0 -0.00064131630593631693 0.0032820490353222156 0 -0.0006458515766320981 0.0030059207457914985 0 -0.00064131630593631693 0.0032820490353222156 0 -0.0008823079463009157 0.0030800006317208747 0 -0.0006458515766320981 0.0030059207457914985 0 -0.00040416028350701992 0.0026833060823068943 0 -0.00037520347197693036 0.002231406418527052 0 -8.0952689143190017e-05 0.0020745308626618905 0 -0.00037931992541112428 0.0016912249374111551 0 -0.00034453915770881437 0.0018221916688818277 0 -0.00037931992541112428 0.0016912249374111551 0 -0.00034453915770881437 0.0018221916688818277 0 -0.00028645352424840878 0.001635949810678582 0 -0.00034453915770881437 0.0018221916688818277 0 -0.00034408094818464628 0.0023253796253793423 0 -0.00075558332585213812 0.0022775148158967443 0 -8.0952689143190017e-05 0.0020745308626618905 0 -0.00034453915770881437 0.0018221916688818277 0 -0.00034408094818464628 0.0023253796253793423 0 -0.00034453915770881437 0.0018221916688818277 0 -0.00023678327006979437 0.0014437021857521381 0 -0.00028645352424840878 0.001635949810678582 0 -0.00023678327006979437 0.0014437021857521381 0 -0.00028645352424840878 0.001635949810678582 0 -0.00015979643575028465 0.0015455223027816749 0 -0.00056034190119531749 0.0024755946914863216 0 -0.00034408094818464628 0.0023253796253793423 0 -0.00075558332585213812 0.0022775148158967443 0 -0.00035370699249997068 0.0018024130303903511 0 -0.00048034020812164573 0.0018678352800574585 0 -0.00010019967341968614 0.0015316431551093232 0 -0.00013826446680758196 0.0014954308604376602 0 -0.00015979643575028465 0.0015455223027816749 0 -0.00037520347197693036 0.002231406418527052 0 -7.2633373929157339e-05 0.0014554402270753957 0 -0.00037931992541112428 0.0016912249374111551 0 -0.00028645352424840878 0.001635949810678582 0 -0.00015979643575028465 0.0015455223027816749 0 -0.00019298999850531615 0.002382339278645063 0 -0.00028000647292817233 0.0024060901468707175 0 -0.00022827715867190123 0.0022494085918713072 0 -0.00037520347197693036 0.002231406418527052 0 -0.00020859273885492159 0.0019524368578627965 0 -0.00015821470441443794 0.0024978788196991079 0 -0.00019298999850531615 0.002382339278645063 0 -0.00028000647292817233 0.0024060901468707175 0 -6.5605333656407787e-09 0.0018837900754325959 0 -1.8884609722332035e-06 0.001950451146742983 0 -6.0120107823949365e-06 0.001791012528227153 0 -6.5605333656407787e-09 0.0018837900754325959 0 -1.8884609722332035e-06 0.001950451146742983 0 -2.8313360403278268e-08 0.0021816831222774427 0 -0.00011188475863085043 0.0021119654998664771 0 -0.00016427990399878165 0.001884313405276786 0 -0.00028000647292817233 0.0024060901468707175 0 -0.00022827715867190123 0.0022494085918713072 0 -0.00040331531663873938 0.0023042980940608843 0 -3.2158187425622129e-07 0.0021824439068011208 0 -0.0001087162013732471 0.002364665483058978 0 -2.8058108840138191e-05 0.0024651392489915551 0 -0.00019298999850531615 0.002382339278645063 0 -0.00022827715867190123 0.0022494085918713072 0 -0.0001087162013732471 0.002364665483058978 0 -0.00011188475863085043 0.0021119654998664771 0 1.4783198223874918e-08 0.0021817309159612303 0 -0.00022827715867190123 0.0022494085918713072 0 -3.2158187425622129e-07 0.0021824439068011208 0 -0.0001087162013732471 0.002364665483058978 0 -0.00015821470441443794 0.0024978788196991079 0 -0.00019298999850531615 0.002382339278645063 0 -0.0001087162013732471 0.002364665483058978 0 -0.00037520347197693036 0.002231406418527052 0 -0.00038782116460200797 0.0027788185994263121 0 -0.00015821470441443794 0.0024978788196991079 0 -0.0001087162013732471 0.002364665483058978 0 -2.8058108840138191e-05 0.0024651392489915551 0 -5.9028508000974516e-05 0.0027701101547433597 0 -3.2158187425622129e-07 0.0021824439068011208 0 -1.1310175347687893e-05 0.0025286282153189174 0 -3.2158187425622129e-07 0.0021824439068011208 0 -2.8058108840138191e-05 0.0024651392489915551 0 -1.1310175347687893e-05 0.0025286282153189174 0 -0.00038782116460200797 0.0027788185994263121 0 -0.00018184465175262861 0.002721032163138687 0 -0.00043244035684512363 0.0032037687254592132 0 -0.0006458515766320981 0.0030059207457914985 0 -0.0004059928049381123 0.0029113044717354909 0 -6.6837090696164064e-05 0.0013501279418305248 0 2.8369224058732492e-06 0.0012450284115533507 0 1.2743663263251467e-05 0.0012742080146498562 0 2.8369224058732492e-06 0.0012450284115533507 0 1.2743663263251467e-05 0.0012742080146498562 0 3.5401982490636904e-05 0.0011314513255039427 0 1.0766905739223338e-05 0.0012050455314023291 0 2.8369224058732492e-06 0.0012450284115533507 0 3.5401982490636904e-05 0.0011314513255039427 0 -6.4094693874379422e-05 0.0012943760325703952 0 -6.9718169061174591e-05 0.0013497600002559879 0 -5.1723891607272943e-05 0.0012074183400564774 0 -6.6837090696164064e-05 0.0013501279418305248 0 2.8369224058732492e-06 0.0012450284115533507 0 -5.1723891607272943e-05 0.0012074183400564774 0 1.0766905739223338e-05 0.0012050455314023291 0 2.8369224058732492e-06 0.0012450284115533507 0 -8.8232597146511253e-05 0.0013950139740048593 0 -6.6837090696164064e-05 0.0013501279418305248 0 -9.3418316724564238e-05 0.0014116100609032059 0 -0.00010482462055130117 0.0013937441042024383 0 -8.8232597146511253e-05 0.0013950139740048593 0 -9.3418316724564238e-05 0.0014116100609032059 0 -9.3418316724564238e-05 0.0014116100609032059 0 -0.0001369513437132956 0.0014186778420397369 0 -0.00015979643575028465 0.0015455223027816749 0 -0.00023678327006979437 0.0014437021857521381 0 -0.0001369513437132956 0.0014186778420397369 0 -0.00015979643575028465 0.0015455223027816749 0 -0.00010482462055130117 0.0013937441042024383 0 -9.3418316724564238e-05 0.0014116100609032059 0 -0.0001369513437132956 0.0014186778420397369 0 -9.3418316724564238e-05 0.0014116100609032059 0 -0.00015979643575028465 0.0015455223027816749 0 -0.00010729286352516167 0.0014476865257014929 0 -0.00015979643575028465 0.0015455223027816749 0 -0.00010729286352516167 0.0014476865257014929 0 -0.00013477390948338127 0.0014865169003842407 0 -6.6837090696164064e-05 0.0013501279418305248 0 -9.3418316724564238e-05 0.0014116100609032059 0 -0.00010729286352516167 0.0014476865257014929 0 -6.6837090696164064e-05 0.0013501279418305248 0 -0.00010729286352516167 0.0014476865257014929 0 -8.0646752633441112e-05 0.0014424431389779442 0 -6.6837090696164064e-05 0.0013501279418305248 0 -8.0646752633441112e-05 0.0014424431389779442 0 -2.5846758773852926e-05 0.0014125220120307842 0 -0.00010729286352516167 0.0014476865257014929 0 -8.0646752633441112e-05 0.0014424431389779442 0 -0.00013477390948338127 0.0014865169003842407 0 -0.00010893574508772593 0.0014898807429531238 0 -0.00012144355694758886 0.0015254992570729337 0 -4.5633482602781734e-05 0.0015178526445639767 0 -8.0646752633441112e-05 0.0014424431389779442 0 -0.00010893574508772593 0.0014898807429531238 0 -4.5633482602781734e-05 0.0015178526445639767 0 -8.0646752633441112e-05 0.0014424431389779442 0 -4.5633482602781734e-05 0.0015178526445639767 0 -2.5846758773852926e-05 0.0014125220120307842 0 -0.00013826446680758196 0.0014954308604376602 0 -0.00015979643575028465 0.0015455223027816749 0 -0.00013477390948338127 0.0014865169003842407 0 -8.0646752633441112e-05 0.0014424431389779442 0 -0.00013477390948338127 0.0014865169003842407 0 -0.00010893574508772593 0.0014898807429531238 0 -0.00013477390948338127 0.0014865169003842407 0 -0.00010893574508772593 0.0014898807429531238 0 -0.00013174839524180776 0.0015016273663094684 0 -0.00010893574508772593 0.0014898807429531238 0 -0.00013174839524180776 0.0015016273663094684 0 -0.00012144355694758886 0.0015254992570729337 0 -0.00013826446680758196 0.0014954308604376602 0 -0.00013174839524180776 0.0015016273663094684 0 -0.00013255652313317156 0.0015195359444222436 0 -0.00013826446680758196 0.0014954308604376602 0 -0.00013477390948338127 0.0014865169003842407 0 -0.00013174839524180776 0.0015016273663094684 0 -0.00020859273885492159 0.0019524368578627965 0 -0.00016427990399878165 0.001884313405276786 0 -6.5605333656407787e-09 0.0018837900754325959 0 -2.1820102049843427e-05 0.0016630446197779495 0 -9.1907650575636291e-08 0.001585787026618607 0 -6.5605333656407787e-09 0.0018837900754325959 0 -6.0120107823949365e-06 0.001791012528227153 0 -2.1820102049843427e-05 0.0016630446197779495 0 -0.00016427990399878165 0.001884313405276786 0 -8.1082216522914866e-05 0.0017097741591553957 0 -0.00018600526090528435 0.0015467488618252155 0 -0.00012144355694758886 0.0015254992570729337 0 -2.1820102049843427e-05 0.0016630446197779495 0 -0.00013174839524180776 0.0015016273663094684 0 -0.00013255652313317156 0.0015195359444222436 0 -0.00012144355694758886 0.0015254992570729337 0 -0.00016427990399878165 0.001884313405276786 0 -0.00011573695007751524 0.0018132351920731185 0 -4.5633482602781734e-05 0.0015178526445639767 0 -9.1907650575636291e-08 0.001585787026618607 0 -2.5846758773852926e-05 0.0014125220120307842 0 -0.00012144355694758886 0.0015254992570729337 0 -4.5633482602781734e-05 0.0015178526445639767 0 -2.1820102049843427e-05 0.0016630446197779495 0 -4.5633482602781734e-05 0.0015178526445639767 0 -2.1820102049843427e-05 0.0016630446197779495 0 -9.1907650575636291e-08 0.001585787026618607 0 -9.1907650575636291e-08 0.001585787026618607 0 7.7162497207085505e-06 0.0013567896959209313 0 7.3208470796405338e-08 0.0012879021563483269 0 -9.1907650575636291e-08 0.001585787026618607 0 -2.5846758773852926e-05 0.0014125220120307842 0 7.7162497207085505e-06 0.0013567896959209313 0 -2.5846758773852926e-05 0.0014125220120307842 0 1.2743663263251467e-05 0.0012742080146498562 0 7.7162497207085505e-06 0.0013567896959209313 0 -6.6837090696164064e-05 0.0013501279418305248 0 -2.5846758773852926e-05 0.0014125220120307842 0 1.2743663263251467e-05 0.0012742080146498562 0 1.2743663263251467e-05 0.0012742080146498562 0 7.7162497207085505e-06 0.0013567896959209313 0 3.0332050966488944e-05 0.0011949411543491952 0 7.7162497207085505e-06 0.0013567896959209313 0 7.3208470796405338e-08 0.0012879021563483269 0 3.0332050966488944e-05 0.0011949411543491952 0 7.3208470796405338e-08 0.0012879021563483269 0 7.4610298167035996e-08 0.00099001319554412504 0 3.0332050966488944e-05 0.0011949411543491952 0 7.4610298167035996e-08 0.00099001319554412504 0 3.1917662999232974e-05 0.0010681402051607187 0 3.0332050966488944e-05 0.0011949411543491952 0 3.1917662999232974e-05 0.0010681402051607187 0 8.8850976929142608e-05 0.00099910655762591293 0 6.2808333433232995e-05 0.0010693454997545463 0 3.1917662999232974e-05 0.0010681402051607187 0 3.0332050966488944e-05 0.0011949411543491952 0 6.2808333433232995e-05 0.0010693454997545463 0 1.2743663263251467e-05 0.0012742080146498562 0 3.0332050966488944e-05 0.0011949411543491952 0 3.5401982490636904e-05 0.0011314513255039427 0 -1.1754096450750236e-06 0.0008051462971541153 0 -4.4346168258380419e-08 0.00069203427296801821 0 4.6662749508489223e-06 0.00054682361835325477 0 6.3315989049813511e-05 0.00087302478930948802 0 5.3615078054119911e-05 0.00062895083318788877 0 7.4610298167035996e-08 0.00099001319554412504 0 3.1917662999232974e-05 0.0010681402051607187 0 -1.1754096450750236e-06 0.0008051462971541153 0 7.4610298167035996e-08 0.00099001319554412504 0 -1.1754096450750236e-06 0.0008051462971541153 0 -4.4346168258380419e-08 0.00069203427296801821 0 3.1917662999232974e-05 0.0010681402051607187 0 0.00011871879096816177 0.00093727112484871475 0 8.8850976929142608e-05 0.00099910655762591293 0 4.2916544677425986e-05 0.0010315498771477321 0 6.3315989049813511e-05 0.00087302478930948802 0 0.00011871879096816177 0.00093727112484871475 0 8.8850976929142608e-05 0.00099910655762591293 0 0.00011947921544142049 0.00091811044079152793 0 0.00011871879096816177 0.00093727112484871475 0 0.00011947921544142049 0.00091811044079152793 0 0.00011391520886347043 0.00072195045845716975 0 0.00011947921544142049 0.00091811044079152793 0 9.594931636181298e-05 0.0010044272292414108 0 0.00010403752182423597 0.00097204174065320499 0 8.8850976929142608e-05 0.00099910655762591293 0 0.00011947921544142049 0.00091811044079152793 0 9.594931636181298e-05 0.0010044272292414108 0 8.8850976929142608e-05 0.00099910655762591293 0 9.594931636181298e-05 0.0010044272292414108 0 6.2808333433232995e-05 0.0010693454997545463 0 0.00010403752182423597 0.00097204174065320499 0 8.4183649261317686e-05 0.0010204100014065344 0 0.00010069343541082332 0.0009827537925416901 0 9.594931636181298e-05 0.0010044272292414108 0 0.00010403752182423597 0.00097204174065320499 0 8.4183649261317686e-05 0.0010204100014065344 0 3.0332050966488944e-05 0.0011949411543491952 0 3.5401982490636904e-05 0.0011314513255039427 0 6.2808333433232995e-05 0.0010693454997545463 0 3.5401982490636904e-05 0.0011314513255039427 0 6.2808333433232995e-05 0.0010693454997545463 0 8.4183649261317686e-05 0.0010204100014065344 0 9.594931636181298e-05 0.0010044272292414108 0 6.2808333433232995e-05 0.0010693454997545463 0 8.4183649261317686e-05 0.0010204100014065344 0 3.5401982490636904e-05 0.0011314513255039427 0 8.4183649261317686e-05 0.0010204100014065344 0 2.5734669342690047e-05 0.0010087107228343882 0 -3.4630110864426213e-05 0.0010385649141929456 0 3.5401982490636904e-05 0.0011314513255039427 0 2.5734669342690047e-05 0.0010087107228343882 0 -5.5730413714202843e-06 0.0010854087759734718 0 3.5263515544258045e-05 0.0011489334279169599 0 2.5734669342690047e-05 0.0010087107228343882 0 9.2739715894068196e-06 0.00096406456878716693 0 5.7465892849414377e-05 0.00096107442005885751 0 -2.9026057103959944e-05 0.0010049595037014123 0 2.5734669342690047e-05 0.0010087107228343882 0 9.2739715894068196e-06 0.00096406456878716693 0 8.4183649261317686e-05 0.0010204100014065344 0 2.5734669342690047e-05 0.0010087107228343882 0 5.7465892849414377e-05 0.00096107442005885751 0 8.4183649261317686e-05 0.0010204100014065344 0 5.7465892849414377e-05 0.00096107442005885751 0 0.00010069343541082332 0.0009827537925416901 0 0.00010403752182423597 0.00097204174065320499 0 0.00010069343541082332 0.0009827537925416901 0 7.7586728084942758e-05 0.0009628834788259987 0 0.00010069343541082332 0.0009827537925416901 0 9.9819038507895238e-05 0.0010024448969894473 0 8.7211042293220279e-05 0.00099504748042464992 0 0.00010069343541082332 0.0009827537925416901 0 8.7211042293220279e-05 0.00099504748042464992 0 7.6878893894825e-05 0.0009817185445107437 0 9.5716897886771705e-05 0.00092489452056055343 0 9.9367596739334879e-05 0.00099896859720544008 0 0.0001136970864505993 0.00099573841184396358 0 0.00010069343541082332 0.0009827537925416901 0 9.9819038507895238e-05 0.0010024448969894473 0 9.9819038507895238e-05 0.0010024448969894473 0 8.7211042293220279e-05 0.00099504748042464992 0 8.6717126148864944e-05 0.001012142110419095 0 8.7211042293220279e-05 0.00099504748042464992 0 8.6717126148864944e-05 0.001012142110419095 0 7.1076350863587352e-05 0.00099654313435433442 0 9.6427899735779984e-05 0.0010236824048329804 0 9.9819038507895238e-05 0.0010024448969894473 0 8.6717126148864944e-05 0.001012142110419095 0 9.6427899735779984e-05 0.0010236824048329804 0 9.9819038507895238e-05 0.0010024448969894473 0 0.00010761938356981312 0.001020537839681064 0 0.00011592130277527918 0.0010334485019219725 0 0.00010761938356981312 0.001020537839681064 0 0.00012169081146752883 0.0010219785393435507 0 0.00013078656093088614 0.0010389055781265407 0 0.00013371566615392322 0.0010138893933920815 0 0.00012169081146752883 0.0010219785393435507 0 0.00013371566615392322 0.0010138893933920815 0 0.0001136970864505993 0.00099573841184396358 0 0.00012169081146752883 0.0010219785393435507 0 -5.4590588806202787e-05 0.001317099481151434 0 9.5716897886771705e-05 0.00092489452056055343 0 -1.3903763006139745e-05 0.00092393325473153528 0 9.2739715894068196e-06 0.00096406456878716693 0 5.7465892849414377e-05 0.00096107442005885751 0 0.0001136970864505993 0.00099573841184396358 0 0.00010761938356981312 0.001020537839681064 0 0.00012169081146752883 0.0010219785393435507 0 0.0001136970864505993 0.00099573841184396358 0 9.9819038507895238e-05 0.0010024448969894473 0 0.00010761938356981312 0.001020537839681064 0 7.6954666379378648e-05 0.00098003238737743182 0 6.3526263776350278e-05 0.00098036103893753062 0 6.0234458239837703e-05 0.00098511415853332973 0 6.6460002130877056e-05 0.00097556738436095311 0 5.6785199889288646e-05 0.00098381193191572278 0 3.3672000387515336e-05 0.00097657209919075217 0 6.0234458239837703e-05 0.00098511415853332973 0 4.4147174741587962e-05 0.00097213433276462753 0 7.6954666379378648e-05 0.00098003238737743182 0 6.3526263776350278e-05 0.00098036103893753062 0 7.3435210319689186e-05 0.00095844898466393869 0 3.3672000387515336e-05 0.00097657209919075217 0 4.4147174741587962e-05 0.00097213433276462753 0 3.0054143425854242e-05 0.00096553152020808803 0 2.3690406128807341e-05 0.00096625189378454096 0 2.0220462107983595e-05 0.00096103864598719461 0 3.0054143425854242e-05 0.00096553152020808803 0 3.3672000387515336e-05 0.00097657209919075217 0 2.3690406128807341e-05 0.00096625189378454096 0 1.8610708205809531e-05 0.00096587908173991876 0 7.6954666379378648e-05 0.00098003238737743182 0 0.00012041385601618918 0.00096409896514302153 0 7.3435210319689186e-05 0.00095844898466393869 0 6.6460002130877056e-05 0.00097556738436095311 0 1.5757940064609826e-05 0.00095424134934210655 0 3.3672000387515336e-05 0.00097657209919075217 0 2.3690406128807341e-05 0.00096625189378454096 0 3.0054143425854242e-05 0.00096553152020808803 0 2.3690406128807341e-05 0.00096625189378454096 0 1.7771682908154637e-05 0.00096085200720072081 0 2.0220462107983595e-05 0.00096103864598719461 0 2.3690406128807341e-05 0.00096625189378454096 0 1.7771682908154637e-05 0.00096085200720072081 0 1.8610708205809531e-05 0.00096587908173991876 0 2.4066062502903111e-05 0.0008503106668018446 0 5.4428685977134367e-06 0.00083310503685848881 0 2.2812374026703714e-05 0.00081662237648791574 0 1.5757940064609826e-05 0.00095424134934210655 0 4.9601407609747999e-05 0.00088160588643526367 0 0.00012041385601618918 0.00096409896514302153 0 7.9437083215522613e-05 0.00093421218507397906 0 7.3435210319689186e-05 0.00095844898466393869 0 6.3526263776350278e-05 0.00098036103893753062 0 7.3435210319689186e-05 0.00095844898466393869 0 5.3208814140966323e-05 0.00093938633483254023 0 7.9437083215522613e-05 0.00093421218507397906 0 7.3435210319689186e-05 0.00095844898466393869 0 5.3208814140966323e-05 0.00093938633483254023 0 6.3526263776350278e-05 0.00098036103893753062 0 6.9904761222177442e-05 0.0010120694011431001 0 7.1076350863587352e-05 0.00099654313435433442 0 6.0966463801154836e-05 0.00097874777942445605 0 4.5791018630418601e-05 0.00097802065626044271 0 6.3526263776350278e-05 0.00098036103893753062 0 5.3208814140966323e-05 0.00093938633483254023 0 1.086250444465252e-05 0.00092863811161744778 0 8.6717126148864944e-05 0.001012142110419095 0 6.9904761222177442e-05 0.0010120694011431001 0 7.1076350863587352e-05 0.00099654313435433442 0 7.1076350863587352e-05 0.00099654313435433442 0 6.0234458239837703e-05 0.00098511415853332973 0 7.6878893894825e-05 0.0009817185445107437 0 8.7211042293220279e-05 0.00099504748042464992 0 7.1076350863587352e-05 0.00099654313435433442 0 7.6878893894825e-05 0.0009817185445107437 0 6.3526263776350278e-05 0.00098036103893753062 0 7.1076350863587352e-05 0.00099654313435433442 0 6.0234458239837703e-05 0.00098511415853332973 0 6.0234458239837703e-05 0.00098511415853332973 0 5.971399908335749e-05 0.00096924033044453459 0 7.6878893894825e-05 0.0009817185445107437 0 6.0234458239837703e-05 0.00098511415853332973 0 5.971399908335749e-05 0.00096924033044453459 0 4.4147174741587962e-05 0.00097213433276462753 0 5.971399908335749e-05 0.00096924033044453459 0 7.6878893894825e-05 0.0009817185445107437 0 7.7586728084942758e-05 0.0009628834788259987 0 0.00010069343541082332 0.0009827537925416901 0 7.6878893894825e-05 0.0009817185445107437 0 7.7586728084942758e-05 0.0009628834788259987 0 5.971399908335749e-05 0.00096924033044453459 0 7.7586728084942758e-05 0.0009628834788259987 0 4.0087299731348713e-05 0.00093664851974371746 0 5.971399908335749e-05 0.00096924033044453459 0 3.8026666399310617e-05 0.00095951899081062769 0 4.0087299731348713e-05 0.00093664851974371746 0 3.8026666399310617e-05 0.00095951899081062769 0 2.0356004592054519e-05 0.00095024188317580733 0 4.0087299731348713e-05 0.00093664851974371746 0 5.971399908335749e-05 0.00096924033044453459 0 3.8026666399310617e-05 0.00095951899081062769 0 4.4147174741587962e-05 0.00097213433276462753 0 3.8026666399310617e-05 0.00095951899081062769 0 4.4147174741587962e-05 0.00097213433276462753 0 3.0054143425854242e-05 0.00096553152020808803 0 2.0220462107983595e-05 0.00096103864598719461 0 2.0356004592054519e-05 0.00095024188317580733 0 1.088014533832137e-05 0.00095532640427617595 0 2.0220462107983595e-05 0.00096103864598719461 0 3.0054143425854242e-05 0.00096553152020808803 0 2.0356004592054519e-05 0.00095024188317580733 0 3.8026666399310617e-05 0.00095951899081062769 0 3.0054143425854242e-05 0.00096553152020808803 0 2.0356004592054519e-05 0.00095024188317580733 0 2.0356004592054519e-05 0.00095024188317580733 0 4.0087299731348713e-05 0.00093664851974371746 0 1.1912046058020771e-06 0.00092343024609060442 0 4.0087299731348713e-05 0.00093664851974371746 0 3.0275673920612489e-05 0.00089895301665846689 0 1.1912046058020771e-06 0.00092343024609060442 0 3.0275673920612489e-05 0.00089895301665846689 0 6.9851896351581601e-05 0.00089990676021418643 0 4.5419624218301201e-05 0.00085282473671592402 0 4.0087299731348713e-05 0.00093664851974371746 0 3.0275673920612489e-05 0.00089895301665846689 0 6.9851896351581601e-05 0.00089990676021418643 0 3.0275673920612489e-05 0.00089895301665846689 0 -1.484869891901398e-06 0.00087155205082897031 0 1.1912046058020771e-06 0.00092343024609060442 0 0.00010403752182423597 0.00097204174065320499 0 7.7586728084942758e-05 0.0009628834788259987 0 6.9851896351581601e-05 0.00089990676021418643 0 7.7586728084942758e-05 0.0009628834788259987 0 4.0087299731348713e-05 0.00093664851974371746 0 6.9851896351581601e-05 0.00089990676021418643 0 0.00011947921544142049 0.00091811044079152793 0 0.00010403752182423597 0.00097204174065320499 0 6.9851896351581601e-05 0.00089990676021418643 0 0.00011947921544142049 0.00091811044079152793 0 6.9851896351581601e-05 0.00089990676021418643 0 0.00011391520886347043 0.00072195045845716975 0 6.8821632355351036e-05 0.00088332648056686964 0 3.0839359382812051e-05 0.00074184331220396402 0 6.9851896351581601e-05 0.00089990676021418643 0 0.00011391520886347043 0.00072195045845716975 0 -3.6225996026736965e-05 0.00060512079678734303 0 5.3615078054119911e-05 0.00062895083318788877 0 -1.9443943915012325e-05 0.00043561509309883423 0 0.00011391520886347043 0.00072195045845716975 0 -3.6225996026736965e-05 0.00060512079678734303 0 -1.0707793166358643e-05 0.00039178451126734709 0 1.2082331587434367e-07 0.00039416169037649975 0 4.6662749508489223e-06 0.00054682361835325477 0 -1.0707793166358643e-05 0.00039178451126734709 0 -4.4346168258380419e-08 0.00069203427296801821 0 1.2082331587434367e-07 0.00039416169037649975 0 4.6662749508489223e-06 0.00054682361835325477 0 -1.484869891901398e-06 0.00087155205082897031 0 4.5419624218301201e-05 0.00085282473671592402 0 7.369299930209059e-06 0.00080417946680091468 0 3.0275673920612489e-05 0.00089895301665846689 0 -1.484869891901398e-06 0.00087155205082897031 0 4.5419624218301201e-05 0.00085282473671592402 0 -3.6225996026736965e-05 0.00060512079678734303 0 -1.0707793166358643e-05 0.00039178451126734709 0 -3.2098463526984764e-07 9.6441838558987324e-05 0 1.2082331587434367e-07 0.00039416169037649975 0 -1.0707793166358643e-05 0.00039178451126734709 0 -3.2098463526984764e-07 9.6441838558987324e-05 0 3.0839359382812051e-05 0.00074184331220396402 0 -2.7437064223183207e-05 0.00042024757084254365 0 -6.0633263421354195e-05 0.00027305187250447569 0 -2.7437064223183207e-05 0.00042024757084254365 0 -0.00014555148657576547 -0.00032341245450315557 0 -3.8091750502198659e-07 9.5460858122246354e-05 0 -9.9994233945286725e-06 -0.00013716031382317174 0 -9.9994233945286725e-06 -0.00013716031382317174 0 2.9033028618736508e-07 -0.00011126423282876224 0 7.1159397212243404e-05 -0.00026695086514044904 0 -6.3159572112880298e-09 -0.00011191789715995693 0 -5.1289893378462106e-06 -0.00041723855568656534 0 -3.8091750502198659e-07 9.5460858122246354e-05 0 -9.9994233945286725e-06 -0.00013716031382317174 0 2.9033028618736508e-07 -0.00011126423282876224 0 -0.00014555148657576547 -0.00032341245450315557 0 -9.9994233945286725e-06 -0.00013716031382317174 0 7.1159397212243404e-05 -0.00026695086514044904 0 -8.7493716662419077e-05 -0.000558303150662713 0 1.0402556121439953e-05 -0.0004643874928670695 0 1.926752395450269e-05 -0.00063649496246599615 0 -3.8181076788929733e-07 -0.00011234030497323968 0 -8.7493716662419077e-05 -0.000558303150662713 0 1.0402556121439953e-05 -0.0004643874928670695 0 -3.8181076788929733e-07 -0.00011234030497323968 0 1.0402556121439953e-05 -0.0004643874928670695 0 1.6996157998989509e-07 -0.00040139960326189707 0 1.0402556121439953e-05 -0.0004643874928670695 0 1.6996157998989509e-07 -0.00040139960326189707 0 3.745123484806104e-05 -0.0006040688299740472 0 1.6996157998989509e-07 -0.00040139960326189707 0 3.745123484806104e-05 -0.0006040688299740472 0 5.089120624067147e-08 -0.00069100956834404665 0 3.745123484806104e-05 -0.0006040688299740472 0 5.6467377054997624e-05 -0.00072924580172211101 0 4.6323176870985851e-05 -0.00078450247568052358 0 3.745123484806104e-05 -0.0006040688299740472 0 1.926752395450269e-05 -0.00063649496246599615 0 5.6467377054997624e-05 -0.00072924580172211101 0 1.0402556121439953e-05 -0.0004643874928670695 0 3.745123484806104e-05 -0.0006040688299740472 0 1.926752395450269e-05 -0.00063649496246599615 0 1.926752395450269e-05 -0.00063649496246599615 0 3.9453250173311974e-05 -0.00071342332682853226 0 8.6319450979454377e-06 -0.00067048207162875102 0 1.926752395450269e-05 -0.00063649496246599615 0 5.6467377054997624e-05 -0.00072924580172211101 0 3.9453250173311974e-05 -0.00071342332682853226 0 5.6467377054997624e-05 -0.00072924580172211101 0 6.5109327613016349e-05 -0.00077265847549278074 0 3.9453250173311974e-05 -0.00071342332682853226 0 3.9453250173311974e-05 -0.00071342332682853226 0 8.6319450979454377e-06 -0.00067048207162875102 0 3.6651810408492807e-05 -0.00075227611382466559 0 6.5109327613016349e-05 -0.00077265847549278074 0 3.9453250173311974e-05 -0.00071342332682853226 0 3.6651810408492807e-05 -0.00075227611382466559 0 8.6319450979454377e-06 -0.00067048207162875102 0 -9.5946729923602591e-05 -0.00069210045349619932 0 -4.8500220756807594e-06 -0.00074378695467667059 0 8.6319450979454377e-06 -0.00067048207162875102 0 -9.5946729923602591e-05 -0.00069210045349619932 0 -4.4923862280435825e-05 -0.00049705242133097586 0 -0.00014555148657576547 -0.00032341245450315557 0 -9.5946729923602591e-05 -0.00069210045349619932 0 -4.4923862280435825e-05 -0.00049705242133097586 0 -0.00014555148657576547 -0.00032341245450315557 0 7.1159397212243404e-05 -0.00026695086514044904 0 -4.4923862280435825e-05 -0.00049705242133097586 0 7.1159397212243404e-05 -0.00026695086514044904 0 8.6319450979454377e-06 -0.00067048207162875102 0 -4.4923862280435825e-05 -0.00049705242133097586 0 -6.0633263421354195e-05 0.00027305187250447569 0 -4.507982540515365e-05 0.00011646080210832952 0 -8.7493716662419077e-05 -0.000558303150662713 0 1.926752395450269e-05 -0.00063649496246599615 0 8.6319450979454377e-06 -0.00067048207162875102 0 -5.1289893378462106e-06 -0.00041723855568656534 0 7.6060243033090614e-06 -0.00064188229459152574 0 2.3461576098593409e-05 -0.0010867830619324978 0 8.6309776449650528e-08 -0.00098047759148305763 0 4.1466485645641248e-05 -0.00093090181363080198 0 2.3461576098593409e-05 -0.0010867830619324978 0 8.6309776449650528e-08 -0.00098047759148305763 0 -3.2625405015584016e-09 -0.0012699839705692521 0 8.6309776449650528e-08 -0.00098047759148305763 0 4.6323176870985851e-05 -0.00078450247568052358 0 4.1466485645641248e-05 -0.00093090181363080198 0 8.6309776449650528e-08 -0.00098047759148305763 0 5.089120624067147e-08 -0.00069100956834404665 0 4.6323176870985851e-05 -0.00078450247568052358 0 3.745123484806104e-05 -0.0006040688299740472 0 5.089120624067147e-08 -0.00069100956834404665 0 4.6323176870985851e-05 -0.00078450247568052358 0 5.6467377054997624e-05 -0.00072924580172211101 0 4.6323176870985851e-05 -0.00078450247568052358 0 6.4511072970527251e-05 -0.00082222878322126241 0 5.6467377054997624e-05 -0.00072924580172211101 0 6.5109327613016349e-05 -0.00077265847549278074 0 6.4511072970527251e-05 -0.00082222878322126241 0 6.5109327613016349e-05 -0.00077265847549278074 0 6.4511072970527251e-05 -0.00082222878322126241 0 6.46064457961084e-05 -0.00079929837933295929 0 6.4511072970527251e-05 -0.00082222878322126241 0 4.0373844549601011e-05 -0.00086844206242143486 0 6.46064457961084e-05 -0.00079929837933295929 0 6.4511072970527251e-05 -0.00082222878322126241 0 4.1466485645641248e-05 -0.00093090181363080198 0 4.0373844549601011e-05 -0.00086844206242143486 0 4.6323176870985851e-05 -0.00078450247568052358 0 6.4511072970527251e-05 -0.00082222878322126241 0 4.1466485645641248e-05 -0.00093090181363080198 0 2.3461576098593409e-05 -0.0010867830619324978 0 4.1466485645641248e-05 -0.00093090181363080198 0 2.2779205299098031e-05 -0.00098987852989430316 0 4.1466485645641248e-05 -0.00093090181363080198 0 4.0373844549601011e-05 -0.00086844206242143486 0 2.2779205299098031e-05 -0.00098987852989430316 0 2.2210747998757784e-05 -0.00097599502015674098 0 -1.8521067478203233e-08 -0.0010048478367651159 0 4.1510453511312609e-06 -0.00098052849162693365 0 3.4041127155687924e-05 -0.00092407277727172632 0 3.0635962630831256e-06 -0.00098780923770797123 0 4.0373844549601011e-05 -0.00086844206242143486 0 -1.8521067478203233e-08 -0.0010048478367651159 0 2.2779205299098031e-05 -0.00098987852989430316 0 -1.8521067478203233e-08 -0.0010048478367651159 0 4.1510453511312609e-06 -0.00098052849162693365 0 -2.0727793600711757e-05 -0.001033464541028838 0 -1.8521067478203233e-08 -0.0010048478367651159 0 2.7466424294781799e-06 -0.0010625666160400378 0 -7.5396437103757363e-06 -0.0010354671845075286 0 -1.8521067478203233e-08 -0.0010048478367651159 0 -7.5396437103757363e-06 -0.0010354671845075286 0 -2.0727793600711757e-05 -0.001033464541028838 0 -1.8521067478203233e-08 -0.0010048478367651159 0 2.7466424294781799e-06 -0.0010625666160400378 0 2.2779205299098031e-05 -0.00098987852989430316 0 2.3461576098593409e-05 -0.0010867830619324978 0 2.7466424294781799e-06 -0.0010625666160400378 0 2.2779205299098031e-05 -0.00098987852989430316 0 -8.5306535856515803e-05 -0.0011649708786451414 0 -1.873004819491045e-05 -0.0011142398282309193 0 -2.6905128918322023e-05 -0.001172133500495632 0 -8.5306535856515803e-05 -0.0011649708786451414 0 -4.9560985766426047e-05 -0.0012208027190102116 0 -2.6905128918322023e-05 -0.001172133500495632 0 -8.5306535856515803e-05 -0.0011649708786451414 0 -1.873004819491045e-05 -0.0011142398282309193 0 -2.0727793600711757e-05 -0.001033464541028838 0 -7.6246422661940498e-06 -0.00091935954269181121 0 4.1510453511312609e-06 -0.00098052849162693365 0 -2.0727793600711757e-05 -0.001033464541028838 0 -4.3271688205630538e-05 -0.0010437341616639213 0 -2.3224436032611981e-05 -0.0010299814425215072 0 -7.6246422661940498e-06 -0.00091935954269181121 0 4.1510453511312609e-06 -0.00098052849162693365 0 2.6110500751378188e-05 -0.0009332691647120009 0 2.2210747998757784e-05 -0.00097599502015674098 0 4.1510453511312609e-06 -0.00098052849162693365 0 2.6110500751378188e-05 -0.0009332691647120009 0 -7.6246422661940498e-06 -0.00091935954269181121 0 2.6110500751378188e-05 -0.0009332691647120009 0 3.7578503510192143e-05 -0.00089306674548889379 0 2.6110500751378188e-05 -0.0009332691647120009 0 3.7578503510192143e-05 -0.00089306674548889379 0 5.009864235520903e-05 -0.00092358949057502477 0 3.4041127155687924e-05 -0.00092407277727172632 0 5.7284897894350887e-05 -0.00086345909261493158 0 2.2210747998757784e-05 -0.00097599502015674098 0 2.6110500751378188e-05 -0.0009332691647120009 0 5.009864235520903e-05 -0.00092358949057502477 0 5.7284897894350887e-05 -0.00086345909261493158 0 5.5407525400583005e-05 -0.0008322273749493996 0 6.5109327613016349e-05 -0.00077265847549278074 0 6.46064457961084e-05 -0.00079929837933295929 0 6.4263714321325294e-05 -0.00078732191362221543 0 5.009864235520903e-05 -0.00092358949057502477 0 5.0519359459393737e-05 -0.00088158883857308043 0 5.6687492299014367e-05 -0.00087517504014180086 0 3.7578503510192143e-05 -0.00089306674548889379 0 5.009864235520903e-05 -0.00092358949057502477 0 5.0519359459393737e-05 -0.00088158883857308043 0 3.7578503510192143e-05 -0.00089306674548889379 0 5.0519359459393737e-05 -0.00088158883857308043 0 4.8086861649246026e-05 -0.00087258829480748343 0 5.0519359459393737e-05 -0.00088158883857308043 0 4.8086861649246026e-05 -0.00087258829480748343 0 4.9253442795952842e-05 -0.0008613986568168098 0 4.8086861649246026e-05 -0.00087258829480748343 0 4.0404856728624927e-05 -0.0008687877264594553 0 4.5639227704044274e-05 -0.00087140867160140909 0 -5.106544661413001e-05 -0.0010507150163269507 0 -2.3085044767780002e-05 -0.001134634524772402 0 4.0404856728624927e-05 -0.0008687877264594553 0 2.0841666725749807e-05 -0.00087507782375707041 0 3.4827385941111172e-05 -0.00086345413788647301 0 4.8086861649246026e-05 -0.00087258829480748343 0 4.0404856728624927e-05 -0.0008687877264594553 0 2.0841666725749807e-05 -0.00087507782375707041 0 3.7578503510192143e-05 -0.00089306674548889379 0 4.8086861649246026e-05 -0.00087258829480748343 0 2.0841666725749807e-05 -0.00087507782375707041 0 -4.3271688205630538e-05 -0.0010437341616639213 0 -5.106544661413001e-05 -0.0010507150163269507 0 -7.6246422661940498e-06 -0.00091935954269181121 0 3.7578503510192143e-05 -0.00089306674548889379 0 2.0841666725749807e-05 -0.00087507782375707041 0 -0.00011447046528001998 -0.001242961359849097 0 -6.4413481242143894e-05 -0.0012711418054820239 0 -9.5494997867859215e-05 -0.0013145153022773046 0 -0.00011447046528001998 -0.001242961359849097 0 -6.4413481242143894e-05 -0.0012711418054820239 0 -4.9560985766426047e-05 -0.0012208027190102116 0 -6.4413481242143894e-05 -0.0012711418054820239 0 -4.9560985766426047e-05 -0.0012208027190102116 0 -1.5999304320615674e-05 -0.0012601239900271214 0 -8.5306535856515803e-05 -0.0011649708786451414 0 -0.00011447046528001998 -0.001242961359849097 0 -4.9560985766426047e-05 -0.0012208027190102116 0 7.4002078269694929e-06 -0.00077829708885033253 0 -8.1864704772471395e-06 -0.00079218561469193683 0 -4.8500220756807594e-06 -0.00074378695467667059 0 7.4002078269694929e-06 -0.00077829708885033253 0 -8.1864704772471395e-06 -0.00079218561469193683 0 4.685058932274918e-06 -0.00078569511481727959 0 7.4002078269694929e-06 -0.00077829708885033253 0 8.6226699452950811e-06 -0.00080723119033603713 0 4.685058932274918e-06 -0.00078569511481727959 0 1.7771682908154637e-05 0.00096085200720072081 0 2.0220462107983595e-05 0.00096103864598719461 0 1.088014533832137e-05 0.00095532640427617595 0 -9.5946729923602591e-05 -0.00069210045349619932 0 -8.1864704772471395e-06 -0.00079218561469193683 0 -4.8500220756807594e-06 -0.00074378695467667059 0 2.0356004592054519e-05 0.00095024188317580733 0 1.1912046058020771e-06 0.00092343024609060442 0 1.088014533832137e-05 0.00095532640427617595 0 -4.507982540515365e-05 0.00011646080210832952 0 -6.1730314361791637e-06 9.3932147772684491e-05 0 7.4002078269694929e-06 -0.00077829708885033253 0 -4.8500220756807594e-06 -0.00074378695467667059 0 3.6651810408492807e-05 -0.00075227611382466559 0 8.6319450979454377e-06 -0.00067048207162875102 0 -4.8500220756807594e-06 -0.00074378695467667059 0 3.6651810408492807e-05 -0.00075227611382466559 0 3.6651810408492807e-05 -0.00075227611382466559 0 6.4263714321325294e-05 -0.00078732191362221543 0 2.77935555174556e-05 -0.00078548697150973253 0 7.4002078269694929e-06 -0.00077829708885033253 0 3.6651810408492807e-05 -0.00075227611382466559 0 2.77935555174556e-05 -0.00078548697150973253 0 6.5109327613016349e-05 -0.00077265847549278074 0 3.6651810408492807e-05 -0.00075227611382466559 0 6.4263714321325294e-05 -0.00078732191362221543 0 5.6687492299014367e-05 -0.00087517504014180086 0 2.0485040403120493e-05 -0.00081616213533650507 0 4.1816948077676988e-05 -0.0008481309091000859 0 5.0519359459393737e-05 -0.00088158883857308043 0 5.6687492299014367e-05 -0.00087517504014180086 0 4.9253442795952842e-05 -0.0008613986568168098 0 5.6687492299014367e-05 -0.00087517504014180086 0 4.9253442795952842e-05 -0.0008613986568168098 0 4.1816948077676988e-05 -0.0008481309091000859 0 5.5407525400583005e-05 -0.0008322273749493996 0 2.2176709491330811e-05 -0.00082350415097171004 0 6.4263714321325294e-05 -0.00078732191362221543 0 2.77935555174556e-05 -0.00078548697150973253 0 2.0485040403120493e-05 -0.00081616213533650507 0 7.4002078269694929e-06 -0.00077829708885033253 0 2.77935555174556e-05 -0.00078548697150973253 0 8.6226699452950811e-06 -0.00080723119033603713 0 2.77935555174556e-05 -0.00078548697150973253 0 8.6226699452950811e-06 -0.00080723119033603713 0 2.0485040403120493e-05 -0.00081616213533650507 0 3.8306868904662951e-06 -0.00080577161482229696 0 -5.2940241467140468e-06 -0.00079789258463985044 0 8.6226699452950811e-06 -0.00080723119033603713 0 2.0485040403120493e-05 -0.00081616213533650507 0 3.5301599550832002e-05 -0.00084918782882703625 0 8.6226699452950811e-06 -0.00080723119033603713 0 -3.603877056662055e-06 -0.00077081339429303287 0 -5.5347232058224853e-05 -0.00072666931109061398 0 8.6226699452950811e-06 -0.00080723119033603713 0 3.5301599550832002e-05 -0.00084918782882703625 0 3.6924016555623484e-05 -0.00087587025468365204 0 2.0485040403120493e-05 -0.00081616213533650507 0 3.5301599550832002e-05 -0.00084918782882703625 0 4.1816948077676988e-05 -0.0008481309091000859 0 3.5301599550832002e-05 -0.00084918782882703625 0 4.675358114263196e-05 -0.00086718276209385165 0 3.6924016555623484e-05 -0.00087587025468365204 0 -3.603877056662055e-06 -0.00077081339429303287 0 -5.5347232058224853e-05 -0.00072666931109061398 0 -1.1121243608348939e-06 -0.00075097534320783962 0 4.8086861649246026e-05 -0.00087258829480748343 0 4.9253442795952842e-05 -0.0008613986568168098 0 4.675358114263196e-05 -0.00086718276209385165 0 3.5301599550832002e-05 -0.00084918782882703625 0 4.9253442795952842e-05 -0.0008613986568168098 0 4.1816948077676988e-05 -0.0008481309091000859 0 3.5301599550832002e-05 -0.00084918782882703625 0 4.9253442795952842e-05 -0.0008613986568168098 0 4.675358114263196e-05 -0.00086718276209385165 0 4.8086861649246026e-05 -0.00087258829480748343 0 4.675358114263196e-05 -0.00086718276209385165 0 4.5639227704044274e-05 -0.00087140867160140909 0 4.675358114263196e-05 -0.00086718276209385165 0 4.5639227704044274e-05 -0.00087140867160140909 0 3.6924016555623484e-05 -0.00087587025468365204 0 4.5639227704044274e-05 -0.00087140867160140909 0 3.6924016555623484e-05 -0.00087587025468365204 0 4.4678683327214164e-05 -0.00086996476036140392 0 -5.2940241467140468e-06 -0.00079789258463985044 0 -5.9668316159644578e-05 -0.00072933348356776426 0 -5.5347232058224853e-05 -0.00072666931109061398 0 -5.0765570589910504e-05 -0.00065293530791471878 0 -0.00010630033840862143 -0.00058495306116581474 0 -5.5347232058224853e-05 -0.00072666931109061398 0 -1.1121243608348939e-06 -0.00075097534320783962 0 -5.0765570589910504e-05 -0.00065293530791471878 0 4.0052744598679212e-05 -0.00072699262867588282 0 -1.1121243608348939e-06 -0.00075097534320783962 0 -5.0765570589910504e-05 -0.00065293530791471878 0 6.7837763096060958e-05 7.5483613188696551e-05 0 7.9217082783462913e-06 -0.00086031900788283405 0 4.0052744598679212e-05 -0.00072699262867588282 0 -1.1121243608348939e-06 -0.00075097534320783962 0 4.685058932274918e-06 -0.00078569511481727959 0 -8.1864704772471395e-06 -0.00079218561469193683 0 4.0052744598679212e-05 -0.00072699262867588282 0 4.685058932274918e-06 -0.00078569511481727959 0 -3.603877056662055e-06 -0.00077081339429303287 0 -1.1121243608348939e-06 -0.00075097534320783962 0 4.685058932274918e-06 -0.00078569511481727959 0 8.6226699452950811e-06 -0.00080723119033603713 0 -3.603877056662055e-06 -0.00077081339429303287 0 4.685058932274918e-06 -0.00078569511481727959 0 1.7771682908154637e-05 0.00096085200720072081 0 1.088014533832137e-05 0.00095532640427617595 0 1.6581673090841346e-05 0.00095663804667435026 0 1.088014533832137e-05 0.00095532640427617595 0 2.2158848153840418e-05 0.00094960003795795578 0 1.6581673090841346e-05 0.00095663804667435026 0 -6.1730314361791637e-06 9.3932147772684491e-05 0 6.7837763096060958e-05 7.5483613188696551e-05 0 1.7771682908154637e-05 0.00096085200720072081 0 1.8610708205809531e-05 0.00096587908173991876 0 1.6581673090841346e-05 0.00095663804667435026 0 1.5757940064609826e-05 0.00095424134934210655 0 1.7815422747920462e-05 0.00095707106377868154 0 2.4066062502903111e-05 0.0008503106668018446 0 6.6401652401106815e-05 0.00084263048423510126 0 2.2812374026703714e-05 0.00081662237648791574 0 1.2365411309770244e-05 0.00095327715014682768 0 2.2158848153840418e-05 0.00094960003795795578 0 1.6581673090841346e-05 0.00095663804667435026 0 1.5757940064609826e-05 0.00095424134934210655 0 6.7837763096060958e-05 7.5483613188696551e-05 0 6.6401652401106815e-05 0.00084263048423510126 0 2.2812374026703714e-05 0.00081662237648791574 0 9.2240775043719007e-05 0.00077704403044171432 0 2.2812374026703714e-05 0.00081662237648791574 0 9.2240775043719007e-05 0.00077704403044171432 0 4.5127323296111985e-05 0.00075679548393810443 0 0.00010744028067942976 -0.00054327108471292635 0 6.2944751776173119e-05 -0.00056510198560910012 0 -3.0469595166837776e-05 -0.00046084723109612424 0 0.00013815888293027201 -0.00070411945974599888 0 0.00010744028067942976 -0.00054327108471292635 0 6.2944751776173119e-05 -0.00056510198560910012 0 6.7837763096060958e-05 7.5483613188696551e-05 0 0.00010242343833655926 0.00011321347957811698 0 0.00013815888293027201 -0.00070411945974599888 0 6.2944751776173119e-05 -0.00056510198560910012 0 -5.0765570589910504e-05 -0.00065293530791471878 0 9.2240775043719007e-05 0.00077704403044171432 0 4.5127323296111985e-05 0.00075679548393810443 0 0.00011167643530073481 0.00069288969137322996 0 0.00010744028067942976 -0.00054327108471292635 0 7.0173678051040547e-05 -0.00034764131505422082 0 -3.0469595166837776e-05 -0.00046084723109612424 0 0.00010242343833655926 0.00011321347957811698 0 8.8345101353280866e-05 0.00018134769655362738 0 -2.7956317021651638e-05 0.00074527128470426032 0 4.5127323296111985e-05 0.00075679548393810443 0 3.5268738519604671e-05 0.00070255478434163427 0 4.5127323296111985e-05 0.00075679548393810443 0 3.5268738519604671e-05 0.00070255478434163427 0 0.00011167643530073481 0.00069288969137322996 0 3.5268738519604671e-05 0.00070255478434163427 0 6.2821520774222276e-05 0.00066255980888053109 0 0.00011167643530073481 0.00069288969137322996 0 3.5268738519604671e-05 0.00070255478434163427 0 2.4973705562106949e-05 0.00066873299630886712 0 6.2821520774222276e-05 0.00066255980888053109 0 2.4973705562106949e-05 0.00066873299630886712 0 6.2821520774222276e-05 0.00066255980888053109 0 2.7356364850579887e-05 0.00063134112529453722 0 8.8345101353280866e-05 0.00018134769655362738 0 8.085985068385568e-05 0.00019435203105986162 0 0.00011167643530073481 0.00069288969137322996 0 0.0001018025256587663 0.00063528879193261445 0 0.0001207887455585263 0.00062061912737810328 0 6.2821520774222276e-05 0.00066255980888053109 0 0.00011167643530073481 0.00069288969137322996 0 0.0001018025256587663 0.00063528879193261445 0 0.0001018025256587663 0.00063528879193261445 0 0.0001207887455585263 0.00062061912737810328 0 6.6861127433560146e-05 0.00061208887793939891 0 6.2250483567711029e-05 0.00059401728446694107 0 5.105139808467139e-05 0.0005974326011276809 0 5.8262659122517957e-05 0.00059156149665381855 0 8.085985068385568e-05 0.00019435203105986162 0 7.6692998493894273e-05 0.000653234335407119 0 6.2821520774222276e-05 0.00066255980888053109 0 0.0001018025256587663 0.00063528879193261445 0 2.7356364850579887e-05 0.00063134112529453722 0 0.0001018025256587663 0.00063528879193261445 0 5.9523814128989808e-05 0.00063309381416720408 0 6.6861127433560146e-05 0.00061208887793939891 0 9.6440409095511012e-05 0.00063513700347947065 0 4.4917730333777067e-05 0.0006327839536559353 0 4.2867440912664474e-05 0.00061958563060720683 0 5.9523814128989808e-05 0.00063309381416720408 0 6.6861127433560146e-05 0.00061208887793939891 0 0.00027643230245806127 -0.0013258121911915209 0 0.00027053815884999427 -0.0013069933368128044 0 0.00037911446989525736 -0.0011506147871853294 0 1.4297545064930172e-06 -0.00031850372720585471 0 -5.2463995043177204e-05 -0.00042972595377723687 0 -7.3490660612646633e-05 -0.00036710845332053014 0 1.4297545064930172e-06 -0.00031850372720585471 0 5.0471220570142722e-05 -0.00039004920612811903 0 -5.2463995043177204e-05 -0.00042972595377723687 0 -5.1667878797166343e-05 -0.00030295446716328101 0 -4.3689490398012408e-05 -0.0006159091736726226 0 -4.3689490398012408e-05 -0.0006159091736726226 0 0.00012192848468406173 -0.00089229152497892765 0 0.00015287335823647121 -0.00034995493643959387 0 5.0471220570142722e-05 -0.00039004920612811903 0 7.1315120728337569e-05 -0.0002986884058989243 0 1.4297545064930172e-06 -0.00031850372720585471 0 5.0471220570142722e-05 -0.00039004920612811903 0 7.1315120728337569e-05 -0.0002986884058989243 0 2.9256757917494918e-05 -0.00015505304862533382 0 -0.00010837021828678042 -0.0002066809588705598 0 -8.8318919250642922e-05 -0.00033483188380445281 0 8.085985068385568e-05 0.00019435203105986162 0 -5.1667878797166343e-05 -0.00030295446716328101 0 7.0173678051040547e-05 -0.00034764131505422082 0 2.9256757917494918e-05 -0.00015505304862533382 0 -8.8318919250642922e-05 -0.00033483188380445281 0 -5.4767287250597833e-05 -0.00088500448276189871 0 -5.3950257890103231e-05 -0.00088915079256334222 0 -5.6309449246063072e-05 -0.00088979013326755672 0 -4.3689490398012408e-05 -0.0006159091736726226 0 -0.00013009856792351544 -0.00063548480852568885 0 -0.00010837021828678042 -0.0002066809588705598 0 -8.8318919250642922e-05 -0.00033483188380445281 0 -0.00024458090916915179 -0.00025787995361115985 0 -8.8318919250642922e-05 -0.00033483188380445281 0 -0.00024458090916915179 -0.00025787995361115985 0 -0.00019384716202741067 -0.00041015790908248537 0 -5.3950257890103231e-05 -0.00088915079256334222 0 -5.2933279752129681e-05 -0.00089217785679681445 0 -5.6262715293800873e-05 -0.00089424940252636636 0 -0.00013009856792351544 -0.00063548480852568885 0 -5.9668316159644578e-05 -0.00072933348356776426 0 -8.8318919250642922e-05 -0.00033483188380445281 0 -0.00019384716202741067 -0.00041015790908248537 0 -3.0469595166837776e-05 -0.00046084723109612424 0 -0.00019384716202741067 -0.00041015790908248537 0 -3.0469595166837776e-05 -0.00046084723109612424 0 -0.0001426183480401144 -0.00056310310585368456 0 7.0173678051040547e-05 -0.00034764131505422082 0 -8.8318919250642922e-05 -0.00033483188380445281 0 -3.0469595166837776e-05 -0.00046084723109612424 0 2.5958193459745942e-05 -0.00054082095893605373 0 -5.9668316159644578e-05 -0.00072933348356776426 0 6.2944751776173119e-05 -0.00056510198560910012 0 -5.0765570589910504e-05 -0.00065293530791471878 0 -0.00010630033840862143 -0.00058495306116581474 0 6.2944751776173119e-05 -0.00056510198560910012 0 -3.0469595166837776e-05 -0.00046084723109612424 0 -0.0001426183480401144 -0.00056310310585368456 0 4.5639227704044274e-05 -0.00087140867160140909 0 4.4678683327214164e-05 -0.00086996476036140392 0 4.2677022027011886e-05 -0.00086654572994642799 0 -5.9668316159644578e-05 -0.00072933348356776426 0 4.0151010966082506e-06 -0.00087818683806451935 0 4.0404856728624927e-05 -0.0008687877264594553 0 4.5639227704044274e-05 -0.00087140867160140909 0 4.2677022027011886e-05 -0.00086654572994642799 0 4.0404856728624927e-05 -0.0008687877264594553 0 4.2677022027011886e-05 -0.00086654572994642799 0 3.4827385941111172e-05 -0.00086345413788647301 0 4.0151010966082506e-06 -0.00087818683806451935 0 -2.3085044767780002e-05 -0.001134634524772402 0 -2.3085044767780002e-05 -0.001134634524772402 0 3.9206645501178276e-05 -0.0012076182175637139 0 0.00010192726308149219 -0.0015828726414878513 0 6.2567654179260728e-05 -0.001512687964396421 0 0.00015174784953868735 -0.0014976106296740786 0 6.2567654179260728e-05 -0.001512687964396421 0 3.811977249398539e-05 -0.0014513518950363335 0 0.00010468428670991958 -0.0014423768497222257 0 6.2567654179260728e-05 -0.001512687964396421 0 0.00015174784953868735 -0.0014976106296740786 0 0.00010468428670991958 -0.0014423768497222257 0 -5.6262715293800873e-05 -0.00089424940252636636 0 -5.893664726151038e-05 -0.00089193026070245418 0 -5.6309449246063072e-05 -0.00088979013326755672 0 -5.3950257890103231e-05 -0.00088915079256334222 0 -5.6262715293800873e-05 -0.00089424940252636636 0 -5.6309449246063072e-05 -0.00088979013326755672 0 -5.6262715293800873e-05 -0.00089424940252636636 0 -6.0641739512561475e-05 -0.00089666448128556861 0 -5.893664726151038e-05 -0.00089193026070245418 0 -6.4413481242143894e-05 -0.0012711418054820239 0 -9.5494997867859215e-05 -0.0013145153022773046 0 -4.099281467244088e-05 -0.0013166823447814991 0 -1.1487253188800651e-05 -0.0015811880536495172 0 -5.5816583094540143e-05 -0.0015319864205484846 0 -0.00012046591767830798 -0.0015785559127584399 0 -5.5299541795110383e-05 -0.0014612919010446874 0 -6.6204175041258457e-05 -0.0014188496014851636 0 0.00010192726308149219 -0.0015828726414878513 0 6.2567654179260728e-05 -0.001512687964396421 0 -1.1487253188800651e-05 -0.0015811880536495172 0 -0.00011447046528001998 -0.001242961359849097 0 -0.00014754456835355307 -0.0013120701640023361 0 -9.5494997867859215e-05 -0.0013145153022773046 0 -2.3085044767780002e-05 -0.001134634524772402 0 -5.5299541795110383e-05 -0.0014612919010446874 0 6.2567654179260728e-05 -0.001512687964396421 0 -1.1487253188800651e-05 -0.0015811880536495172 0 -1.1896118534832783e-05 -0.0014981105855433939 0 6.2567654179260728e-05 -0.001512687964396421 0 -1.1896118534832783e-05 -0.0014981105855433939 0 3.811977249398539e-05 -0.0014513518950363335 0 -1.1487253188800651e-05 -0.0015811880536495172 0 -1.1896118534832783e-05 -0.0014981105855433939 0 -5.5816583094540143e-05 -0.0015319864205484846 0 -8.999581347823041e-05 -0.0014718530304674692 0 -6.6204175041258457e-05 -0.0014188496014851636 0 -5.5816583094540143e-05 -0.0015319864205484846 0 -7.6730479777958199e-05 -0.0014716473238358572 0 -0.00012046591767830798 -0.0015785559127584399 0 -9.2994457237843803e-05 -0.0014557070730600106 0 -9.0247858136517729e-05 -0.0014448686126594737 0 -9.6061940610179522e-05 -0.0013951652010156499 0 -1.1896118534832783e-05 -0.0014981105855433939 0 -7.6730479777958199e-05 -0.0014716473238358572 0 -1.4520725795139895e-05 -0.001436376320352814 0 -1.1896118534832783e-05 -0.0014981105855433939 0 -5.5816583094540143e-05 -0.0015319864205484846 0 -7.6730479777958199e-05 -0.0014716473238358572 0 -9.2994457237843803e-05 -0.0014557070730600106 0 -0.00011543109625859608 -0.0014284104840583795 0 -9.0247858136517729e-05 -0.0014448686126594737 0 -9.2994457237843803e-05 -0.0014557070730600106 0 -3.8869957042261497e-05 -0.0013661074320756809 0 -0.00011649340110136986 -0.0013901930722844446 0 -7.6730479777958199e-05 -0.0014716473238358572 0 -1.4520725795139895e-05 -0.001436376320352814 0 -3.8869957042261497e-05 -0.0013661074320756809 0 -8.999581347823041e-05 -0.0014718530304674692 0 -4.1145182445961645e-05 -0.0013685036329091126 0 -9.2994457237843803e-05 -0.0014557070730600106 0 -0.00011649340110136986 -0.0013901930722844446 0 -0.00011543109625859608 -0.0014284104840583795 0 -1.4520725795139895e-05 -0.001436376320352814 0 1.5354965040882589e-05 -0.0013861456658988823 0 -3.8869957042261497e-05 -0.0013661074320756809 0 -1.1896118534832783e-05 -0.0014981105855433939 0 -1.4520725795139895e-05 -0.001436376320352814 0 3.811977249398539e-05 -0.0014513518950363335 0 -1.4520725795139895e-05 -0.001436376320352814 0 3.811977249398539e-05 -0.0014513518950363335 0 1.5354965040882589e-05 -0.0013861456658988823 0 3.811977249398539e-05 -0.0014513518950363335 0 1.5354965040882589e-05 -0.0013861456658988823 0 7.4930096238168072e-05 -0.0013718895738575564 0 2.047236135332321e-05 -0.0012952316431927371 0 -3.8869957042261497e-05 -0.0013661074320756809 0 -8.6555881202698227e-05 -0.0012157075475932467 0 1.5354965040882589e-05 -0.0013861456658988823 0 2.047236135332321e-05 -0.0012952316431927371 0 7.4930096238168072e-05 -0.0013718895738575564 0 1.5354965040882589e-05 -0.0013861456658988823 0 2.047236135332321e-05 -0.0012952316431927371 0 -3.8869957042261497e-05 -0.0013661074320756809 0 -3.8869957042261497e-05 -0.0013661074320756809 0 -0.00011649340110136986 -0.0013901930722844446 0 -8.6555881202698227e-05 -0.0012157075475932467 0 -0.00011861205865820662 -0.0013861965170322427 0 -0.00010149992251779528 -0.0012984433042065317 0 -0.00011649340110136986 -0.0013901930722844446 0 -0.00012351982771836704 -0.0013943265050992376 0 -0.00012246163796038388 -0.0013963707969338796 0 0.00021462775669806952 -0.0014121422216429355 0 0.00016264649705209787 -0.0014252085620496649 0 0.00014726798576052697 -0.001373990554335525 0 7.5386525198393875e-05 -0.0011271741700424858 0 0.0001163986987509499 -0.0012426193590163879 0 0.00011706633319481463 -0.00090703376751122191 0 4.4811834140418306e-05 -0.0009333457291508465 0 9.4338635285487753e-05 -0.00083892145034952716 0 -4.3689490398012408e-05 -0.0006159091736726226 0 7.5386525198393875e-05 -0.0011271741700424858 0 -5.4767287250597833e-05 -0.00088500448276189871 0 -5.6309449246063072e-05 -0.00088979013326755672 0 -5.704267863765295e-05 -0.00088704134821349827 0 -5.893664726151038e-05 -0.00089193026070245418 0 -5.6309449246063072e-05 -0.00088979013326755672 0 -5.704267863765295e-05 -0.00088704134821349827 0 0.00015174784953868735 -0.0014976106296740786 0 0.00020288920299289687 -0.0014103484035757918 0 0.00016264649705209787 -0.0014252085620496649 0 3.9206645501178276e-05 -0.0012076182175637139 0 7.5386525198393875e-05 -0.0011271741700424858 0 0.00015174784953868735 -0.0014976106296740786 0 0.00016264649705209787 -0.0014252085620496649 0 0.00010468428670991958 -0.0014423768497222257 0 3.811977249398539e-05 -0.0014513518950363335 0 0.00010468428670991958 -0.0014423768497222257 0 7.4930096238168072e-05 -0.0013718895738575564 0 0.00016264649705209787 -0.0014252085620496649 0 0.00010468428670991958 -0.0014423768497222257 0 0.00014726798576052697 -0.001373990554335525 0 0.00010468428670991958 -0.0014423768497222257 0 0.00014726798576052697 -0.001373990554335525 0 7.4930096238168072e-05 -0.0013718895738575564 0 0.00014726798576052697 -0.001373990554335525 0 7.4930096238168072e-05 -0.0013718895738575564 0 0.00012719438402968407 -0.001253776594246599 0 2.047236135332321e-05 -0.0012952316431927371 0 7.4930096238168072e-05 -0.0013718895738575564 0 0.00012719438402968407 -0.001253776594246599 0 0.00014726798576052697 -0.001373990554335525 0 0.00020506908213534808 -0.0013268660916920013 0 0.00012719438402968407 -0.001253776594246599 0 0.00021516039030804683 -0.0012731362647213868 0 0.00020506908213534808 -0.0013268660916920013 0 0.00012719438402968407 -0.001253776594246599 0 0.00021462775669806952 -0.0014121422216429355 0 0.00014726798576052697 -0.001373990554335525 0 0.00020506908213534808 -0.0013268660916920013 0 0.00021462775669806952 -0.0014121422216429355 0 0.00020506908213534808 -0.0013268660916920013 0 0.00027412602022286567 -0.0013226848227114285 0 0.00020506908213534808 -0.0013268660916920013 0 0.00027412602022286567 -0.0013226848227114285 0 0.00027053815884999427 -0.0013069933368128044 0 7.5386525198393875e-05 -0.0011271741700424858 0 0.00012192848468406173 -0.00089229152497892765 0 0.00027053815884999427 -0.0013069933368128044 0 0.0002456456924955499 -0.0012518305545961834 0 0.00027667876794996868 -0.0012066529863691219 0 0.00021516039030804683 -0.0012731362647213868 0 0.00020506908213534808 -0.0013268660916920013 0 0.00027053815884999427 -0.0013069933368128044 0 0.00012192848468406173 -0.00089229152497892765 0 0.00014809312771735803 -0.00096855252456504908 0 0.00021516039030804683 -0.0012731362647213868 0 0.00027053815884999427 -0.0013069933368128044 0 0.0002456456924955499 -0.0012518305545961834 0 0.00023468014247342368 -0.0011167634339258974 0 0.00012719438402968407 -0.001253776594246599 0 0.00013424010874118082 -0.001013560003272706 0 0.00021516039030804683 -0.0012731362647213868 0 0.0002456456924955499 -0.0012518305545961834 0 0.00022026952276154086 -0.0012202055129633702 0 0.0002456456924955499 -0.0012518305545961834 0 0.00027667876794996868 -0.0012066529863691219 0 0.00022026952276154086 -0.0012202055129633702 0 0.00027667876794996868 -0.0012066529863691219 0 0.00023468014247342368 -0.0011167634339258974 0 0.00031137624593406519 -0.0011585534414173971 0 0.00027667876794996868 -0.0012066529863691219 0 0.00023468014247342368 -0.0011167634339258974 0 0.00022026952276154086 -0.0012202055129633702 0 0.00021516039030804683 -0.0012731362647213868 0 0.00022026952276154086 -0.0012202055129633702 0 0.00012719438402968407 -0.001253776594246599 0 0.00023468014247342368 -0.0011167634339258974 0 0.00022026952276154086 -0.0012202055129633702 0 0.00012719438402968407 -0.001253776594246599 0 2.047236135332321e-05 -0.0012952316431927371 0 0.00012719438402968407 -0.001253776594246599 0 2.4862019423147769e-05 -0.0011669934453958271 0 0.00012719438402968407 -0.001253776594246599 0 0.00016197907969141417 -0.0010960644963474611 0 2.4862019423147769e-05 -0.0011669934453958271 0 0.00012894077516932841 -0.0012294407299170741 0 0.00014821541002285054 -0.0010776947830393193 0 0.00016197907969141417 -0.0010960644963474611 0 2.4862019423147769e-05 -0.0011669934453958271 0 7.1578114916635383e-05 -0.001037818585362924 0 0.00013424010874118082 -0.001013560003272706 0 0.00025041816092440751 -0.001008487936551256 0 0.00023397429485711089 -0.00090846279695820154 0 0.00025041816092440751 -0.001008487936551256 0 0.00023397429485711089 -0.00090846279695820154 0 0.0003200962805848986 -0.00095368337911236974 0 0.00023468014247342368 -0.0011167634339258974 0 0.00025041816092440751 -0.001008487936551256 0 0.00032770059575441135 -0.0010503522365722326 0 0.00023468014247342368 -0.0011167634339258974 0 0.00031137624593406519 -0.0011585534414173971 0 0.00032770059575441135 -0.0010503522365722326 0 0.00023468014247342368 -0.0011167634339258974 0 0.00013424010874118082 -0.001013560003272706 0 0.00025041816092440751 -0.001008487936551256 0 2.047236135332321e-05 -0.0012952316431927371 0 -8.6555881202698227e-05 -0.0012157075475932467 0 2.4862019423147769e-05 -0.0011669934453958271 0 2.4862019423147769e-05 -0.0011669934453958271 0 -5.3759001794194909e-06 -0.0009965808267449641 0 7.1578114916635383e-05 -0.001037818585362924 0 2.1418356189338902e-05 -0.0011634908860497166 0 3.9101961605347225e-06 -0.0010026855941799911 0 -8.6555881202698227e-05 -0.0012157075475932467 0 2.4862019423147769e-05 -0.0011669934453958271 0 -3.9258471682398119e-05 -0.0010734319388143877 0 2.4862019423147769e-05 -0.0011669934453958271 0 -3.9258471682398119e-05 -0.0010734319388143877 0 1.0503987575922078e-05 -0.0010560151846545176 0 -0.00012351982771836704 -0.0013943265050992376 0 -0.0001246622336545079 -0.0013955508558731202 0 -0.0001229625179077319 -0.0013949770183444106 0 -0.00010149992251779528 -0.0012984433042065317 0 -9.2041246228127536e-05 -0.0012716037476469136 0 -0.00012351982771836704 -0.0013943265050992376 0 -0.0001246622336545079 -0.0013955508558731202 0 -0.00012811824559180474 -0.0013961555969343152 0 -0.0001246622336545079 -0.0013955508558731202 0 -0.00012568657849745156 -0.0013981004454904347 0 -0.00012292687159320999 -0.00139971304630453 0 -0.00012568657849745156 -0.0013981004454904347 0 -0.00012727017543793853 -0.0014016198738097476 0 -0.00012292687159320999 -0.00139971304630453 0 -0.0001246622336545079 -0.0013955508558731202 0 -0.00012568657849745156 -0.0013981004454904347 0 -0.00012811824559180474 -0.0013961555969343152 0 -0.00012568657849745156 -0.0013981004454904347 0 -0.00012811824559180474 -0.0013961555969343152 0 -0.00012727017543793853 -0.0014016198738097476 0 -3.9258471682398119e-05 -0.0010734319388143877 0 1.0503987575922078e-05 -0.0010560151846545176 0 1.7833269866231331e-06 -0.0009525812749795646 0 -0.00012811824559180474 -0.0013961555969343152 0 -0.00013277859795593963 -0.0014030938449558811 0 -0.00012727017543793853 -0.0014016198738097476 0 -5.3759001794194909e-06 -0.0009965808267449641 0 -2.7601546156561757e-05 -0.00080650551819909757 0 6.0304340834509634e-05 -0.00093202229792717643 0 -9.2041246228127536e-05 -0.0012716037476469136 0 -4.4075054333641895e-05 -0.0010056292745739704 0 -5.3759001794194909e-06 -0.0009965808267449641 0 7.1578114916635383e-05 -0.001037818585362924 0 6.0304340834509634e-05 -0.00093202229792717643 0 3.9101961605347225e-06 -0.0010026855941799911 0 -4.4075054333641895e-05 -0.0010056292745739704 0 -2.7601546156561757e-05 -0.00080650551819909757 0 6.0304340834509634e-05 -0.00093202229792717643 0 8.3180951233392252e-05 -0.00086296645395508007 0 -0.00012727017543793853 -0.0014016198738097476 0 -0.00012292687159320999 -0.00139971304630453 0 -0.00012411153791539511 -0.001408000894952854 0 -0.00013277859795593963 -0.0014030938449558811 0 -0.00012727017543793853 -0.0014016198738097476 0 -0.00012854526849892048 -0.0014062093132992187 0 -0.00012727017543793853 -0.0014016198738097476 0 -0.00012854526849892048 -0.0014062093132992187 0 -0.00012411153791539511 -0.001408000894952854 0 0.0001755166224729922 -0.00072848270441828479 0 0.00032523438325068594 -0.00068237809357500178 0 0.00014821541002285054 -0.0010776947830393193 0 0.0001755166224729922 -0.00072848270441828479 0 0.00023397429485711089 -0.00090846279695820154 0 0.00016102410168594084 -0.0007776984043738306 0 0.00033999420904155852 -0.00083867330751423419 0 0.00013424010874118082 -0.001013560003272706 0 0.00023397429485711089 -0.00090846279695820154 0 0.00016102410168594084 -0.0007776984043738306 0 0.00016197907969141417 -0.0010960644963474611 0 0.00011650782644724027 -0.00098525041283905939 0 7.1578114916635383e-05 -0.001037818585362924 0 0.00016197907969141417 -0.0010960644963474611 0 0.00011650782644724027 -0.00098525041283905939 0 0.0002025614805055731 -0.00088402916806775008 0 0.00011650782644724027 -0.00098525041283905939 0 7.1578114916635383e-05 -0.001037818585362924 0 6.0304340834509634e-05 -0.00093202229792717643 0 0.00011650782644724027 -0.00098525041283905939 0 6.0304340834509634e-05 -0.00093202229792717643 0 0.000132690390590613 -0.00091685953315839646 0 0.00011650782644724027 -0.00098525041283905939 0 0.000132690390590613 -0.00091685953315839646 0 0.0002025614805055731 -0.00088402916806775008 0 0.00013282182405334383 -0.00086260179691064333 0 0.0001212408377656303 -0.00078875058172928937 0 0.0002025614805055731 -0.00088402916806775008 0 -2.7601546156561757e-05 -0.00080650551819909757 0 8.3180951233392252e-05 -0.00086296645395508007 0 0.0001212408377656303 -0.00078875058172928937 0 0.0001212408377656303 -0.00078875058172928937 0 0.0002025614805055731 -0.00088402916806775008 0 0.00023044689280503312 -0.0006682457811178807 0 -2.7601546156561757e-05 -0.00080650551819909757 0 0.0001212408377656303 -0.00078875058172928937 0 0.00010563280303312668 -0.00067671492044892262 0 0.000132690390590613 -0.00091685953315839646 0 0.00013282182405334383 -0.00086260179691064333 0 0.0002025614805055731 -0.00088402916806775008 0 0.000132690390590613 -0.00091685953315839646 0 0.00013282182405334383 -0.00086260179691064333 0 8.3180951233392252e-05 -0.00086296645395508007 0 6.0304340834509634e-05 -0.00093202229792717643 0 0.000132690390590613 -0.00091685953315839646 0 8.3180951233392252e-05 -0.00086296645395508007 0 0.00013282182405334383 -0.00086260179691064333 0 8.3180951233392252e-05 -0.00086296645395508007 0 0.0001212408377656303 -0.00078875058172928937 0 0.00025146905259753759 -0.0004868196240795447 0 0.00025717109580182122 -0.00048152273887976696 0 0.00025983510360136412 -0.00048744215020371978 0 0.0001755166224729922 -0.00072848270441828479 0 0.00024367380090227725 -0.00056086289292147187 0 0.00025146905259753759 -0.0004868196240795447 0 0.00025717109580182122 -0.00048152273887976696 0 0.00025020077029744807 -0.00047911087579779793 0 0.00025717109580182122 -0.00048152273887976696 0 0.00025983510360136412 -0.00048744215020371978 0 0.00026560621748978057 -0.00047686276351977853 0 0.00025983510360136412 -0.00048744215020371978 0 0.00026836844024996566 -0.0004872562883361973 0 0.00026560621748978057 -0.00047686276351977853 0 0.00033999420904155852 -0.00083867330751423419 0 0.00051806156332661062 -0.00089101794855698873 0 0.0004343960542191734 -0.00097739934596437943 0 0.00032523438325068594 -0.00068237809357500178 0 0.00034638499823759841 -0.00027274872232887056 0 0.00033999420904155852 -0.00083867330751423419 0 0.0003200962805848986 -0.00095368337911236974 0 0.0004343960542191734 -0.00097739934596437943 0 0.00023397429485711089 -0.00090846279695820154 0 0.00033999420904155852 -0.00083867330751423419 0 0.0003200962805848986 -0.00095368337911236974 0 0.00020743742528454387 3.8927559401892838e-05 0 0.00028536942902435955 5.3693334444063981e-06 0 0.00026362218091389907 0.00010339936381335823 0 0.00034638499823759841 -0.00027274872232887056 0 0.00023597827441742959 -3.3147835592444934e-05 0 0.00031725890457632482 0.00019779406336434323 0 0.00033276663590106262 0.00017634277212495313 0 0.00029071328693262702 0.00019319339616534446 0 0.00022059091887543207 0.00032108394965439186 0 0.00034638499823759841 -0.00027274872232887056 0 0.00031725890457632482 0.00019779406336434323 0 0.00033276663590106262 0.00017634277212495313 0 0.00034338634827303665 0.00021163597354861407 0 0.00022059091887543207 0.00032108394965439186 0 0.00024585784237630916 0.00068087560130966217 0 0.00022059091887543207 0.00032108394965439186 0 0.0002008224089114185 0.00022440753319432277 0 0.00019571243289547759 0.00044313849517489055 0 0.00015632935011035057 0.00045709252640470821 0 0.00020597485662165899 0.00047774789719387664 0 0.00035967583767226212 -0.00025798189660191485 0 0.0003364156826708521 -0.0003021219404049608 0 0.00036846766652212063 -0.00029934731752336171 0 0.00034638499823759841 -0.00027274872232887056 0 0.00032943686873972562 -0.00049676260383056247 0 0.00051806156332661062 -0.00089101794855698873 0 0.0004343960542191734 -0.00097739934596437943 0 0.00047624506867267543 -0.00097314449818778541 0 0.00031725890457632482 0.00019779406336434323 0 0.00032081555706789215 0.00025100490497313439 0 0.00034338634827303665 0.00021163597354861407 0 0.00031725890457632482 0.00019779406336434323 0 0.00029071328693262702 0.00019319339616534446 0 0.00032081555706789215 0.00025100490497313439 0 0.00034638499823759841 -0.00027274872232887056 0 0.00034944057052099749 0.00026726688905662481 0 0.00034944057052099749 0.00026726688905662481 0 0.00024585784237630916 0.00068087560130966217 0 0.00034917593311031175 -5.4935425087529557e-05 0 0.00036420171813996718 -2.636390759979087e-05 0 0.0003321727028096328 3.0684803682056485e-05 0 0.00035681566706512668 0.00033335112542841458 0 0.00037240631085105815 0.00030633153300830662 0 0.00035482213510071623 0.00030455823675041779 0 0.00034638499823759841 -0.00027274872232887056 0 0.000345764264286258 -1.8223721693856983e-05 0 0.00034944057052099749 0.00026726688905662481 0 0.000345764264286258 -1.8223721693856983e-05 0 0.00019519624005744448 0.001137938734518061 0 0.00023675738900039587 0.0011819870923212663 0 0.00021693237912855912 0.0012091956965704918 0 0.00022122212588706862 0.00054086400056011766 0 0.00025896692831619379 0.00047602428052941618 0 0.00035235219668567367 0.00079088712587122945 0 0.00024585784237630916 0.00068087560130966217 0 0.00029427379158587471 0.00084565465164025656 0 0.00034944057052099749 0.00026726688905662481 0 0.00029427379158587471 0.00084565465164025656 0 0.00035681566706512668 0.00033335112542841458 0 0.00035482213510071623 0.00030455823675041779 0 0.00033870738425473837 0.00030189464830334908 0 0.00027925987667677584 0.0011857054549410152 0 0.00023675738900039587 0.0011819870923212663 0 0.00026278712354930886 0.0012075671149207549 0 0.00027479798578723604 0.0011506629619713073 0 0.00027925987667677584 0.0011857054549410152 0 0.00023675738900039587 0.0011819870923212663 0 0.00023562317028157336 0.0014822836741768077 0 0.00017704995236941646 0.0011818075609591834 0 0.00015317613165970968 0.0017559137221917788 0 0.0001517486903546932 0.0017507779685414007 0 0.00014297644190152279 0.0017440893737187056 0 0.00027479798578723604 0.0011506629619713073 0 0.00023675738900039587 0.0011819870923212663 0 0.00022679146834728305 0.0011402150536245069 0 0.00027479798578723604 0.0011506629619713073 0 0.00022679146834728305 0.0011402150536245069 0 0.00023228823129797834 0.0011174022184712732 0 0.00019519624005744448 0.001137938734518061 0 0.00023675738900039587 0.0011819870923212663 0 0.00022679146834728305 0.0011402150536245069 0 0.00022679146834728305 0.0011402150536245069 0 0.00022113569128959202 0.0011159666292145194 0 0.00023228823129797834 0.0011174022184712732 0 0.00022679146834728305 0.0011402150536245069 0 0.00020539379254549202 0.0011204616723646315 0 0.00022113569128959202 0.0011159666292145194 0 0.00015017618053816685 0.00069564435173050381 0 0.00013560813604467171 0.00093426224830110965 0 0.00019519624005744448 0.001137938734518061 0 0.00022679146834728305 0.0011402150536245069 0 0.00020539379254549202 0.0011204616723646315 0 0.00015017618053816685 0.00069564435173050381 0 0.00012168753052214225 0.00068760499495583232 0 0.00026843551106912178 0.00056768122797316899 0 0.00025523229240215402 0.00052257956629333125 0 0.00021828500114289245 0.00058490325892511009 0 0.00024585784237630916 0.00068087560130966217 0 0.00015017618053816685 0.00069564435173050381 0 0.00022059091887543207 0.00032108394965439186 0 0.00015017618053816685 0.00069564435173050381 0 0.00012168753052214225 0.00068760499495583232 0 0.0002008224089114185 0.00022440753319432277 0 9.9525157876645805e-05 0.00058881744719231762 0 9.5678285207477563e-05 0.00058609657781968352 0 0.00010306852252540601 0.00058581477328907236 0 9.3726605141875334e-05 0.0005962464273601485 0 8.906107290464637e-05 0.00060087788708272334 0 0.00010136275565512874 0.0005961405388825292 0 9.6688451815342985e-05 0.00058943649044060288 0 9.9525157876645805e-05 0.00058881744719231762 0 9.5678285207477563e-05 0.00058609657781968352 0 0.00015632935011035057 0.00045709252640470821 0 0.00014616950720464057 0.00047459448681097191 0 0.00020597485662165899 0.00047774789719387664 0 9.6688451815342985e-05 0.00058943649044060288 0 9.9525157876645805e-05 0.00058881744719231762 0 9.8278306380729675e-05 0.00059315056838560429 0 9.6688451815342985e-05 0.00058943649044060288 0 9.3235978857116427e-05 0.00058996221942671191 0 9.8278306380729675e-05 0.00059315056838560429 0 6.129686204350112e-05 0.00072283494255650181 0 5.6050582293222958e-05 0.00067285706320051309 0 9.6688451815342985e-05 0.00058943649044060288 0 9.3235978857116427e-05 0.00058996221942671191 0 9.5678285207477563e-05 0.00058609657781968352 0 8.6936531812077187e-05 0.00083210052150704871 0 8.1080485875403499e-05 0.00084218356147800627 0 9.3376614711340812e-05 0.00084349374127177829 0 0.00012168753052214225 0.00068760499495583232 0 0.00013560813604467171 0.00093426224830110965 0 6.129686204350112e-05 0.00072283494255650181 0 0.00012168753052214225 0.00068760499495583232 0 0.00017430781881072114 0.00079881746071337409 0 0.0001608494936396946 0.0008220597696454899 0 0.00011583471805023199 0.0008193131805820374 0 6.129686204350112e-05 0.00072283494255650181 0 0.00010979452646284769 0.00099838629596800095 0 8.6936531812077187e-05 0.00083210052150704871 0 9.3376614711340812e-05 0.00084349374127177829 0 0.00010002560987397316 0.00084146000728506332 0 0.00013560813604467171 0.00093426224830110965 0 0.00010979452646284769 0.00099838629596800095 0 0.00013560813604467171 0.00093426224830110965 0 0.00017704995236941646 0.0011818075609591834 0 0.00013983752608438485 0.0010570906724357561 0 0.0001041169161644518 0.0010553202091023693 0 0.00011848642075758112 0.0010647937099134309 0 0.00017704995236941646 0.0011818075609591834 0 0.00010979452646284769 0.00099838629596800095 0 9.5707740759575448e-05 0.00059399086097943875 0 9.3200133680995597e-05 0.00059352243481256657 0 9.3726605141875334e-05 0.0005962464273601485 0 9.3726605141875334e-05 0.0005962464273601485 0 9.8278306380729675e-05 0.00059315056838560429 0 0.00010136275565512874 0.0005961405388825292 0 9.5707740759575448e-05 0.00059399086097943875 0 9.3726605141875334e-05 0.0005962464273601485 0 9.8278306380729675e-05 0.00059315056838560429 0 0.00013534594012980271 0.0015038143936211214 0 0.00017704995236941646 0.0011818075609591834 0 7.5867585626483407e-05 0.00060585411384403182 0 8.480922137433593e-05 0.00059871077823677463 0 8.906107290464637e-05 0.00060087788708272334 0 9.3200133680995597e-05 0.00059352243481256657 0 9.3726605141875334e-05 0.0005962464273601485 0 8.480922137433593e-05 0.00059871077823677463 0 0.00014263376016262821 0.0012653501469823472 0 0.00014373099500436924 0.0012657802419627274 0 0.00013397752299089511 0.0012712180358052927 0 0.00010979452646284769 0.00099838629596800095 0 0.00011509573048836765 0.00093310998038847797 0 9.3726605141875334e-05 0.0005962464273601485 0 8.480922137433593e-05 0.00059871077823677463 0 8.906107290464637e-05 0.00060087788708272334 0 0.00013287649501691061 0.0012675176404981507 0 0.00014263376016262821 0.0012653501469823472 0 0.00013397752299089511 0.0012712180358052927 0 4.2644338839486343e-05 0.00059553914354374467 0 5.3137286170345243e-05 0.00058902792622875168 0 5.105139808467139e-05 0.0005974326011276809 0 5.3137286170345243e-05 0.00058902792622875168 0 5.105139808467139e-05 0.0005974326011276809 0 5.8262659122517957e-05 0.00059156149665381855 0 5.3137286170345243e-05 0.00058902792622875168 0 5.8262659122517957e-05 0.00059156149665381855 0 6.4389423685806677e-05 0.00058544626907237028 0 6.1498413929963588e-05 0.00060486411313570869 0 0.00011549649575637486 0.00019512353924308704 0 6.2250483567711029e-05 0.00059401728446694107 0 5.8262659122517957e-05 0.00059156149665381855 0 6.4389423685806677e-05 0.00058544626907237028 0 0.00022757306929401281 -0.00022696243354003868 0 0.00013504098961681114 -0.00024065328439225214 0 0.00021003379229925362 -0.0002011031479365358 0 0.00015287335823647121 -0.00034995493643959387 0 0.00012310847761682408 -0.00021309915961691532 0 7.1315120728337569e-05 -0.0002986884058989243 0 8.085985068385568e-05 0.00019435203105986162 0 0.00011549649575637486 0.00019512353924308704 0 0.00012310847761682408 -0.00021309915961691532 0 7.1315120728337569e-05 -0.0002986884058989243 0 -2.5130244165820014e-06 -0.00023080391537603302 0 0.00011549649575637486 0.00019512353924308704 0 0.00020070827394218151 -0.00067205586705519876 0 0.00012192848468406173 -0.00089229152497892765 0 0.00020070827394218151 -0.00067205586705519876 0 1.4297545064930172e-06 -0.00031850372720585471 0 7.1315120728337569e-05 -0.0002986884058989243 0 -2.5130244165820014e-06 -0.00023080391537603302 0 1.4297545064930172e-06 -0.00031850372720585471 0 -7.3490660612646633e-05 -0.00036710845332053014 0 -2.5130244165820014e-06 -0.00023080391537603302 0 0.00027053815884999427 -0.0013069933368128044 0 0.00027667876794996868 -0.0012066529863691219 0 0.00037911446989525736 -0.0011506147871853294 0 0.00027667876794996868 -0.0012066529863691219 0 0.00031137624593406519 -0.0011585534414173971 0 0.00037911446989525736 -0.0011506147871853294 0 0.00031137624593406519 -0.0011585534414173971 0 0.00038735380613755222 -0.0011484769334831337 0 0.00032770059575441135 -0.0010503522365722326 0 0.00029640875140464051 -0.00087004999472322503 0 0.00020070827394218151 -0.00067205586705519876 0 0.00038735380613755222 -0.0011484769334831337 0 0.0004343960542191734 -0.00097739934596437943 0 0.0004775721792125098 -0.00097339110340507226 0 0.00038735380613755222 -0.0011484769334831337 0 0.00032770059575441135 -0.0010503522365722326 0 0.0004343960542191734 -0.00097739934596437943 0 0.00020070827394218151 -0.00067205586705519876 0 0.00032943686873972562 -0.00049676260383056247 0 0.00025041816092440751 -0.001008487936551256 0 0.00032770059575441135 -0.0010503522365722326 0 0.0003200962805848986 -0.00095368337911236974 0 0.00032770059575441135 -0.0010503522365722326 0 0.0003200962805848986 -0.00095368337911236974 0 0.0004343960542191734 -0.00097739934596437943 0 0.00037840263827241323 -0.00057641954360978923 0 0.00032943686873972562 -0.00049676260383056247 0 0.00018071588676104265 -0.00015273169978734089 0 0.00021672228897727058 -0.00017837869852513981 0 0.00021003379229925362 -0.0002011031479365358 0 0.00013504098961681114 -0.00024065328439225214 0 0.00018071588676104265 -0.00015273169978734089 0 0.00021003379229925362 -0.0002011031479365358 0 0.00018071588676104265 -0.00015273169978734089 0 0.00021059449045413638 -0.00015001355430619174 0 0.00021672228897727058 -0.00017837869852513981 0 0.00032943686873972562 -0.00049676260383056247 0 0.00023597827441742959 -3.3147835592444934e-05 0 0.00020743742528454387 3.8927559401892838e-05 0 0.00026362218091389907 0.00010339936381335823 0 0.00022569878583651021 0.0001009636536241559 0 0.00023597827441742959 -3.3147835592444934e-05 0 0.0002008224089114185 0.00022440753319432277 0 9.9525157876645805e-05 0.00058881744719231762 0 9.8278306380729675e-05 0.00059315056838560429 0 0.00010374081425429365 0.00059063242462726142 0 9.9525157876645805e-05 0.00058881744719231762 0 0.00010306852252540601 0.00058581477328907236 0 0.00010374081425429365 0.00059063242462726142 0 0.00014427393946231322 0.00011212203505663832 0 0.00015268868690674679 0.00011285814228866728 0 0.00014756998313317574 9.6175173613246345e-05 0 0.00023597827441742959 -3.3147835592444934e-05 0 0.0001819748403575121 0.00010665257802714375 0 0.0002008224089114185 0.00022440753319432277 0 0.0001819748403575121 0.00010665257802714375 0 0.00011549649575637486 0.00019512353924308704 0 0.0001819748403575121 0.00010665257802714375 0 0.00022757306929401281 -0.00022696243354003868 0 0.00021722038190769035 -0.00017689208646041939 0 0.00021003379229925362 -0.0002011031479365358 0 9.8278306380729675e-05 0.00059315056838560429 0 0.00010136275565512874 0.0005961405388825292 0 0.00010374081425429365 0.00059063242462726142 0 0.0001819748403575121 0.00010665257802714375 0 0.00015851144405266447 -5.5160176298796058e-05 0 0.00056599396841356645 -0.0025715589321806563 0 0.0006306942262504626 -0.002560785401059102 0 0.00052694293542284582 -0.0027541368408865253 0 0.00048251035429191483 -0.0027956788435340774 0 0.00048851008636656066 -0.0028985384600946429 0 0.00048251035429191483 -0.0027956788435340774 0 0.00054060056901490228 -0.0031203940272613055 0 0.00051835315913414763 -0.0030423135671442665 0 0.00051350822817264341 -0.0030428556273163483 0 0.00051320044027566164 -0.0030555561490076604 0 0.00056599396841356645 -0.0025715589321806563 0 0.0006306942262504626 -0.002560785401059102 0 0.00060060741294963073 -0.002510959041782061 0 0.00048251035429191483 -0.0027956788435340774 0 0.00031218839408479981 -0.0023237460734955506 0 0.00051835315913414763 -0.0030423135671442665 0 0.00051350822817264341 -0.0030428556273163483 0 0.00051703729754607852 -0.0030369974733784728 0 0.00048251035429191483 -0.0027956788435340774 0 0.00038644725062402798 -0.002593883892951448 0 0.00056599396841356645 -0.0025715589321806563 0 0.00051722642921792734 -0.0025945313152427748 0 0.00052694293542284582 -0.0027541368408865253 0 0.00050261880241574391 -0.0025538223501433807 0 0.00043996246150480411 -0.0026657560848437315 0 0.00032854102299757423 -0.0026297606013222508 0 0.00051722642921792734 -0.0025945313152427748 0 0.00050261880241574391 -0.0025538223501433807 0 0.00043996246150480411 -0.0026657560848437315 0 0.00036417997516355419 -0.0022777963841290618 0 0.00031218839408479981 -0.0023237460734955506 0 0.00056599396841356645 -0.0025715589321806563 0 0.00050235335074462787 -0.0025545512911280877 0 0.00060060741294963073 -0.002510959041782061 0 0.00056599396841356645 -0.0025715589321806563 0 0.00051722642921792734 -0.0025945313152427748 0 0.00050235335074462787 -0.0025545512911280877 0 0.00043356037501860286 -0.0024482461060014332 0 0.00036417997516355419 -0.0022777963841290618 0 0.00031218839408479981 -0.0023237460734955506 0 2.1555765110875365e-05 -0.0017530330496926913 0 0.00038709087466833996 -0.0021700190904610224 0 3.5906945262432772e-05 -0.0018698107356678411 0 0.00013456122789989283 -0.0017471210771288091 0 0.00018002998967772202 -0.0022618759386944507 0 0.00038709087466833996 -0.0021700190904610224 0 3.5906945262432772e-05 -0.0018698107356678411 0 0.00036417997516355419 -0.0022777963841290618 0 1.2784435408883495e-05 -0.0016770577799821681 0 5.7566337019729091e-05 -0.0019532299762888032 0 6.4347771819770326e-05 -0.002032812556662815 0 -6.6158271013577539e-06 -0.0019088079093278814 0 5.7566337019729091e-05 -0.0019532299762888032 0 6.4347771819770326e-05 -0.002032812556662815 0 8.3935767803339559e-05 -0.0019872993170176323 0 6.4347771819770326e-05 -0.002032812556662815 0 0.00011048253334945052 -0.002011916827962157 0 8.3935767803339559e-05 -0.0019872993170176323 0 0.00042266169340872281 -0.0025420224235470773 0 0.00043024503023012141 -0.0025545909994454611 0 0.00040950993665804346 -0.0025639490290836923 0 0.00031218839408479981 -0.0023237460734955506 0 0.00038644725062402798 -0.002593883892951448 0 0.00011048253334945052 -0.002011916827962157 0 8.3935767803339559e-05 -0.0019872993170176323 0 0.00010321378145978026 -0.0019517773979776214 0 0.00011048253334945052 -0.002011916827962157 0 0.00010321378145978026 -0.0019517773979776214 0 0.00014892059502154593 -0.001935139315544755 0 5.7566337019729091e-05 -0.0019532299762888032 0 8.3935767803339559e-05 -0.0019872993170176323 0 0.00010321378145978026 -0.0019517773979776214 0 0.00051703729754607852 -0.0030369974733784728 0 0.00053051842015870471 -0.0030357801501011777 0 0.00052597693645745156 -0.0030444356421851261 0 0.00038644725062402798 -0.002593883892951448 0 0.00029028375632377147 -0.0035950626282355708 0 0.00038644725062402798 -0.002593883892951448 0 0.00026567150165185963 -0.0023488529685232401 0 0.00034723965737259901 -0.0027937270907297091 0 0.00019102999161688545 -0.0028666170033240196 0 0.00028287130838943418 -0.0029056591968159274 0 0.00029028375632377147 -0.0035950626282355708 0 0.00048988101131437149 -0.0037961426719436463 0 0.00042346599880084865 -0.00454866390072839 0 0.00040580988063177809 -0.0044217907439500275 0 0.00032674093957854052 -0.0045024212048230365 0 0.00053051842015870471 -0.0030357801501011777 0 0.00053912562293402316 -0.0030479560414263421 0 0.00052597693645745156 -0.0030444356421851261 0 0.00042346599880084865 -0.00454866390072839 0 0.00026806042182889449 -0.0046193526338039591 0 0.00032674093957854052 -0.0045024212048230365 0 0.00040580988063177809 -0.0044217907439500275 0 0.0003847080978407915 -0.0042826816244513552 0 0.00028292801743456106 -0.0043898295839098116 0 0.00051835315913414763 -0.0030423135671442665 0 0.00052597693645745156 -0.0030444356421851261 0 0.00051320044027566164 -0.0030555561490076604 0 0.00052597693645745156 -0.0030444356421851261 0 0.00051320044027566164 -0.0030555561490076604 0 0.00053245550693240852 -0.0030547284645535406 0 0.00051835315913414763 -0.0030423135671442665 0 0.00051703729754607852 -0.0030369974733784728 0 0.00052597693645745156 -0.0030444356421851261 0 0.00053912562293402316 -0.0030479560414263421 0 0.00052597693645745156 -0.0030444356421851261 0 0.00053245550693240852 -0.0030547284645535406 0 0.00053245550693240852 -0.0030547284645535406 0 0.00053088681099259204 -0.003064760341265866 0 0.00055042723248127363 -0.0030695670063099752 0 0.00051320044027566164 -0.0030555561490076604 0 0.00053245550693240852 -0.0030547284645535406 0 0.00053088681099259204 -0.003064760341265866 0 0.00053088681099259204 -0.003064760341265866 0 0.00055042723248127363 -0.0030695670063099752 0 0.00052697354455309145 -0.003082909106689341 0 0.00051320044027566164 -0.0030555561490076604 0 0.00052697354455309145 -0.003082909106689341 0 0.00048720608361738863 -0.0030892985380969649 0 0.00051320044027566164 -0.0030555561490076604 0 0.00053088681099259204 -0.003064760341265866 0 0.00052697354455309145 -0.003082909106689341 0 0.00048988101131437149 -0.0037961426719436463 0 0.00050096389691668848 -0.0035648916985452951 0 0.00053912562293402316 -0.0030479560414263421 0 0.00053245550693240852 -0.0030547284645535406 0 0.00055042723248127363 -0.0030695670063099752 0 0.00053912562293402316 -0.0030479560414263421 0 0.00055042723248127363 -0.0030695670063099752 0 0.00055706518006593008 -0.0030720151017280383 0 0.00051015721502653121 -0.0034239427473860334 0 0.00050096389691668848 -0.0035648916985452951 0 0.00057313340386605256 -0.0030719786465225542 0 0.00056016596643217729 -0.0031136386751858063 0 0.00060693888815342354 -0.0031703528464028788 0 0.00050096389691668848 -0.0035648916985452951 0 0.00039656363396326286 -0.0035397364702189015 0 0.00055042723248127363 -0.0030695670063099752 0 0.00056016596643217729 -0.0031136386751858063 0 0.00052697354455309145 -0.003082909106689341 0 0.00055042723248127363 -0.0030695670063099752 0 0.00057313340386605256 -0.0030719786465225542 0 0.00056016596643217729 -0.0031136386751858063 0 0.00052697354455309145 -0.003082909106689341 0 0.00051201704503094547 -0.0031208867526420518 0 0.00048720608361738863 -0.0030892985380969649 0 0.00056016596643217729 -0.0031136386751858063 0 0.00052697354455309145 -0.003082909106689341 0 0.00051201704503094547 -0.0031208867526420518 0 0.00051201704503094547 -0.0031208867526420518 0 0.00048720608361738863 -0.0030892985380969649 0 0.00044843141555166708 -0.0031283104983924788 0 0.00048720608361738863 -0.0030892985380969649 0 0.00043078434275948461 -0.003058750104610472 0 0.00044843141555166708 -0.0031283104983924788 0 0.00047455189443895051 -0.0029852368230709955 0 0.00051320044027566164 -0.0030555561490076604 0 0.00043078434275948461 -0.003058750104610472 0 0.00051320044027566164 -0.0030555561490076604 0 0.00048720608361738863 -0.0030892985380969649 0 0.00043078434275948461 -0.003058750104610472 0 0.00051722642921792734 -0.0025945313152427748 0 0.00052694293542284582 -0.0027541368408865253 0 0.00043996246150480411 -0.0026657560848437315 0 0.00052694293542284582 -0.0027541368408865253 0 0.00043996246150480411 -0.0026657560848437315 0 0.00033392410324771624 -0.002790621304212859 0 0.00043078434275948461 -0.003058750104610472 0 0.0003830157106603858 -0.0031165167105784626 0 0.00044843141555166708 -0.0031283104983924788 0 0.00048851008636656066 -0.0028985384600946429 0 0.00039588804114319248 -0.0030408147264883241 0 0.00052694293542284582 -0.0027541368408865253 0 0.00042024268865492354 -0.0029552014131527817 0 0.00033392410324771624 -0.002790621304212859 0 0.00042024268865492354 -0.0029552014131527817 0 0.00028820104862186963 -0.0029216460472360822 0 0.00033392410324771624 -0.002790621304212859 0 0.00028820104862186963 -0.0029216460472360822 0 0.00017520351190702986 -0.0028932608927057617 0 0.00033392410324771624 -0.002790621304212859 0 0.00028820104862186963 -0.0029216460472360822 0 0.00017520351190702986 -0.0028932608927057617 0 0.00022329428200710524 -0.0030494366882119358 0 0.00017520351190702986 -0.0028932608927057617 0 0.00014984470142868315 -0.0027065269800951438 0 0.00033392410324771624 -0.002790621304212859 0 -1.286522635448247e-05 -0.0020912327228150558 0 0.00020987033071732629 -0.0023557969932842837 0 0.00014984470142868315 -0.0027065269800951438 0 0.00033392410324771624 -0.002790621304212859 0 0.00032854102299757423 -0.0026297606013222508 0 0.00043996246150480411 -0.0026657560848437315 0 0.00033392410324771624 -0.002790621304212859 0 0.00032854102299757423 -0.0026297606013222508 0 -0.00019961074261799056 -0.0018488002768033438 0 -0.00019537901719717034 -0.001715367905611142 0 -0.00027952648957880322 -0.0020927874168287317 0 -0.00015723202071427712 -0.0015557876129201841 0 -0.00020731038276036224 -0.0017600822158977522 0 -0.00014375739760271001 -0.0019823996864127332 0 -0.00027952648957880322 -0.0020927874168287317 0 -0.00012364969717966766 -0.0021430521921300635 0 -0.00019961074261799056 -0.0018488002768033438 0 -0.00014375739760271001 -0.0019823996864127332 0 -0.00027952648957880322 -0.0020927874168287317 0 -0.00014375739760271001 -0.0019823996864127332 0 -1.902969903589463e-05 -0.002015043908007681 0 -0.00012364969717966766 -0.0021430521921300635 0 -8.5985321134673931e-05 -0.0023826216260099749 0 -2.0832516665927353e-05 -0.0021426500911825119 0 -0.00019961074261799056 -0.0018488002768033438 0 -0.00014375739760271001 -0.0019823996864127332 0 -4.8891817371144899e-05 -0.0017824230116017489 0 -0.00016819445180576425 -0.0017915668051747837 0 -0.00014030167993308001 -0.001724460624462383 0 -0.00014375739760271001 -0.0019823996864127332 0 -1.902969903589463e-05 -0.002015043908007681 0 -4.8891817371144899e-05 -0.0017824230116017489 0 -1.286522635448247e-05 -0.0020912327228150558 0 -8.5985321134673931e-05 -0.0023826216260099749 0 0.00017520351190702986 -0.0028932608927057617 0 -1.7484231413421314e-05 -0.0029154417953194773 0 9.1504273192306691e-05 -0.0030330503308008557 0 0.00017520351190702986 -0.0028932608927057617 0 0.00014984470142868315 -0.0027065269800951438 0 -1.7484231413421314e-05 -0.0029154417953194773 0 -8.5985321134673931e-05 -0.0023826216260099749 0 -0.00014030167993308001 -0.001724460624462383 0 1.0311762164894177e-05 -0.0020225223443925992 0 -0.00010211251019677913 -0.0021638299136455446 0 -0.00011335998855138269 -0.0020774969404876941 0 -1.286522635448247e-05 -0.0020912327228150558 0 -0.00014030167993308001 -0.001724460624462383 0 -0.00015823371704080927 -0.0013958520377724869 0 -0.00015573382548054936 -0.0013977039480583266 0 -0.0001568091385818373 -0.0013954541204576061 0 -0.00014030167993308001 -0.001724460624462383 0 -0.00012850763156154284 -0.0013629534744798453 0 -4.9234874189060472e-05 -0.0017807933360429453 0 -0.00019537901719717034 -0.001715367905611142 0 -0.0001069434461218238 -0.0013380194151181022 0 -0.00019961074261799056 -0.0018488002768033438 0 -4.9234874189060472e-05 -0.0017807933360429453 0 -0.00019537901719717034 -0.001715367905611142 0 -0.00015723202071427712 -0.0015557876129201841 0 -0.00012850763156154284 -0.0013629534744798453 0 -0.0001246622336545079 -0.0013955508558731202 0 -0.00012292687159320999 -0.00139971304630453 0 -0.0001229625179077319 -0.0013949770183444106 0 -0.00015573382548054936 -0.0013977039480583266 0 -0.00015296499240787849 -0.0013955228006303684 0 -0.0001568091385818373 -0.0013954541204576061 0 -0.00015296499240787849 -0.0013955228006303684 0 -0.0001568091385818373 -0.0013954541204576061 0 -0.00015693978070705164 -0.0013980774125250672 0 -0.00015296499240787849 -0.0013955228006303684 0 -0.00015693978070705164 -0.0013980774125250672 0 -0.00014319477901065644 -0.001397504317114941 0 -0.00012850763156154284 -0.0013629534744798453 0 -0.00014722574525836274 -0.0014001945312927307 0 -0.00012850763156154284 -0.0013629534744798453 0 -0.00012222493183370277 -0.0013982340381687402 0 -0.00012351982771836704 -0.0013943265050992376 0 -0.0001229625179077319 -0.0013949770183444106 0 -0.00012246163796038388 -0.0013963707969338796 0 -0.00013068179173787042 -0.0013455071216001103 0 -0.00012246163796038388 -0.0013963707969338796 0 -0.00014319477901065644 -0.001397504317114941 0 0.0002501044963535337 -0.0019754649926893558 0 6.632229178112806e-05 -0.0019581259459986078 0 9.7252517710486646e-05 -0.002042157308780605 0 0.00036417997516355419 -0.0022777963841290618 0 0.00020987033071732629 -0.0023557969932842837 0 -0.00015823371704080927 -0.0013958520377724869 0 -0.0001568091385818373 -0.0013954541204576061 0 -0.00017001326415354528 -0.0013943446673697487 0 -5.3352469992878797e-05 -0.002109046682950276 0 6.632229178112806e-05 -0.0019581259459986078 0 9.7252517710486646e-05 -0.002042157308780605 0 -1.286522635448247e-05 -0.0020912327228150558 0 -4.556652867232108e-05 -0.0016166994197822516 0 -0.0001568091385818373 -0.0013954541204576061 0 -0.00017001326415354528 -0.0013943446673697487 0 -0.00015693978070705164 -0.0013980774125250672 0 -0.00017001326415354528 -0.0013943446673697487 0 -0.00015693978070705164 -0.0013980774125250672 0 -0.00017451093616716314 -0.0014053377071852871 0 0.0002501044963535337 -0.0019754649926893558 0 6.632229178112806e-05 -0.0019581259459986078 0 0.00018750045394399253 -0.0018056274325508987 0 -0.00017001326415354528 -0.0013943446673697487 0 -0.00017451093616716314 -0.0014053377071852871 0 -0.00019255242525520648 -0.0014087842790016351 0 -4.556652867232108e-05 -0.0016166994197822516 0 1.2784435408883495e-05 -0.0016770577799821681 0 -0.00017451093616716314 -0.0014053377071852871 0 -0.00016596799347184317 -0.0014151610166832367 0 -0.0001939910622254443 -0.0014309983995226304 0 -0.00015700882505149868 -0.0014931213589754789 0 1.2784435408883495e-05 -0.0016770577799821681 0 -0.00017451093616716314 -0.0014053377071852871 0 -0.0001939910622254443 -0.0014309983995226304 0 -0.00019255242525520648 -0.0014087842790016351 0 -0.00015693978070705164 -0.0013980774125250672 0 -0.00017451093616716314 -0.0014053377071852871 0 -0.00016596799347184317 -0.0014151610166832367 0 -0.00015693978070705164 -0.0013980774125250672 0 -0.00016596799347184317 -0.0014151610166832367 0 -0.00015356884535029701 -0.0014053877875247328 0 -0.00016596799347184317 -0.0014151610166832367 0 -0.0001585362712855547 -0.0014308844540346431 0 -0.0001747758465433936 -0.0014449796149592746 0 -0.00016596799347184317 -0.0014151610166832367 0 -0.0001747758465433936 -0.0014449796149592746 0 -0.0001939910622254443 -0.0014309983995226304 0 -0.0001585362712855547 -0.0014308844540346431 0 -0.0001747758465433936 -0.0014449796149592746 0 -0.00016027852088915603 -0.001457635837263792 0 -0.00015700882505149868 -0.0014931213589754789 0 -0.00014026608341353956 -0.001590998941631305 0 -8.1224272070450797e-05 -0.0016329898296862709 0 -7.1017138536976556e-05 -0.0016203880605033542 0 -3.0502427949486361e-05 -0.0016855883437125454 0 -8.1224272070450797e-05 -0.0016329898296862709 0 -7.1017138536976556e-05 -0.0016203880605033542 0 -0.00011181689493069746 -0.0015568099697279519 0 -0.0001747758465433936 -0.0014449796149592746 0 -0.0001939910622254443 -0.0014309983995226304 0 -0.00019617108021980782 -0.0014726355555140468 0 -0.00011649340110136986 -0.0013901930722844446 0 -0.00012246163796038388 -0.0013963707969338796 0 -0.00012384085519440407 -0.0014045234927394217 0 -0.00012246163796038388 -0.0013963707969338796 0 -0.00013388394431012668 -0.0014058541871429212 0 -0.00014319477901065644 -0.001397504317114941 0 -0.00012384085519440407 -0.0014045234927394217 0 -0.00013388394431012668 -0.0014058541871429212 0 -0.00013213288097611628 -0.0014191836219959028 0 -0.00012246163796038388 -0.0013963707969338796 0 -0.00012384085519440407 -0.0014045234927394217 0 -0.00013388394431012668 -0.0014058541871429212 0 -0.00013388394431012668 -0.0014058541871429212 0 -0.0001482355862424137 -0.0014127851555937 0 -0.00013213288097611628 -0.0014191836219959028 0 -0.00013388394431012668 -0.0014058541871429212 0 -0.00014319477901065644 -0.001397504317114941 0 -0.0001482355862424137 -0.0014127851555937 0 -0.00014319477901065644 -0.001397504317114941 0 -0.00015356884535029701 -0.0014053877875247328 0 -0.0001482355862424137 -0.0014127851555937 0 -0.00015693978070705164 -0.0013980774125250672 0 -0.00014319477901065644 -0.001397504317114941 0 -0.00015356884535029701 -0.0014053877875247328 0 -0.00016596799347184317 -0.0014151610166832367 0 -0.00015356884535029701 -0.0014053877875247328 0 -0.0001482355862424137 -0.0014127851555937 0 -0.00016596799347184317 -0.0014151610166832367 0 -0.0001585362712855547 -0.0014308844540346431 0 -0.0001482355862424137 -0.0014127851555937 0 -0.0001585362712855547 -0.0014308844540346431 0 -0.0001482355862424137 -0.0014127851555937 0 -0.00014392058053773441 -0.0014278419126514789 0 -0.0001585362712855547 -0.0014308844540346431 0 -0.00014708326889426612 -0.0014449370927976123 0 -0.00016027852088915603 -0.001457635837263792 0 -0.0001585362712855547 -0.0014308844540346431 0 -0.00014708326889426612 -0.0014449370927976123 0 -0.00014392058053773441 -0.0014278419126514789 0 -0.00014708326889426612 -0.0014449370927976123 0 -0.00014392058053773441 -0.0014278419126514789 0 -0.00012724554559975405 -0.0014378598665563483 0 -0.00014392058053773441 -0.0014278419126514789 0 -0.00013213288097611628 -0.0014191836219959028 0 -0.00012724554559975405 -0.0014378598665563483 0 -0.0001482355862424137 -0.0014127851555937 0 -0.00014392058053773441 -0.0014278419126514789 0 -0.00013213288097611628 -0.0014191836219959028 0 -0.00012384085519440407 -0.0014045234927394217 0 -0.00013213288097611628 -0.0014191836219959028 0 -0.00011543109625859608 -0.0014284104840583795 0 -0.00013213288097611628 -0.0014191836219959028 0 -0.00012724554559975405 -0.0014378598665563483 0 -0.00011543109625859608 -0.0014284104840583795 0 -0.00011649340110136986 -0.0013901930722844446 0 -0.00012384085519440407 -0.0014045234927394217 0 -0.00011543109625859608 -0.0014284104840583795 0 -0.00012724554559975405 -0.0014378598665563483 0 -9.0247858136517729e-05 -0.0014448686126594737 0 -0.00014529919271769845 -0.0014705262960609253 0 -0.00012724554559975405 -0.0014378598665563483 0 -0.00011543109625859608 -0.0014284104840583795 0 -9.0247858136517729e-05 -0.0014448686126594737 0 -9.0247858136517729e-05 -0.0014448686126594737 0 -0.00014529919271769845 -0.0014705262960609253 0 -0.00015192682780199252 -0.0015213267118261637 0 -0.00014708326889426612 -0.0014449370927976123 0 -0.00012724554559975405 -0.0014378598665563483 0 -0.00014529919271769845 -0.0014705262960609253 0 -0.00014708326889426612 -0.0014449370927976123 0 -0.00014529919271769845 -0.0014705262960609253 0 -0.00016027852088915603 -0.001457635837263792 0 -0.00014529919271769845 -0.0014705262960609253 0 -0.00016183622317902973 -0.0014825581992071741 0 -0.0001581155747311597 -0.0015068563931434659 0 -0.00014529919271769845 -0.0014705262960609253 0 -0.00016027852088915603 -0.001457635837263792 0 -0.00016183622317902973 -0.0014825581992071741 0 -0.00014529919271769845 -0.0014705262960609253 0 -0.00015192682780199252 -0.0015213267118261637 0 -0.0001581155747311597 -0.0015068563931434659 0 2.812804206243137e-05 -0.0013404067380053137 0 -2.3970205105011286e-05 -0.0013222912501513579 0 -5.9098875996463711e-05 -0.0013799431548113532 0 -9.0247858136517729e-05 -0.0014448686126594737 0 2.812804206243137e-05 -0.0013404067380053137 0 -5.9098875996463711e-05 -0.0013799431548113532 0 -2.3970205105011286e-05 -0.0013222912501513579 0 -9.6102274700275055e-05 -0.0013776398134871983 0 -3.7727261435496149e-05 -0.0012672953673906369 0 -9.0168465574046609e-05 -0.0014472084186755521 0 -6.3305964580559772e-05 -0.0014272329044401455 0 -6.6204175041258457e-05 -0.0014188496014851636 0 -2.2828191927757255e-05 -0.0012510448543899071 0 -2.3970205105011286e-05 -0.0013222912501513579 0 -9.6102274700275055e-05 -0.0013776398134871983 0 -5.9098875996463711e-05 -0.0013799431548113532 0 -9.0247858136517729e-05 -0.0014448686126594737 0 -9.6061940610179522e-05 -0.0013951652010156499 0 -5.9098875996463711e-05 -0.0013799431548113532 0 -6.6204175041258457e-05 -0.0014188496014851636 0 -6.7796290190084445e-05 -0.0014067749757889839 0 -0.00012956293799625226 -0.0016884795698397877 0 -6.1367832619123696e-05 -0.0015991382492379373 0 1.1369619204361261e-06 -0.0017407576445797567 0 -6.2519028368765726e-05 -0.0017271431301914999 0 -0.00014026608341353956 -0.001590998941631305 0 -6.1254136756358171e-05 -0.0018160408323461968 0 -0.00012956293799625226 -0.0016884795698397877 0 1.1369619204361261e-06 -0.0017407576445797567 0 -0.00014026608341353956 -0.001590998941631305 0 -0.00013872468581625996 -0.0016176822546364515 0 -0.0001747758465433936 -0.0014449796149592746 0 -0.00019617108021980782 -0.0014726355555140468 0 -0.000171912129377327 -0.0014699306448818709 0 -0.000171912129377327 -0.0014699306448818709 0 -0.00016027852088915603 -0.001457635837263792 0 -0.00016183622317902973 -0.0014825581992071741 0 -0.0001747758465433936 -0.0014449796149592746 0 -0.000171912129377327 -0.0014699306448818709 0 -0.00016027852088915603 -0.001457635837263792 0 -0.000171912129377327 -0.0014699306448818709 0 -0.00016183622317902973 -0.0014825581992071741 0 -0.00016887547164738925 -0.0014969088309991505 0 -0.00016183622317902973 -0.0014825581992071741 0 -0.00016887547164738925 -0.0014969088309991505 0 -0.0001581155747311597 -0.0015068563931434659 0 -0.00019617108021980782 -0.0014726355555140468 0 -0.000171912129377327 -0.0014699306448818709 0 -0.00016887547164738925 -0.0014969088309991505 0 -0.00015192682780199252 -0.0015213267118261637 0 -0.0001581155747311597 -0.0015068563931434659 0 -0.00016170661169614869 -0.0015306753387321766 0 -0.00014377432299587014 -0.0016798330889307414 0 -0.00014471442961401889 -0.001580632121414608 0 -0.00016170661169614869 -0.0015306753387321766 0 -0.00019617108021980782 -0.0014726355555140468 0 -0.00016887547164738925 -0.0014969088309991505 0 -0.00016170661169614869 -0.0015306753387321766 0 -0.00015192682780199252 -0.0015213267118261637 0 -0.00016170661169614869 -0.0015306753387321766 0 -0.0001459615197170644 -0.0014940737504621504 0 -0.00014026608341353956 -0.001590998941631305 0 -0.00017122758718414639 -0.0015341484904720772 0 -0.00016887547164738925 -0.0014969088309991505 0 -0.0001581155747311597 -0.0015068563931434659 0 -0.00016170661169614869 -0.0015306753387321766 0 -0.00014471442961401889 -0.001580632121414608 0 -0.00016170661169614869 -0.0015306753387321766 0 -0.00012135184719546645 -0.0015337828949888255 0 -0.00014471442961401889 -0.001580632121414608 0 -0.00012135184719546645 -0.0015337828949888255 0 -6.1367832619123696e-05 -0.0015991382492379373 0 -0.00012135184719546645 -0.0015337828949888255 0 -6.1367832619123696e-05 -0.0015991382492379373 0 -4.2988127428329975e-05 -0.0014974035608753332 0 -0.00012956293799625226 -0.0016884795698397877 0 -0.00014471442961401889 -0.001580632121414608 0 -6.1367832619123696e-05 -0.0015991382492379373 0 -6.1367832619123696e-05 -0.0015991382492379373 0 3.6476647314166659e-05 -0.0015665028283781187 0 -4.2988127428329975e-05 -0.0014974035608753332 0 -6.1367832619123696e-05 -0.0015991382492379373 0 3.6476647314166659e-05 -0.0015665028283781187 0 1.1369619204361261e-06 -0.0017407576445797567 0 3.525285230347274e-05 -0.0016379485975047245 0 5.0392598572769507e-06 -0.0017307276218716508 0 4.6360219492510928e-05 -0.001680781127280677 0 9.0982987897962657e-05 -0.0016945371387145746 0 0.00010461000584713097 -0.0016390607313801716 0 4.6360219492510928e-05 -0.001680781127280677 0 9.0982987897962657e-05 -0.0016945371387145746 0 7.3750235722310463e-05 -0.0017392945360859178 0 9.0982987897962657e-05 -0.0016945371387145746 0 7.3750235722310463e-05 -0.0017392945360859178 0 0.00013906467257374498 -0.0017246910868634548 0 7.3750235722310463e-05 -0.0017392945360859178 0 4.6248081609339317e-05 -0.0017776569541046805 0 8.1924385770214571e-05 -0.0018234969257375072 0 7.3750235722310463e-05 -0.0017392945360859178 0 1.1369619204361261e-06 -0.0017407576445797567 0 4.6248081609339317e-05 -0.0017776569541046805 0 4.6360219492510928e-05 -0.001680781127280677 0 7.3750235722310463e-05 -0.0017392945360859178 0 1.1369619204361261e-06 -0.0017407576445797567 0 -6.1254136756358171e-05 -0.0018160408323461968 0 1.1369619204361261e-06 -0.0017407576445797567 0 1.0930023551269511e-05 -0.0018294777605050551 0 -6.2519028368765726e-05 -0.0017271431301914999 0 2.1555765110875365e-05 -0.0017530330496926913 0 -6.1254136756358171e-05 -0.0018160408323461968 0 1.0930023551269511e-05 -0.0018294777605050551 0 -6.6158271013577539e-06 -0.0019088079093278814 0 1.0930023551269511e-05 -0.0018294777605050551 0 4.7208659963950323e-05 -0.0018456931563151961 0 2.9806549088521774e-05 -0.0018800483957525491 0 1.0930023551269511e-05 -0.0018294777605050551 0 4.6248081609339317e-05 -0.0017776569541046805 0 4.7208659963950323e-05 -0.0018456931563151961 0 1.1369619204361261e-06 -0.0017407576445797567 0 1.0930023551269511e-05 -0.0018294777605050551 0 4.6248081609339317e-05 -0.0017776569541046805 0 7.3750235722310463e-05 -0.0017392945360859178 0 8.1924385770214571e-05 -0.0018234969257375072 0 0.00011909835247939228 -0.0018036484785897225 0 4.6248081609339317e-05 -0.0017776569541046805 0 8.1924385770214571e-05 -0.0018234969257375072 0 4.7208659963950323e-05 -0.0018456931563151961 0 8.1924385770214571e-05 -0.0018234969257375072 0 6.4502930707926458e-05 -0.0018779404392570604 0 0.00011672767321080403 -0.0018765366061482801 0 8.1924385770214571e-05 -0.0018234969257375072 0 0.00011672767321080403 -0.0018765366061482801 0 0.00011909835247939228 -0.0018036484785897225 0 8.1924385770214571e-05 -0.0018234969257375072 0 4.7208659963950323e-05 -0.0018456931563151961 0 6.4502930707926458e-05 -0.0018779404392570604 0 4.7208659963950323e-05 -0.0018456931563151961 0 6.4502930707926458e-05 -0.0018779404392570604 0 2.9806549088521774e-05 -0.0018800483957525491 0 6.4502930707926458e-05 -0.0018779404392570604 0 3.6263482140165521e-05 -0.0019175545569342187 0 2.9806549088521774e-05 -0.0018800483957525491 0 6.4502930707926458e-05 -0.0018779404392570604 0 7.5210856861380698e-05 -0.0019169135365879766 0 3.6263482140165521e-05 -0.0019175545569342187 0 6.4502930707926458e-05 -0.0018779404392570604 0 0.00011672767321080403 -0.0018765366061482801 0 7.5210856861380698e-05 -0.0019169135365879766 0 0.00010321378145978026 -0.0019517773979776214 0 0.00011672767321080403 -0.0018765366061482801 0 7.5210856861380698e-05 -0.0019169135365879766 0 5.7566337019729091e-05 -0.0019532299762888032 0 0.00010321378145978026 -0.0019517773979776214 0 7.5210856861380698e-05 -0.0019169135365879766 0 5.7566337019729091e-05 -0.0019532299762888032 0 7.5210856861380698e-05 -0.0019169135365879766 0 3.6263482140165521e-05 -0.0019175545569342187 0 5.7566337019729091e-05 -0.0019532299762888032 0 3.6263482140165521e-05 -0.0019175545569342187 0 -6.6158271013577539e-06 -0.0019088079093278814 0 3.6263482140165521e-05 -0.0019175545569342187 0 -6.6158271013577539e-06 -0.0019088079093278814 0 1.4530059529435527e-05 -0.0019021590805239131 0 -8.1224272070450797e-05 -0.0016329898296862709 0 -5.1121906149865742e-05 -0.0017111663868516471 0 -3.0502427949486361e-05 -0.0016855883437125454 0 1.2784435408883495e-05 -0.0016770577799821681 0 2.1555765110875365e-05 -0.0017530330496926913 0 1.0930023551269511e-05 -0.0018294777605050551 0 -6.6158271013577539e-06 -0.0019088079093278814 0 2.9806549088521774e-05 -0.0018800483957525491 0 3.6263482140165521e-05 -0.0019175545569342187 0 2.9806549088521774e-05 -0.0018800483957525491 0 1.4530059529435527e-05 -0.0019021590805239131 0 -6.6158271013577539e-06 -0.0019088079093278814 0 2.9806549088521774e-05 -0.0018800483957525491 0 1.4530059529435527e-05 -0.0019021590805239131 0 0.00029028375632377147 -0.0035950626282355708 0 -5.4923617932404094e-05 -0.0044644936657754798 0 4.3340549755040321e-05 -0.0036358771407497396 0 6.6844643193951264e-05 -0.003763439320489434 0 -2.5645924719347186e-05 -0.0037655395847799532 0 4.3340549755040321e-05 -0.0036358771407497396 0 -2.5645924719347186e-05 -0.0037655395847799532 0 -0.00012657859398625994 -0.0037167010835140383 0 0.00029028375632377147 -0.0035950626282355708 0 5.471146399358912e-05 -0.0029002360762461574 0 0.00019102999161688545 -0.0028666170033240196 0 0.00028287130838943418 -0.0029056591968159274 0 0.00021849787736293434 -0.0030152313450181015 0 0.00010321378145978026 -0.0019517773979776214 0 0.00011672767321080403 -0.0018765366061482801 0 0.00014892059502154593 -0.001935139315544755 0 0.00011672767321080403 -0.0018765366061482801 0 0.00014892059502154593 -0.001935139315544755 0 0.0001836923822631112 -0.0018624975467885921 0 0.00026567150165185963 -0.0023488529685232401 0 5.471146399358912e-05 -0.0029002360762461574 0 0.0001836923822631112 -0.0018624975467885921 0 0.00011909835247939228 -0.0018036484785897225 0 0.00013906467257374498 -0.0017246910868634548 0 0.00011672767321080403 -0.0018765366061482801 0 0.0001836923822631112 -0.0018624975467885921 0 0.00011909835247939228 -0.0018036484785897225 0 5.471146399358912e-05 -0.0029002360762461574 0 2.9397952470021883e-06 -0.0034594070303635327 0 -2.5645924719347186e-05 -0.0037655395847799532 0 3.4946240200894694e-06 -0.0038732701844875136 0 -9.3194394308913634e-05 -0.0038485955375505477 0 6.6844643193951264e-05 -0.003763439320489434 0 -2.5645924719347186e-05 -0.0037655395847799532 0 3.4946240200894694e-06 -0.0038732701844875136 0 -2.021828545795095e-05 -0.0030596985416319771 0 -0.00020132217324909062 -0.0029037770908889528 0 9.5960648394650846e-05 -0.0028682673769231154 0 2.9397952470021883e-06 -0.0034594070303635327 0 -0.00035949966034949291 -0.0039373213741544693 0 3.4946240200894694e-06 -0.0038732701844875136 0 -9.3194394308913634e-05 -0.0038485955375505477 0 -6.1065516531075316e-05 -0.003981479797675584 0 -0.00012716340687158754 -0.0032483577997046557 0 -2.021828545795095e-05 -0.0030596985416319771 0 -0.00020132217324909062 -0.0029037770908889528 0 5.471146399358912e-05 -0.0029002360762461574 0 -3.997991398729655e-05 -0.0022296275748276378 0 7.3750235722310463e-05 -0.0017392945360859178 0 0.00011909835247939228 -0.0018036484785897225 0 0.00013906467257374498 -0.0017246910868634548 0 9.0982987897962657e-05 -0.0016945371387145746 0 0.00013906467257374498 -0.0017246910868634548 0 0.00010461000584713097 -0.0016390607313801716 0 -0.00020132217324909062 -0.0029037770908889528 0 -0.00011059636880999894 -0.0026883683069941632 0 -0.00029133314800279162 -0.0025363808369882035 0 -3.997991398729655e-05 -0.0022296275748276378 0 -0.00010083329814005654 -0.0021372411908698805 0 -0.00038836914652845989 -0.0033900055679301757 0 -0.00035949966034949291 -0.0039373213741544693 0 -0.00011059636880999894 -0.0026883683069941632 0 2.5905423968830295e-05 -0.0025584444713147169 0 9.5960648394650846e-05 -0.0028682673769231154 0 -0.00020132217324909062 -0.0029037770908889528 0 -0.00011059636880999894 -0.0026883683069941632 0 9.5960648394650846e-05 -0.0028682673769231154 0 -0.00011059636880999894 -0.0026883683069941632 0 2.5905423968830295e-05 -0.0025584444713147169 0 -0.00012457923969235425 -0.002538988755072075 0 2.5905423968830295e-05 -0.0025584444713147169 0 -0.00011662412667039302 -0.0023735986502030999 0 -0.00012457923969235425 -0.002538988755072075 0 -0.00077668500383987454 -0.0043481135319640447 0 -0.00078627799023737815 -0.0043815770443584798 0 -0.00073262784043273937 -0.0043808726439855498 0 -0.00077668500383987454 -0.0043481135319640447 0 -0.00083929289078279025 -0.0041418865508852454 0 -0.00072761413909259813 -0.004191497979934451 0 2.5905423968830295e-05 -0.0025584444713147169 0 -0.00011662412667039302 -0.0023735986502030999 0 -5.7397227625917206e-05 -0.0022737026652674317 0 -0.00038836914652845989 -0.0033900055679301757 0 -0.000446576469245294 -0.0033333935210252881 0 -0.00077668500383987454 -0.0043481135319640447 0 -0.00078627799023737815 -0.0043815770443584798 0 -0.00083929289078279025 -0.0041418865508852454 0 -0.0002215322687918468 -0.0022514395415736128 0 -0.00011662412667039302 -0.0023735986502030999 0 -0.00029133314800279162 -0.0025363808369882035 0 -0.0002215322687918468 -0.0022514395415736128 0 -0.00011662412667039302 -0.0023735986502030999 0 -0.00010023378716952111 -0.0020488303175914512 0 -0.00030477491637857524 -0.002205313840878095 0 -0.0002215322687918468 -0.0022514395415736128 0 -0.00029133314800279162 -0.0025363808369882035 0 -0.00011168880543637397 -0.0023693826469897801 0 -0.00011527875433814515 -0.0020542827696137462 0 -0.00030477491637857524 -0.002205313840878095 0 -0.00029133314800279162 -0.0025363808369882035 0 -0.00041365026159360843 -0.0020380964758561393 0 -0.00011662412667039302 -0.0023735986502030999 0 -0.00029133314800279162 -0.0025363808369882035 0 -0.00012457923969235425 -0.002538988755072075 0 -0.00011059636880999894 -0.0026883683069941632 0 -0.00029133314800279162 -0.0025363808369882035 0 -0.00012457923969235425 -0.002538988755072075 0 4.6360219492510928e-05 -0.001680781127280677 0 0.00010461000584713097 -0.0016390607313801716 0 7.1016687598316595e-05 -0.0016237526483781593 0 3.525285230347274e-05 -0.0016379485975047245 0 9.2142237165531056e-05 -0.0014891686574775432 0 3.6476647314166659e-05 -0.0015665028283781187 0 -4.2988127428329975e-05 -0.0014974035608753332 0 6.4845833723590742e-05 -0.0014432314542305903 0 -4.2988127428329975e-05 -0.0014974035608753332 0 -1.7092204331951771e-05 -0.001394051935351467 0 6.4845833723590742e-05 -0.0014432314542305903 0 -0.00010083329814005654 -0.0021372411908698805 0 -7.8118386173072984e-05 -0.0016474196013833216 0 9.2142237165531056e-05 -0.0014891686574775432 0 -7.8118386173072984e-05 -0.0016474196013833216 0 6.4845833723590742e-05 -0.0014432314542305903 0 5.911373797161947e-05 -0.001372619196695636 0 9.5673019628992134e-05 -0.0013356318930442973 0 0.00010461000584713097 -0.0016390607313801716 0 7.1016687598316595e-05 -0.0016237526483781593 0 8.451040799474956e-05 -0.0015747930619006186 0 -1.7092204331951771e-05 -0.001394051935351467 0 6.4845833723590742e-05 -0.0014432314542305903 0 5.911373797161947e-05 -0.001372619196695636 0 -1.7092204331951771e-05 -0.001394051935351467 0 5.911373797161947e-05 -0.001372619196695636 0 9.2947993742844065e-05 -0.0013182883409767851 0 -2.7559039241775173e-06 -0.001260989680401798 0 -0.00010524914903324491 -0.0015386220633370729 0 5.911373797161947e-05 -0.001372619196695636 0 9.2947993742844065e-05 -0.0013182883409767851 0 9.5673019628992134e-05 -0.0013356318930442973 0 -0.00016676035872697611 -0.0013570208824504506 0 -0.00026919947726910328 -0.0013174235135269578 0 -0.00010019762513769317 -0.0012955186101935596 0 -0.00012112404291057742 -0.0016406361919370418 0 -0.00010754005543510979 -0.0016305598930978298 0 -0.00011082105551583945 -0.0016115646713223309 0 -0.00021762960100420644 -0.0017420954059958942 0 -7.8118386173072984e-05 -0.0016474196013833216 0 -0.00021762960100420644 -0.0017420954059958942 0 -0.00010524914903324491 -0.0015386220633370729 0 -0.00037987797765201428 -0.0019188603126659141 0 -0.00041365026159360843 -0.0020380964758561393 0 -0.0003421601797700627 -0.0019966736348750805 0 -0.00010524914903324491 -0.0015386220633370729 0 -7.8118386173072984e-05 -0.0016474196013833216 0 -5.5183645131133066e-06 -0.0011910422272526228 0 -0.00026919947726910328 -0.0013174235135269578 0 -0.00010019762513769317 -0.0012955186101935596 0 -5.5183645131133066e-06 -0.0011910422272526228 0 -0.00010019762513769317 -0.0012955186101935596 0 2.4676185560759909e-05 -0.0012665507499654326 0 -0.00016676035872697611 -0.0013570208824504506 0 -0.00010019762513769317 -0.0012955186101935596 0 -0.00012035594834905756 -0.0013858070747498757 0 -0.00010019762513769317 -0.0012955186101935596 0 -4.2086315731644906e-05 -0.001372569884635521 0 -0.00012035594834905756 -0.0013858070747498757 0 -0.00010019762513769317 -0.0012955186101935596 0 -4.2086315731644906e-05 -0.001372569884635521 0 2.4676185560759909e-05 -0.0012665507499654326 0 -4.2086315731644906e-05 -0.001372569884635521 0 2.4676185560759909e-05 -0.0012665507499654326 0 2.9952297146717368e-05 -0.0014778760731384251 0 -4.2086315731644906e-05 -0.001372569884635521 0 -7.9077717293650355e-05 -0.001455939573715586 0 2.9952297146717368e-05 -0.0014778760731384251 0 -4.2086315731644906e-05 -0.001372569884635521 0 -0.00012035594834905756 -0.0013858070747498757 0 -7.9077717293650355e-05 -0.001455939573715586 0 -0.00012035594834905756 -0.0013858070747498757 0 -7.9077717293650355e-05 -0.001455939573715586 0 -0.00014216436014460041 -0.0014919374704717538 0 -7.9077717293650355e-05 -0.001455939573715586 0 -0.00014216436014460041 -0.0014919374704717538 0 -0.00011358067431435111 -0.0015612227525059255 0 -7.9077717293650355e-05 -0.001455939573715586 0 2.9952297146717368e-05 -0.0014778760731384251 0 -0.00011358067431435111 -0.0015612227525059255 0 -0.00022248266396627075 -0.0017630824354664862 0 -0.00023359887231559135 -0.0017707143421458727 0 -0.00021714927887687055 -0.0016610535119881717 0 -0.00022248266396627075 -0.0017630824354664862 0 -0.00020798715473927762 -0.0017197407382844743 0 -0.00021714927887687055 -0.0016610535119881717 0 -0.00010524914903324491 -0.0015386220633370729 0 -0.00025561359887529378 -0.0016561002120278783 0 -0.00018165819090482953 -0.0014328412507170524 0 -0.00014216436014460041 -0.0014919374704717538 0 -0.00021714927887687055 -0.0016610535119881717 0 -0.00026919947726910328 -0.0013174235135269578 0 -0.00018165819090482953 -0.0014328412507170524 0 -0.00021714927887687055 -0.0016610535119881717 0 -0.00012035594834905756 -0.0013858070747498757 0 -0.00018165819090482953 -0.0014328412507170524 0 -0.00014216436014460041 -0.0014919374704717538 0 -0.00016676035872697611 -0.0013570208824504506 0 -0.00026919947726910328 -0.0013174235135269578 0 -0.00018165819090482953 -0.0014328412507170524 0 -0.00016676035872697611 -0.0013570208824504506 0 -0.00012035594834905756 -0.0013858070747498757 0 -0.00018165819090482953 -0.0014328412507170524 0 -0.00031743708919212927 -0.0024649518291155982 0 -0.00011527875433814515 -0.0020542827696137462 0 -0.00019139153593269372 -0.0017790909106932674 0 -0.00013613650374831934 -0.0017468065473007363 0 -0.00010023378716952111 -0.0020488303175914512 0 -0.00021762960100420644 -0.0017420954059958942 0 -0.0002492459512913417 -0.0018069075016154546 0 -0.00021762960100420644 -0.0017420954059958942 0 -0.00021923340866139617 -0.0017470864843293706 0 -0.00037987797765201428 -0.0019188603126659141 0 -0.00025230510266080605 -0.0018935734569903563 0 -0.00019139153593269372 -0.0017790909106932674 0 -0.00025683025695824466 -0.0018280727436877937 0 -0.00020798715473927762 -0.0017197407382844743 0 -0.00019139153593269372 -0.0017790909106932674 0 -0.00020798715473927762 -0.0017197407382844743 0 -0.00019139153593269372 -0.0017790909106932674 0 -0.00013613650374831934 -0.0017468065473007363 0 -0.00086868139238223093 -0.0039434332034340141 0 -0.0007630214603420684 -0.003860931690853896 0 -0.0007253480493408939 -0.0039924480532040783 0 -0.00083929289078279025 -0.0041418865508852454 0 -0.00069831631196589673 -0.0041030061133689091 0 -0.0007253480493408939 -0.0039924480532040783 0 -0.00011662412667039302 -0.0023735986502030999 0 -5.7397227625917206e-05 -0.0022737026652674317 0 -0.00010803533610914158 -0.0022231821576774672 0 -0.00083929289078279025 -0.0041418865508852454 0 -0.00072761413909259813 -0.004191497979934451 0 -0.00069831631196589673 -0.0041030061133689091 0 -0.00012197862341563565 -0.0021073351506177892 0 -5.7397227625917206e-05 -0.0022737026652674317 0 -0.00010803533610914158 -0.0022231821576774672 0 -0.00031743708919212927 -0.0024649518291155982 0 -0.000446576469245294 -0.0033333935210252881 0 -0.00086868139238223093 -0.0039434332034340141 0 -0.00083929289078279025 -0.0041418865508852454 0 -0.0007253480493408939 -0.0039924480532040783 0 -0.0002215322687918468 -0.0022514395415736128 0 -0.00010023378716952111 -0.0020488303175914512 0 -0.00023796197424502566 -0.0021166595794072686 0 -0.00010023378716952111 -0.0020488303175914512 0 -0.00023796197424502566 -0.0021166595794072686 0 -0.00025760043354905367 -0.0020187508716568861 0 -0.00030477491637857524 -0.002205313840878095 0 -0.0002215322687918468 -0.0022514395415736128 0 -0.00023796197424502566 -0.0021166595794072686 0 -0.00030477491637857524 -0.002205313840878095 0 -0.00031131174249879264 -0.0020759532000631164 0 -0.00023796197424502566 -0.0021166595794072686 0 -0.00030477491637857524 -0.002205313840878095 0 -0.00041365026159360843 -0.0020380964758561393 0 -0.00031131174249879264 -0.0020759532000631164 0 -0.00031131174249879264 -0.0020759532000631164 0 -0.00023796197424502566 -0.0021166595794072686 0 -0.00025760043354905367 -0.0020187508716568861 0 -0.00041365026159360843 -0.0020380964758561393 0 -0.00031131174249879264 -0.0020759532000631164 0 -0.0003421601797700627 -0.0019966736348750805 0 -0.00025760043354905367 -0.0020187508716568861 0 -0.0003421601797700627 -0.0019966736348750805 0 -0.00030737536467405471 -0.0019574590529958841 0 -0.00031131174249879264 -0.0020759532000631164 0 -0.00025760043354905367 -0.0020187508716568861 0 -0.0003421601797700627 -0.0019966736348750805 0 -0.00037987797765201428 -0.0019188603126659141 0 -0.00025230510266080605 -0.0018935734569903563 0 -0.00030737536467405471 -0.0019574590529958841 0 -0.00037987797765201428 -0.0019188603126659141 0 -0.0003421601797700627 -0.0019966736348750805 0 -0.00030737536467405471 -0.0019574590529958841 0 -0.00025230510266080605 -0.0018935734569903563 0 -0.00025760043354905367 -0.0020187508716568861 0 -0.00030737536467405471 -0.0019574590529958841 0 -0.00025230510266080605 -0.0018935734569903563 0 -0.00010023378716952111 -0.0020488303175914512 0 -0.00025760043354905367 -0.0020187508716568861 0 -0.00025230510266080605 -0.0018935734569903563 0 -0.00019139153593269372 -0.0017790909106932674 0 -0.00010023378716952111 -0.0020488303175914512 0 -4.9560985766426047e-05 -0.0012208027190102116 0 1.3099179777928475e-05 -0.0012029694273333995 0 -2.6905128918322023e-05 -0.001172133500495632 0 -4.9560985766426047e-05 -0.0012208027190102116 0 -1.5999304320615674e-05 -0.0012601239900271214 0 1.3099179777928475e-05 -0.0012029694273333995 0 -2.2828191927757255e-05 -0.0012510448543899071 0 5.7648200224382771e-06 -0.0012126008101905482 0 -6.4413481242143894e-05 -0.0012711418054820239 0 -4.099281467244088e-05 -0.0013166823447814991 0 -1.5999304320615674e-05 -0.0012601239900271214 0 -2.3970205105011286e-05 -0.0013222912501513579 0 -3.7727261435496149e-05 -0.0012672953673906369 0 2.966703905664278e-05 -0.0012577474146079422 0 2.812804206243137e-05 -0.0013404067380053137 0 2.966703905664278e-05 -0.0012577474146079422 0 8.8299894336317449e-05 -0.0012324055293933703 0 2.812804206243137e-05 -0.0013404067380053137 0 -2.3970205105011286e-05 -0.0013222912501513579 0 2.966703905664278e-05 -0.0012577474146079422 0 2.966703905664278e-05 -0.0012577474146079422 0 1.3099179777928475e-05 -0.0012029694273333995 0 6.8416374124945451e-05 -0.0012179579143138989 0 1.3099179777928475e-05 -0.0012029694273333995 0 6.8416374124945451e-05 -0.0012179579143138989 0 5.1787189258992434e-05 -0.0011921662093697096 0 -3.7727261435496149e-05 -0.0012672953673906369 0 2.966703905664278e-05 -0.0012577474146079422 0 1.3099179777928475e-05 -0.0012029694273333995 0 2.966703905664278e-05 -0.0012577474146079422 0 6.8416374124945451e-05 -0.0012179579143138989 0 8.8299894336317449e-05 -0.0012324055293933703 0 6.8416374124945451e-05 -0.0012179579143138989 0 8.8299894336317449e-05 -0.0012324055293933703 0 7.0052438987008446e-05 -0.0012164274116472505 0 -6.3305964580559772e-05 -0.0014272329044401455 0 -3.5427571120406791e-05 -0.0013708588321115368 0 -0.00016170661169614869 -0.0015306753387321766 0 -0.00012135184719546645 -0.0015337828949888255 0 -0.0001459615197170644 -0.0014940737504621504 0 -0.00012135184719546645 -0.0015337828949888255 0 -4.2988127428329975e-05 -0.0014974035608753332 0 -0.0001459615197170644 -0.0014940737504621504 0 -4.2988127428329975e-05 -0.0014974035608753332 0 -1.7092204331951771e-05 -0.001394051935351467 0 -0.0001459615197170644 -0.0014940737504621504 0 -2.7559039241775173e-06 -0.001260989680401798 0 -3.5427571120406791e-05 -0.0013708588321115368 0 -5.5183645131133066e-06 -0.0011910422272526228 0 8.8299894336317449e-05 -0.0012324055293933703 0 7.0052438987008446e-05 -0.0012164274116472505 0 2.4676185560759909e-05 -0.0012665507499654326 0 2.9952297146717368e-05 -0.0014778760731384251 0 9.9890381428764246e-05 -0.0012204311731978188 0 -5.5183645131133066e-06 -0.0011910422272526228 0 7.0052438987008446e-05 -0.0012164274116472505 0 2.4676185560759909e-05 -0.0012665507499654326 0 7.0052438987008446e-05 -0.0012164274116472505 0 2.4676185560759909e-05 -0.0012665507499654326 0 9.9890381428764246e-05 -0.0012204311731978188 0 0.00013211336361348147 -0.0011302682663092496 0 9.9890381428764246e-05 -0.0012204311731978188 0 0.00012553737941388361 -0.0011223884464348164 0 6.615828551822389e-05 -0.0013154651453182325 0 0.00010168973574919588 -0.001231384549640754 0 9.9890381428764246e-05 -0.0012204311731978188 0 8.8312697074167774e-05 -0.0011154533252145207 0 0.00012553737941388361 -0.0011223884464348164 0 9.9890381428764246e-05 -0.0012204311731978188 0 4.5386954468477943e-05 -0.0011365917033495166 0 8.8312697074167774e-05 -0.0011154533252145207 0 9.9890381428764246e-05 -0.0012204311731978188 0 5.1787189258992434e-05 -0.0011921662093697096 0 4.5386954468477943e-05 -0.0011365917033495166 0 6.8416374124945451e-05 -0.0012179579143138989 0 9.9890381428764246e-05 -0.0012204311731978188 0 5.1787189258992434e-05 -0.0011921662093697096 0 6.8416374124945451e-05 -0.0012179579143138989 0 7.0052438987008446e-05 -0.0012164274116472505 0 9.9890381428764246e-05 -0.0012204311731978188 0 1.3099179777928475e-05 -0.0012029694273333995 0 5.1787189258992434e-05 -0.0011921662093697096 0 1.1159365418023715e-05 -0.0011396039451963425 0 5.1787189258992434e-05 -0.0011921662093697096 0 4.5386954468477943e-05 -0.0011365917033495166 0 1.1159365418023715e-05 -0.0011396039451963425 0 4.5386954468477943e-05 -0.0011365917033495166 0 1.1159365418023715e-05 -0.0011396039451963425 0 4.8218924832137025e-06 -0.0010679019497466693 0 4.5386954468477943e-05 -0.0011365917033495166 0 2.8573522908228042e-05 -0.0010772140734465734 0 8.8312697074167774e-05 -0.0011154533252145207 0 4.5386954468477943e-05 -0.0011365917033495166 0 4.8218924832137025e-06 -0.0010679019497466693 0 2.8573522908228042e-05 -0.0010772140734465734 0 1.1159365418023715e-05 -0.0011396039451963425 0 -1.873004819491045e-05 -0.0011142398282309193 0 4.8218924832137025e-06 -0.0010679019497466693 0 -1.873004819491045e-05 -0.0011142398282309193 0 -2.0727793600711757e-05 -0.001033464541028838 0 4.8218924832137025e-06 -0.0010679019497466693 0 1.1159365418023715e-05 -0.0011396039451963425 0 -1.873004819491045e-05 -0.0011142398282309193 0 -2.6905128918322023e-05 -0.001172133500495632 0 1.3099179777928475e-05 -0.0012029694273333995 0 1.1159365418023715e-05 -0.0011396039451963425 0 -2.6905128918322023e-05 -0.001172133500495632 0 2.7466424294781799e-06 -0.0010625666160400378 0 5.4038197900470915e-06 -0.0010498175120713534 0 2.1926950343027542e-05 -0.0010424679924183494 0 1.8824357914106733e-05 -0.001081377157429148 0 1.283711252502423e-05 -0.0011455261264227291 0 2.7466424294781799e-06 -0.0010625666160400378 0 1.8785077526170799e-06 -0.0012853550430829428 0 1.0285309431099036e-05 -0.0012435510885553157 0 2.7466424294781799e-06 -0.0010625666160400378 0 -7.5396437103757363e-06 -0.0010354671845075286 0 5.4038197900470915e-06 -0.0010498175120713534 0 -7.5396437103757363e-06 -0.0010354671845075286 0 -2.0727793600711757e-05 -0.001033464541028838 0 4.8218924832137025e-06 -0.0010679019497466693 0 -7.5396437103757363e-06 -0.0010354671845075286 0 4.8218924832137025e-06 -0.0010679019497466693 0 5.4038197900470915e-06 -0.0010498175120713534 0 5.4038197900470915e-06 -0.0010498175120713534 0 2.8573522908228042e-05 -0.0010772140734465734 0 2.5338951673839631e-05 -0.0010564069257260407 0 4.8218924832137025e-06 -0.0010679019497466693 0 5.4038197900470915e-06 -0.0010498175120713534 0 2.8573522908228042e-05 -0.0010772140734465734 0 3.0698499421467482e-05 -0.0010765972722533456 0 5.9538137003701866e-05 -0.0010620487341386933 0 2.8573522908228042e-05 -0.0010772140734465734 0 2.5338951673839631e-05 -0.0010564069257260407 0 3.9508003835083511e-05 -0.001059823412968969 0 2.5338951673839631e-05 -0.0010564069257260407 0 2.1926950343027542e-05 -0.0010424679924183494 0 3.9508003835083511e-05 -0.001059823412968969 0 5.4038197900470915e-06 -0.0010498175120713534 0 2.5338951673839631e-05 -0.0010564069257260407 0 2.1926950343027542e-05 -0.0010424679924183494 0 2.1926950343027542e-05 -0.0010424679924183494 0 3.9508003835083511e-05 -0.001059823412968969 0 5.7459204810686572e-05 -0.0010505399207814687 0 2.1926950343027542e-05 -0.0010424679924183494 0 5.7459204810686572e-05 -0.0010505399207814687 0 6.3483281151400055e-05 -0.0010394003196955222 0 1.283711252502423e-05 -0.0011455261264227291 0 1.5266998584098944e-05 -0.0012915619823651054 0 1.8785077526170799e-06 -0.0012853550430829428 0 -8.5726886255176247e-05 -0.0013845894453712252 0 -2.2736120381838518e-05 -0.0013994800905389273 0 5.9538137003701866e-05 -0.0010620487341386933 0 0.00011790535061182811 -0.0010920553592642002 0 9.7884218402248232e-05 -0.0010943880911112908 0 0.00011790535061182811 -0.0010920553592642002 0 7.6293848522964792e-05 -0.0010615424661457077 0 8.8312697074167774e-05 -0.0011154533252145207 0 0.00013425912179560964 -0.0010267135403828009 0 2.8573522908228042e-05 -0.0010772140734465734 0 7.6293848522964792e-05 -0.0010615424661457077 0 8.8312697074167774e-05 -0.0011154533252145207 0 8.8312697074167774e-05 -0.0011154533252145207 0 0.00012553737941388361 -0.0011223884464348164 0 0.00012202711436400841 -0.0010653878862756289 0 0.00012553737941388361 -0.0011223884464348164 0 0.00011963932973181516 -0.0011706814235875576 0 0.0001386236889570656 -0.0012226621347456083 0 0.00012553737941388361 -0.0011223884464348164 0 0.00012202711436400841 -0.0010653878862756289 0 0.00014047114869240174 -0.0010543695878367221 0 0.00013734097833572174 -0.0010979277462080813 0 0.00011045633287846317 -0.0012069704624641413 0 0.00012553737941388361 -0.0011223884464348164 0 0.00012164250390678958 -0.0011435937885128642 0 0.00011963932973181516 -0.0011706814235875576 0 0.00013211336361348147 -0.0011302682663092496 0 0.00012164250390678958 -0.0011435937885128642 0 0.00010643184252069809 -0.0011653118373310656 0 0.00013211336361348147 -0.0011302682663092496 0 0.00012553737941388361 -0.0011223884464348164 0 0.00012164250390678958 -0.0011435937885128642 0 0.00012164250390678958 -0.0011435937885128642 0 0.00011963932973181516 -0.0011706814235875576 0 0.00010643184252069809 -0.0011653118373310656 0 0.00011963932973181516 -0.0011706814235875576 0 0.0001386236889570656 -0.0012226621347456083 0 9.6345317195612183e-05 -0.0012092341112878095 0 0.00011790535061182811 -0.0010920553592642002 0 0.00011045633287846317 -0.0012069704624641413 0 0.00011790535061182811 -0.0010920553592642002 0 1.5266998584098944e-05 -0.0012915619823651054 0 8.2208929578969555e-05 -0.0012718885261625106 0 4.0410676140098426e-05 -0.0012777373465926915 0 5.496961396753293e-05 -0.0012136307500955938 0 9.6226592919019814e-05 -0.0013536239435540758 0 0.0001024661697122967 -0.0013259600821551459 0 4.6573353226458279e-05 -0.0013610374119018998 0 0.00013625652196052766 -0.0011635780688339778 0 8.2208929578969555e-05 -0.0012718885261625106 0 5.496961396753293e-05 -0.0012136307500955938 0 1.5266998584098944e-05 -0.0012915619823651054 0 6.7346822915040393e-05 -0.0013646294155985213 0 6.7346822915040393e-05 -0.0013646294155985213 0 0.00011045633287846317 -0.0012069704624641413 0 -8.5726886255176247e-05 -0.0013845894453712252 0 -6.171073707325046e-05 -0.0014492922792648374 0 -0.00013720409437635109 -0.0014763213988257717 0 7.6172740982051449e-05 -0.0013331856779163339 0 1.5875762678995011e-05 -0.0013415474242823211 0 -3.0880756865031514e-05 -0.0015475478020143428 0 6.7346822915040393e-05 -0.0013646294155985213 0 -4.348940717761382e-06 -0.0015834733771676861 0 1.5266998584098944e-05 -0.0012915619823651054 0 -4.348940717761382e-06 -0.0015834733771676861 0 -8.5726886255176247e-05 -0.0013845894453712252 0 -6.171073707325046e-05 -0.0014492922792648374 0 -2.2736120381838518e-05 -0.0013994800905389273 0 -6.171073707325046e-05 -0.0014492922792648374 0 -1.3493748248808265e-05 -0.0015817037863525185 0 -2.2736120381838518e-05 -0.0013994800905389273 0 -6.171073707325046e-05 -0.0014492922792648374 0 -0.00013720409437635109 -0.0014763213988257717 0 -1.3493748248808265e-05 -0.0015817037863525185 0 -0.00013720409437635109 -0.0014763213988257717 0 -1.3493748248808265e-05 -0.0015817037863525185 0 -0.00013534972442061504 -0.0016743251874719205 0 -4.4370684198378856e-07 -0.001848713511930976 0 -1.3493748248808265e-05 -0.0015817037863525185 0 -0.00013534972442061504 -0.0016743251874719205 0 -3.8876578582201918e-08 -0.001849127962762492 0 -2.7030725506034461e-05 -0.0018164900632844285 0 -1.3493748248808265e-05 -0.0015817037863525185 0 -8.255264524757743e-06 -0.0014758931838482058 0 1.4282736550107048e-07 -0.0015595328030056387 0 -8.255264524757743e-06 -0.0014758931838482058 0 2.1663807445259932e-06 -0.0013532016892568454 0 1.4282736550107048e-07 -0.0015595328030056387 0 -4.4370684198378856e-07 -0.001848713511930976 0 -1.3493748248808265e-05 -0.0015817037863525185 0 1.4282736550107048e-07 -0.0015595328030056387 0 -8.255264524757743e-06 -0.0014758931838482058 0 -2.2736120381838518e-05 -0.0013994800905389273 0 2.1663807445259932e-06 -0.0013532016892568454 0 -1.3493748248808265e-05 -0.0015817037863525185 0 -8.255264524757743e-06 -0.0014758931838482058 0 -2.2736120381838518e-05 -0.0013994800905389273 0 1.8785077526170799e-06 -0.0012853550430829428 0 -2.2736120381838518e-05 -0.0013994800905389273 0 2.1663807445259932e-06 -0.0013532016892568454 0 1.8785077526170799e-06 -0.0012853550430829428 0 2.1663807445259932e-06 -0.0013532016892568454 0 1.0285309431099036e-05 -0.0012435510885553157 0 2.1663807445259932e-06 -0.0013532016892568454 0 1.4282736550107048e-07 -0.0015595328030056387 0 1.0285309431099036e-05 -0.0012435510885553157 0 2.3461576098593409e-05 -0.0010867830619324978 0 -3.2625405015584016e-09 -0.0012699839705692521 0 1.0285309431099036e-05 -0.0012435510885553157 0 1.4282736550107048e-07 -0.0015595328030056387 0 -3.2625405015584016e-09 -0.0012699839705692521 0 1.0285309431099036e-05 -0.0012435510885553157 0 2.3461576098593409e-05 -0.0010867830619324978 0 2.7466424294781799e-06 -0.0010625666160400378 0 1.0285309431099036e-05 -0.0012435510885553157 0 -0.00021697911175187277 -0.0017168885372270651 0 -0.00021458756263423231 -0.0016947380330589988 0 -0.00023748998222556465 -0.00174623348838071 0 -0.00055713900475951072 -0.0028282116880960122 0 -0.00046182658794759261 -0.0026398151680238203 0 -0.00021572745229040194 -0.0017014462817802581 0 -0.00021697911175187277 -0.0017168885372270651 0 -0.00021458756263423231 -0.0016947380330589988 0 -0.00021697911175187277 -0.0017168885372270651 0 -0.00020365327739602782 -0.0017188587151142447 0 -0.0002080844333212914 -0.0017076062138596392 0 -0.00021572745229040194 -0.0017014462817802581 0 -0.00021697911175187277 -0.0017168885372270651 0 -0.0002080844333212914 -0.0017076062138596392 0 -0.00021572745229040194 -0.0017014462817802581 0 -0.00021342061228210322 -0.001693462217616004 0 -0.0002080844333212914 -0.0017076062138596392 0 -0.00021697911175187277 -0.0017168885372270651 0 -0.00020365327739602782 -0.0017188587151142447 0 -0.00021396515613215247 -0.0017396974470470009 0 -0.0007341031585519661 -0.0037360394333477817 0 -0.00085812635061734556 -0.003782897734873252 0 -0.00085372683977563495 -0.003625056695218956 0 -0.0007341031585519661 -0.0037360394333477817 0 -0.0007630214603420684 -0.003860931690853896 0 -0.00085812635061734556 -0.003782897734873252 0 -0.00086868139238223093 -0.0039434332034340141 0 -0.0007630214603420684 -0.003860931690853896 0 -0.00085812635061734556 -0.003782897734873252 0 -0.00031743708919212927 -0.0024649518291155982 0 -0.00023594633306884188 -0.0014616024837198177 0 -0.00020000442311073722 -0.0017709182927282353 0 -0.00021670494639030124 -0.0016942127942883986 0 -0.00021458756263423231 -0.0016947380330589988 0 -0.00020798715473927762 -0.0017197407382844743 0 -0.00013613650374831934 -0.0017468065473007363 0 -0.00021670494639030124 -0.0016942127942883986 0 -0.00031743708919212927 -0.0024649518291155982 0 -0.00055713900475951072 -0.0028282116880960122 0 -0.00021572745229040194 -0.0017014462817802581 0 -0.00021670494639030124 -0.0016942127942883986 0 -0.00021458756263423231 -0.0016947380330589988 0 -0.00021572745229040194 -0.0017014462817802581 0 -0.00021670494639030124 -0.0016942127942883986 0 -0.00021342061228210322 -0.001693462217616004 0 -0.00021670494639030124 -0.0016942127942883986 0 -0.00021405509185679327 -0.0016924977235605919 0 -0.00021342061228210322 -0.001693462217616004 0 -0.00020798715473927762 -0.0017197407382844743 0 -0.00021670494639030124 -0.0016942127942883986 0 -0.00021405509185679327 -0.0016924977235605919 0 -0.00020798715473927762 -0.0017197407382844743 0 -0.00021405509185679327 -0.0016924977235605919 0 -0.00021714927887687055 -0.0016610535119881717 0 -0.00014216436014460041 -0.0014919374704717538 0 -0.00021714927887687055 -0.0016610535119881717 0 -0.00011358067431435111 -0.0015612227525059255 0 -0.00016256464324966132 -0.0017130885459380248 0 -0.00021714927887687055 -0.0016610535119881717 0 -0.00020372064629939682 -0.0016932444264698115 0 -0.00016256464324966132 -0.0017130885459380248 0 -0.00021714927887687055 -0.0016610535119881717 0 -0.00011358067431435111 -0.0015612227525059255 0 -0.00021714927887687055 -0.0016610535119881717 0 -0.00020372064629939682 -0.0016932444264698115 0 -0.00021342061228210322 -0.001693462217616004 0 -0.00021405509185679327 -0.0016924977235605919 0 -0.00021714927887687055 -0.0016610535119881717 0 -0.00021342061228210322 -0.001693462217616004 0 -0.00020372064629939682 -0.0016932444264698115 0 -0.00021342061228210322 -0.001693462217616004 0 -0.0002080844333212914 -0.0017076062138596392 0 0.00013211336361348147 -0.0011302682663092496 0 4.1948802079535363e-05 -0.0011805406528391865 0 8.1905707664961037e-05 -0.0011778550577643105 0 2.9952297146717368e-05 -0.0014778760731384251 0 -0.00016256464324966132 -0.0017130885459380248 0 -0.00011358067431435111 -0.0015612227525059255 0 0.00013211336361348147 -0.0011302682663092496 0 8.1905707664961037e-05 -0.0011778550577643105 0 0.00010643184252069809 -0.0011653118373310656 0 6.615828551822389e-05 -0.0013154651453182325 0 -4.6280524381244214e-05 -0.0013982946993758862 0 8.1905707664961037e-05 -0.0011778550577643105 0 0.00010643184252069809 -0.0011653118373310656 0 9.6345317195612183e-05 -0.0012092341112878095 0 0.00011963932973181516 -0.0011706814235875576 0 0.00010643184252069809 -0.0011653118373310656 0 9.6345317195612183e-05 -0.0012092341112878095 0 4.1948802079535363e-05 -0.0011805406528391865 0 8.1905707664961037e-05 -0.0011778550577643105 0 6.2669325690901554e-05 -0.001226805567257055 0 8.1905707664961037e-05 -0.0011778550577643105 0 9.6345317195612183e-05 -0.0012092341112878095 0 6.2669325690901554e-05 -0.001226805567257055 0 6.2669325690901554e-05 -0.001226805567257055 0 1.7704597255568219e-05 -0.0012336964373245113 0 4.5080161321131931e-05 -0.0012700249207276007 0 6.2669325690901554e-05 -0.001226805567257055 0 9.2032453493172745e-05 -0.0012592685733929317 0 4.5080161321131931e-05 -0.0012700249207276007 0 6.7346822915040393e-05 -0.0013646294155985213 0 7.4014913762237601e-05 -0.0014440411217939149 0 0.0001386236889570656 -0.0012226621347456083 0 9.6345317195612183e-05 -0.0012092341112878095 0 9.2032453493172745e-05 -0.0012592685733929317 0 0.00011045633287846317 -0.0012069704624641413 0 7.4014913762237601e-05 -0.0014440411217939149 0 9.6345317195612183e-05 -0.0012092341112878095 0 6.2669325690901554e-05 -0.001226805567257055 0 9.2032453493172745e-05 -0.0012592685733929317 0 -0.00016256464324966132 -0.0017130885459380248 0 -0.00020365327739602782 -0.0017188587151142447 0 -0.00021396515613215247 -0.0017396974470470009 0 4.1948802079535363e-05 -0.0011805406528391865 0 1.7704597255568219e-05 -0.0012336964373245113 0 -7.1411908104488319e-05 -0.0013072513614824722 0 -4.6280524381244214e-05 -0.0013982946993758862 0 -0.00011662998454160021 -0.0018029375521169508 0 1.7704597255568219e-05 -0.0012336964373245113 0 5.085047261267186e-05 -0.0012919043818868173 0 -7.1411908104488319e-05 -0.0013072513614824722 0 -0.00016256464324966132 -0.0017130885459380248 0 -0.00020365327739602782 -0.0017188587151142447 0 -0.0002080844333212914 -0.0017076062138596392 0 4.1948802079535363e-05 -0.0011805406528391865 0 6.2669325690901554e-05 -0.001226805567257055 0 1.7704597255568219e-05 -0.0012336964373245113 0 -0.00016256464324966132 -0.0017130885459380248 0 -0.00020372064629939682 -0.0016932444264698115 0 -0.0002080844333212914 -0.0017076062138596392 0 -1.7704483378509747e-05 -0.0012561008277362038 0 6.0049332350001768e-05 -0.0015047165448307258 0 -5.2303527117335367e-05 -0.0020452087638855041 0 0.00012057138804531602 -0.0018786652868071434 0 -0.00010625519834100499 -0.0019117610283482436 0 6.0049332350001768e-05 -0.0015047165448307258 0 -0.00011662998454160021 -0.0018029375521169508 0 1.2892895529627773e-05 -0.002126499051285642 0 -6.6924214305676557e-06 -0.002142054648787473 0 1.0685376046669796e-05 -0.0020954401923238227 0 -5.2303527117335367e-05 -0.0020452087638855041 0 0.00012057138804531602 -0.0018786652868071434 0 0.00014527056260344641 -0.0019214004241069245 0 -2.8708747697211674e-05 -0.0021019034433555732 0 4.4879732332839527e-05 -0.0017614566396292634 0 -6.6924214305676557e-06 -0.002142054648787473 0 -5.3044040491539079e-05 -0.0020851091642423991 0 1.0685376046669796e-05 -0.0020954401923238227 0 9.7530156285498699e-05 -0.0016751022350740528 0 2.2855970180128042e-05 -0.0015614796319813834 0 2.3505040181428327e-05 -0.0016614793447501399 0 0.0001267904055352446 -0.0015465311319482634 0 9.7530156285498699e-05 -0.0016751022350740528 0 2.2855970180128042e-05 -0.0015614796319813834 0 7.4014913762237601e-05 -0.0014440411217939149 0 6.0049332350001768e-05 -0.0015047165448307258 0 6.1746199574091128e-05 -0.0015243133085729031 0 8.1319807834556599e-05 -0.0015220889905990295 0 7.735359583533401e-05 -0.0015153971030118446 0 2.2855970180128042e-05 -0.0015614796319813834 0 -6.4427633908567793e-05 -0.0016154858957649193 0 2.3505040181428327e-05 -0.0016614793447501399 0 7.4014913762237601e-05 -0.0014440411217939149 0 4.4879732332839527e-05 -0.0017614566396292634 0 6.0049332350001768e-05 -0.0015047165448307258 0 4.4879732332839527e-05 -0.0017614566396292634 0 4.4879732332839527e-05 -0.0017614566396292634 0 1.90831638487722e-07 -0.0018992501021181957 0 -4.348940717761382e-06 -0.0015834733771676861 0 1.90831638487722e-07 -0.0018992501021181957 0 -6.4427633908567793e-05 -0.0016154858957649193 0 2.3505040181428327e-05 -0.0016614793447501399 0 3.8076691774636143e-05 -0.0017938265467199574 0 9.7530156285498699e-05 -0.0016751022350740528 0 2.3505040181428327e-05 -0.0016614793447501399 0 3.8076691774636143e-05 -0.0017938265467199574 0 -4.348940717761382e-06 -0.0015834733771676861 0 -2.7030725506034461e-05 -0.0018164900632844285 0 2.6691027962931276e-05 -0.001624856579716566 0 -2.9128298170632708e-05 -0.0018680870190850118 0 -6.4643257076522854e-05 -0.0018066491663830133 0 -2.7030725506034461e-05 -0.0018164900632844285 0 1.90831638487722e-07 -0.0018992501021181957 0 -5.3044040491539079e-05 -0.0020851091642423991 0 -1.4224156502231473e-07 -0.0019723830552222095 0 1.0685376046669796e-05 -0.0020954401923238227 0 8.641076479194046e-10 -0.0018494022678078798 0 -5.5705552808663426e-08 -0.0018939277986363572 0 -9.0666996620333715e-10 -0.0019125123869018921 0 -2.7030725506034461e-05 -0.0018164900632844285 0 -4.0716445787130193e-08 -0.0019127213019065556 0 1.0753875889577595e-05 -0.0019151531684710951 0 -2.3908590512352639e-07 -0.0018977444370326889 0 -1.5033370786962247e-09 -0.0019718700574066477 0 1.0753875889577595e-05 -0.0019151531684710951 0 -1.5033370786962247e-09 -0.0019718700574066477 0 1.4944060456570214e-09 -0.0019130104341810936 0 1.90831638487722e-07 -0.0018992501021181957 0 -3.6547458386695564e-08 -0.0019721661219497945 0 1.2892895529627773e-05 -0.002126499051285642 0 1.4714145469074355e-07 -0.0021444375142107958 0 1.0685376046669796e-05 -0.0020954401923238227 0 -1.4224156502231473e-07 -0.0019723830552222095 0 1.4714145469074355e-07 -0.0021444375142107958 0 1.0685376046669796e-05 -0.0020954401923238227 0 1.2892895529627773e-05 -0.002126499051285642 0 1.4714145469074355e-07 -0.0021444375142107958 0 -3.7362811273560888e-06 -0.0022278798365076898 0 1.4714145469074355e-07 -0.0021444375142107958 0 -1.5227574795536069e-07 -0.0023164580734838791 0 -3.7362811273560888e-06 -0.0022278798365076898 0 -5.2303527117335367e-05 -0.0020452087638855041 0 -0.00025117849929082284 -0.0021694536501562765 0 -0.00025237031327718547 -0.0020832480019945332 0 -1.0912179343760007e-07 -0.0023167512297700395 0 -0.00010230699137662106 -0.0022839671125106215 0 -2.2853945631547781e-07 -0.0023170940734783024 0 -5.5638670757542864e-05 -0.0024568334110431677 0 -9.4316798318859355e-06 -0.0024290332366012925 0 -0.00010230699137662106 -0.0022839671125106215 0 -9.5016123618971789e-05 -0.0023104712385376741 0 -3.6338728899129066e-05 -0.0024735880772451253 0 -6.9546138590815244e-05 -0.0024694380370979571 0 -9.4316798318859355e-06 -0.0024290332366012925 0 -3.6338728899129066e-05 -0.0024735880772451253 0 -6.9546138590815244e-05 -0.0024694380370979571 0 -6.2502144966311896e-05 -0.0025358946325834556 0 -0.00010230699137662106 -0.0022839671125106215 0 -0.00019096493967415883 -0.0023483105775321087 0 -2.8708747697211674e-05 -0.0021019034433555732 0 -0.00010230699137662106 -0.0022839671125106215 0 -0.00019096493967415883 -0.0023483105775321087 0 -0.00011662998454160021 -0.0018029375521169508 0 -5.2303527117335367e-05 -0.0020452087638855041 0 -0.00025237031327718547 -0.0020832480019945332 0 -0.00010625519834100499 -0.0019117610283482436 0 -0.00033258663799594368 -0.0023777686297411396 0 -0.00033472203334351905 -0.0021937261666235613 0 -0.00015097404157842395 -0.0021671589232263051 0 -0.00019096493967415883 -0.0023483105775321087 0 -0.00046182658794759261 -0.0026398151680238203 0 -0.00046182658794759261 -0.0026398151680238203 0 -0.00011662998454160021 -0.0018029375521169508 0 -0.00021697911175187277 -0.0017168885372270651 0 -0.00023748998222556465 -0.00174623348838071 0 -0.00021396515613215247 -0.0017396974470470009 0 -0.00046182658794759261 -0.0026398151680238203 0 -0.00031949901623299476 -0.003189305889931369 0 -4.6502580909081326e-05 -0.0025849268728435648 0 6.2157238633590398e-06 -0.0025686609312375983 0 1.7972314090470053e-05 -0.0026376216629121086 0 -4.4092329474210309e-05 -0.002535369470106478 0 -4.6502580909081326e-05 -0.0025849268728435648 0 6.2157238633590398e-06 -0.0025686609312375983 0 -0.0007341031585519661 -0.0037360394333477817 0 -0.00085372683977563495 -0.003625056695218956 0 -0.00065889192946541858 -0.0036131734167033844 0 -2.2853945631547781e-07 -0.0023170940734783024 0 -9.4316798318859355e-06 -0.0024290332366012925 0 1.2045227512846442e-07 -0.0026021167787851863 0 6.2157238633590398e-06 -0.0025686609312375983 0 -9.4316798318859355e-06 -0.0024290332366012925 0 1.2045227512846442e-07 -0.0026021167787851863 0 -4.4092329474210309e-05 -0.002535369470106478 0 6.2157238633590398e-06 -0.0025686609312375983 0 -1.8065921310283724e-05 -0.0024835500977278932 0 6.2157238633590398e-06 -0.0025686609312375983 0 -1.8065921310283724e-05 -0.0024835500977278932 0 -9.4316798318859355e-06 -0.0024290332366012925 0 -0.00019096493967415883 -0.0023483105775321087 0 -0.0001235234663614516 -0.0024161287839324619 0 -3.6338728899129066e-05 -0.0024735880772451253 0 -6.2502144966311896e-05 -0.0025358946325834556 0 -1.8065921310283724e-05 -0.0024835500977278932 0 -3.6338728899129066e-05 -0.0024735880772451253 0 -1.8065921310283724e-05 -0.0024835500977278932 0 -9.4316798318859355e-06 -0.0024290332366012925 0 6.2157238633590398e-06 -0.0025686609312375983 0 1.1468891679278162e-05 -0.0027231413887495348 0 1.7972314090470053e-05 -0.0026376216629121086 0 6.2157238633590398e-06 -0.0025686609312375983 0 1.2045227512846442e-07 -0.0026021167787851863 0 1.1468891679278162e-05 -0.0027231413887495348 0 1.2045227512846442e-07 -0.0026021167787851863 0 1.1468891679278162e-05 -0.0027231413887495348 0 9.5567437639064639e-09 -0.0028875143023266883 0 -0.00031949901623299476 -0.003189305889931369 0 -0.00022310096859732745 -0.0032085940717145938 0 -0.00065889192946541858 -0.0036131734167033844 0 -0.0006170046722374803 -0.00372322624552044 0 -0.00047189233539917584 -0.003602127265734965 0 1.1468891679278162e-05 -0.0027231413887495348 0 1.7972314090470053e-05 -0.0026376216629121086 0 2.4714335896585024e-06 -0.002831031082841798 0 -0.0007341031585519661 -0.0037360394333477817 0 -0.00065889192946541858 -0.0036131734167033844 0 -0.0006170046722374803 -0.00372322624552044 0 -0.0007341031585519661 -0.0037360394333477817 0 -0.0006170046722374803 -0.00372322624552044 0 -0.00062905137406535274 -0.0038565645242657613 0 -0.0006170046722374803 -0.00372322624552044 0 -0.00050820648688328128 -0.0037510156356123448 0 -0.00062905137406535274 -0.0038565645242657613 0 -0.0006170046722374803 -0.00372322624552044 0 -0.00050820648688328128 -0.0037510156356123448 0 -0.00047189233539917584 -0.003602127265734965 0 -0.00050820648688328128 -0.0037510156356123448 0 -0.00062905137406535274 -0.0038565645242657613 0 -0.0004886172732272865 -0.0038933861153691274 0 -0.0007341031585519661 -0.0037360394333477817 0 -0.0007630214603420684 -0.003860931690853896 0 -0.00062905137406535274 -0.0038565645242657613 0 -0.00036286306873569525 -0.003728798530930819 0 -0.00023998540735539848 -0.0038518878797719146 0 -0.00036514918795389767 -0.0039389665519419725 0 -0.00024885066192686039 -0.0038582378088104752 0 -0.0003776181722591989 -0.0039645803556059801 0 -0.0004886172732272865 -0.0038933861153691274 0 -0.00036286306873569525 -0.003728798530930819 0 -0.00036514918795389767 -0.0039389665519419725 0 -0.00050820648688328128 -0.0037510156356123448 0 -0.0004886172732272865 -0.0038933861153691274 0 -0.00036286306873569525 -0.003728798530930819 0 -0.00050820648688328128 -0.0037510156356123448 0 -0.00036286306873569525 -0.003728798530930819 0 -0.00047189233539917584 -0.003602127265734965 0 -0.00036286306873569525 -0.003728798530930819 0 -0.00026626300596680662 -0.0037112497740284978 0 -0.00023998540735539848 -0.0038518878797719146 0 -0.00036286306873569525 -0.003728798530930819 0 -0.00029186221168035921 -0.003574443197612109 0 -0.00026626300596680662 -0.0037112497740284978 0 -0.00022310096859732745 -0.0032085940717145938 0 -0.00012990423313384119 -0.0033443540644650807 0 -0.00036286306873569525 -0.003728798530930819 0 -0.00047189233539917584 -0.003602127265734965 0 -0.00029186221168035921 -0.003574443197612109 0 2.4714335896585024e-06 -0.002831031082841798 0 9.5567437639064639e-09 -0.0028875143023266883 0 -3.6488530105867862e-06 -0.003102156454465755 0 1.1468891679278162e-05 -0.0027231413887495348 0 2.4714335896585024e-06 -0.002831031082841798 0 9.5567437639064639e-09 -0.0028875143023266883 0 9.5567437639064639e-09 -0.0028875143023266883 0 -6.883060797546852e-08 -0.0031729204488881698 0 -3.6488530105867862e-06 -0.003102156454465755 0 -0.00012990423313384119 -0.0033443540644650807 0 -3.1328966707710981e-05 -0.0034683274435281602 0 -6.883060797546852e-08 -0.0031729204488881698 0 -3.6488530105867862e-06 -0.003102156454465755 0 -4.3881595389040671e-05 -0.003502088905819148 0 -6.883060797546852e-08 -0.0031729204488881698 0 -4.3881595389040671e-05 -0.003502088905819148 0 -7.6967988809755452e-08 -0.0034584401536819419 0 -4.3881595389040671e-05 -0.003502088905819148 0 -0.00016088841065845853 -0.003713623669069546 0 -1.6850314203448222e-05 -0.0037562189321748403 0 -0.00029186221168035921 -0.003574443197612109 0 -0.00016088841065845853 -0.003713623669069546 0 -0.00026626300596680662 -0.0037112497740284978 0 -0.00029186221168035921 -0.003574443197612109 0 -4.3881595389040671e-05 -0.003502088905819148 0 -0.00016088841065845853 -0.003713623669069546 0 -5.6727494912853556e-08 -0.0037439025740162767 0 -1.3117196034022403e-05 -0.0036691007332589568 0 -5.20219234067307e-05 -0.003852229120224631 0 -5.6727494912853556e-08 -0.0037439025740162767 0 -1.3117196034022403e-05 -0.0036691007332589568 0 -7.6967988809755452e-08 -0.0034584401536819419 0 -4.3881595389040671e-05 -0.003502088905819148 0 -1.3117196034022403e-05 -0.0036691007332589568 0 -7.6967988809755452e-08 -0.0034584401536819419 0 -1.3117196034022403e-05 -0.0036691007332589568 0 -1.6850314203448222e-05 -0.0037562189321748403 0 -5.20219234067307e-05 -0.003852229120224631 0 -4.3881595389040671e-05 -0.003502088905819148 0 -1.3117196034022403e-05 -0.0036691007332589568 0 -1.6850314203448222e-05 -0.0037562189321748403 0 -0.0002500761501665076 -0.004305493520041029 0 -5.8741612164429647e-05 -0.0041684383663286965 0 -7.3377216051113319e-05 -0.00451723687686288 0 -5.20219234067307e-05 -0.003852229120224631 0 -0.0002500761501665076 -0.004305493520041029 0 -5.8741612164429647e-05 -0.0041684383663286965 0 -1.6850314203448222e-05 -0.0037562189321748403 0 -5.20219234067307e-05 -0.003852229120224631 0 4.6051353858170288e-05 -0.0038537393342529696 0 -5.704825220610174e-05 -0.0038702314037200309 0 -9.9004960579651265e-05 -0.0040862777963562944 0 -1.6850314203448222e-05 -0.0037562189321748403 0 4.6051353858170288e-05 -0.0038537393342529696 0 -7.926418143968636e-05 -0.0038354248154814112 0 4.6051353858170288e-05 -0.0038537393342529696 0 -7.926418143968636e-05 -0.0038354248154814112 0 -7.4366387087618211e-05 -0.0039830905198680105 0 -0.00016088841065845853 -0.003713623669069546 0 -0.00026626300596680662 -0.0037112497740284978 0 -0.00023998540735539848 -0.0038518878797719146 0 -0.00016088841065845853 -0.003713623669069546 0 -7.926418143968636e-05 -0.0038354248154814112 0 -0.00023998540735539848 -0.0038518878797719146 0 -0.00016088841065845853 -0.003713623669069546 0 -1.6850314203448222e-05 -0.0037562189321748403 0 -7.926418143968636e-05 -0.0038354248154814112 0 -7.926418143968636e-05 -0.0038354248154814112 0 -0.00023998540735539848 -0.0038518878797719146 0 -7.4366387087618211e-05 -0.0039830905198680105 0 -0.00023998540735539848 -0.0038518878797719146 0 -0.00021321469977379513 -0.0040444834778332172 0 -0.00039627462267601574 -0.0039927974465548931 0 -0.00021321469977379513 -0.0040444834778332172 0 -0.0002814848707974356 -0.0042025465290751263 0 -0.00039627462267601574 -0.0039927974465548931 0 -0.00023998540735539848 -0.0038518878797719146 0 -0.00021321469977379513 -0.0040444834778332172 0 -7.4366387087618211e-05 -0.0039830905198680105 0 -0.00021321469977379513 -0.0040444834778332172 0 -7.4366387087618211e-05 -0.0039830905198680105 0 -0.00010809162655809831 -0.0041853410713471777 0 -0.00021321469977379513 -0.0040444834778332172 0 -0.00010809162655809831 -0.0041853410713471777 0 -0.0002814848707974356 -0.0042025465290751263 0 -9.9004960579651265e-05 -0.0040862777963562944 0 -0.00012166085330648286 -0.004323472693101545 0 -0.0002500761501665076 -0.004305493520041029 0 -0.00028399750283130581 -0.0045683573943346503 0 -7.3377216051113319e-05 -0.00451723687686288 0 4.6051353858170288e-05 -0.0038537393342529696 0 -7.4366387087618211e-05 -0.0039830905198680105 0 5.2137679755866123e-05 -0.0041057110875267521 0 -0.00010809162655809831 -0.0041853410713471777 0 5.2137679755866123e-05 -0.0041057110875267521 0 1.1529325167943509e-05 -0.0043598182037106557 0 -7.4366387087618211e-05 -0.0039830905198680105 0 -0.00010809162655809831 -0.0041853410713471777 0 5.2137679755866123e-05 -0.0041057110875267521 0 -0.00028399750283130581 -0.0045683573943346503 0 -0.0002239973342625501 -0.0046788252591074232 0 -7.3377216051113319e-05 -0.00451723687686288 0 -0.0002239973342625501 -0.0046788252591074232 0 -0.00032204712736528851 -0.004778957666143618 0 -0.00010891843016699235 -0.0047253912199163939 0 -0.00010282468633798337 -0.0047841815493274075 0 -9.1484590087690076e-05 -0.0048029772574965319 0 -6.8791429176448746e-05 -0.0048304912242649583 0 -0.00012660891637700092 -0.0046305221625311064 0 -0.00011435114680214108 -0.004802454235339107 0 -0.00012166085330648286 -0.004323472693101545 0 -0.00012660891637700092 -0.0046305221625311064 0 -0.00028399750283130581 -0.0045683573943346503 0 -0.0002239973342625501 -0.0046788252591074232 0 -0.00032204712736528851 -0.004778957666143618 0 -0.00010182774082317028 -0.004711000522382435 0 -0.00011160728216804517 -0.0047635022791181298 0 -0.00015639522280575525 -0.0047393107620316366 0 -0.00012660891637700092 -0.0046305221625311064 0 -0.00012956968955028941 -0.0047666987754334863 0 -0.00011160728216804517 -0.0047635022791181298 0 -9.1484590087690076e-05 -0.0048029772574965319 0 -9.6661042489145721e-05 -0.0048071729061292647 0 -0.00010282468633798337 -0.0047841815493274075 0 -0.00011160728216804517 -0.0047635022791181298 0 -9.1484590087690076e-05 -0.0048029772574965319 0 -7.4814996144136788e-05 -0.0048335162741128786 0 -9.1484590087690076e-05 -0.0048029772574965319 0 -9.6661042489145721e-05 -0.0048071729061292647 0 -7.4814996144136788e-05 -0.0048335162741128786 0 -9.1484590087690076e-05 -0.0048029772574965319 0 -6.8791429176448746e-05 -0.0048304912242649583 0 -0.00010809162655809831 -0.0041853410713471777 0 -0.0002814848707974356 -0.0042025465290751263 0 -0.00016198296844675017 -0.0044096208556485923 0 -0.0002814848707974356 -0.0042025465290751263 0 -0.00016198296844675017 -0.0044096208556485923 0 -0.00037646812324053299 -0.0043357472894315924 0 -0.00010809162655809831 -0.0041853410713471777 0 1.1529325167943509e-05 -0.0043598182037106557 0 -0.00016198296844675017 -0.0044096208556485923 0 -0.00012660891637700092 -0.0046305221625311064 0 -0.00016591430907531533 -0.0045389173642482626 0 -0.00010182774082317028 -0.004711000522382435 0 -0.00019936865112493062 -0.0046893335335705267 0 -0.00015639522280575525 -0.0047393107620316366 0 -0.00011160728216804517 -0.0047635022791181298 0 -0.00015639522280575525 -0.0047393107620316366 0 -0.00014762822292535601 -0.0047797494676445366 0 -0.00019936865112493062 -0.0046893335335705267 0 -0.00015639522280575525 -0.0047393107620316366 0 -0.00021713287839811153 -0.0047353338108744227 0 -0.00019936865112493062 -0.0046893335335705267 0 -0.00031560691940206497 -0.0046329870553172116 0 -0.00021713287839811153 -0.0047353338108744227 0 -0.00016591430907531533 -0.0045389173642482626 0 -0.00033959201682956508 -0.0045556826411578448 0 -0.00016198296844675017 -0.0044096208556485923 0 -0.00033166676238587892 -0.0044719641148806633 0 -0.00037646812324053299 -0.0043357472894315924 0 -0.00033166676238587892 -0.0044719641148806633 0 -0.00037646812324053299 -0.0043357472894315924 0 -0.00050383477313930354 -0.0045602531795406499 0 -0.0002814848707974356 -0.0042025465290751263 0 -0.00037646812324053299 -0.0043357472894315924 0 -0.00042798290494421471 -0.0042020556473811683 0 -0.00051342176004675808 -0.0043262819250445787 0 -0.00061184400499258149 -0.0043141577353259918 0 -0.00055010539839385074 -0.0041353544542309289 0 -0.00037646812324053299 -0.0043357472894315924 0 -0.00051342176004675808 -0.0043262819250445787 0 -0.00042798290494421471 -0.0042020556473811683 0 -0.00051342176004675808 -0.0043262819250445787 0 -0.00050383477313930354 -0.0045602531795406499 0 -0.00059343584539651127 -0.0044256917591012314 0 -0.00037646812324053299 -0.0043357472894315924 0 -0.00051342176004675808 -0.0043262819250445787 0 -0.00050383477313930354 -0.0045602531795406499 0 -0.00033959201682956508 -0.0045556826411578448 0 -0.00049578836896392554 -0.0045665812391067579 0 -0.00050383477313930354 -0.0045602531795406499 0 -0.00063269838651500339 -0.0045422247787734581 0 -0.00059343584539651127 -0.0044256917591012314 0 -0.00063269838651500339 -0.0045422247787734581 0 -0.00068899793138179504 -0.004387395543630563 0 -0.00059343584539651127 -0.0044256917591012314 0 -0.00078627799023737815 -0.0043815770443584798 0 -0.00072610464541567618 -0.0044158665441489438 0 -0.00073262784043273937 -0.0043808726439855498 0 -0.00067766735073001552 -0.0043670311606654362 0 -0.00080012179445225181 -0.0045871205300258349 0 -0.00063269838651500339 -0.0045422247787734581 0 -0.00068899793138179504 -0.004387395543630563 0 -0.0007662130314646646 -0.0045547575771035208 0 -0.00068899793138179504 -0.004387395543630563 0 -0.00072610464541567618 -0.0044158665441489438 0 -0.00073262784043273937 -0.0043808726439855498 0 -0.00068899793138179504 -0.004387395543630563 0 -0.00073262784043273937 -0.0043808726439855498 0 -0.00070004829199401164 -0.0042862016648533337 0 -0.00077125241860765499 -0.0043404737270023768 0 -0.00065775501664757958 -0.0042318026983576406 0 -0.00077668500383987454 -0.0043481135319640447 0 -0.00073262784043273937 -0.0043808726439855498 0 -0.00070004829199401164 -0.0042862016648533337 0 -0.00077668500383987454 -0.0043481135319640447 0 -0.00061161382959317757 -0.0041759429071210278 0 -0.00072761413909259813 -0.004191497979934451 0 -0.00061161382959317757 -0.0041759429071210278 0 -0.00072761413909259813 -0.004191497979934451 0 -0.00069831631196589673 -0.0041030061133689091 0 -0.00051342176004675808 -0.0043262819250445787 0 -0.00059343584539651127 -0.0044256917591012314 0 -0.00061184400499258149 -0.0043141577353259918 0 -0.00068899793138179504 -0.004387395543630563 0 -0.00070004829199401164 -0.0042862016648533337 0 -0.00061184400499258149 -0.0043141577353259918 0 -0.00068899793138179504 -0.004387395543630563 0 -0.00059343584539651127 -0.0044256917591012314 0 -0.00061184400499258149 -0.0043141577353259918 0 -0.00061161382959317757 -0.0041759429071210278 0 -0.00059945564556245054 -0.0040208012771640045 0 -0.00048607683888305075 -0.0040447852663711573 0 -0.00065775501664757958 -0.0042318026983576406 0 -0.0005175445611706026 -0.0040912860295345905 0 -0.00070004829199401164 -0.0042862016648533337 0 -0.00061184400499258149 -0.0043141577353259918 0 -0.00055010539839385074 -0.0041353544542309289 0 -0.00069831631196589673 -0.0041030061133689091 0 -0.0007253480493408939 -0.0039924480532040783 0 -0.00059945564556245054 -0.0040208012771640045 0 -0.00061161382959317757 -0.0041759429071210278 0 -0.00069831631196589673 -0.0041030061133689091 0 -0.00059945564556245054 -0.0040208012771640045 0 -0.00062905137406535274 -0.0038565645242657613 0 -0.0007253480493408939 -0.0039924480532040783 0 -0.00059945564556245054 -0.0040208012771640045 0 -0.0007630214603420684 -0.003860931690853896 0 -0.00062905137406535274 -0.0038565645242657613 0 -0.0007253480493408939 -0.0039924480532040783 0 -0.0004886172732272865 -0.0038933861153691274 0 -0.00059945564556245054 -0.0040208012771640045 0 -0.00048607683888305075 -0.0040447852663711573 0 -0.00062905137406535274 -0.0038565645242657613 0 -0.0004886172732272865 -0.0038933861153691274 0 -0.00059945564556245054 -0.0040208012771640045 0 -0.0003776181722591989 -0.0039645803556059801 0 -0.0005175445611706026 -0.0040912860295345905 0 -0.0004886172732272865 -0.0038933861153691274 0 -0.00036514918795389767 -0.0039389665519419725 0 -0.00048607683888305075 -0.0040447852663711573 0 -0.0002814848707974356 -0.0042025465290751263 0 -0.00039627462267601574 -0.0039927974465548931 0 -0.00042798290494421471 -0.0042020556473811683 0 -0.00051342176004675808 -0.0043262819250445787 0 -0.00055010539839385074 -0.0041353544542309289 0 -0.00042798290494421471 -0.0042020556473811683 0 -0.00039627462267601574 -0.0039927974465548931 0 -0.00055010539839385074 -0.0041353544542309289 0 -0.00042798290494421471 -0.0042020556473811683 0 3.251675901614243e-05 -0.00491904872395987 0 4.7042882764134152e-08 -0.0049998113961545135 0 2.4977770035995347e-08 -0.0049997722658176886 0 3.251675901614243e-05 -0.00491904872395987 0 3.8110814622548704e-05 -0.0048900674296827353 0 2.4977770035995347e-08 -0.0049997722658176886 0 3.251675901614243e-05 -0.00491904872395987 0 7.7855918710910169e-05 -0.0048168064685339572 0 3.8110814622548704e-05 -0.0048900674296827353 0 7.7855918710910169e-05 -0.0048168064685339572 0 6.0596567382450458e-05 -0.0048653620184188366 0 0.00010997138528347172 -0.0047433685734331078 0 3.251675901614243e-05 -0.00491904872395987 0 7.7855918710910169e-05 -0.0048168064685339572 0 6.0596567382450458e-05 -0.0048653620184188366 0 6.0596567382450458e-05 -0.0048653620184188366 0 5.5658463318189968e-05 -0.0048820096583986955 0 9.9059009104835377e-05 -0.004784887053890771 0 3.251675901614243e-05 -0.00491904872395987 0 6.0596567382450458e-05 -0.0048653620184188366 0 4.7042882764134152e-08 -0.0049998113961545135 0 6.0596567382450458e-05 -0.0048653620184188366 0 4.7042882764134152e-08 -0.0049998113961545135 0 5.5658463318189968e-05 -0.0048820096583986955 0 4.7042882764134152e-08 -0.0049998113961545135 0 3.8657991849032965e-05 -0.004918705266173916 0 5.5658463318189968e-05 -0.0048820096583986955 0 4.7042882764134152e-08 -0.0049998113961545135 0 3.8657991849032965e-05 -0.004918705266173916 0 4.0819354656580266e-08 -0.0049998492201034474 0 1.0250819688206855e-08 -0.0049322044785448972 0 1.3726971053372681e-09 -0.0050000246635322557 0 3.6379211678407151e-07 -0.0047810803295087962 0 2.4237453182763389e-08 -0.0049999234279995246 0 4.2092011636748717e-05 -0.0048173254167203803 0 3.8657991849032965e-05 -0.004918705266173916 0 4.0819354656580266e-08 -0.0049998492201034474 0 7.4620807015871827e-05 -0.0048620435597353413 0 1.0250819688206855e-08 -0.0049322044785448972 0 -5.0438140251565301e-10 -0.0049998944383770928 0 1.3726971053372681e-09 -0.0050000246635322557 0 -5.2168175176180248e-11 -0.0049323113747504806 0 3.8210315633952447e-11 -0.0049999563652318559 0 -3.0661887284255415e-12 -0.0050000216668481751 0 -1.6577264441331788e-08 -0.0049323302142000305 0 1.6575853864646109e-08 -0.0049999155830759753 0 1.0250819688206855e-08 -0.0049322044785448972 0 -5.8088769792334576e-09 -0.0047064894543233475 0 3.6379211678407151e-07 -0.0047810803295087962 0 3.8657991849032965e-05 -0.004918705266173916 0 7.4620807015871827e-05 -0.0048620435597353413 0 7.6789566839024977e-05 -0.0048391277743060554 0 7.4620807015871827e-05 -0.0048620435597353413 0 7.6789566839024977e-05 -0.0048391277743060554 0 0.0001003649176684172 -0.0047765531719870134 0 7.6789566839024977e-05 -0.0048391277743060554 0 0.00010494822391008443 -0.0047582862846817751 0 0.0001003649176684172 -0.0047765531719870134 0 7.6789566839024977e-05 -0.0048391277743060554 0 9.9059009104835377e-05 -0.004784887053890771 0 0.00010494822391008443 -0.0047582862846817751 0 7.6789566839024977e-05 -0.0048391277743060554 0 5.5658463318189968e-05 -0.0048820096583986955 0 9.9059009104835377e-05 -0.004784887053890771 0 3.8657991849032965e-05 -0.004918705266173916 0 7.6789566839024977e-05 -0.0048391277743060554 0 5.5658463318189968e-05 -0.0048820096583986955 0 9.9059009104835377e-05 -0.004784887053890771 0 0.00011996458153259449 -0.0046715162050627122 0 0.00012189352992725189 -0.0046917448962714523 0 9.9059009104835377e-05 -0.004784887053890771 0 0.00010494822391008443 -0.0047582862846817751 0 0.00011996458153259449 -0.0046715162050627122 0 -5.8088769792334576e-09 -0.0047064894543233475 0 -1.2955504193952154e-06 -0.0045495265119882286 0 1.5622463790668893e-09 -0.0044807039540699775 0 7.4620807015871827e-05 -0.0048620435597353413 0 0.0001003649176684172 -0.0047765531719870134 0 0.00013554859692107223 -0.0046434219478796489 0 0.0001003649176684172 -0.0047765531719870134 0 0.00011541150951793057 -0.0047179411022611924 0 0.00013554859692107223 -0.0046434219478796489 0 -5.8088769792334576e-09 -0.0047064894543233475 0 3.6379211678407151e-07 -0.0047810803295087962 0 -1.2955504193952154e-06 -0.0045495265119882286 0 4.2092011636748717e-05 -0.0048173254167203803 0 6.0534189218831013e-05 -0.0045881327564847385 0 0.00010494822391008443 -0.0047582862846817751 0 0.0001003649176684172 -0.0047765531719870134 0 0.00011541150951793057 -0.0047179411022611924 0 0.00011541150951793057 -0.0047179411022611924 0 0.00011996458153259449 -0.0046715162050627122 0 0.00013554859692107223 -0.0046434219478796489 0 0.00010494822391008443 -0.0047582862846817751 0 0.00011541150951793057 -0.0047179411022611924 0 0.00011996458153259449 -0.0046715162050627122 0 -1.2955504193952154e-06 -0.0045495265119882286 0 1.5622463790668893e-09 -0.0044807039540699775 0 8.2440522061083559e-06 -0.0043345587612331022 0 6.0534189218831013e-05 -0.0045881327564847385 0 5.6522601754984155e-06 -0.0043937632035396653 0 0.00013554859692107223 -0.0046434219478796489 0 9.382063988515473e-05 -0.0045546499553561397 0 8.2440522061083559e-06 -0.0043345587612331022 0 0.00011996458153259449 -0.0046715162050627122 0 9.382063988515473e-05 -0.0045546499553561397 0 9.7962127935028072e-05 -0.0045944851837296952 0 0.00011996458153259449 -0.0046715162050627122 0 0.00013554859692107223 -0.0046434219478796489 0 9.382063988515473e-05 -0.0045546499553561397 0 9.382063988515473e-05 -0.0045546499553561397 0 9.7962127935028072e-05 -0.0045944851837296952 0 5.4991084560155335e-05 -0.0044759245647715698 0 0.00011996458153259449 -0.0046715162050627122 0 9.7962127935028072e-05 -0.0045944851837296952 0 0.00012189352992725189 -0.0046917448962714523 0 9.7962127935028072e-05 -0.0045944851837296952 0 0.00012189352992725189 -0.0046917448962714523 0 6.3557979073752222e-05 -0.0046432139182494333 0 0.00012189352992725189 -0.0046917448962714523 0 0.00010997138528347172 -0.0047433685734331078 0 0.00016676130356972038 -0.0046118827046706815 0 0.00012189352992725189 -0.0046917448962714523 0 0.00016676130356972038 -0.0046118827046706815 0 6.3557979073752222e-05 -0.0046432139182494333 0 6.0596567382450458e-05 -0.0048653620184188366 0 9.9059009104835377e-05 -0.004784887053890771 0 0.00010997138528347172 -0.0047433685734331078 0 9.9059009104835377e-05 -0.004784887053890771 0 0.00012189352992725189 -0.0046917448962714523 0 0.00010997138528347172 -0.0047433685734331078 0 7.7855918710910169e-05 -0.0048168064685339572 0 0.00010997138528347172 -0.0047433685734331078 0 0.00014522392124142124 -0.0046857856241415956 0 0.00010997138528347172 -0.0047433685734331078 0 0.00016676130356972038 -0.0046118827046706815 0 0.00014522392124142124 -0.0046857856241415956 0 0.00016676130356972038 -0.0046118827046706815 0 0.00016124346058278441 -0.004596761324058285 0 0.00014522392124142124 -0.0046857856241415956 0 0.00016676130356972038 -0.0046118827046706815 0 0.00013127340624180994 -0.0044208342579775805 0 0.00016124346058278441 -0.004596761324058285 0 0.00013127340624180994 -0.0044208342579775805 0 0.00011445900151671062 -0.0045416328925037145 0 0.00016124346058278441 -0.004596761324058285 0 0.00013127340624180994 -0.0044208342579775805 0 3.9400120963156418e-05 -0.0042903399996641013 0 0.00011445900151671062 -0.0045416328925037145 0 0.00013127340624180994 -0.0044208342579775805 0 9.0493136222894851e-05 -0.0042102877451738819 0 0.0001950585031384098 -0.004282849917340706 0 0.00013127340624180994 -0.0044208342579775805 0 9.0493136222894851e-05 -0.0042102877451738819 0 3.9400120963156418e-05 -0.0042903399996641013 0 0.00015966152498662626 -0.0045756632470016472 0 0.00011762622178929108 -0.0044524767739982495 0 0.00016676130356972038 -0.0046118827046706815 0 0.00013127340624180994 -0.0044208342579775805 0 0.0001950585031384098 -0.004282849917340706 0 6.3557979073752222e-05 -0.0046432139182494333 0 3.3591623274097824e-05 -0.0044622776197488613 0 -5.538674506087871e-05 -0.004413048179439702 0 9.7962127935028072e-05 -0.0045944851837296952 0 6.3557979073752222e-05 -0.0046432139182494333 0 3.3591623274097824e-05 -0.0044622776197488613 0 3.3591623274097824e-05 -0.0044622776197488613 0 1.6111661465906215e-07 -0.0042549815909193505 0 -5.538674506087871e-05 -0.004413048179439702 0 1.5622463790668893e-09 -0.0044807039540699775 0 1.6111661465906215e-07 -0.0042549815909193505 0 8.2440522061083559e-06 -0.0043345587612331022 0 5.4991084560155335e-05 -0.0044759245647715698 0 3.3591623274097824e-05 -0.0044622776197488613 0 8.2440522061083559e-06 -0.0043345587612331022 0 9.7962127935028072e-05 -0.0045944851837296952 0 5.4991084560155335e-05 -0.0044759245647715698 0 3.3591623274097824e-05 -0.0044622776197488613 0 3.3591623274097824e-05 -0.0044622776197488613 0 1.6111661465906215e-07 -0.0042549815909193505 0 8.2440522061083559e-06 -0.0043345587612331022 0 9.382063988515473e-05 -0.0045546499553561397 0 5.4991084560155335e-05 -0.0044759245647715698 0 8.2440522061083559e-06 -0.0043345587612331022 0 1.6111661465906215e-07 -0.0042549815909193505 0 -5.538674506087871e-05 -0.004413048179439702 0 -3.2693483463558371e-07 -0.004029434633874787 0 3.8809967591811287e-05 -0.0042504652937801323 0 1.9000714570477736e-08 -0.004029230762540954 0 0.00011762622178929108 -0.0044524767739982495 0 3.8809967591811287e-05 -0.0042504652937801323 0 9.0493136222894851e-05 -0.0042102877451738819 0 0.0001950585031384098 -0.004282849917340706 0 9.6266545221126713e-05 -0.0040680151152174921 0 9.0493136222894851e-05 -0.0042102877451738819 0 9.6266545221126713e-05 -0.0040680151152174921 0 1.8632268205829671e-05 -0.0040063761724027092 0 9.6266545221126713e-05 -0.0040680151152174921 0 1.8632268205829671e-05 -0.0040063761724027092 0 2.2809597269930099e-07 -0.0040286979470242424 0 -5.6727494912853556e-08 -0.0037439025740162767 0 -5.20219234067307e-05 -0.003852229120224631 0 1.8632268205829671e-05 -0.0040063761724027092 0 -5.6727494912853556e-08 -0.0037439025740162767 0 1.8632268205829671e-05 -0.0040063761724027092 0 2.2809597269930099e-07 -0.0040286979470242424 0 -5.20219234067307e-05 -0.003852229120224631 0 1.8632268205829671e-05 -0.0040063761724027092 0 -5.8741612164429647e-05 -0.0041684383663286965 0 -5.8741612164429647e-05 -0.0041684383663286965 0 3.9400120963156418e-05 -0.0042903399996641013 0 -7.3377216051113319e-05 -0.00451723687686288 0 1.8632268205829671e-05 -0.0040063761724027092 0 -5.8741612164429647e-05 -0.0041684383663286965 0 3.9400120963156418e-05 -0.0042903399996641013 0 9.0493136222894851e-05 -0.0042102877451738819 0 1.8632268205829671e-05 -0.0040063761724027092 0 3.9400120963156418e-05 -0.0042903399996641013 0 3.9400120963156418e-05 -0.0042903399996641013 0 -7.3377216051113319e-05 -0.00451723687686288 0 0.00011445900151671062 -0.0045416328925037145 0 -7.3377216051113319e-05 -0.00451723687686288 0 8.0820051978951744e-05 -0.0046705475660531346 0 0.00011445900151671062 -0.0045416328925037145 0 -7.3377216051113319e-05 -0.00451723687686288 0 -0.00010891843016699235 -0.0047253912199163939 0 8.0820051978951744e-05 -0.0046705475660531346 0 -0.0002239973342625501 -0.0046788252591074232 0 -7.3377216051113319e-05 -0.00451723687686288 0 -0.00010891843016699235 -0.0047253912199163939 0 -7.4814996144136788e-05 -0.0048335162741128786 0 -6.8791429176448746e-05 -0.0048304912242649583 0 -5.2775775807240209e-05 -0.0048637478555526989 0 -6.8791429176448746e-05 -0.0048304912242649583 0 -5.2775775807240209e-05 -0.0048637478555526989 0 -4.0456780033171085e-05 -0.0048762659940872772 0 -0.00011435114680214108 -0.004802454235339107 0 2.2580959879444169e-05 -0.004770038734901381 0 -5.2775775807240209e-05 -0.0048637478555526989 0 -4.0456780033171085e-05 -0.0048762659940872772 0 -3.0535533117678385e-05 -0.0049026603555663737 0 -5.2775775807240209e-05 -0.0048637478555526989 0 -3.0535533117678385e-05 -0.0049026603555663737 0 -3.4082378857858093e-05 -0.0049028613896042869 0 -3.0535533117678385e-05 -0.0049026603555663737 0 -2.2518632835932068e-05 -0.0049268719978569006 0 -3.4082378857858093e-05 -0.0049028613896042869 0 -4.0456780033171085e-05 -0.0048762659940872772 0 -3.0535533117678385e-05 -0.0049026603555663737 0 -2.4222121572223621e-05 -0.004918707205759756 0 2.2580959879444169e-05 -0.004770038734901381 0 6.935594390466209e-05 -0.0047838487579964679 0 8.0820051978951744e-05 -0.0046705475660531346 0 0.00017081378815885268 -0.0046447026449180561 0 0.00011445900151671062 -0.0045416328925037145 0 0.00017081378815885268 -0.0046447026449180561 0 0.00011445900151671062 -0.0045416328925037145 0 0.00016124346058278441 -0.004596761324058285 0 0.00017081378815885268 -0.0046447026449180561 0 0.00016124346058278441 -0.004596761324058285 0 0.00014522392124142124 -0.0046857856241415956 0 7.7855918710910169e-05 -0.0048168064685339572 0 0.00014522392124142124 -0.0046857856241415956 0 0.00010566130173104666 -0.0047184610773862018 0 -2.4222121572223621e-05 -0.004918707205759756 0 -1.7584846468475259e-05 -0.0049536607530528279 0 -1.9449102045276363e-05 -0.004940405939618267 0 6.935594390466209e-05 -0.0047838487579964679 0 4.9963634108531602e-05 -0.0048426052326314131 0 0.00017081378815885268 -0.0046447026449180561 0 0.00014522392124142124 -0.0046857856241415956 0 0.00010566130173104666 -0.0047184610773862018 0 -3.0535533117678385e-05 -0.0049026603555663737 0 -2.4222121572223621e-05 -0.004918707205759756 0 -1.9449102045276363e-05 -0.004940405939618267 0 -3.0535533117678385e-05 -0.0049026603555663737 0 -2.2518632835932068e-05 -0.0049268719978569006 0 -1.9449102045276363e-05 -0.004940405939618267 0 -2.2518632835932068e-05 -0.0049268719978569006 0 -1.9449102045276363e-05 -0.004940405939618267 0 -1.596097282458106e-05 -0.0049600858046545335 0 -1.9449102045276363e-05 -0.004940405939618267 0 -1.1094119027418209e-05 -0.0049689435101918618 0 -1.596097282458106e-05 -0.0049600858046545335 0 -1.7584846468475259e-05 -0.0049536607530528279 0 -1.9449102045276363e-05 -0.004940405939618267 0 -1.1094119027418209e-05 -0.0049689435101918618 0 -1.1094119027418209e-05 -0.0049689435101918618 0 -6.3141545250170907e-09 -0.0049999613920527217 0 -1.596097282458106e-05 -0.0049600858046545335 0 -1.1094119027418209e-05 -0.0049689435101918618 0 -6.3141545250170907e-09 -0.0049999613920527217 0 4.2985692945149242e-09 -0.0049999577188887126 0 -1.1094119027418209e-05 -0.0049689435101918618 0 4.2985692945149242e-09 -0.0049999577188887126 0 -7.7947829954976697e-06 -0.0049721642527967708 0 4.2985692945149242e-09 -0.0049999577188887126 0 -7.7947829954976697e-06 -0.0049721642527967708 0 5.1190321103045111e-06 -0.004965858075641775 0 -1.7584846468475259e-05 -0.0049536607530528279 0 -1.1094119027418209e-05 -0.0049689435101918618 0 -7.7947829954976697e-06 -0.0049721642527967708 0 4.9963634108531602e-05 -0.0048426052326314131 0 1.340325871598008e-05 -0.0049441118757150128 0 -1.7584846468475259e-05 -0.0049536607530528279 0 -7.7947829954976697e-06 -0.0049721642527967708 0 5.1190321103045111e-06 -0.004965858075641775 0 7.7855918710910169e-05 -0.0048168064685339572 0 0.00010566130173104666 -0.0047184610773862018 0 3.8110814622548704e-05 -0.0048900674296827353 0 0.00010566130173104666 -0.0047184610773862018 0 3.8110814622548704e-05 -0.0048900674296827353 0 5.1190321103045111e-06 -0.004965858075641775 0 4.2985692945149242e-09 -0.0049999577188887126 0 2.4977770035995347e-08 -0.0049997722658176886 0 5.1190321103045111e-06 -0.004965858075641775 0 3.8110814622548704e-05 -0.0048900674296827353 0 2.4977770035995347e-08 -0.0049997722658176886 0 5.1190321103045111e-06 -0.004965858075641775 0 -3.4772966303948531e-09 -0.0050000049304792593 0 -3.8952107275177693e-07 -0.0050003896526297194 0 -1.9625862407873537e-06 -0.0050005932824345534 0 4.9332690463951652e-07 -0.004958121350825827 0 -1.1914176227169023e-05 -0.0049542040454291746 0 -8.5042210898921912e-06 -0.0049646880574173574 0 4.9332690463951652e-07 -0.004958121350825827 0 -1.1914176227169023e-05 -0.0049542040454291746 0 -1.374593498066766e-05 -0.0049404650909751257 0 -1.1914176227169023e-05 -0.0049542040454291746 0 -1.374593498066766e-05 -0.0049404650909751257 0 -1.6019234397402235e-05 -0.0049449679741031174 0 -3.8952107275177693e-07 -0.0050003896526297194 0 -6.9662592165950864e-06 -0.0050009620455544763 0 -1.9625862407873537e-06 -0.0050005932824345534 0 -6.9662592165950864e-06 -0.0050009620455544763 0 -1.9625862407873537e-06 -0.0050005932824345534 0 2.4266027789279432e-09 -0.0049999933689298254 0 -1.2146053336182239e-06 -0.0049793202722564463 0 -9.7211999150428997e-06 -0.0049707807636837249 0 -3.4772966303948531e-09 -0.0050000049304792593 0 -1.9625862407873537e-06 -0.0050005932824345534 0 2.4266027789279432e-09 -0.0049999933689298254 0 -6.9662592165950864e-06 -0.0050009620455544763 0 2.4266027789279432e-09 -0.0049999933689298254 0 -3.4228509213836835e-06 -0.0049883514604249649 0 -6.3141545250170907e-09 -0.0049999613920527217 0 -3.4228509213836835e-06 -0.0049883514604249649 0 -1.596097282458106e-05 -0.0049600858046545335 0 -6.3141545250170907e-09 -0.0049999613920527217 0 2.4266027789279432e-09 -0.0049999933689298254 0 -3.4228509213836835e-06 -0.0049883514604249649 0 -1.374593498066766e-05 -0.0049404650909751257 0 -1.596097282458106e-05 -0.0049600858046545335 0 -1.5160284977938371e-05 -0.0049395036655222593 0 -6.9662592165950864e-06 -0.0050009620455544763 0 -3.4228509213836835e-06 -0.0049883514604249649 0 -1.596097282458106e-05 -0.0049600858046545335 0 -9.7211999150428997e-06 -0.0049707807636837249 0 -1.5380832951181253e-05 -0.0049613894583627697 0 -2.2518632835932068e-05 -0.0049268719978569006 0 -1.596097282458106e-05 -0.0049600858046545335 0 -1.5160284977938371e-05 -0.0049395036655222593 0 -2.2518632835932068e-05 -0.0049268719978569006 0 -1.5160284977938371e-05 -0.0049395036655222593 0 -2.5035618272619672e-05 -0.0049230751890478085 0 -1.5160284977938371e-05 -0.0049395036655222593 0 -2.1886205755374405e-05 -0.0049394856429314116 0 -2.5035618272619672e-05 -0.0049230751890478085 0 -1.5160284977938371e-05 -0.0049395036655222593 0 -2.1886205755374405e-05 -0.0049394856429314116 0 -1.6019234397402235e-05 -0.0049449679741031174 0 -1.374593498066766e-05 -0.0049404650909751257 0 -1.5160284977938371e-05 -0.0049395036655222593 0 -1.6019234397402235e-05 -0.0049449679741031174 0 -1.1914176227169023e-05 -0.0049542040454291746 0 -1.6019234397402235e-05 -0.0049449679741031174 0 -1.8257878012398624e-05 -0.0049541796825960304 0 -2.1886205755374405e-05 -0.0049394856429314116 0 -1.6019234397402235e-05 -0.0049449679741031174 0 -1.8257878012398624e-05 -0.0049541796825960304 0 -1.1914176227169023e-05 -0.0049542040454291746 0 -1.8257878012398624e-05 -0.0049541796825960304 0 -1.3341996440076677e-05 -0.0049670099220877053 0 -2.1886205755374405e-05 -0.0049394856429314116 0 -1.8257878012398624e-05 -0.0049541796825960304 0 -2.3717482271341379e-05 -0.0049531235827690728 0 -2.1886205755374405e-05 -0.0049394856429314116 0 -2.3717482271341379e-05 -0.0049531235827690728 0 -3.2639614121276039e-05 -0.0049349608779120412 0 -2.3717482271341379e-05 -0.0049531235827690728 0 -3.2639614121276039e-05 -0.0049349608779120412 0 -3.1837218740980373e-05 -0.0049499989475277235 0 -3.1837218740980373e-05 -0.0049499989475277235 0 -4.8179141621501528e-05 -0.0049419459172972049 0 -4.1251516727371661e-05 -0.0049542996764185381 0 -3.2639614121276039e-05 -0.0049349608779120412 0 -3.1837218740980373e-05 -0.0049499989475277235 0 -4.8179141621501528e-05 -0.0049419459172972049 0 -3.2639614121276039e-05 -0.0049349608779120412 0 -3.4517672875071127e-05 -0.0049163351154088994 0 -5.1337168729159083e-05 -0.0049066497917161058 0 -3.2639614121276039e-05 -0.0049349608779120412 0 -4.8179141621501528e-05 -0.0049419459172972049 0 -5.1337168729159083e-05 -0.0049066497917161058 0 -2.1886205755374405e-05 -0.0049394856429314116 0 -3.2639614121276039e-05 -0.0049349608779120412 0 -3.4517672875071127e-05 -0.0049163351154088994 0 -2.1886205755374405e-05 -0.0049394856429314116 0 -2.5035618272619672e-05 -0.0049230751890478085 0 -3.4517672875071127e-05 -0.0049163351154088994 0 -2.5035618272619672e-05 -0.0049230751890478085 0 -3.4082378857858093e-05 -0.0049028613896042869 0 -3.4517672875071127e-05 -0.0049163351154088994 0 -2.2518632835932068e-05 -0.0049268719978569006 0 -2.5035618272619672e-05 -0.0049230751890478085 0 -3.4082378857858093e-05 -0.0049028613896042869 0 -3.4517672875071127e-05 -0.0049163351154088994 0 -4.9933673782648569e-05 -0.0048878142861418627 0 -5.1337168729159083e-05 -0.0049066497917161058 0 -3.4082378857858093e-05 -0.0049028613896042869 0 -3.4517672875071127e-05 -0.0049163351154088994 0 -4.9933673782648569e-05 -0.0048878142861418627 0 -4.9933673782648569e-05 -0.0048878142861418627 0 -6.6724236982143741e-05 -0.0048823472828969519 0 -5.1337168729159083e-05 -0.0049066497917161058 0 -5.2775775807240209e-05 -0.0048637478555526989 0 -4.9933673782648569e-05 -0.0048878142861418627 0 -6.4310139576438866e-05 -0.0048634006949157997 0 -5.2775775807240209e-05 -0.0048637478555526989 0 -3.4082378857858093e-05 -0.0049028613896042869 0 -4.9933673782648569e-05 -0.0048878142861418627 0 -7.4814996144136788e-05 -0.0048335162741128786 0 -5.2775775807240209e-05 -0.0048637478555526989 0 -6.4310139576438866e-05 -0.0048634006949157997 0 -6.4310139576438866e-05 -0.0048634006949157997 0 -6.6724236982143741e-05 -0.0048823472828969519 0 -8.1750618063674684e-05 -0.004850890522425602 0 -4.9933673782648569e-05 -0.0048878142861418627 0 -6.4310139576438866e-05 -0.0048634006949157997 0 -6.6724236982143741e-05 -0.0048823472828969519 0 -6.6724236982143741e-05 -0.0048823472828969519 0 -6.4576942883768837e-05 -0.0048905689886169787 0 -7.8321895060506748e-05 -0.0048825850078034316 0 -6.6724236982143741e-05 -0.0048823472828969519 0 -5.1337168729159083e-05 -0.0049066497917161058 0 -6.4576942883768837e-05 -0.0048905689886169787 0 -5.3175842651236052e-05 -0.0049055305278891351 0 -6.2177564660520542e-05 -0.004908809821457273 0 -4.8179141621501528e-05 -0.0049419459172972049 0 -5.1337168729159083e-05 -0.0049066497917161058 0 -6.6451670377925227e-05 -0.0049319624443903889 0 -4.8179141621501528e-05 -0.0049419459172972049 0 -6.6451670377925227e-05 -0.0049319624443903889 0 -6.2980902305654655e-05 -0.0049470398463320542 0 -6.4576942883768837e-05 -0.0048905689886169787 0 -7.577313294654343e-05 -0.0048889397437518241 0 -7.8321895060506748e-05 -0.0048825850078034316 0 -6.2177564660520542e-05 -0.004908809821457273 0 -8.4903172610071347e-05 -0.0049264850336273799 0 -6.6451670377925227e-05 -0.0049319624443903889 0 -7.5190545701127044e-05 -0.0049484829274547204 0 -6.2980902305654655e-05 -0.0049470398463320542 0 -6.7356662269275522e-05 -0.0049561893884482707 0 -7.4620919521217361e-05 -0.0049590416246857727 0 -7.5190545701127044e-05 -0.0049484829274547204 0 -6.7356662269275522e-05 -0.0049561893884482707 0 -7.5190545701127044e-05 -0.0049484829274547204 0 -6.2980902305654655e-05 -0.0049470398463320542 0 -6.7356662269275522e-05 -0.0049561893884482707 0 -6.2980902305654655e-05 -0.0049470398463320542 0 -5.5177070598272193e-05 -0.0049572929714890475 0 -4.8179141621501528e-05 -0.0049419459172972049 0 -6.2980902305654655e-05 -0.0049470398463320542 0 -5.5177070598272193e-05 -0.0049572929714890475 0 2.7325456479670535e-06 -0.0049975657980139369 0 -1.9287747804206921e-05 -0.004982971752727096 0 -5.5177070598272193e-05 -0.0049572929714890475 0 -4.852490760053177e-05 -0.0049757011248156013 0 -3.90140361335752e-05 -0.0049665601429256558 0 -5.5177070598272193e-05 -0.0049572929714890475 0 -6.812413572613816e-05 -0.0049691767114865316 0 -4.852490760053177e-05 -0.0049757011248156013 0 -7.4620919521217361e-05 -0.0049590416246857727 0 -6.812413572613816e-05 -0.0049691767114865316 0 -8.5436609091178549e-05 -0.0049614166850851567 0 -6.7356662269275522e-05 -0.0049561893884482707 0 -5.5177070598272193e-05 -0.0049572929714890475 0 -6.812413572613816e-05 -0.0049691767114865316 0 -6.7356662269275522e-05 -0.0049561893884482707 0 -7.4620919521217361e-05 -0.0049590416246857727 0 -6.812413572613816e-05 -0.0049691767114865316 0 5.9116918752449534e-05 -0.005009616467151509 0 6.4956382667618045e-05 -0.004967955460681241 0 1.4071101555676923e-05 -0.0049936971916995929 0 5.9116918752449534e-05 -0.005009616467151509 0 6.4956382667618045e-05 -0.004967955460681241 0 9.7362635461276136e-05 -0.0049878620946257985 0 6.4956382667618045e-05 -0.004967955460681241 0 3.989454536642864e-05 -0.0049343693658597575 0 8.3984628911721083e-05 -0.0049243920250945407 0 3.989454536642864e-05 -0.0049343693658597575 0 1.4071101555676923e-05 -0.0049936971916995929 0 -9.2347386776209932e-06 -0.0049464812842734988 0 6.4956382667618045e-05 -0.004967955460681241 0 3.989454536642864e-05 -0.0049343693658597575 0 1.4071101555676923e-05 -0.0049936971916995929 0 -4.852490760053177e-05 -0.0049757011248156013 0 -2.7924420527434492e-05 -0.0049769176680619651 0 -3.90140361335752e-05 -0.0049665601429256558 0 -1.9287747804206921e-05 -0.004982971752727096 0 -2.696234234025802e-05 -0.0049782670754210624 0 1.4071101555676923e-05 -0.0049936971916995929 0 -9.2347386776209932e-06 -0.0049464812842734988 0 -2.7924420527434492e-05 -0.0049769176680619651 0 -9.2347386776209932e-06 -0.0049464812842734988 0 -3.5969058190880643e-05 -0.0049660064946960352 0 -2.7924420527434492e-05 -0.0049769176680619651 0 -2.7924420527434492e-05 -0.0049769176680619651 0 -2.9307554485804154e-05 -0.0049663656153914005 0 -2.6843938427689062e-05 -0.0049752414115189518 0 -3.5969058190880643e-05 -0.0049660064946960352 0 -2.7924420527434492e-05 -0.0049769176680619651 0 -2.6843938427689062e-05 -0.0049752414115189518 0 -2.7924420527434492e-05 -0.0049769176680619651 0 -2.9307554485804154e-05 -0.0049663656153914005 0 -3.90140361335752e-05 -0.0049665601429256558 0 -2.9307554485804154e-05 -0.0049663656153914005 0 -3.90140361335752e-05 -0.0049665601429256558 0 -4.1251516727371661e-05 -0.0049542996764185381 0 -4.8179141621501528e-05 -0.0049419459172972049 0 -5.5177070598272193e-05 -0.0049572929714890475 0 -4.1251516727371661e-05 -0.0049542996764185381 0 -5.5177070598272193e-05 -0.0049572929714890475 0 -3.90140361335752e-05 -0.0049665601429256558 0 -4.1251516727371661e-05 -0.0049542996764185381 0 -3.1837218740980373e-05 -0.0049499989475277235 0 -2.9307554485804154e-05 -0.0049663656153914005 0 -4.1251516727371661e-05 -0.0049542996764185381 0 -2.3717482271341379e-05 -0.0049531235827690728 0 -3.1837218740980373e-05 -0.0049499989475277235 0 -2.9307554485804154e-05 -0.0049663656153914005 0 -1.8257878012398624e-05 -0.0049541796825960304 0 -2.3717482271341379e-05 -0.0049531235827690728 0 -2.1003061105241288e-05 -0.0049673092448252612 0 -2.3717482271341379e-05 -0.0049531235827690728 0 -2.9307554485804154e-05 -0.0049663656153914005 0 -2.1003061105241288e-05 -0.0049673092448252612 0 -1.8257878012398624e-05 -0.0049541796825960304 0 -2.1003061105241288e-05 -0.0049673092448252612 0 -1.3341996440076677e-05 -0.0049670099220877053 0 -2.1003061105241288e-05 -0.0049673092448252612 0 -1.2312265678722115e-05 -0.004977960210333819 0 -1.3341996440076677e-05 -0.0049670099220877053 0 -2.1003061105241288e-05 -0.0049673092448252612 0 -1.7962379193739734e-05 -0.0049781516296172985 0 -1.2312265678722115e-05 -0.004977960210333819 0 -2.9307554485804154e-05 -0.0049663656153914005 0 -2.1003061105241288e-05 -0.0049673092448252612 0 -2.6843938427689062e-05 -0.0049752414115189518 0 -2.1003061105241288e-05 -0.0049673092448252612 0 -2.6843938427689062e-05 -0.0049752414115189518 0 -1.7962379193739734e-05 -0.0049781516296172985 0 -2.6843938427689062e-05 -0.0049752414115189518 0 -1.9626486059064842e-05 -0.0049799379195041909 0 -1.7962379193739734e-05 -0.0049781516296172985 0 -3.5969058190880643e-05 -0.0049660064946960352 0 -1.9626486059064842e-05 -0.0049799379195041909 0 -2.3596496585896948e-05 -0.004981794559431831 0 -3.5969058190880643e-05 -0.0049660064946960352 0 -2.6843938427689062e-05 -0.0049752414115189518 0 -1.9626486059064842e-05 -0.0049799379195041909 0 -1.9626486059064842e-05 -0.0049799379195041909 0 -8.1630547344453337e-06 -0.0049905184252383647 0 -1.2083639382063654e-05 -0.0049906850964918223 0 -1.9626486059064842e-05 -0.0049799379195041909 0 -1.7962379193739734e-05 -0.0049781516296172985 0 -8.1630547344453337e-06 -0.0049905184252383647 0 -1.7962379193739734e-05 -0.0049781516296172985 0 -6.6994208895512343e-06 -0.0049894055738155217 0 -8.1630547344453337e-06 -0.0049905184252383647 0 -8.1630547344453337e-06 -0.0049905184252383647 0 -1.088164728406031e-08 -0.0049999982430559715 0 -4.8704367425905838e-10 -0.0049999923719037612 0 -6.6994208895512343e-06 -0.0049894055738155217 0 -1.088164728406031e-08 -0.0049999982430559715 0 1.6466223514418595e-08 -0.0049999319484619088 0 -6.6994208895512343e-06 -0.0049894055738155217 0 -8.1630547344453337e-06 -0.0049905184252383647 0 -1.088164728406031e-08 -0.0049999982430559715 0 -6.6994208895512343e-06 -0.0049894055738155217 0 1.6466223514418595e-08 -0.0049999319484619088 0 -6.6696292664632598e-06 -0.0049793866928464249 0 -1.7962379193739734e-05 -0.0049781516296172985 0 -6.6994208895512343e-06 -0.0049894055738155217 0 -1.2312265678722115e-05 -0.004977960210333819 0 -6.6994208895512343e-06 -0.0049894055738155217 0 -1.2312265678722115e-05 -0.004977960210333819 0 -6.6696292664632598e-06 -0.0049793866928464249 0 -1.2312265678722115e-05 -0.004977960210333819 0 -6.6696292664632598e-06 -0.0049793866928464249 0 -1.3341996440076677e-05 -0.0049670099220877053 0 -1.1914176227169023e-05 -0.0049542040454291746 0 -1.3341996440076677e-05 -0.0049670099220877053 0 -8.5042210898921912e-06 -0.0049646880574173574 0 -6.6696292664632598e-06 -0.0049793866928464249 0 -1.3341996440076677e-05 -0.0049670099220877053 0 -8.5042210898921912e-06 -0.0049646880574173574 0 4.9332690463951652e-07 -0.004958121350825827 0 1.6466223514418595e-08 -0.0049999319484619088 0 -6.6696292664632598e-06 -0.0049793866928464249 0 -3.4772966303948531e-09 -0.0050000049304792593 0 -3.8952107275177693e-07 -0.0050003896526297194 0 1.6632061197914781e-09 -0.0049999978572608759 0 4.9332690463951652e-07 -0.004958121350825827 0 -6.6696292664632598e-06 -0.0049793866928464249 0 -8.5042210898921912e-06 -0.0049646880574173574 0 -1.2146053336182239e-06 -0.0049793202722564463 0 6.7452272178285431e-10 -0.0049999922952082068 0 0.0001065485755275849 -0.0047707837259895296 0 -5.0729531800311736e-05 -0.0048413512226070611 0 -1.8508425460365154e-05 -0.0047355854851735407 0 -0.00053196734175179185 -0.0049565660171401651 0 -0.00035581870933238085 -0.0048793854733773833 0 -0.00046420898949567807 -0.0048284201272360194 0 -0.00053196734175179185 -0.0049565660171401651 0 -0.00058652682355677147 -0.004815407044607316 0 -0.00046420898949567807 -0.0048284201272360194 0 -0.0002617301793897504 -0.0049141405010850962 0 -0.00018689002064508072 -0.0048501494568789277 0 -5.0729531800311736e-05 -0.0048413512226070611 0 -1.8508425460365154e-05 -0.0047355854851735407 0 -0.00011342976736093692 -0.0048441928782267584 0 -1.8508425460365154e-05 -0.0047355854851735407 0 -9.7633266628330747e-05 -0.004643040254850031 0 -0.00011342976736093692 -0.0048441928782267584 0 -1.8508425460365154e-05 -0.0047355854851735407 0 -9.7633266628330747e-05 -0.004643040254850031 0 7.9937094134645226e-06 -0.0045913690534391503 0 -1.8508425460365154e-05 -0.0047355854851735407 0 7.0838289648150369e-05 -0.0046724199678199281 0 7.9937094134645226e-06 -0.0045913690534391503 0 0.0001065485755275849 -0.0047707837259895296 0 7.0838289648150369e-05 -0.0046724199678199281 0 0.00015907647427668389 -0.0046193513609897822 0 0.0001065485755275849 -0.0047707837259895296 0 -1.8508425460365154e-05 -0.0047355854851735407 0 7.0838289648150369e-05 -0.0046724199678199281 0 7.0838289648150369e-05 -0.0046724199678199281 0 0.00015907647427668389 -0.0046193513609897822 0 8.4562617326760478e-05 -0.0045825630581600085 0 0.0001065485755275849 -0.0047707837259895296 0 0.00015907647427668389 -0.0046193513609897822 0 0.0002825043955709267 -0.0046913229859613086 0 -0.0002617301793897504 -0.0049141405010850962 0 -5.4923617932404094e-05 -0.0044644936657754798 0 -5.4923617932404094e-05 -0.0044644936657754798 0 -0.00044811740871476146 -0.0043968113574490977 0 -2.5645924719347186e-05 -0.0037655395847799532 0 -0.00012657859398625994 -0.0037167010835140383 0 -9.3194394308913634e-05 -0.0038485955375505477 0 -0.00053196734175179185 -0.0049565660171401651 0 -0.00071139053692557096 -0.0050310619557365774 0 -0.00076366904574915069 -0.0048655553630745467 0 -0.00053196734175179185 -0.0049565660171401651 0 -0.00076366904574915069 -0.0048655553630745467 0 -0.00058652682355677147 -0.004815407044607316 0 -0.00058652682355677147 -0.004815407044607316 0 -0.00067323097293785032 -0.0047023221132919037 0 -0.00050517417993389217 -0.0047211370733403037 0 -0.00076366904574915069 -0.0048655553630745467 0 -0.00058652682355677147 -0.004815407044607316 0 -0.00067323097293785032 -0.0047023221132919037 0 -0.00044811740871476146 -0.0043968113574490977 0 -0.00035949966034949291 -0.0039373213741544693 0 -0.00076366904574915069 -0.0048655553630745467 0 -0.00082523055245018145 -0.0046856039003495198 0 -0.00067323097293785032 -0.0047023221132919037 0 -0.0007662130314646646 -0.0045547575771035208 0 -0.00082523055245018145 -0.0046856039003495198 0 -0.00067323097293785032 -0.0047023221132919037 0 -0.00078627799023737815 -0.0043815770443584798 0 -0.00072610464541567618 -0.0044158665441489438 0 -0.0007502431926287021 -0.0044586480489879135 0 -0.00080012179445225181 -0.0045871205300258349 0 -0.00035949966034949291 -0.0039373213741544693 0 -0.00050383477313930354 -0.0045602531795406499 0 -0.00063269838651500339 -0.0045422247787734581 0 -0.00050517417993389217 -0.0047211370733403037 0 -0.00063269838651500339 -0.0045422247787734581 0 -0.0007662130314646646 -0.0045547575771035208 0 -0.00067323097293785032 -0.0047023221132919037 0 -0.00063269838651500339 -0.0045422247787734581 0 -0.00067323097293785032 -0.0047023221132919037 0 -0.00050517417993389217 -0.0047211370733403037 0 -0.00050517417993389217 -0.0047211370733403037 0 -0.00033180727623682203 -0.0048028317653984794 0 -0.00038458911887857383 -0.0046853202371492974 0 -0.00050383477313930354 -0.0045602531795406499 0 -0.00050517417993389217 -0.0047211370733403037 0 -0.00038458911887857383 -0.0046853202371492974 0 -0.00050517417993389217 -0.0047211370733403037 0 -0.00046420898949567807 -0.0048284201272360194 0 -0.00034455980283880567 -0.0047601139732316626 0 -0.00048627074122275865 -0.0047307231603830446 0 -0.00034540180699078529 -0.0047772901180019988 0 -0.00058652682355677147 -0.004815407044607316 0 -0.00050517417993389217 -0.0047211370733403037 0 -0.00046420898949567807 -0.0048284201272360194 0 -0.00035581870933238085 -0.0048793854733773833 0 -0.00034455980283880567 -0.0047601139732316626 0 -0.00018157364846885926 -0.0048026594445989496 0 -0.00035581870933238085 -0.0048793854733773833 0 -0.00046420898949567807 -0.0048284201272360194 0 -0.00034455980283880567 -0.0047601139732316626 0 -0.00033180727623682203 -0.0048028317653984794 0 -0.0002957927840068292 -0.0047260375923563296 0 -0.00038458911887857383 -0.0046853202371492974 0 -0.00031560691940206497 -0.0046329870553172116 0 -0.00050383477313930354 -0.0045602531795406499 0 -0.00038458911887857383 -0.0046853202371492974 0 -0.00033180727623682203 -0.0048028317653984794 0 -0.0002957927840068292 -0.0047260375923563296 0 -0.00024666166892567696 -0.0047779496362591366 0 -0.00031560691940206497 -0.0046329870553172116 0 -0.0002957927840068292 -0.0047260375923563296 0 -0.00038458911887857383 -0.0046853202371492974 0 -0.00031560691940206497 -0.0046329870553172116 0 -0.0002957927840068292 -0.0047260375923563296 0 -0.00021713287839811153 -0.0047353338108744227 0 -0.0002957927840068292 -0.0047260375923563296 0 -0.00024666166892567696 -0.0047779496362591366 0 -0.00021713287839811153 -0.0047353338108744227 0 -0.00024666166892567696 -0.0047779496362591366 0 -0.00021713287839811153 -0.0047353338108744227 0 -0.00019283450729651406 -0.0047920975213612601 0 -0.00015639522280575525 -0.0047393107620316366 0 -0.00021713287839811153 -0.0047353338108744227 0 -0.00014762822292535601 -0.0047797494676445366 0 -0.00021713287839811153 -0.0047353338108744227 0 -0.00014762822292535601 -0.0047797494676445366 0 -0.00019283450729651406 -0.0047920975213612601 0 -0.00014762822292535601 -0.0047797494676445366 0 -0.00019283450729651406 -0.0047920975213612601 0 -0.0001520311218687501 -0.0048218871893893128 0 -0.00019283450729651406 -0.0047920975213612601 0 -0.0001520311218687501 -0.0048218871893893128 0 -0.00021266157045479714 -0.0048437496166553991 0 -0.00017420748526831881 -0.0048386013008389142 0 -0.00010872139493280051 -0.0048657366449982326 0 -0.00013753538374781458 -0.0048425119191388161 0 -0.00016963618656220771 -0.004856620677150072 0 -0.00012468274119307822 -0.0048681035383719568 0 -0.00014614453830697049 -0.0048341502981905544 0 -0.00017420748526831881 -0.0048386013008389142 0 -0.00012783003242778902 -0.0048637274402578649 0 -0.0001041974491715915 -0.0048561077139533879 0 -0.00011533996443316189 -0.0048587490620379684 0 -0.00034540180699078529 -0.0047772901180019988 0 -0.00017420748526831881 -0.0048386013008389142 0 -0.00018689002064508072 -0.0048501494568789277 0 -0.00017420748526831881 -0.0048386013008389142 0 -0.00033180727623682203 -0.0048028317653984794 0 -0.00024666166892567696 -0.0047779496362591366 0 -0.00021266157045479714 -0.0048437496166553991 0 -0.00024666166892567696 -0.0047779496362591366 0 -0.00019283450729651406 -0.0047920975213612601 0 -0.00021266157045479714 -0.0048437496166553991 0 -7.4814996144136788e-05 -0.0048335162741128786 0 -6.4310139576438866e-05 -0.0048634006949157997 0 -8.1750618063674684e-05 -0.004850890522425602 0 -7.4814996144136788e-05 -0.0048335162741128786 0 -9.6661042489145721e-05 -0.0048071729061292647 0 -8.1750618063674684e-05 -0.004850890522425602 0 -0.00014762822292535601 -0.0047797494676445366 0 -0.00010726728514132692 -0.0048269155362854546 0 -9.6661042489145721e-05 -0.0048071729061292647 0 -0.00011160728216804517 -0.0047635022791181298 0 -0.00014762822292535601 -0.0047797494676445366 0 -9.6661042489145721e-05 -0.0048071729061292647 0 -0.00010726728514132692 -0.0048269155362854546 0 -9.6661042489145721e-05 -0.0048071729061292647 0 -8.1750618063674684e-05 -0.004850890522425602 0 -0.00014762822292535601 -0.0047797494676445366 0 -0.0001520311218687501 -0.0048218871893893128 0 -0.00010726728514132692 -0.0048269155362854546 0 -0.00013753538374781458 -0.0048425119191388161 0 -0.00012468274119307822 -0.0048681035383719568 0 -0.0001002674606794103 -0.0048578168080932564 0 -0.00013753538374781458 -0.0048425119191388161 0 -0.00010726728514132692 -0.0048269155362854546 0 -0.0001002674606794103 -0.0048578168080932564 0 -0.00012468274119307822 -0.0048681035383719568 0 -0.0001002674606794103 -0.0048578168080932564 0 -8.5886501940241077e-05 -0.0048730581427369243 0 -0.00014614453830697049 -0.0048341502981905544 0 -0.00011059112773766349 -0.0048240312908941884 0 -0.00010726728514132692 -0.0048269155362854546 0 -0.0001002674606794103 -0.0048578168080932564 0 -8.1750618063674684e-05 -0.004850890522425602 0 -6.6724236982143741e-05 -0.0048823472828969519 0 -8.1750618063674684e-05 -0.004850890522425602 0 -8.5886501940241077e-05 -0.0048730581427369243 0 -0.0001002674606794103 -0.0048578168080932564 0 -8.1750618063674684e-05 -0.004850890522425602 0 -8.5886501940241077e-05 -0.0048730581427369243 0 -6.6724236982143741e-05 -0.0048823472828969519 0 -8.5886501940241077e-05 -0.0048730581427369243 0 -7.8321895060506748e-05 -0.0048825850078034316 0 -8.5886501940241077e-05 -0.0048730581427369243 0 -8.8601473545872316e-05 -0.0048765690540211503 0 -7.8321895060506748e-05 -0.0048825850078034316 0 -8.5886501940241077e-05 -0.0048730581427369243 0 -0.00010047690911363149 -0.0048674961944767201 0 -8.8601473545872316e-05 -0.0048765690540211503 0 -0.00010872139493280051 -0.0048657366449982326 0 -9.1876671729448824e-05 -0.0048703441921528192 0 -0.0001041974491715915 -0.0048561077139533879 0 -8.5886501940241077e-05 -0.0048730581427369243 0 -0.00010047690911363149 -0.0048674961944767201 0 -0.00010047690911363149 -0.0048674961944767201 0 -9.4463356517068763e-05 -0.0048763921745744393 0 -0.00010240130417202514 -0.0048699121623676988 0 -9.8359124715171754e-05 -0.0048782077259505591 0 -9.4463356517068763e-05 -0.0048763921745744393 0 -0.00010240130417202514 -0.0048699121623676988 0 -9.4463356517068763e-05 -0.0048763921745744393 0 -8.4099328745840699e-05 -0.0048830029215256769 0 -8.9929225921965379e-05 -0.0048834816028890836 0 -9.8359124715171754e-05 -0.0048782077259505591 0 -9.4463356517068763e-05 -0.0048763921745744393 0 -8.9929225921965379e-05 -0.0048834816028890836 0 -9.4463356517068763e-05 -0.0048763921745744393 0 -8.8601473545872316e-05 -0.0048765690540211503 0 -8.4099328745840699e-05 -0.0048830029215256769 0 -0.00010047690911363149 -0.0048674961944767201 0 -9.4463356517068763e-05 -0.0048763921745744393 0 -8.8601473545872316e-05 -0.0048765690540211503 0 -7.577313294654343e-05 -0.0048889397437518241 0 -8.4099328745840699e-05 -0.0048830029215256769 0 -7.8321895060506748e-05 -0.0048825850078034316 0 -8.8601473545872316e-05 -0.0048765690540211503 0 -8.4099328745840699e-05 -0.0048830029215256769 0 -7.8321895060506748e-05 -0.0048825850078034316 0 -5.0729531800311736e-05 -0.0048413512226070611 0 -0.00012783003242778902 -0.0048637274402578649 0 -0.00011342976736093692 -0.0048441928782267584 0 -0.00011428475225918092 -0.0048534035049424638 0 -0.00011342976736093692 -0.0048441928782267584 0 -0.00011060196214398474 -0.0048590474951019681 0 -0.00011428475225918092 -0.0048534035049424638 0 -0.00010964590753209476 -0.0048622274488454723 0 -0.00011060196214398474 -0.0048590474951019681 0 -0.00012783003242778902 -0.0048637274402578649 0 -0.00011428475225918092 -0.0048534035049424638 0 -0.00011342976736093692 -0.0048441928782267584 0 -0.00012783003242778902 -0.0048637274402578649 0 -0.00011428475225918092 -0.0048534035049424638 0 -0.00011533996443316189 -0.0048587490620379684 0 -0.0001041974491715915 -0.0048561077139533879 0 -0.00010047690911363149 -0.0048674961944767201 0 -0.00011533996443316189 -0.0048587490620379684 0 -0.00010047690911363149 -0.0048674961944767201 0 -0.00011533996443316189 -0.0048587490620379684 0 -0.00010964590753209476 -0.0048622274488454723 0 -0.00011428475225918092 -0.0048534035049424638 0 -0.00011533996443316189 -0.0048587490620379684 0 -0.00010964590753209476 -0.0048622274488454723 0 -0.00010964590753209476 -0.0048622274488454723 0 -0.00010767545462671968 -0.0048677606965815594 0 -0.00011060196214398474 -0.0048590474951019681 0 -0.00010047690911363149 -0.0048674961944767201 0 -0.00010964590753209476 -0.0048622274488454723 0 -0.00010240130417202514 -0.0048699121623676988 0 -0.00010964590753209476 -0.0048622274488454723 0 -0.00010240130417202514 -0.0048699121623676988 0 -0.00010767545462671968 -0.0048677606965815594 0 -9.8359124715171754e-05 -0.0048782077259505591 0 -0.00010240130417202514 -0.0048699121623676988 0 -0.00010767545462671968 -0.0048677606965815594 0 -0.00010767545462671968 -0.0048677606965815594 0 -0.00011276535595956686 -0.0048596321505826609 0 -0.00011060196214398474 -0.0048590474951019681 0 -9.6786657447812206e-05 -0.0048611176255260674 0 -0.00011342976736093692 -0.0048441928782267584 0 -0.00011060196214398474 -0.0048590474951019681 0 -9.311899719453601e-05 -0.0047498365004234686 0 -0.00011390451657440897 -0.0048361344347055777 0 -9.6786657447812206e-05 -0.0048611176255260674 0 -0.00011276535595956686 -0.0048596321505826609 0 -0.00011060196214398474 -0.0048590474951019681 0 -9.6786657447812206e-05 -0.0048611176255260674 0 -0.00011276535595956686 -0.0048596321505826609 0 -9.8660213738184453e-05 -0.0048208835712839548 0 -0.00011276535595956686 -0.0048596321505826609 0 -0.00012746278144827819 -0.0048143513750769484 0 -0.00016599639411944155 -0.004837508084070288 0 -0.00011276535595956686 -0.0048596321505826609 0 -9.8660213738184453e-05 -0.0048208835712839548 0 -0.00012746278144827819 -0.0048143513750769484 0 -0.00011072351715479429 -0.0048630399977963104 0 -0.00014535462010595865 -0.0048547641796391735 0 -0.00010767545462671968 -0.0048677606965815594 0 -0.00011276535595956686 -0.0048596321505826609 0 -0.00010505414945381833 -0.00488023163984788 0 -0.00016599639411944155 -0.004837508084070288 0 -0.00016690951776186617 -0.0047787957337011473 0 -0.00021484374528199041 -0.0048166712253678986 0 -9.8359124715171754e-05 -0.0048782077259505591 0 -0.00010767545462671968 -0.0048677606965815594 0 -0.00010505414945381833 -0.00488023163984788 0 -0.00012746278144827819 -0.0048143513750769484 0 -0.00016599639411944155 -0.004837508084070288 0 -0.00016690951776186617 -0.0047787957337011473 0 0.00010735784052756611 -0.0047365490009264495 0 5.0848040323549064e-05 -0.0047264322228987576 0 0.00010293198649441588 -0.004710716224641082 0 -0.00016690951776186617 -0.0047787957337011473 0 -0.00010666250682181138 -0.0047789161549053995 0 -0.00011648083913210608 -0.0047355644036585079 0 -0.00012746278144827819 -0.0048143513750769484 0 -0.00016690951776186617 -0.0047787957337011473 0 -0.00010666250682181138 -0.0047789161549053995 0 -9.8660213738184453e-05 -0.0048208835712839548 0 -0.00012746278144827819 -0.0048143513750769484 0 -0.00010666250682181138 -0.0047789161549053995 0 -8.4903172610071347e-05 -0.0049264850336273799 0 -8.821763360775767e-06 -0.0049079690658881741 0 -7.4620919521217361e-05 -0.0049590416246857727 0 -7.5190545701127044e-05 -0.0049484829274547204 0 -8.5436609091178549e-05 -0.0049614166850851567 0 -7.577313294654343e-05 -0.0048889397437518241 0 -8.1833725622002454e-05 -0.0048882006239242557 0 -8.3008339717488151e-05 -0.0048933033116846658 0 -7.577313294654343e-05 -0.0048889397437518241 0 -8.4099328745840699e-05 -0.0048830029215256769 0 -8.1833725622002454e-05 -0.0048882006239242557 0 -8.1833725622002454e-05 -0.0048882006239242557 0 -9.1196045622115392e-05 -0.0048913805835188659 0 -8.9929225921965379e-05 -0.0048834816028890836 0 -8.4099328745840699e-05 -0.0048830029215256769 0 -8.1833725622002454e-05 -0.0048882006239242557 0 -8.9929225921965379e-05 -0.0048834816028890836 0 -9.295547933363403e-05 -0.0048913770784691632 0 -7.982614776869995e-05 -0.0048440069047236524 0 -7.982614776869995e-05 -0.0048440069047236524 0 -8.821763360775767e-06 -0.0049079690658881741 0 -8.1833725622002454e-05 -0.0048882006239242557 0 -8.6537608063913472e-05 -0.0048916055315156989 0 -8.3008339717488151e-05 -0.0048933033116846658 0 -0.00014535462010595865 -0.0048547641796391735 0 -7.982614776869995e-05 -0.0048440069047236524 0 -9.8359124715171754e-05 -0.0048782077259505591 0 -0.00010505414945381833 -0.00488023163984788 0 -9.1196045622115392e-05 -0.0048913805835188659 0 -9.8359124715171754e-05 -0.0048782077259505591 0 -9.1196045622115392e-05 -0.0048913805835188659 0 -8.9929225921965379e-05 -0.0048834816028890836 0 4.315516744670793e-05 -0.004787933143259448 0 5.0848040323549064e-05 -0.0047264322228987576 0 7.8593118052632907e-06 -0.0047742612272021106 0 0.00010735784052756611 -0.0047365490009264495 0 4.315516744670793e-05 -0.004787933143259448 0 5.0848040323549064e-05 -0.0047264322228987576 0 -2.7172398724627937e-05 -0.004752020876274821 0 -7.982614776869995e-05 -0.0048440069047236524 0 8.9693112772148929e-05 -0.0048599714672217876 0 -8.821763360775767e-06 -0.0049079690658881741 0 0.0001279526630781873 -0.0049987733764176936 0 0.00010317493921094228 -0.0050260109108767066 0 9.7362635461276136e-05 -0.0049878620946257985 0 2.7325456479670535e-06 -0.0049975657980139369 0 -8.821763360775767e-06 -0.0049079690658881741 0 5.9116918752449534e-05 -0.005009616467151509 0 0.00010317493921094228 -0.0050260109108767066 0 9.7362635461276136e-05 -0.0049878620946257985 0 9.7362635461276136e-05 -0.0049878620946257985 0 0.00012660828367944168 -0.004972857302140421 0 0.00010286504545899911 -0.0049514165281072447 0 6.4956382667618045e-05 -0.004967955460681241 0 9.7362635461276136e-05 -0.0049878620946257985 0 0.00010286504545899911 -0.0049514165281072447 0 0.0001279526630781873 -0.0049987733764176936 0 9.7362635461276136e-05 -0.0049878620946257985 0 0.00012660828367944168 -0.004972857302140421 0 5.0848040323549064e-05 -0.0047264322228987576 0 9.2709358296643978e-05 -0.004683891723109508 0 9.2146338005642594e-05 -0.0046918883195974344 0 8.9693112772148929e-05 -0.0048599714672217876 0 0.00011294788385631725 -0.0047747330520123603 0 0.0001279526630781873 -0.0049987733764176936 0 0.00012660828367944168 -0.004972857302140421 0 0.00015264673673069497 -0.0049707934249392932 0 5.0848040323549064e-05 -0.0047264322228987576 0 0.00010293198649441588 -0.004710716224641082 0 9.2146338005642594e-05 -0.0046918883195974344 0 0.00012660828367944168 -0.004972857302140421 0 0.00014091833588972244 -0.0049542631810852401 0 0.00015264673673069497 -0.0049707934249392932 0 0.00014091833588972244 -0.0049542631810852401 0 0.00015264673673069497 -0.0049707934249392932 0 0.00015474080120505933 -0.0049272910053585993 0 0.00014091833588972244 -0.0049542631810852401 0 0.00012961303469573586 -0.004946166762011088 0 0.00015474080120505933 -0.0049272910053585993 0 0.00012961303469573586 -0.004946166762011088 0 0.00015474080120505933 -0.0049272910053585993 0 0.00012363737160589629 -0.0049173520735050647 0 0.00012961303469573586 -0.004946166762011088 0 0.00010286504545899911 -0.0049514165281072447 0 0.00012363737160589629 -0.0049173520735050647 0 0.00012660828367944168 -0.004972857302140421 0 0.00014091833588972244 -0.0049542631810852401 0 0.00012961303469573586 -0.004946166762011088 0 0.00012660828367944168 -0.004972857302140421 0 0.00012961303469573586 -0.004946166762011088 0 0.00010286504545899911 -0.0049514165281072447 0 6.4956382667618045e-05 -0.004967955460681241 0 0.00010286504545899911 -0.0049514165281072447 0 8.3984628911721083e-05 -0.0049243920250945407 0 0.00010286504545899911 -0.0049514165281072447 0 8.3984628911721083e-05 -0.0049243920250945407 0 0.00012363737160589629 -0.0049173520735050647 0 8.6903946104479538e-06 -0.0047199346759624694 0 0.00010112296946812396 -0.0046437067633188778 0 0.00015169503759007925 -0.004690111677883118 0 0.00012510048177244369 -0.0046887753763120155 0 0.00014356301528309319 -0.0046708690899572069 0 0.00015169503759007925 -0.004690111677883118 0 0.00014356301528309319 -0.0046708690899572069 0 0.0001590738795950138 -0.0046563494079892931 0 -0.00010666250682181138 -0.0047789161549053995 0 -0.00011648083913210608 -0.0047355644036585079 0 -6.9298679050169501e-05 -0.0047356368568601381 0 -2.7172398724627937e-05 -0.004752020876274821 0 8.6903946104479538e-06 -0.0047199346759624694 0 9.3751275965734996e-05 -0.0046852353612789966 0 0.00010973201170614704 -0.0046893795870325845 0 0.00013902156125537193 -0.0046537185344435999 0 0.00010735784052756611 -0.0047365490009264495 0 0.00015169503759007925 -0.004690111677883118 0 0.00012510048177244369 -0.0046887753763120155 0 0.00010973201170614704 -0.0046893795870325845 0 0.00012510048177244369 -0.0046887753763120155 0 0.00013902156125537193 -0.0046537185344435999 0 0.00010735784052756611 -0.0047365490009264495 0 0.00010293198649441588 -0.004710716224641082 0 0.00012510048177244369 -0.0046887753763120155 0 0.00010293198649441588 -0.004710716224641082 0 9.2146338005642594e-05 -0.0046918883195974344 0 0.00010973201170614704 -0.0046893795870325845 0 0.00010293198649441588 -0.004710716224641082 0 0.00010973201170614704 -0.0046893795870325845 0 0.00012510048177244369 -0.0046887753763120155 0 9.3751275965734996e-05 -0.0046852353612789966 0 9.2146338005642594e-05 -0.0046918883195974344 0 0.00010973201170614704 -0.0046893795870325845 0 0.00011294788385631725 -0.0047747330520123603 0 0.00011235074397973052 -0.004759529836462285 0 0.00013159910024587181 -0.004664279818053816 0 0.00013311576799253304 -0.004651499628980673 0 0.00013902156125537193 -0.0046537185344435999 0 0.00012510048177244369 -0.0046887753763120155 0 0.00013902156125537193 -0.0046537185344435999 0 0.00014356301528309319 -0.0046708690899572069 0 0.00011294788385631725 -0.0047747330520123603 0 0.00014391892779657431 -0.0047985364156857479 0 0.00011294788385631725 -0.0047747330520123603 0 0.00014950967581849067 -0.0046328147746470139 0 0.00013311576799253304 -0.004651499628980673 0 0.00013902156125537193 -0.0046537185344435999 0 0.00014424547661555476 -0.0046443050657950374 0 0.00015169503759007925 -0.004690111677883118 0 0.0001590738795950138 -0.0046563494079892931 0 0.00017935187786645117 -0.00465867281281489 0 0.00013902156125537193 -0.0046537185344435999 0 0.0001590738795950138 -0.0046563494079892931 0 0.00015377559372601034 -0.0046443077525940516 0 0.00013902156125537193 -0.0046537185344435999 0 0.00014356301528309319 -0.0046708690899572069 0 0.0001590738795950138 -0.0046563494079892931 0 0.0001590738795950138 -0.0046563494079892931 0 0.00015862239435753182 -0.0046472235199007369 0 0.00015377559372601034 -0.0046443077525940516 0 0.0001590738795950138 -0.0046563494079892931 0 0.00015862239435753182 -0.0046472235199007369 0 0.00015976051586501753 -0.0046505029353802159 0 0.00015862239435753182 -0.0046472235199007369 0 0.00015976051586501753 -0.0046505029353802159 0 0.00015861949766531551 -0.0046435957298916709 0 0.00010112296946812396 -0.0046437067633188778 0 9.5411126688125456e-05 -0.0044811987780711158 0 0.00016972784767745232 -0.0046555455972087014 0 0.00010112296946812396 -0.0046437067633188778 0 0.00015936602515610274 -0.004620688730053211 0 0.00015765213559685451 -0.0046228639187422356 0 0.00015752865016622168 -0.0046264887715066127 0 0.00015976051586501753 -0.0046505029353802159 0 0.00015902373184576227 -0.0046412007859662416 0 0.00015861949766531551 -0.0046435957298916709 0 0.00010112296946812396 -0.0046437067633188778 0 0.00016838733675962893 -0.0046295798008460917 0 0.00015672644605701122 -0.0046201749110522982 0 0.00015803094047653975 -0.0046300722355512658 0 0.00015752865016622168 -0.0046264887715066127 0 8.4670239955771345e-05 -0.0043927472728436494 0 0.00017761438536769236 -0.0043591226463091928 0 0.00015765213559685451 -0.0046228639187422356 0 0.00015672644605701122 -0.0046201749110522982 0 0.00015752865016622168 -0.0046264887715066127 0 0.00015936602515610274 -0.004620688730053211 0 0.00015765213559685451 -0.0046228639187422356 0 0.00015769076694648008 -0.0046210013357403032 0 9.5411126688125456e-05 -0.0044811987780711158 0 8.4670239955771345e-05 -0.0043927472728436494 0 0.00015765213559685451 -0.0046228639187422356 0 0.00015728341911686042 -0.0046201646748399083 0 0.00015672644605701122 -0.0046201749110522982 0 0.00010038376503138001 -0.0045816204218417566 0 9.5411126688125456e-05 -0.0044811987780711158 0 3.8196768697303312e-05 -0.0042287005100106701 0 5.8853188272714598e-05 -0.0043492555890083601 0 0.00012550234710625822 -0.0043196275435713463 0 2.5858192196445291e-05 -0.0042273786501553492 0 5.8853188272714598e-05 -0.0043492555890083601 0 -3.9890729796301122e-05 -0.0044271062209958745 0 2.5858192196445291e-05 -0.0042273786501553492 0 3.8196768697303312e-05 -0.0042287005100106701 0 5.8853188272714598e-05 -0.0043492555890083601 0 5.8853188272714598e-05 -0.0043492555890083601 0 0.00015717248638533288 -0.0044163820429763377 0 0.00012550234710625822 -0.0043196275435713463 0 -1.9635964500136836e-05 -0.0046927236560745413 0 -6.9298679050169501e-05 -0.0047356368568601381 0 -5.2665943675647415e-05 -0.0047840535532495771 0 9.5411126688125456e-05 -0.0044811987780711158 0 -5.802183321056814e-05 -0.0046033073241422843 0 -0.00011648083913210608 -0.0047355644036585079 0 -5.7633452533063941e-05 -0.0046880348022513407 0 -6.9298679050169501e-05 -0.0047356368568601381 0 -5.7633452533063941e-05 -0.0046880348022513407 0 -1.9635964500136836e-05 -0.0046927236560745413 0 -6.9298679050169501e-05 -0.0047356368568601381 0 -0.00010666250682181138 -0.0047789161549053995 0 -6.9298679050169501e-05 -0.0047356368568601381 0 -5.2665943675647415e-05 -0.0047840535532495771 0 -9.8660213738184453e-05 -0.0048208835712839548 0 -0.00010666250682181138 -0.0047789161549053995 0 -5.2665943675647415e-05 -0.0047840535532495771 0 5.8853188272714598e-05 -0.0043492555890083601 0 -3.9890729796301122e-05 -0.0044271062209958745 0 5.7212818986322187e-05 -0.0044783442263203709 0 5.8853188272714598e-05 -0.0043492555890083601 0 5.7212818986322187e-05 -0.0044783442263203709 0 0.00015717248638533288 -0.0044163820429763377 0 5.7212818986322187e-05 -0.0044783442263203709 0 0.00013618570281157628 -0.0045121696041349199 0 0.00015717248638533288 -0.0044163820429763377 0 -3.9890729796301122e-05 -0.0044271062209958745 0 5.7212818986322187e-05 -0.0044783442263203709 0 7.9937094134645226e-06 -0.0045913690534391503 0 5.7212818986322187e-05 -0.0044783442263203709 0 8.4562617326760478e-05 -0.0045825630581600085 0 7.9937094134645226e-06 -0.0045913690534391503 0 5.7212818986322187e-05 -0.0044783442263203709 0 8.4562617326760478e-05 -0.0045825630581600085 0 0.00013618570281157628 -0.0045121696041349199 0 7.0838289648150369e-05 -0.0046724199678199281 0 8.4562617326760478e-05 -0.0045825630581600085 0 7.9937094134645226e-06 -0.0045913690534391503 0 -9.7633266628330747e-05 -0.004643040254850031 0 -3.9890729796301122e-05 -0.0044271062209958745 0 7.9937094134645226e-06 -0.0045913690534391503 0 -9.6786657447812206e-05 -0.0048611176255260674 0 -9.8660213738184453e-05 -0.0048208835712839548 0 -5.2665943675647415e-05 -0.0047840535532495771 0 -9.311899719453601e-05 -0.0047498365004234686 0 -5.802183321056814e-05 -0.0046033073241422843 0 -5.4923617932404094e-05 -0.0044644936657754798 0 0.00030942479334392336 -0.0045941653796493188 0 0.00026806042182889449 -0.0046193526338039591 0 0.00032674093957854052 -0.0045024212048230365 0 0.00022986247452817446 -0.0044915145345248379 0 0.00015907647427668389 -0.0046193513609897822 0 0.0002825043955709267 -0.0046913229859613086 0 0.00022986247452817446 -0.0044915145345248379 0 0.00015907647427668389 -0.0046193513609897822 0 8.4562617326760478e-05 -0.0045825630581600085 0 0.00013618570281157628 -0.0045121696041349199 0 0.00015907647427668389 -0.0046193513609897822 0 0.00013618570281157628 -0.0045121696041349199 0 0.00022986247452817446 -0.0044915145345248379 0 0.00022986247452817446 -0.0044915145345248379 0 0.00015717248638533288 -0.0044163820429763377 0 0.00028292801743456106 -0.0043898295839098116 0 0.00013618570281157628 -0.0045121696041349199 0 0.00022986247452817446 -0.0044915145345248379 0 0.00015717248638533288 -0.0044163820429763377 0 0.00032674093957854052 -0.0045024212048230365 0 0.00022986247452817446 -0.0044915145345248379 0 0.00028292801743456106 -0.0043898295839098116 0 0.00040580988063177809 -0.0044217907439500275 0 0.00032674093957854052 -0.0045024212048230365 0 0.00028292801743456106 -0.0043898295839098116 0 0.00050096389691668848 -0.0035648916985452951 0 0.00021778816774217411 -0.004135314713055652 0 0.0003847080978407915 -0.0042826816244513552 0 0.00028292801743456106 -0.0043898295839098116 0 0.00024129283205451293 -0.0042634381585216164 0 3.8196768697303312e-05 -0.0042287005100106701 0 0.00024754237412463948 -0.0042580996079300461 0 0.00012550234710625822 -0.0043196275435713463 0 0.00015717248638533288 -0.0044163820429763377 0 0.00024754237412463948 -0.0042580996079300461 0 0.00012550234710625822 -0.0043196275435713463 0 0.00015717248638533288 -0.0044163820429763377 0 0.00028292801743456106 -0.0043898295839098116 0 0.00024129283205451293 -0.0042634381585216164 0 0.00015701145711546514 -0.0044484621502189209 0 0.00021778816774217411 -0.004135314713055652 0 9.9250749501719857e-05 -0.004177631966577419 0 0.00021736513199956865 -0.0041915576703742746 0 0.00019333081981334166 -0.0041404718309433425 0 9.9250749501719857e-05 -0.004177631966577419 0 0.00019333081981334166 -0.0041404718309433425 0 0.00018500305763617973 -0.0040851506941998461 0 8.4670239955771345e-05 -0.0043927472728436494 0 0.00021778816774217411 -0.004135314713055652 0 0.00043194176402278566 -0.0038556306239708746 0 0.00025537725596384261 -0.0038334451112634273 0 0.0003200527374412195 -0.0037208734029475481 0 0.00043194176402278566 -0.0038556306239708746 0 0.0003200527374412195 -0.0037208734029475481 0 0.00038450826450072724 -0.0036088989295288134 0 0.00021778816774217411 -0.004135314713055652 0 0.00026927910271242438 -0.0039490807977740185 0 0.00021736513199956865 -0.0041915576703742746 0 0.00019333081981334166 -0.0041404718309433425 0 0.00024895615148498438 -0.0041339851107933942 0 0.00026927910271242438 -0.0039490807977740185 0 0.00039656363396326286 -0.0035397364702189015 0 0.00024895615148498438 -0.0041339851107933942 0 0.00024197971003157788 -0.004084317941022023 0 0.00027866395720814468 -0.0040771387503620521 0 0.00024197971003157788 -0.004084317941022023 0 0.00018500305763617973 -0.0040851506941998461 0 0.0002664401058433502 -0.0040036435709138955 0 0.00019333081981334166 -0.0041404718309433425 0 0.00024895615148498438 -0.0041339851107933942 0 0.00024197971003157788 -0.004084317941022023 0 0.00015516418727529158 -0.0046346277613510808 0 0.00016838733675962893 -0.0046295798008460917 0 0.00015753104823444157 -0.0046361149052289293 0 0.00015965158675104632 -0.0046315964491545078 0 0.00015902373184576227 -0.0046412007859662416 0 0.00015803094047653975 -0.0046300722355512658 0 0.00015965158675104632 -0.0046315964491545078 0 0.00015752865016622168 -0.0046264887715066127 0 0.00019333081981334166 -0.0041404718309433425 0 0.00024197971003157788 -0.004084317941022023 0 0.00018500305763617973 -0.0040851506941998461 0 0.00015753104823444157 -0.0046361149052289293 0 0.00015965158675104632 -0.0046315964491545078 0 0.00015771787415674038 -0.0046335350142581852 0 0.00015771787415674038 -0.0046335350142581852 0 0.00015579703648037875 -0.0046318211142886674 0 0.00015422691199005112 -0.0046364503592068217 0 0.00015753104823444157 -0.0046361149052289293 0 0.00015771787415674038 -0.0046335350142581852 0 0.00015422691199005112 -0.0046364503592068217 0 0.00015771787415674038 -0.0046335350142581852 0 0.00016357466282800894 -0.0046323780270498688 0 0.00015579703648037875 -0.0046318211142886674 0 0.00015965158675104632 -0.0046315964491545078 0 0.00015771787415674038 -0.0046335350142581852 0 0.00016357466282800894 -0.0046323780270498688 0 0.00015803094047653975 -0.0046300722355512658 0 0.00015965158675104632 -0.0046315964491545078 0 0.00016357466282800894 -0.0046323780270498688 0 0.00024197971003157788 -0.004084317941022023 0 0.0002664401058433502 -0.0040036435709138955 0 0.00027866395720814468 -0.0040771387503620521 0 0.00017761438536769236 -0.0043591226463091928 0 0.00022041105305644024 -0.0043064880464564158 0 0.00016357466282800894 -0.0046323780270498688 0 0.00016141332842645328 -0.0046217929682113197 0 0.00015579703648037875 -0.0046318211142886674 0 0.00016141332842645328 -0.0046217929682113197 0 0.00015579703648037875 -0.0046318211142886674 0 0.00014698864529662464 -0.0046340536111158133 0 0.00016141332842645328 -0.0046217929682113197 0 0.00014698864529662464 -0.0046340536111158133 0 0.00015985719717504648 -0.0046090040881591942 0 0.00016141332842645328 -0.0046217929682113197 0 0.00015985719717504648 -0.0046090040881591942 0 0.00016613171063667632 -0.0045983341730354713 0 0.00014698864529662464 -0.0046340536111158133 0 0.00015613710652138683 -0.0046478693685744659 0 0.00015754065957177237 -0.0046725635537258727 0 0.00014690540524538319 -0.0046376480302752964 0 0.00014356434189366228 -0.0046431104320360048 0 0.00015579703648037875 -0.0046318211142886674 0 0.00014698864529662464 -0.0046340536111158133 0 0.00015422691199005112 -0.0046364503592068217 0 0.00014698864529662464 -0.0046340536111158133 0 0.00015256763596970292 -0.0046394853092920881 0 0.00015422691199005112 -0.0046364503592068217 0 0.00015256763596970292 -0.0046394853092920881 0 0.00015613710652138683 -0.0046478693685744659 0 0.00015526685105363554 -0.0046380602504473671 0 0.00014698864529662464 -0.0046340536111158133 0 0.00015256763596970292 -0.0046394853092920881 0 0.00015613710652138683 -0.0046478693685744659 0 0.00015526685105363554 -0.0046380602504473671 0 0.00015713067432734376 -0.0046387881646307479 0 0.00015740874769969154 -0.0046403112754534572 0 0.00015526685105363554 -0.0046380602504473671 0 0.00015740874769969154 -0.0046403112754534572 0 0.00015809285620822013 -0.0046347267424769138 0 0.00015526685105363554 -0.0046380602504473671 0 0.00015422691199005112 -0.0046364503592068217 0 0.00015713067432734376 -0.0046387881646307479 0 0.00015256763596970292 -0.0046394853092920881 0 0.00015526685105363554 -0.0046380602504473671 0 0.00015422691199005112 -0.0046364503592068217 0 0.00015753104823444157 -0.0046361149052289293 0 0.00015422691199005112 -0.0046364503592068217 0 0.00015713067432734376 -0.0046387881646307479 0 0.00015753104823444157 -0.0046361149052289293 0 0.00015713067432734376 -0.0046387881646307479 0 0.00015902373184576227 -0.0046412007859662416 0 0.00015713067432734376 -0.0046387881646307479 0 0.00015902373184576227 -0.0046412007859662416 0 0.00015861949766531551 -0.0046435957298916709 0 0.00015713067432734376 -0.0046387881646307479 0 0.00015740874769969154 -0.0046403112754534572 0 0.00015861949766531551 -0.0046435957298916709 0 0.00015862239435753182 -0.0046472235199007369 0 0.00015740874769969154 -0.0046403112754534572 0 0.00015861949766531551 -0.0046435957298916709 0 0.00015862239435753182 -0.0046472235199007369 0 0.00015740874769969154 -0.0046403112754534572 0 0.00015377559372601034 -0.0046443077525940516 0 0.00015740874769969154 -0.0046403112754534572 0 0.00015377559372601034 -0.0046443077525940516 0 0.00015809285620822013 -0.0046347267424769138 0 0.00015377559372601034 -0.0046443077525940516 0 0.00014424547661555476 -0.0046443050657950374 0 0.00015809285620822013 -0.0046347267424769138 0 0.00013902156125537193 -0.0046537185344435999 0 0.00015377559372601034 -0.0046443077525940516 0 0.00014424547661555476 -0.0046443050657950374 0 0.00014424547661555476 -0.0046443050657950374 0 0.00013546570003832796 -0.0046338509128498843 0 0.00015809285620822013 -0.0046347267424769138 0 0.00013311576799253304 -0.004651499628980673 0 0.00014424547661555476 -0.0046443050657950374 0 0.00013546570003832796 -0.0046338509128498843 0 0.00014391892779657431 -0.0047985364156857479 0 0.00016945889226297872 -0.0047510156151777307 0 0.00017990239291388246 -0.0046324100478419136 0 0.0001652867664065791 -0.0046457440276228999 0 0.00018515742971780702 -0.0046527685128242551 0 0.00017990239291388246 -0.0046324100478419136 0 0.00015809285620822013 -0.0046347267424769138 0 0.0001652867664065791 -0.0046457440276228999 0 0.00016945889226297872 -0.0047510156151777307 0 0.00019434860504786224 -0.0047138350085478096 0 0.00016945889226297872 -0.0047510156151777307 0 0.0001555101104250896 -0.0046337599732239635 0 0.00015526685105363554 -0.0046380602504473671 0 0.00015809285620822013 -0.0046347267424769138 0 0.0001652867664065791 -0.0046457440276228999 0 8.3984628911721083e-05 -0.0049243920250945407 0 0.00010913806848917238 -0.0048862746909967151 0 6.1973742669213533e-05 -0.0048880500532540007 0 8.3984628911721083e-05 -0.0049243920250945407 0 0.00012363737160589629 -0.0049173520735050647 0 0.00010913806848917238 -0.0048862746909967151 0 0.00015675335616040584 -0.0048832514178585151 0 0.00012363737160589629 -0.0049173520735050647 0 0.00010913806848917238 -0.0048862746909967151 0 0.00015474080120505933 -0.0049272910053585993 0 0.00015675335616040584 -0.0048832514178585151 0 0.00012363737160589629 -0.0049173520735050647 0 0.0002013369028833697 -0.0048491354843741771 0 0.0001646398500007813 -0.0048159633514452318 0 0.00013595651028470318 -0.0048536924985335518 0 0.0002013369028833697 -0.0048491354843741771 0 0.0001646398500007813 -0.0048159633514452318 0 0.00020283714660067673 -0.0047780607586897584 0 0.00016945889226297872 -0.0047510156151777307 0 0.00012400345229836936 -0.0048778054537329547 0 0.00012400345229836936 -0.0048778054537329547 0 6.6428682913495808e-05 -0.0048764986362379832 0 0.0001646398500007813 -0.0048159633514452318 0 0.00013595651028470318 -0.0048536924985335518 0 0.00011782899992353038 -0.0048066804207758471 0 0.00013595651028470318 -0.0048536924985335518 0 0.00011782899992353038 -0.0048066804207758471 0 7.5362811858458581e-05 -0.0048647966078199578 0 0.00011782899992353038 -0.0048066804207758471 0 0.00012300929344419848 -0.0047528554129291295 0 8.9756633361313292e-05 -0.0047731578229115368 0 0.00011782899992353038 -0.0048066804207758471 0 0.00015292492102401381 -0.0047768879245177814 0 0.00012300929344419848 -0.0047528554129291295 0 0.0001646398500007813 -0.0048159633514452318 0 0.00011782899992353038 -0.0048066804207758471 0 0.00015292492102401381 -0.0047768879245177814 0 0.0001646398500007813 -0.0048159633514452318 0 0.00015292492102401381 -0.0047768879245177814 0 0.00020283714660067673 -0.0047780607586897584 0 0.00015292492102401381 -0.0047768879245177814 0 0.00015894239942517137 -0.0047286404168133574 0 0.00020283714660067673 -0.0047780607586897584 0 0.00015894239942517137 -0.0047286404168133574 0 0.00020283714660067673 -0.0047780607586897584 0 0.00018888892828058083 -0.0046935650813705859 0 0.00015292492102401381 -0.0047768879245177814 0 0.00015894239942517137 -0.0047286404168133574 0 0.00012300929344419848 -0.0047528554129291295 0 0.00015894239942517137 -0.0047286404168133574 0 0.00012300929344419848 -0.0047528554129291295 0 0.00012945026739080777 -0.0047182293231689751 0 0.00012300929344419848 -0.0047528554129291295 0 0.00012945026739080777 -0.0047182293231689751 0 9.654907564021493e-05 -0.0047248514353980114 0 0.00012300929344419848 -0.0047528554129291295 0 8.9756633361313292e-05 -0.0047731578229115368 0 9.654907564021493e-05 -0.0047248514353980114 0 0.00015613710652138683 -0.0046478693685744659 0 0.0001652867664065791 -0.0046457440276228999 0 0.00016977946609807645 -0.0046657871412534137 0 0.00015613710652138683 -0.0046478693685744659 0 0.00015526685105363554 -0.0046380602504473671 0 0.0001652867664065791 -0.0046457440276228999 0 0.0001652867664065791 -0.0046457440276228999 0 0.00018515742971780702 -0.0046527685128242551 0 0.00016977946609807645 -0.0046657871412534137 0 0.00019434860504786224 -0.0047138350085478096 0 0.00019013983236985675 -0.0046976488320910875 0 0.00018515742971780702 -0.0046527685128242551 0 0.00018888892828058083 -0.0046935650813705859 0 0.00016977946609807645 -0.0046657871412534137 0 0.00018888892828058083 -0.0046935650813705859 0 0.00016977946609807645 -0.0046657871412534137 0 0.00017458035635927672 -0.0046811834519091084 0 0.00015613710652138683 -0.0046478693685744659 0 0.00016977946609807645 -0.0046657871412534137 0 0.00015754065957177237 -0.0046725635537258727 0 0.00016977946609807645 -0.0046657871412534137 0 0.00017458035635927672 -0.0046811834519091084 0 0.00015754065957177237 -0.0046725635537258727 0 0.00017458035635927672 -0.0046811834519091084 0 0.00018175312647399015 -0.0046895130246766264 0 0.00015754065957177237 -0.0046725635537258727 0 0.00010667356541145089 -0.0046065221590534493 0 0.00012518904664313887 -0.0046182506153647166 0 0.00012579505290376611 -0.0046011161147329121 0 0.00013641916026864651 -0.0046615266873768048 0 0.00014356434189366228 -0.0046431104320360048 0 0.00018888892828058083 -0.0046935650813705859 0 0.00018175312647399015 -0.0046895130246766264 0 0.00016946484618006658 -0.0046826142632458495 0 0.00018888892828058083 -0.0046935650813705859 0 0.00017458035635927672 -0.0046811834519091084 0 0.00018175312647399015 -0.0046895130246766264 0 0.00013641916026864651 -0.0046615266873768048 0 0.00019525420513887197 -0.0046822182267427315 0 0.00013641916026864651 -0.0046615266873768048 0 8.3296274147493874e-05 -0.0046647906893585878 0 0.00022370817213459562 -0.0046687310184598376 0 0.00016946484618006658 -0.0046826142632458495 0 0.00016913195777344231 -0.0046333466930374625 0 4.9420025308966217e-05 -0.0047064016348199404 0 4.4987645020466861e-06 -0.0046916744508059775 0 4.1209890990170795e-05 -0.0046745986395161027 0 0.00013641916026864651 -0.0046615266873768048 0 9.8497217527754912e-05 -0.0046435659956350307 0 4.9420025308966217e-05 -0.0047064016348199404 0 7.5921627804703481e-05 -0.0046616233055496925 0 9.590467119789507e-05 -0.0046840881044720607 0 4.9420025308966217e-05 -0.0047064016348199404 0 7.5921627804703481e-05 -0.0046616233055496925 0 4.1209890990170795e-05 -0.0046745986395161027 0 0.0001075283572887027 -0.0046849569394708714 0 0.00016946484618006658 -0.0046826142632458495 0 0.00012712305065913759 -0.0046483943606395713 0 0.00012945026739080777 -0.0047182293231689751 0 0.0001075283572887027 -0.0046849569394708714 0 0.00016946484618006658 -0.0046826142632458495 0 0.00012945026739080777 -0.0047182293231689751 0 0.0001075283572887027 -0.0046849569394708714 0 9.654907564021493e-05 -0.0047248514353980114 0 0.00015894239942517137 -0.0047286404168133574 0 0.00018888892828058083 -0.0046935650813705859 0 0.00016946484618006658 -0.0046826142632458495 0 0.00015894239942517137 -0.0047286404168133574 0 0.00012945026739080777 -0.0047182293231689751 0 0.00016946484618006658 -0.0046826142632458495 0 0.00016946484618006658 -0.0046826142632458495 0 0.00016913195777344231 -0.0046333466930374625 0 0.00012712305065913759 -0.0046483943606395713 0 0.0001075283572887027 -0.0046849569394708714 0 0.00012712305065913759 -0.0046483943606395713 0 7.7973413321960324e-05 -0.0046445991156846122 0 0.00012712305065913759 -0.0046483943606395713 0 0.00010797079359356315 -0.0045949328351789923 0 7.7973413321960324e-05 -0.0046445991156846122 0 8.3296274147493874e-05 -0.0046647906893585878 0 5.5717736951750806e-05 -0.0046497705763054072 0 4.4987645020466861e-06 -0.0046916744508059775 0 -3.2067795618490506e-05 -0.0046997441594696498 0 -9.8902704246964198e-06 -0.0046858723432069045 0 0.00016913195777344231 -0.0046333466930374625 0 0.00012712305065913759 -0.0046483943606395713 0 0.00010797079359356315 -0.0045949328351789923 0 -3.1037977931371801e-05 -0.0046943871390583208 0 -3.2067795618490506e-05 -0.0046997441594696498 0 -2.3702261761774102e-05 -0.0046880793062054156 0 -3.1037977931371801e-05 -0.0046943871390583208 0 -3.2067795618490506e-05 -0.0046997441594696498 0 -2.9554367068930466e-05 -0.0047036113351236709 0 -3.2067795618490506e-05 -0.0046997441594696498 0 -2.3702261761774102e-05 -0.0046880793062054156 0 -9.8902704246964198e-06 -0.0046858723432069045 0 -2.3702261761774102e-05 -0.0046880793062054156 0 -9.8902704246964198e-06 -0.0046858723432069045 0 -3.9990937970605195e-06 -0.004658275996544026 0 4.4987645020466861e-06 -0.0046916744508059775 0 -9.8902704246964198e-06 -0.0046858723432069045 0 1.9116833544409654e-05 -0.0046666840813712526 0 -9.8902704246964198e-06 -0.0046858723432069045 0 -3.9990937970605195e-06 -0.004658275996544026 0 1.9116833544409654e-05 -0.0046666840813712526 0 -3.9990937970605195e-06 -0.004658275996544026 0 1.9116833544409654e-05 -0.0046666840813712526 0 3.3409716652566925e-05 -0.0046382236646303832 0 -3.9990937970605195e-06 -0.004658275996544026 0 3.3409716652566925e-05 -0.0046382236646303832 0 1.9200867800987061e-05 -0.0046155564561715708 0 -3.459322605031866e-05 -0.0046821462551613598 0 -0.00010066922213975259 -0.0046339442151815151 0 -3.9931870532539501e-05 -0.0046343143979497448 0 -3.459322605031866e-05 -0.0046821462551613598 0 -2.9554367068930466e-05 -0.0047036113351236709 0 -2.2940908521162003e-05 -0.0047208564765031345 0 -2.3702261761774102e-05 -0.0046880793062054156 0 -3.9990937970605195e-06 -0.004658275996544026 0 -3.459322605031866e-05 -0.0046821462551613598 0 -3.1037977931371801e-05 -0.0046943871390583208 0 -2.3702261761774102e-05 -0.0046880793062054156 0 -3.459322605031866e-05 -0.0046821462551613598 0 -3.9990937970605195e-06 -0.004658275996544026 0 -3.459322605031866e-05 -0.0046821462551613598 0 -3.9931870532539501e-05 -0.0046343143979497448 0 -3.1037977931371801e-05 -0.0046943871390583208 0 -3.459322605031866e-05 -0.0046821462551613598 0 -2.9554367068930466e-05 -0.0047036113351236709 0 7.5921627804703481e-05 -0.0046616233055496925 0 5.4117563129390175e-05 -0.0046475328444350403 0 4.1209890990170795e-05 -0.0046745986395161027 0 7.5921627804703481e-05 -0.0046616233055496925 0 5.4117563129390175e-05 -0.0046475328444350403 0 8.9956678742817881e-05 -0.0046249666794161617 0 5.4117563129390175e-05 -0.0046475328444350403 0 4.1209890990170795e-05 -0.0046745986395161027 0 1.9116833544409654e-05 -0.0046666840813712526 0 4.4987645020466861e-06 -0.0046916744508059775 0 4.1209890990170795e-05 -0.0046745986395161027 0 1.9116833544409654e-05 -0.0046666840813712526 0 5.4117563129390175e-05 -0.0046475328444350403 0 3.3409716652566925e-05 -0.0046382236646303832 0 6.6324191673000602e-05 -0.0046175010788814148 0 5.4117563129390175e-05 -0.0046475328444350403 0 1.9116833544409654e-05 -0.0046666840813712526 0 3.3409716652566925e-05 -0.0046382236646303832 0 3.3409716652566925e-05 -0.0046382236646303832 0 6.6324191673000602e-05 -0.0046175010788814148 0 5.0265989452902872e-05 -0.0046007773101920876 0 5.4117563129390175e-05 -0.0046475328444350403 0 6.6324191673000602e-05 -0.0046175010788814148 0 8.9956678742817881e-05 -0.0046249666794161617 0 6.6324191673000602e-05 -0.0046175010788814148 0 8.9956678742817881e-05 -0.0046249666794161617 0 9.2235204687023516e-05 -0.0046012362647267248 0 0.00011918070263429926 -0.0046016428786314467 0 8.9956678742817881e-05 -0.0046249666794161617 0 0.00011283585195724984 -0.0046370812644659191 0 0.00011918070263429926 -0.0046016428786314467 0 8.9956678742817881e-05 -0.0046249666794161617 0 9.2235204687023516e-05 -0.0046012362647267248 0 7.5921627804703481e-05 -0.0046616233055496925 0 8.9956678742817881e-05 -0.0046249666794161617 0 0.00011283585195724984 -0.0046370812644659191 0 7.5921627804703481e-05 -0.0046616233055496925 0 0.00011283585195724984 -0.0046370812644659191 0 9.590467119789507e-05 -0.0046840881044720607 0 0.00011283585195724984 -0.0046370812644659191 0 0.00014329233215957163 -0.0046092135853879317 0 0.00014080878596262121 -0.0046485566382526815 0 0.00014329233215957163 -0.0046092135853879317 0 0.00015867164298329447 -0.0046068231024490791 0 0.00014080878596262121 -0.0046485566382526815 0 0.00011918070263429926 -0.0046016428786314467 0 0.00011283585195724984 -0.0046370812644659191 0 0.00014329233215957163 -0.0046092135853879317 0 0.00011918070263429926 -0.0046016428786314467 0 0.00014329233215957163 -0.0046092135853879317 0 0.00014241355188504619 -0.0045896891994714351 0 0.00014329233215957163 -0.0046092135853879317 0 0.00016717436417755375 -0.004589131108145383 0 0.00015867164298329447 -0.0046068231024490791 0 0.00014329233215957163 -0.0046092135853879317 0 0.00014241355188504619 -0.0045896891994714351 0 0.00016717436417755375 -0.004589131108145383 0 0.00016717436417755375 -0.004589131108145383 0 0.00018386975442477905 -0.0045859070713462746 0 0.00019334897575346772 -0.0045708648400617407 0 0.00018386975442477905 -0.0045859070713462746 0 0.0001666101393659584 -0.0045948001170304249 0 0.00021593367236129703 -0.0045907181971842608 0 0.00016717436417755375 -0.004589131108145383 0 0.00018386975442477905 -0.0045859070713462746 0 0.0001666101393659584 -0.0045948001170304249 0 0.0001666101393659584 -0.0045948001170304249 0 0.00016278014288155621 -0.0045989417043130259 0 0.00016261862408827732 -0.004578552721655982 0 0.00015867164298329447 -0.0046068231024490791 0 0.00016278014288155621 -0.0045989417043130259 0 0.00014080878596262121 -0.0046485566382526815 0 0.00016717436417755375 -0.004589131108145383 0 0.0001666101393659584 -0.0045948001170304249 0 0.00015867164298329447 -0.0046068231024490791 0 0.0001666101393659584 -0.0045948001170304249 0 0.00015867164298329447 -0.0046068231024490791 0 0.00016278014288155621 -0.0045989417043130259 0 0.00016278014288155621 -0.0045989417043130259 0 0.0001541540618679556 -0.0046044324004446977 0 0.00014642561105282671 -0.0045968895631754306 0 0.00015832722654851293 -0.0046047177092762301 0 0.00014351856225819289 -0.0046217006141293345 0 0.00016278014288155621 -0.0045989417043130259 0 0.00016052904446468288 -0.0045952245986177016 0 0.0001541540618679556 -0.0046044324004446977 0 0.00016278014288155621 -0.0045989417043130259 0 0.00016052904446468288 -0.0045952245986177016 0 0.00016261862408827732 -0.004578552721655982 0 0.00016052904446468288 -0.0045952245986177016 0 0.00016400453758607452 -0.0045865349591570738 0 0.00016261862408827732 -0.004578552721655982 0 0.00016052904446468288 -0.0045952245986177016 0 0.00015985719717504648 -0.0046090040881591942 0 0.0001541540618679556 -0.0046044324004446977 0 0.00016052904446468288 -0.0045952245986177016 0 0.00016613171063667632 -0.0045983341730354713 0 0.00016400453758607452 -0.0045865349591570738 0 0.00016052904446468288 -0.0045952245986177016 0 0.00015985719717504648 -0.0046090040881591942 0 0.00016613171063667632 -0.0045983341730354713 0 0.00014698864529662464 -0.0046340536111158133 0 0.00015985719717504648 -0.0046090040881591942 0 0.0001541540618679556 -0.0046044324004446977 0 0.00014698864529662464 -0.0046340536111158133 0 0.0001541540618679556 -0.0046044324004446977 0 0.00013988120556653337 -0.0046099133874074718 0 0.00014698864529662464 -0.0046340536111158133 0 0.00013988120556653337 -0.0046099133874074718 0 0.00012518904664313887 -0.0046182506153647166 0 0.00013988120556653337 -0.0046099133874074718 0 0.00012518904664313887 -0.0046182506153647166 0 0.00012579505290376611 -0.0046011161147329121 0 9.8497217527754912e-05 -0.0046435659956350307 0 0.00014351856225819289 -0.0046217006141293345 0 0.00011283585195724984 -0.0046370812644659191 0 9.590467119789507e-05 -0.0046840881044720607 0 0.00014080878596262121 -0.0046485566382526815 0 0.0001541540618679556 -0.0046044324004446977 0 0.00013988120556653337 -0.0046099133874074718 0 0.00014642561105282671 -0.0045968895631754306 0 0.00013988120556653337 -0.0046099133874074718 0 0.00012579505290376611 -0.0046011161147329121 0 0.00014642561105282671 -0.0045968895631754306 0 -3.0991104618878771e-06 -0.0050006363643061652 0 -4.9776344194520381e-09 -0.0049999974868901766 0 2.5480174676467558e-07 -0.0050020320930835036 0 -3.0991104618878771e-06 -0.0050006363643061652 0 -5.9776609726071192e-06 -0.0050030472891998135 0 2.5480174676467558e-07 -0.0050020320930835036 0 -5.9776609726071192e-06 -0.0050030472891998135 0 -7.278758276892624e-06 -0.0050001583211252967 0 -1.2836853064948202e-05 -0.0050044127042082861 0 -3.0991104618878771e-06 -0.0050006363643061652 0 -5.9776609726071192e-06 -0.0050030472891998135 0 -7.278758276892624e-06 -0.0050001583211252967 0 -7.278758276892624e-06 -0.0050001583211252967 0 -7.8088779560107878e-06 -0.0049965264829839829 0 -1.360605610497889e-05 -0.0049985599803134637 0 -7.278758276892624e-06 -0.0050001583211252967 0 -3.4564164975771976e-06 -0.0049990805198098284 0 -7.8088779560107878e-06 -0.0049965264829839829 0 -4.9776344194520381e-09 -0.0049999974868901766 0 -3.4564164975771976e-06 -0.0049990805198098284 0 -4.8704367425905838e-10 -0.0049999923719037612 0 -3.0991104618878771e-06 -0.0050006363643061652 0 -4.9776344194520381e-09 -0.0049999974868901766 0 -3.4564164975771976e-06 -0.0049990805198098284 0 -3.0991104618878771e-06 -0.0050006363643061652 0 -7.278758276892624e-06 -0.0050001583211252967 0 -3.4564164975771976e-06 -0.0049990805198098284 0 -4.8704367425905838e-10 -0.0049999923719037612 0 -7.8088779560107878e-06 -0.0049965264829839829 0 -1.2083639382063654e-05 -0.0049906850964918223 0 -3.4564164975771976e-06 -0.0049990805198098284 0 -4.8704367425905838e-10 -0.0049999923719037612 0 -7.8088779560107878e-06 -0.0049965264829839829 0 -8.1630547344453337e-06 -0.0049905184252383647 0 -4.8704367425905838e-10 -0.0049999923719037612 0 -1.2083639382063654e-05 -0.0049906850964918223 0 -1.4642085898858068e-05 -0.0049942270437846248 0 -1.2083639382063654e-05 -0.0049906850964918223 0 -2.2476246169723409e-05 -0.0049902574387575629 0 -7.8088779560107878e-06 -0.0049965264829839829 0 -1.4642085898858068e-05 -0.0049942270437846248 0 -1.2083639382063654e-05 -0.0049906850964918223 0 -1.2083639382063654e-05 -0.0049906850964918223 0 -2.3596496585896948e-05 -0.004981794559431831 0 -2.2476246169723409e-05 -0.0049902574387575629 0 -1.9626486059064842e-05 -0.0049799379195041909 0 -1.2083639382063654e-05 -0.0049906850964918223 0 -2.3596496585896948e-05 -0.004981794559431831 0 -2.3596496585896948e-05 -0.004981794559431831 0 -2.2476246169723409e-05 -0.0049902574387575629 0 -3.5262856816015201e-05 -0.0049862294431345291 0 -1.4642085898858068e-05 -0.0049942270437846248 0 -2.2476246169723409e-05 -0.0049902574387575629 0 -2.1221998021442004e-05 -0.0049960117784375287 0 -2.2476246169723409e-05 -0.0049902574387575629 0 -2.1221998021442004e-05 -0.0049960117784375287 0 -2.9015161870032914e-05 -0.0049933258194245827 0 -2.1221998021442004e-05 -0.0049960117784375287 0 -2.5725843442426255e-05 -0.0049982247268476202 0 -2.9015161870032914e-05 -0.0049933258194245827 0 -2.1221998021442004e-05 -0.0049960117784375287 0 -1.360605610497889e-05 -0.0049985599803134637 0 -1.9717397011544528e-05 -0.0050004384923587617 0 -2.1221998021442004e-05 -0.0049960117784375287 0 -1.9717397011544528e-05 -0.0050004384923587617 0 -2.5725843442426255e-05 -0.0049982247268476202 0 -1.4642085898858068e-05 -0.0049942270437846248 0 -2.1221998021442004e-05 -0.0049960117784375287 0 -1.360605610497889e-05 -0.0049985599803134637 0 -7.8088779560107878e-06 -0.0049965264829839829 0 -1.4642085898858068e-05 -0.0049942270437846248 0 -1.360605610497889e-05 -0.0049985599803134637 0 -7.278758276892624e-06 -0.0050001583211252967 0 -1.360605610497889e-05 -0.0049985599803134637 0 -1.2836853064948202e-05 -0.0050044127042082861 0 -1.9717397011544528e-05 -0.0050004384923587617 0 -1.8920055073743724e-05 -0.0050043051354321331 0 -1.2836853064948202e-05 -0.0050044127042082861 0 -1.360605610497889e-05 -0.0049985599803134637 0 -1.9717397011544528e-05 -0.0050004384923587617 0 -1.2836853064948202e-05 -0.0050044127042082861 0 -1.9717397011544528e-05 -0.0050004384923587617 0 -2.5725843442426255e-05 -0.0049982247268476202 0 -2.5076793474032547e-05 -0.005003303897807434 0 -1.9717397011544528e-05 -0.0050004384923587617 0 -2.5076793474032547e-05 -0.005003303897807434 0 -1.8920055073743724e-05 -0.0050043051354321331 0 -3.1217822886844097e-05 -0.0049975797867071728 0 -3.1045796374003904e-05 -0.0050037808082469583 0 -2.5076793474032547e-05 -0.005003303897807434 0 -3.1217822886844097e-05 -0.0049975797867071728 0 -2.5725843442426255e-05 -0.0049982247268476202 0 -2.5076793474032547e-05 -0.005003303897807434 0 3.7799500609099687e-06 -0.0046641664145519171 0 5.264686877342504e-06 -0.0046826966838272041 0 2.3100106581035697e-05 -0.0046835795464171305 0 -3.1217822886844097e-05 -0.0049975797867071728 0 -3.6013346331526204e-05 -0.0049974255324607714 0 -3.1045796374003904e-05 -0.0050037808082469583 0 3.896580495732892e-06 -0.0048174624029456766 0 -5.4462697623330458e-06 -0.0048447051435356447 0 -3.1217822886844097e-05 -0.0049975797867071728 0 -3.3931568781090698e-05 -0.0049929662559876986 0 -3.6013346331526204e-05 -0.0049974255324607714 0 -3.0656959100086046e-05 -0.0049199392011696061 0 3.896580495732892e-06 -0.0048174624029456766 0 -3.1217822886844097e-05 -0.0049975797867071728 0 -2.5725843442426255e-05 -0.0049982247268476202 0 -2.9015161870032914e-05 -0.0049933258194245827 0 -3.1217822886844097e-05 -0.0049975797867071728 0 -3.3931568781090698e-05 -0.0049929662559876986 0 -2.9015161870032914e-05 -0.0049933258194245827 0 -3.3931568781090698e-05 -0.0049929662559876986 0 -2.9015161870032914e-05 -0.0049933258194245827 0 -3.5262856816015201e-05 -0.0049862294431345291 0 -2.2476246169723409e-05 -0.0049902574387575629 0 -2.9015161870032914e-05 -0.0049933258194245827 0 -3.5262856816015201e-05 -0.0049862294431345291 0 -9.2347386776209932e-06 -0.0049464812842734988 0 -3.5969058190880643e-05 -0.0049660064946960352 0 -3.7006772208073965e-05 -0.00489936481225895 0 -3.6879251181677309e-05 -0.0049615372825007973 0 -3.3193969705291514e-05 -0.0049388792997239481 0 -3.5969058190880643e-05 -0.0049660064946960352 0 -2.3596496585896948e-05 -0.004981794559431831 0 -3.5262856816015201e-05 -0.0049862294431345291 0 -9.2347386776209932e-06 -0.0049464812842734988 0 -3.7006772208073965e-05 -0.00489936481225895 0 1.2302826388710529e-05 -0.0048860784564221174 0 -1.8925360060465241e-05 -0.0048267305505474423 0 -3.7006772208073965e-05 -0.00489936481225895 0 1.2302826388710529e-05 -0.0048860784564221174 0 -3.0656959100086046e-05 -0.0049199392011696061 0 -3.3193969705291514e-05 -0.0049388792997239481 0 -1.8925360060465241e-05 -0.0048267305505474423 0 1.2302826388710529e-05 -0.0048860784564221174 0 3.5095830474727231e-05 -0.0048374249561967961 0 1.2302826388710529e-05 -0.0048860784564221174 0 3.5095830474727231e-05 -0.0048374249561967961 0 7.5362811858458581e-05 -0.0048647966078199578 0 1.5540182201315067e-05 -0.0048840938042102279 0 6.6428682913495808e-05 -0.0048764986362379832 0 3.989454536642864e-05 -0.0049343693658597575 0 1.2302826388710529e-05 -0.0048860784564221174 0 6.1973742669213533e-05 -0.0048880500532540007 0 3.989454536642864e-05 -0.0049343693658597575 0 -9.2347386776209932e-06 -0.0049464812842734988 0 1.2302826388710529e-05 -0.0048860784564221174 0 3.989454536642864e-05 -0.0049343693658597575 0 8.3984628911721083e-05 -0.0049243920250945407 0 6.1973742669213533e-05 -0.0048880500532540007 0 0.00011782899992353038 -0.0048066804207758471 0 7.5362811858458581e-05 -0.0048647966078199578 0 6.7704387373958988e-05 -0.0048089983136244919 0 3.5095830474727231e-05 -0.0048374249561967961 0 7.5362811858458581e-05 -0.0048647966078199578 0 6.7704387373958988e-05 -0.0048089983136244919 0 0.00011782899992353038 -0.0048066804207758471 0 8.9756633361313292e-05 -0.0047731578229115368 0 6.7704387373958988e-05 -0.0048089983136244919 0 8.9756633361313292e-05 -0.0047731578229115368 0 6.0785945841140139e-05 -0.0047789523629198916 0 6.7704387373958988e-05 -0.0048089983136244919 0 8.9756633361313292e-05 -0.0047731578229115368 0 6.0785945841140139e-05 -0.0047789523629198916 0 6.963737514063634e-05 -0.0047513888608086748 0 6.0785945841140139e-05 -0.0047789523629198916 0 6.7704387373958988e-05 -0.0048089983136244919 0 3.558464210049806e-05 -0.0047978011596716361 0 -1.8925360060465241e-05 -0.0048267305505474423 0 3.5095830474727231e-05 -0.0048374249561967961 0 3.558464210049806e-05 -0.0047978011596716361 0 3.5095830474727231e-05 -0.0048374249561967961 0 6.7704387373958988e-05 -0.0048089983136244919 0 3.558464210049806e-05 -0.0047978011596716361 0 -1.8925360060465241e-05 -0.0048267305505474423 0 2.3869299699125652e-05 -0.0047714041105545359 0 3.558464210049806e-05 -0.0047978011596716361 0 -1.8925360060465241e-05 -0.0048267305505474423 0 2.3869299699125652e-05 -0.0047714041105545359 0 1.1581359585439715e-05 -0.004756708107077596 0 2.3869299699125652e-05 -0.0047714041105545359 0 3.558464210049806e-05 -0.0047978011596716361 0 4.4028596667621546e-05 -0.0047652814485670374 0 6.0785945841140139e-05 -0.0047789523629198916 0 3.558464210049806e-05 -0.0047978011596716361 0 4.4028596667621546e-05 -0.0047652814485670374 0 4.1002809304161858e-05 -0.004742375119827353 0 6.963737514063634e-05 -0.0047513888608086748 0 4.6008257599574603e-05 -0.0046966628920025568 0 2.3869299699125652e-05 -0.0047714041105545359 0 4.4028596667621546e-05 -0.0047652814485670374 0 4.1002809304161858e-05 -0.004742375119827353 0 4.4028596667621546e-05 -0.0047652814485670374 0 4.1002809304161858e-05 -0.004742375119827353 0 6.963737514063634e-05 -0.0047513888608086748 0 3.896580495732892e-06 -0.0048174624029456766 0 2.5741066881818697e-05 -0.0046731103275751626 0 3.7799500609099687e-06 -0.0046641664145519171 0 5.264686877342504e-06 -0.0046826966838272041 0 -8.8003014963021e-06 -0.0046847271751081394 0 1.1394332019733443e-05 -0.0047559235546342955 0 4.1002809304161858e-05 -0.004742375119827353 0 4.6008257599574603e-05 -0.0046966628920025568 0 2.3869299699125652e-05 -0.0047714041105545359 0 1.1394332019733443e-05 -0.0047559235546342955 0 4.1002809304161858e-05 -0.004742375119827353 0 1.2152865571685518e-07 -0.0047949961277188357 0 3.896580495732892e-06 -0.0048174624029456766 0 9.654907564021493e-05 -0.0047248514353980114 0 6.963737514063634e-05 -0.0047513888608086748 0 4.6008257599574603e-05 -0.0046966628920025568 0 8.9756633361313292e-05 -0.0047731578229115368 0 9.654907564021493e-05 -0.0047248514353980114 0 6.963737514063634e-05 -0.0047513888608086748 0 6.0785945841140139e-05 -0.0047789523629198916 0 4.4028596667621546e-05 -0.0047652814485670374 0 6.963737514063634e-05 -0.0047513888608086748 0 0.0001075283572887027 -0.0046849569394708714 0 4.6008257599574603e-05 -0.0046966628920025568 0 7.7973413321960324e-05 -0.0046445991156846122 0 0.0001075283572887027 -0.0046849569394708714 0 9.654907564021493e-05 -0.0047248514353980114 0 4.6008257599574603e-05 -0.0046966628920025568 0 2.5741066881818697e-05 -0.0046731103275751626 0 2.5053190045241831e-05 -0.0046769167927550644 0 5.264686877342504e-06 -0.0046826966838272041 0 -8.8003014963021e-06 -0.0046847271751081394 0 1.2197036374719076e-06 -0.0047050290867838851 0 -8.8003014963021e-06 -0.0046847271751081394 0 1.2197036374719076e-06 -0.0047050290867838851 0 -2.0017930044504496e-05 -0.004701756366798625 0 1.2197036374719076e-06 -0.0047050290867838851 0 -2.0017930044504496e-05 -0.004701756366798625 0 -2.1610973105034044e-05 -0.0047097096362284123 0 5.5717736951750806e-05 -0.0046497705763054072 0 2.5053190045241831e-05 -0.0046769167927550644 0 -3.2067795618490506e-05 -0.0046997441594696498 0 -2.0017930044504496e-05 -0.004701756366798625 0 -2.1610973105034044e-05 -0.0047097096362284123 0 -2.1610973105034044e-05 -0.0047097096362284123 0 -2.2940908521162003e-05 -0.0047208564765031345 0 -4.724552224181121e-06 -0.0047283289705618917 0 -3.2067795618490506e-05 -0.0046997441594696498 0 -2.1610973105034044e-05 -0.0047097096362284123 0 -2.9554367068930466e-05 -0.0047036113351236709 0 -2.1610973105034044e-05 -0.0047097096362284123 0 -2.9554367068930466e-05 -0.0047036113351236709 0 -2.2940908521162003e-05 -0.0047208564765031345 0 -2.2940908521162003e-05 -0.0047208564765031345 0 -4.724552224181121e-06 -0.0047283289705618917 0 -1.7558210576022253e-05 -0.0047566689697952219 0 -3.5479123773646243e-05 -0.0046877276907310982 0 -5.495985016702858e-05 -0.0046938449591148769 0 -3.459322605031866e-05 -0.0046821462551613598 0 -2.2940908521162003e-05 -0.0047208564765031345 0 -1.7558210576022253e-05 -0.0047566689697952219 0 -4.724552224181121e-06 -0.0047283289705618917 0 1.5933486787243884e-05 -0.0047627730949841704 0 -1.7558210576022253e-05 -0.0047566689697952219 0 1.2197036374719076e-06 -0.0047050290867838851 0 -4.724552224181121e-06 -0.0047283289705618917 0 2.0034789142692888e-05 -0.0047331147963251673 0 1.2197036374719076e-06 -0.0047050290867838851 0 -2.1610973105034044e-05 -0.0047097096362284123 0 -4.724552224181121e-06 -0.0047283289705618917 0 1.5933486787243884e-05 -0.0047627730949841704 0 3.9871725405847849e-05 -0.0047854767722393752 0 2.8257134141978111e-05 -0.0047830635742296297 0 2.0034789142692888e-05 -0.0047331147963251673 0 1.5933486787243884e-05 -0.0047627730949841704 0 3.9871725405847849e-05 -0.0047854767722393752 0 -4.724552224181121e-06 -0.0047283289705618917 0 2.0034789142692888e-05 -0.0047331147963251673 0 1.5933486787243884e-05 -0.0047627730949841704 0 2.0034789142692888e-05 -0.0047331147963251673 0 4.7035986944934869e-05 -0.0047412297707931381 0 4.7336398641844302e-05 -0.004708436675645202 0 4.7035986944934869e-05 -0.0047412297707931381 0 4.7336398641844302e-05 -0.004708436675645202 0 8.4800746167189181e-05 -0.0047453502413982527 0 3.9871725405847849e-05 -0.0047854767722393752 0 4.7035986944934869e-05 -0.0047412297707931381 0 8.4800746167189181e-05 -0.0047453502413982527 0 2.0034789142692888e-05 -0.0047331147963251673 0 3.9871725405847849e-05 -0.0047854767722393752 0 4.7035986944934869e-05 -0.0047412297707931381 0 1.2197036374719076e-06 -0.0047050290867838851 0 4.7336398641844302e-05 -0.004708436675645202 0 2.3100106581035697e-05 -0.0046835795464171305 0 1.2197036374719076e-06 -0.0047050290867838851 0 2.0034789142692888e-05 -0.0047331147963251673 0 4.7336398641844302e-05 -0.004708436675645202 0 5.264686877342504e-06 -0.0046826966838272041 0 1.2197036374719076e-06 -0.0047050290867838851 0 2.3100106581035697e-05 -0.0046835795464171305 0 -2.4799859323844379e-05 -0.0050099298293658258 0 -3.1045796374003904e-05 -0.0050037808082469583 0 -2.5076793474032547e-05 -0.005003303897807434 0 1.0456132826769948e-05 -0.0048597137613081206 0 -5.4462697623330458e-06 -0.0048447051435356447 0 -2.5076793474032547e-05 -0.005003303897807434 0 -1.8920055073743724e-05 -0.0050043051354321331 0 -1.9123002396155214e-05 -0.0050089355748153758 0 -2.4799859323844379e-05 -0.0050099298293658258 0 -2.5076793474032547e-05 -0.005003303897807434 0 -1.9123002396155214e-05 -0.0050089355748153758 0 -1.8920055073743724e-05 -0.0050043051354321331 0 -1.2836853064948202e-05 -0.0050044127042082861 0 -1.9123002396155214e-05 -0.0050089355748153758 0 -1.2836853064948202e-05 -0.0050044127042082861 0 -1.385304797363206e-05 -0.005012202057322921 0 -1.9123002396155214e-05 -0.0050089355748153758 0 -1.385304797363206e-05 -0.005012202057322921 0 -1.9123002396155214e-05 -0.0050089355748153758 0 -1.9092194249850264e-05 -0.0050151485906498733 0 -2.4799859323844379e-05 -0.0050099298293658258 0 -1.9123002396155214e-05 -0.0050089355748153758 0 -1.9092194249850264e-05 -0.0050151485906498733 0 1.0456132826769948e-05 -0.0048597137613081206 0 4.6927564731045571e-05 -0.0048729549388686509 0 3.9871725405847849e-05 -0.0047854767722393752 0 4.6016928549352454e-05 -0.0048173112309234179 0 4.3506052792387981e-05 -0.0048097659624318292 0 3.9871725405847849e-05 -0.0047854767722393752 0 4.7374084076202046e-05 -0.0047985931464221507 0 4.6016928549352454e-05 -0.0048173112309234179 0 4.7374084076202046e-05 -0.0047985931464221507 0 4.6016928549352454e-05 -0.0048173112309234179 0 5.8661302922889592e-05 -0.0048645799023430561 0 5.914003955905689e-05 -0.004758774475628615 0 4.6927564731045571e-05 -0.0048729549388686509 0 4.6927564731045571e-05 -0.0048729549388686509 0 7.2152876394980902e-05 -0.0048686179952664322 0 5.8661302922889592e-05 -0.0048645799023430561 0 5.8305185729856514e-05 -0.0049545237351185135 0 2.1967777981188292e-05 -0.0049583450946077455 0 0.00012676933210547836 -0.0049622193417952652 0 5.8661302922889592e-05 -0.0048645799023430561 0 5.8305185729856514e-05 -0.0049545237351185135 0 5.6624309258254983e-05 -0.005001224505482061 0 0.00012676933210547836 -0.0049622193417952652 0 5.8305185729856514e-05 -0.0049545237351185135 0 1.571999904447673e-05 -0.0050179017409312191 0 4.6927564731045571e-05 -0.0048729549388686509 0 5.6624309258254983e-05 -0.005001224505482061 0 5.8305185729856514e-05 -0.0049545237351185135 0 2.4972965397579577e-05 -0.0049877167658323573 0 2.4972965397579577e-05 -0.0049877167658323573 0 2.1967777981188292e-05 -0.0049583450946077455 0 4.2694740007197756e-06 -0.0049958476153322794 0 5.8305185729856514e-05 -0.0049545237351185135 0 2.4972965397579577e-05 -0.0049877167658323573 0 2.1967777981188292e-05 -0.0049583450946077455 0 5.8661302922889592e-05 -0.0048645799023430561 0 2.1967777981188292e-05 -0.0049583450946077455 0 2.030211670980248e-05 -0.004916482236717922 0 2.1967777981188292e-05 -0.0049583450946077455 0 2.030211670980248e-05 -0.004916482236717922 0 4.3505400901099606e-06 -0.0049774432864093977 0 2.030211670980248e-05 -0.004916482236717922 0 -4.8765705693033008e-06 -0.0049910225080930567 0 4.3505400901099606e-06 -0.0049774432864093977 0 -4.8765705693033008e-06 -0.0049910225080930567 0 -1.9957767888997601e-08 -0.0049999013176285842 0 -3.5724618299127763e-09 -0.0049999891656144586 0 -4.8765705693033008e-06 -0.0049910225080930567 0 4.3505400901099606e-06 -0.0049774432864093977 0 -1.9957767888997601e-08 -0.0049999013176285842 0 2.1967777981188292e-05 -0.0049583450946077455 0 4.3505400901099606e-06 -0.0049774432864093977 0 4.2694740007197756e-06 -0.0049958476153322794 0 4.3505400901099606e-06 -0.0049774432864093977 0 -1.9957767888997601e-08 -0.0049999013176285842 0 4.2694740007197756e-06 -0.0049958476153322794 0 -1.9957767888997601e-08 -0.0049999013176285842 0 4.2694740007197756e-06 -0.0049958476153322794 0 8.3133343036814935e-09 -0.0050000342951429201 0 4.2694740007197756e-06 -0.0049958476153322794 0 1.4086686939208042e-05 -0.0050096419766398016 0 8.3133343036814935e-09 -0.0050000342951429201 0 1.571999904447673e-05 -0.0050179017409312191 0 6.7534617684079895e-06 -0.0050061833808044314 0 5.6624309258254983e-05 -0.005001224505482061 0 2.4972965397579577e-05 -0.0049877167658323573 0 1.4086686939208042e-05 -0.0050096419766398016 0 2.4972965397579577e-05 -0.0049877167658323573 0 4.2694740007197756e-06 -0.0049958476153322794 0 1.4086686939208042e-05 -0.0050096419766398016 0 -5.9776609726071192e-06 -0.0050030472891998135 0 -1.2836853064948202e-05 -0.0050044127042082861 0 -7.4220304935613328e-06 -0.0050087054107550546 0 -1.2836853064948202e-05 -0.0050044127042082861 0 -1.385304797363206e-05 -0.005012202057322921 0 -7.4220304935613328e-06 -0.0050087054107550546 0 1.4086686939208042e-05 -0.0050096419766398016 0 8.3133343036814935e-09 -0.0050000342951429201 0 2.5480174676467558e-07 -0.0050020320930835036 0 -4.9776344194520381e-09 -0.0049999974868901766 0 8.3133343036814935e-09 -0.0050000342951429201 0 2.5480174676467558e-07 -0.0050020320930835036 0 -5.9776609726071192e-06 -0.0050030472891998135 0 -7.4220304935613328e-06 -0.0050087054107550546 0 2.5480174676467558e-07 -0.0050020320930835036 0 6.7534617684079895e-06 -0.0050061833808044314 0 9.4665165379538102e-07 -0.0050039682992175346 0 -2.8780832644491124e-06 -0.0049961964861012405 0 -2.1173303582226479e-09 -0.0049999964594646595 0 -6.7417408391974019e-09 -0.0049999824130177971 0 -2.8780832644491124e-06 -0.0049961964861012405 0 -5.9894568607121715e-06 -0.0049913956410940555 0 -1.4283433533384638e-07 -0.0049998873355431355 0 4.1782364788406663e-06 -0.004991868529295858 0 5.4671630965651487e-06 -0.0049965983822045966 0 1.1321804510381669e-05 -0.0049864223053324459 0 -2.8780832644491124e-06 -0.0049961964861012405 0 -5.9894568607121715e-06 -0.0049913956410940555 0 -5.1237240616849715e-06 -0.0049924427106777126 0 4.1782364788406663e-06 -0.004991868529295858 0 5.4671630965651487e-06 -0.0049965983822045966 0 1.6313585278927968e-06 -0.0049986927123014981 0 5.4671630965651487e-06 -0.0049965983822045966 0 1.6313585278927968e-06 -0.0049986927123014981 0 -5.5642779726806307e-07 -0.0050010767858622131 0 1.6313585278927968e-06 -0.0049986927123014981 0 -1.4283433533384638e-07 -0.0049998873355431355 0 -7.5442372884577928e-08 -0.0050001764059321467 0 4.1782364788406663e-06 -0.004991868529295858 0 1.6313585278927968e-06 -0.0049986927123014981 0 -1.4283433533384638e-07 -0.0049998873355431355 0 -6.7292078368903637e-06 -0.0049968940496093496 0 1.6718387405897828e-06 -0.0049969495810065967 0 -2.8780832644491124e-06 -0.0049961964861012405 0 -2.1173303582226479e-09 -0.0049999964594646595 0 -1.4283433533384638e-07 -0.0049998873355431355 0 1.6313585278927968e-06 -0.0049986927123014981 0 -7.5442372884577928e-08 -0.0050001764059321467 0 -5.5642779726806307e-07 -0.0050010767858622131 0 -1.4283433533384638e-07 -0.0049998873355431355 0 -7.5442372884577928e-08 -0.0050001764059321467 0 -3.5724618299127763e-09 -0.0049999891656144586 0 -2.1173303582226479e-09 -0.0049999964594646595 0 -1.4283433533384638e-07 -0.0049998873355431355 0 -3.5724618299127763e-09 -0.0049999891656144586 0 -7.5442372884577928e-08 -0.0050001764059321467 0 -5.5642779726806307e-07 -0.0050010767858622131 0 -3.5724618299127763e-09 -0.0049999891656144586 0 -4.8765705693033008e-06 -0.0049910225080930567 0 -5.5642779726806307e-07 -0.0050010767858622131 0 -3.5724618299127763e-09 -0.0049999891656144586 0 2.030211670980248e-05 -0.004916482236717922 0 -4.8765705693033008e-06 -0.0049910225080930567 0 7.1613003451518173e-06 -0.0048362287815438042 0 -5.6835861275291756e-06 -0.0049806661865932616 0 6.0925952026700277e-06 -0.0049220443221981739 0 5.8661302922889592e-05 -0.0048645799023430561 0 2.030211670980248e-05 -0.004916482236717922 0 4.0978333227017465e-05 -0.0048503555068292849 0 2.030211670980248e-05 -0.004916482236717922 0 7.1613003451518173e-06 -0.0048362287815438042 0 4.0978333227017465e-05 -0.0048503555068292849 0 7.1613003451518173e-06 -0.0048362287815438042 0 4.0978333227017465e-05 -0.0048503555068292849 0 4.3389401211138999e-05 -0.0048200554198039244 0 4.9091982987613008e-05 -0.0048061509336408091 0 7.1613003451518173e-06 -0.0048362287815438042 0 4.3389401211138999e-05 -0.0048200554198039244 0 2.8694800255285249e-05 -0.0048994154803893315 0 6.0925952026700277e-06 -0.0049220443221981739 0 4.3389401211138999e-05 -0.0048200554198039244 0 4.7738378900894217e-05 -0.0048207612600177962 0 4.4074611541760874e-05 -0.0048044935524524735 0 4.0978333227017465e-05 -0.0048503555068292849 0 4.3389401211138999e-05 -0.0048200554198039244 0 4.7738378900894217e-05 -0.0048207612600177962 0 5.8661302922889592e-05 -0.0048645799023430561 0 4.7738378900894217e-05 -0.0048207612600177962 0 4.3506052792387981e-05 -0.0048097659624318292 0 5.8661302922889592e-05 -0.0048645799023430561 0 4.0978333227017465e-05 -0.0048503555068292849 0 4.7738378900894217e-05 -0.0048207612600177962 0 4.6016928549352454e-05 -0.0048173112309234179 0 5.8661302922889592e-05 -0.0048645799023430561 0 4.3506052792387981e-05 -0.0048097659624318292 0 4.3506052792387981e-05 -0.0048097659624318292 0 3.4062184512954801e-05 -0.00479229824642694 0 3.0192643235418029e-05 -0.0047922669941998152 0 4.7738378900894217e-05 -0.0048207612600177962 0 4.3506052792387981e-05 -0.0048097659624318292 0 3.4062184512954801e-05 -0.00479229824642694 0 3.4062184512954801e-05 -0.00479229824642694 0 3.2068170295358129e-05 -0.0047965053078736272 0 4.4074611541760874e-05 -0.0048044935524524735 0 4.7738378900894217e-05 -0.0048207612600177962 0 3.4062184512954801e-05 -0.00479229824642694 0 4.4074611541760874e-05 -0.0048044935524524735 0 3.4062184512954801e-05 -0.00479229824642694 0 3.2068170295358129e-05 -0.0047965053078736272 0 1.724103196791322e-05 -0.0047622450821589637 0 3.2068170295358129e-05 -0.0047965053078736272 0 4.1648005341396777e-05 -0.0048110631361987059 0 2.6899664247689995e-05 -0.0048245077775299827 0 3.2068170295358129e-05 -0.0047965053078736272 0 2.6899664247689995e-05 -0.0048245077775299827 0 1.2949176283424479e-05 -0.004807974730785639 0 3.2068170295358129e-05 -0.0047965053078736272 0 4.1648005341396777e-05 -0.0048110631361987059 0 4.4074611541760874e-05 -0.0048044935524524735 0 4.3389401211138999e-05 -0.0048200554198039244 0 4.4074611541760874e-05 -0.0048044935524524735 0 4.7776974784635299e-05 -0.0048092373511004569 0 4.9091982987613008e-05 -0.0048061509336408091 0 4.3389401211138999e-05 -0.0048200554198039244 0 4.7776974784635299e-05 -0.0048092373511004569 0 4.1648005341396777e-05 -0.0048110631361987059 0 4.4074611541760874e-05 -0.0048044935524524735 0 4.7776974784635299e-05 -0.0048092373511004569 0 4.9091982987613008e-05 -0.0048061509336408091 0 4.7776974784635299e-05 -0.0048092373511004569 0 4.7894008649282326e-05 -0.0048183703941995894 0 4.1648005341396777e-05 -0.0048110631361987059 0 4.7776974784635299e-05 -0.0048092373511004569 0 4.7894008649282326e-05 -0.0048183703941995894 0 -6.7292078368903637e-06 -0.0049968940496093496 0 2.112720234413431e-05 -0.0049383282233814762 0 2.8694800255285249e-05 -0.0048994154803893315 0 2.112720234413431e-05 -0.0049383282233814762 0 4.1648005341396777e-05 -0.0048110631361987059 0 4.7894008649282326e-05 -0.0048183703941995894 0 4.0778601939195132e-05 -0.0048270243263202322 0 4.9091982987613008e-05 -0.0048061509336408091 0 5.056322702910424e-05 -0.0048322866068014154 0 6.0323802392984187e-05 -0.0048549888076706215 0 4.7894008649282326e-05 -0.0048183703941995894 0 5.056322702910424e-05 -0.0048322866068014154 0 4.0778601939195132e-05 -0.0048270243263202322 0 4.9091982987613008e-05 -0.0048061509336408091 0 4.7894008649282326e-05 -0.0048183703941995894 0 5.056322702910424e-05 -0.0048322866068014154 0 5.056322702910424e-05 -0.0048322866068014154 0 3.9367262398819149e-05 -0.0048455781666504423 0 6.0323802392984187e-05 -0.0048549888076706215 0 5.056322702910424e-05 -0.0048322866068014154 0 3.9367262398819149e-05 -0.0048455781666504423 0 4.0778601939195132e-05 -0.0048270243263202322 0 1.7087552941010654e-05 -0.0048504772803869608 0 2.6899664247689995e-05 -0.0048245077775299827 0 1.953648744471038e-07 -0.0048411824091407242 0 3.9367262398819149e-05 -0.0048455781666504423 0 1.7087552941010654e-05 -0.0048504772803869608 0 2.6899664247689995e-05 -0.0048245077775299827 0 4.1648005341396777e-05 -0.0048110631361987059 0 2.6899664247689995e-05 -0.0048245077775299827 0 4.0778601939195132e-05 -0.0048270243263202322 0 3.9367262398819149e-05 -0.0048455781666504423 0 2.6899664247689995e-05 -0.0048245077775299827 0 4.0778601939195132e-05 -0.0048270243263202322 0 2.6899664247689995e-05 -0.0048245077775299827 0 1.953648744471038e-07 -0.0048411824091407242 0 1.2949176283424479e-05 -0.004807974730785639 0 -1.8603975373376967e-05 -0.0048132702556512412 0 1.953648744471038e-07 -0.0048411824091407242 0 1.2949176283424479e-05 -0.004807974730785639 0 1.7087552941010654e-05 -0.0048504772803869608 0 1.953648744471038e-07 -0.0048411824091407242 0 -7.3039089583584747e-06 -0.0048759689694986173 0 -1.8603975373376967e-05 -0.0048132702556512412 0 1.953648744471038e-07 -0.0048411824091407242 0 -2.5246526172512274e-05 -0.0048609759821706851 0 1.953648744471038e-07 -0.0048411824091407242 0 -2.5246526172512274e-05 -0.0048609759821706851 0 -7.3039089583584747e-06 -0.0048759689694986173 0 -5.1152469431865159e-05 -0.0048283086428500604 0 -4.5214668919804819e-05 -0.0047869351124378559 0 -8.7746510839463215e-05 -0.0048404875445962128 0 -2.5246526172512274e-05 -0.0048609759821706851 0 -5.6126886633534283e-05 -0.0048582872114223191 0 -5.1152469431865159e-05 -0.0048283086428500604 0 -5.6126886633534283e-05 -0.0048582872114223191 0 -5.1152469431865159e-05 -0.0048283086428500604 0 -8.7746510839463215e-05 -0.0048404875445962128 0 -1.8603975373376967e-05 -0.0048132702556512412 0 -2.5246526172512274e-05 -0.0048609759821706851 0 -5.1152469431865159e-05 -0.0048283086428500604 0 -6.4695837335790524e-05 -0.0046877252279810327 0 -0.00011255400814947427 -0.0046823937544503962 0 -1.8603975373376967e-05 -0.0048132702556512412 0 -5.1152469431865159e-05 -0.0048283086428500604 0 -4.5214668919804819e-05 -0.0047869351124378559 0 -6.330318547626274e-05 -0.0047001380271933313 0 -0.00011411305020399876 -0.0046265082894684272 0 -0.0001545352478102578 -0.0045378516098708577 0 -4.5214668919804819e-05 -0.0047869351124378559 0 -6.330318547626274e-05 -0.0047001380271933313 0 -8.7746510839463215e-05 -0.0048404875445962128 0 -4.5214668919804819e-05 -0.0047869351124378559 0 1.724103196791322e-05 -0.0047622450821589637 0 -6.330318547626274e-05 -0.0047001380271933313 0 -1.8603975373376967e-05 -0.0048132702556512412 0 1.2949176283424479e-05 -0.004807974730785639 0 1.724103196791322e-05 -0.0047622450821589637 0 -1.8603975373376967e-05 -0.0048132702556512412 0 -4.5214668919804819e-05 -0.0047869351124378559 0 1.724103196791322e-05 -0.0047622450821589637 0 3.2068170295358129e-05 -0.0047965053078736272 0 1.2949176283424479e-05 -0.004807974730785639 0 1.724103196791322e-05 -0.0047622450821589637 0 3.4062184512954801e-05 -0.00479229824642694 0 1.724103196791322e-05 -0.0047622450821589637 0 3.0192643235418029e-05 -0.0047922669941998152 0 1.724103196791322e-05 -0.0047622450821589637 0 3.0192643235418029e-05 -0.0047922669941998152 0 2.4592193067824722e-05 -0.0047911625203077551 0 3.9871725405847849e-05 -0.0047854767722393752 0 4.3506052792387981e-05 -0.0048097659624318292 0 3.0192643235418029e-05 -0.0047922669941998152 0 3.9871725405847849e-05 -0.0047854767722393752 0 3.0192643235418029e-05 -0.0047922669941998152 0 2.8257134141978111e-05 -0.0047830635742296297 0 1.5933486787243884e-05 -0.0047627730949841704 0 2.8257134141978111e-05 -0.0047830635742296297 0 2.4592193067824722e-05 -0.0047911625203077551 0 3.0192643235418029e-05 -0.0047922669941998152 0 2.8257134141978111e-05 -0.0047830635742296297 0 2.4592193067824722e-05 -0.0047911625203077551 0 1.0490767458668428e-05 -0.0047529993441849912 0 -4.4857113134136459e-05 -0.0047037047203039297 0 1.724103196791322e-05 -0.0047622450821589637 0 -0.00011363484918695246 -0.0046096593511488811 0 -6.330318547626274e-05 -0.0047001380271933313 0 -0.00011363484918695246 -0.0046096593511488811 0 -6.330318547626274e-05 -0.0047001380271933313 0 -0.00011411305020399876 -0.0046265082894684272 0 -0.00011252676292528756 -0.004605835188329379 0 -0.00011063730815750055 -0.0046100308333925063 0 -0.00011411305020399876 -0.0046265082894684272 0 -0.00011252676292528756 -0.004605835188329379 0 -0.00011063730815750055 -0.0046100308333925063 0 -9.428477635546316e-05 -0.0046025486319028822 0 -0.00011363484918695246 -0.0046096593511488811 0 -0.00011063730815750055 -0.0046100308333925063 0 -0.00011411305020399876 -0.0046265082894684272 0 1.5933486787243884e-05 -0.0047627730949841704 0 2.4592193067824722e-05 -0.0047911625203077551 0 -1.7558210576022253e-05 -0.0047566689697952219 0 -4.4857113134136459e-05 -0.0047037047203039297 0 -5.495985016702858e-05 -0.0046938449591148769 0 -0.00011363484918695246 -0.0046096593511488811 0 -0.00011063730815750055 -0.0046100308333925063 0 -0.00010066922213975259 -0.0046339442151815151 0 -0.00011063730815750055 -0.0046100308333925063 0 -0.00010066922213975259 -0.0046339442151815151 0 -9.428477635546316e-05 -0.0046025486319028822 0 -0.00010066922213975259 -0.0046339442151815151 0 -9.428477635546316e-05 -0.0046025486319028822 0 -5.0144511389682384e-05 -0.0045998679218421188 0 -9.428477635546316e-05 -0.0046025486319028822 0 -7.6410123701935707e-05 -0.0045667399420789021 0 -5.0144511389682384e-05 -0.0045998679218421188 0 -0.00011252676292528756 -0.004605835188329379 0 -9.428477635546316e-05 -0.0046025486319028822 0 -0.00010267897521589089 -0.0045795041986748473 0 -9.428477635546316e-05 -0.0046025486319028822 0 -7.6410123701935707e-05 -0.0045667399420789021 0 -0.00010267897521589089 -0.0045795041986748473 0 -7.6410123701935707e-05 -0.0045667399420789021 0 -0.00011111473631785657 -0.0045473958902558414 0 -7.6504919728294431e-05 -0.0045226198302090667 0 -7.6410123701935707e-05 -0.0045667399420789021 0 -0.00011111473631785657 -0.0045473958902558414 0 -0.00010267897521589089 -0.0045795041986748473 0 -0.00011252676292528756 -0.004605835188329379 0 -0.00010267897521589089 -0.0045795041986748473 0 -0.00011828222357962525 -0.0045830325534854405 0 -0.00011828222357962525 -0.0045830325534854405 0 -0.00011411305020399876 -0.0046265082894684272 0 -0.0001545352478102578 -0.0045378516098708577 0 -0.00011252676292528756 -0.004605835188329379 0 -0.00011828222357962525 -0.0045830325534854405 0 -0.00011411305020399876 -0.0046265082894684272 0 -0.00011111473631785657 -0.0045473958902558414 0 -0.00011828222357962525 -0.0045830325534854405 0 -0.0001545352478102578 -0.0045378516098708577 0 -0.00011111473631785657 -0.0045473958902558414 0 -0.00010267897521589089 -0.0045795041986748473 0 -0.00011828222357962525 -0.0045830325534854405 0 -0.00011255400814947427 -0.0046823937544503962 0 -0.00010941537885372539 -0.0046233577557956125 0 -0.00011111473631785657 -0.0045473958902558414 0 -0.0001545352478102578 -0.0045378516098708577 0 -0.00014938909507045361 -0.004480763456372789 0 -5.6126886633534283e-05 -0.0048582872114223191 0 -8.7746510839463215e-05 -0.0048404875445962128 0 -7.2184300122011822e-05 -0.0048637216436693814 0 -0.0001545352478102578 -0.0045378516098708577 0 -0.00014938909507045361 -0.004480763456372789 0 -0.00015417839327265396 -0.0043778179049798844 0 -0.00015024034752489639 -0.0044747001488774788 0 -7.6530751994235939e-05 -0.0044400330355926273 0 -0.00014938909507045361 -0.004480763456372789 0 -7.6504919728294431e-05 -0.0045226198302090667 0 -4.1935396451338762e-05 -0.0044728276366823539 0 -0.00011111473631785657 -0.0045473958902558414 0 -0.00014938909507045361 -0.004480763456372789 0 -7.6504919728294431e-05 -0.0045226198302090667 0 -0.00014938909507045361 -0.004480763456372789 0 -0.00015417839327265396 -0.0043778179049798844 0 -0.0001057735449567522 -0.0044014130035609726 0 -8.7746510839463215e-05 -0.0048404875445962128 0 -6.9549179869691916e-05 -0.0048727405594361237 0 -7.2184300122011822e-05 -0.0048637216436693814 0 -6.9549179869691916e-05 -0.0048727405594361237 0 -7.2184300122011822e-05 -0.0048637216436693814 0 -6.8880468612559812e-05 -0.0048756464223523614 0 -5.6126886633534283e-05 -0.0048582872114223191 0 -7.2184300122011822e-05 -0.0048637216436693814 0 -6.8880468612559812e-05 -0.0048756464223523614 0 -6.9549179869691916e-05 -0.0048727405594361237 0 -6.8880468612559812e-05 -0.0048756464223523614 0 -6.0770985512778869e-05 -0.0048746939602562116 0 -0.00010941537885372539 -0.0046233577557956125 0 -8.2145565530698057e-05 -0.0045546726411205742 0 -6.9549179869691916e-05 -0.0048727405594361237 0 -6.0770985512778869e-05 -0.0048746939602562116 0 -4.7784140052428058e-05 -0.0048813758693553614 0 -6.0770985512778869e-05 -0.0048746939602562116 0 -5.3871622348767078e-05 -0.0048720381508739309 0 -4.7784140052428058e-05 -0.0048813758693553614 0 -6.0770985512778869e-05 -0.0048746939602562116 0 -5.6496795390367362e-05 -0.004866214562565291 0 -5.3871622348767078e-05 -0.0048720381508739309 0 -3.9831639768655742e-05 -0.0049050665098486906 0 -5.6496795390367362e-05 -0.004866214562565291 0 -5.571804924751958e-05 -0.0048768172081700622 0 -4.2604496766494931e-05 -0.0049064074113576838 0 -5.0697970409842319e-05 -0.0049027995342348796 0 -3.9831639768655742e-05 -0.0049050665098486906 0 -4.3812459127898792e-05 -0.0049371621166270155 0 -4.3427488282221523e-05 -0.0049228949871931377 0 -5.6496795390367362e-05 -0.004866214562565291 0 -5.3871622348767078e-05 -0.0048720381508739309 0 -5.571804924751958e-05 -0.0048768172081700622 0 -4.3812459127898792e-05 -0.0049371621166270155 0 -4.3427488282221523e-05 -0.0049228949871931377 0 -4.5160859029225853e-05 -0.0049344697446204282 0 -4.4133378980876879e-05 -0.004926146812540555 0 -4.3427488282221523e-05 -0.0049228949871931377 0 -4.5160859029225853e-05 -0.0049344697446204282 0 -6.2884566180131902e-05 -0.0048971717184941987 0 -5.0697970409842319e-05 -0.0049027995342348796 0 -6.8880468612559812e-05 -0.0048756464223523614 0 -6.0770985512778869e-05 -0.0048746939602562116 0 -5.6496795390367362e-05 -0.004866214562565291 0 -5.9473144651147849e-05 -0.0049243785013167139 0 -4.3812459127898792e-05 -0.0049371621166270155 0 -4.8031081740523694e-05 -0.0049371146358990073 0 -4.3812459127898792e-05 -0.0049371621166270155 0 -4.5160859029225853e-05 -0.0049344697446204282 0 -4.8031081740523694e-05 -0.0049371146358990073 0 -4.8031081740523694e-05 -0.0049371146358990073 0 -3.7371971256378707e-05 -0.0049430552131864746 0 -2.1941082209347198e-05 -0.0049388247054196919 0 -4.5160859029225853e-05 -0.0049344697446204282 0 -4.8031081740523694e-05 -0.0049371146358990073 0 -3.7371971256378707e-05 -0.0049430552131864746 0 -4.4133378980876879e-05 -0.004926146812540555 0 -4.0954006821897818e-05 -0.0049372570834304158 0 -4.5160859029225853e-05 -0.0049344697446204282 0 -4.0954006821897818e-05 -0.0049372570834304158 0 -4.5160859029225853e-05 -0.0049344697446204282 0 -3.7371971256378707e-05 -0.0049430552131864746 0 -4.0954006821897818e-05 -0.0049372570834304158 0 -3.439890500568267e-05 -0.0049469979334268669 0 -2.7148008076484168e-05 -0.0049545806264646823 0 -4.0954006821897818e-05 -0.0049372570834304158 0 -3.7371971256378707e-05 -0.0049430552131864746 0 -2.7148008076484168e-05 -0.0049545806264646823 0 -3.7371971256378707e-05 -0.0049430552131864746 0 -2.1941082209347198e-05 -0.0049388247054196919 0 -2.7148008076484168e-05 -0.0049545806264646823 0 -5.9473144651147849e-05 -0.0049243785013167139 0 -2.1941082209347198e-05 -0.0049388247054196919 0 -3.7879264429404548e-05 -0.0049020757314647946 0 -5.9473144651147849e-05 -0.0049243785013167139 0 -4.8031081740523694e-05 -0.0049371146358990073 0 -2.1941082209347198e-05 -0.0049388247054196919 0 -5.6126886633534283e-05 -0.0048582872114223191 0 -5.9473144651147849e-05 -0.0049243785013167139 0 -3.7879264429404548e-05 -0.0049020757314647946 0 -5.485182423772036e-05 -0.0048604054073165519 0 -6.2884566180131902e-05 -0.0048971717184941987 0 -2.5246526172512274e-05 -0.0048609759821706851 0 -5.6126886633534283e-05 -0.0048582872114223191 0 -3.7879264429404548e-05 -0.0049020757314647946 0 -2.5246526172512274e-05 -0.0048609759821706851 0 -3.7879264429404548e-05 -0.0049020757314647946 0 -7.3039089583584747e-06 -0.0048759689694986173 0 -2.1941082209347198e-05 -0.0049388247054196919 0 -7.3039089583584747e-06 -0.0048759689694986173 0 1.6464735678434408e-05 -0.0048755922354655964 0 -2.1941082209347198e-05 -0.0049388247054196919 0 -3.7879264429404548e-05 -0.0049020757314647946 0 -7.3039089583584747e-06 -0.0048759689694986173 0 1.7087552941010654e-05 -0.0048504772803869608 0 -7.3039089583584747e-06 -0.0048759689694986173 0 1.6464735678434408e-05 -0.0048755922354655964 0 -2.1941082209347198e-05 -0.0049388247054196919 0 4.7516053803081663e-05 -0.0048765565682123953 0 1.6464735678434408e-05 -0.0048755922354655964 0 3.9367262398819149e-05 -0.0048455781666504423 0 1.7087552941010654e-05 -0.0048504772803869608 0 1.6464735678434408e-05 -0.0048755922354655964 0 3.9367262398819149e-05 -0.0048455781666504423 0 4.7516053803081663e-05 -0.0048765565682123953 0 1.6464735678434408e-05 -0.0048755922354655964 0 -5.9894568607121715e-06 -0.0049913956410940555 0 -1.0004218642481888e-05 -0.0049806501561735833 0 -1.0252856922986686e-05 -0.0049811812657752788 0 -1.2132282200809614e-05 -0.0049740946461753208 0 -1.0004218642481888e-05 -0.0049806501561735833 0 -1.0252856922986686e-05 -0.0049811812657752788 0 3.9367262398819149e-05 -0.0048455781666504423 0 4.7516053803081663e-05 -0.0048765565682123953 0 6.0323802392984187e-05 -0.0048549888076706215 0 1.6064242334856023e-05 -0.0049276286629921099 0 2.112720234413431e-05 -0.0049383282233814762 0 -1.0252856922986686e-05 -0.0049811812657752788 0 -1.352757436130338e-05 -0.0049721397953028492 0 -1.0132720042715784e-05 -0.0049810438096460213 0 -1.2132282200809614e-05 -0.0049740946461753208 0 -1.0252856922986686e-05 -0.0049811812657752788 0 -1.352757436130338e-05 -0.0049721397953028492 0 -1.352757436130338e-05 -0.0049721397953028492 0 -1.3039707044781194e-05 -0.0049745608171891022 0 -1.0132720042715784e-05 -0.0049810438096460213 0 -1.352757436130338e-05 -0.0049721397953028492 0 -1.3039707044781194e-05 -0.0049745608171891022 0 -1.7681117912087672e-05 -0.0049629742236752079 0 -1.352757436130338e-05 -0.0049721397953028492 0 -1.6347513340399852e-05 -0.0049618229183457955 0 -1.7681117912087672e-05 -0.0049629742236752079 0 -2.1941082209347198e-05 -0.0049388247054196919 0 -1.2132282200809614e-05 -0.0049740946461753208 0 -1.6347513340399852e-05 -0.0049618229183457955 0 -2.1941082209347198e-05 -0.0049388247054196919 0 -1.6347513340399852e-05 -0.0049618229183457955 0 -1.7681117912087672e-05 -0.0049629742236752079 0 -2.0938495472713834e-05 -0.0049400534558931442 0 1.6064242334856023e-05 -0.0049276286629921099 0 -1.2132282200809614e-05 -0.0049740946461753208 0 -1.352757436130338e-05 -0.0049721397953028492 0 -1.6347513340399852e-05 -0.0049618229183457955 0 -1.7681117912087672e-05 -0.0049629742236752079 0 -2.7148008076484168e-05 -0.0049545806264646823 0 -1.9597651867719592e-05 -0.0049660236103304225 0 -2.1941082209347198e-05 -0.0049388247054196919 0 -1.7681117912087672e-05 -0.0049629742236752079 0 -2.7148008076484168e-05 -0.0049545806264646823 0 -3.439890500568267e-05 -0.0049469979334268669 0 -2.7148008076484168e-05 -0.0049545806264646823 0 -1.972613279444457e-05 -0.0049725113635926176 0 -2.486768542918381e-05 -0.0049624176699823563 0 -1.9914691756363105e-05 -0.0049695593847579479 0 -2.7148008076484168e-05 -0.0049545806264646823 0 -1.972613279444457e-05 -0.0049725113635926176 0 -1.9597651867719592e-05 -0.0049660236103304225 0 -1.8447766285537222e-05 -0.004979967368933874 0 -1.9547731069735142e-05 -0.0049807185755520083 0 -1.972613279444457e-05 -0.0049725113635926176 0 -1.9547731069735142e-05 -0.0049807185755520083 0 -1.972613279444457e-05 -0.0049725113635926176 0 -1.1397391444275388e-05 -0.0049828927602337805 0 -1.972613279444457e-05 -0.0049725113635926176 0 -1.3255617334393405e-05 -0.0049779436546757991 0 -1.1397391444275388e-05 -0.0049828927602337805 0 -1.3255617334393405e-05 -0.0049779436546757991 0 -1.4899974535459977e-05 -0.0049728513632414026 0 -1.0506716638800164e-05 -0.0049804328082673531 0 -1.972613279444457e-05 -0.0049725113635926176 0 -1.3255617334393405e-05 -0.0049779436546757991 0 -1.4899974535459977e-05 -0.0049728513632414026 0 -1.972613279444457e-05 -0.0049725113635926176 0 -1.9597651867719592e-05 -0.0049660236103304225 0 -1.4899974535459977e-05 -0.0049728513632414026 0 -1.3039707044781194e-05 -0.0049745608171891022 0 -1.7681117912087672e-05 -0.0049629742236752079 0 -1.4899974535459977e-05 -0.0049728513632414026 0 -1.7681117912087672e-05 -0.0049629742236752079 0 -1.9597651867719592e-05 -0.0049660236103304225 0 -1.4899974535459977e-05 -0.0049728513632414026 0 -1.3039707044781194e-05 -0.0049745608171891022 0 -1.4899974535459977e-05 -0.0049728513632414026 0 -1.0506716638800164e-05 -0.0049804328082673531 0 -1.0506716638800164e-05 -0.0049804328082673531 0 -6.0316340033589241e-06 -0.0049886950162282128 0 -8.9986850794045545e-06 -0.0049832480428278186 0 -1.0506716638800164e-05 -0.0049804328082673531 0 -6.0316340033589241e-06 -0.0049886950162282128 0 -8.2836375917436046e-06 -0.0049850418878538034 0 -6.0316340033589241e-06 -0.0049886950162282128 0 -8.2836375917436046e-06 -0.0049850418878538034 0 -3.7217538302368699e-06 -0.0049932656215492888 0 -1.3255617334393405e-05 -0.0049779436546757991 0 -1.0506716638800164e-05 -0.0049804328082673531 0 -8.2836375917436046e-06 -0.0049850418878538034 0 -6.333396870691107e-06 -0.0049891572737991458 0 -8.2836375917436046e-06 -0.0049850418878538034 0 -1.1397391444275388e-05 -0.0049828927602337805 0 -1.3255617334393405e-05 -0.0049779436546757991 0 -8.2836375917436046e-06 -0.0049850418878538034 0 -1.1397391444275388e-05 -0.0049828927602337805 0 -6.333396870691107e-06 -0.0049891572737991458 0 -8.2836375917436046e-06 -0.0049850418878538034 0 -3.7217538302368699e-06 -0.0049932656215492888 0 -6.333396870691107e-06 -0.0049891572737991458 0 -4.5040476857748916e-07 -0.0049992437187047429 0 -3.7217538302368699e-06 -0.0049932656215492888 0 -1.7055391489698462e-09 -0.0050000001615676457 0 -4.5040476857748916e-07 -0.0049992437187047429 0 -6.1198940278534241e-09 -0.0049999754396668735 0 -1.7055391489698462e-09 -0.0050000001615676457 0 -1.6690247804253568e-06 -0.0049995956130575265 0 -4.5040476857748916e-07 -0.0049992437187047429 0 -2.1671817494307395e-06 -0.0049941883317318487 0 -1.1737087285567518e-06 -0.0049974041097676607 0 -6.0316340033589241e-06 -0.0049886950162282128 0 -6.1198940278534241e-09 -0.0049999754396668735 0 -3.7217538302368699e-06 -0.0049932656215492888 0 -4.5040476857748916e-07 -0.0049992437187047429 0 -6.1198940278534241e-09 -0.0049999754396668735 0 -3.7217538302368699e-06 -0.0049932656215492888 0 -6.0316340033589241e-06 -0.0049886950162282128 0 -6.1198940278534241e-09 -0.0049999754396668735 0 -5.7752836095365544e-06 -0.0049901924389058536 0 -6.1198940278534241e-09 -0.0049999754396668735 0 -5.7752836095365544e-06 -0.0049901924389058536 0 -6.7417408391974019e-09 -0.0049999824130177971 0 -6.0316340033589241e-06 -0.0049886950162282128 0 -5.7752836095365544e-06 -0.0049901924389058536 0 -8.9986850794045545e-06 -0.0049832480428278186 0 -1.3039707044781194e-05 -0.0049745608171891022 0 -1.0506716638800164e-05 -0.0049804328082673531 0 -8.9986850794045545e-06 -0.0049832480428278186 0 -1.3039707044781194e-05 -0.0049745608171891022 0 -8.9986850794045545e-06 -0.0049832480428278186 0 -1.0132720042715784e-05 -0.0049810438096460213 0 -5.7752836095365544e-06 -0.0049901924389058536 0 -8.9986850794045545e-06 -0.0049832480428278186 0 -1.0132720042715784e-05 -0.0049810438096460213 0 -5.7752836095365544e-06 -0.0049901924389058536 0 -1.0132720042715784e-05 -0.0049810438096460213 0 -8.1739008207068835e-06 -0.0049859413881652879 0 -5.7752836095365544e-06 -0.0049901924389058536 0 -8.1739008207068835e-06 -0.0049859413881652879 0 -5.1237240616849715e-06 -0.0049924427106777126 0 -5.9894568607121715e-06 -0.0049913956410940555 0 -8.1739008207068835e-06 -0.0049859413881652879 0 -5.1237240616849715e-06 -0.0049924427106777126 0 -5.9894568607121715e-06 -0.0049913956410940555 0 -1.0252856922986686e-05 -0.0049811812657752788 0 -8.1739008207068835e-06 -0.0049859413881652879 0 -1.0252856922986686e-05 -0.0049811812657752788 0 -1.0132720042715784e-05 -0.0049810438096460213 0 -8.1739008207068835e-06 -0.0049859413881652879 0 -2.8780832644491124e-06 -0.0049961964861012405 0 -5.1237240616849715e-06 -0.0049924427106777126 0 -6.7417408391974019e-09 -0.0049999824130177971 0 -5.7752836095365544e-06 -0.0049901924389058536 0 -5.1237240616849715e-06 -0.0049924427106777126 0 -6.7417408391974019e-09 -0.0049999824130177971 0 0.00014672669865332073 -0.004515876709284823 0 0.00013371215151478891 -0.004457501277656521 0 0.00017720977410486832 -0.0044879340730341038 0 0.00014672669865332073 -0.004515876709284823 0 0.00011020210005671436 -0.004507473946563755 0 0.00013371215151478891 -0.004457501277656521 0 0.00014672669865332073 -0.004515876709284823 0 0.00011020210005671436 -0.004507473946563755 0 0.00012384615030638625 -0.0045441517049811331 0 0.00011020210005671436 -0.004507473946563755 0 9.8555247956928733e-05 -0.0044582575007196135 0 7.5357720577776759e-05 -0.0045037181196345734 0 0.00011020210005671436 -0.004507473946563755 0 9.8555247956928733e-05 -0.0044582575007196135 0 0.00013371215151478891 -0.004457501277656521 0 9.8555247956928733e-05 -0.0044582575007196135 0 0.00013371215151478891 -0.004457501277656521 0 9.7167537692825756e-05 -0.0044033062799998133 0 0.00013371215151478891 -0.004457501277656521 0 0.00016851921904383939 -0.0044494488032597564 0 0.00017720977410486832 -0.0044879340730341038 0 0.00016851921904383939 -0.0044494488032597564 0 0.00017720977410486832 -0.0044879340730341038 0 0.00020282353334729374 -0.0044443850842481886 0 0.0001069979926461468 -0.0040862891783525696 0 0.00012300136604360089 -0.0040639318884103538 0 0.00013949189140813204 -0.004092863644836426 0 0.00022714485070822655 -0.0044929418127800311 0 0.00020282353334729374 -0.0044443850842481886 0 0.00024800541580138473 -0.0044641507030938211 0 0.00022714485070822655 -0.0044929418127800311 0 0.00017720977410486832 -0.0044879340730341038 0 0.00020282353334729374 -0.0044443850842481886 0 0.00015374323231930677 -0.0042854861525506664 0 0.00022082423518255756 -0.0041237230305027064 0 0.00021989790449267952 -0.0045254520870821723 0 0.00017395676656327698 -0.0044838922145603692 0 0.0002018865856987809 -0.0045140087768333033 0 0.00017720977410486832 -0.0044879340730341038 0 0.00018025829796462848 -0.0045276394284441959 0 0.00014672669865332073 -0.004515876709284823 0 0.00017720977410486832 -0.0044879340730341038 0 0.00018025829796462848 -0.0045276394284441959 0 0.00014672669865332073 -0.004515876709284823 0 0.00018025829796462848 -0.0045276394284441959 0 0.00015484623841656491 -0.0045442040667599843 0 0.00018025829796462848 -0.0045276394284441959 0 0.00017743119188375073 -0.0045577569716869666 0 0.00015484623841656491 -0.0045442040667599843 0 0.0002018865856987809 -0.0045140087768333033 0 0.00018025829796462848 -0.0045276394284441959 0 0.0002075182978043811 -0.0045421621893642281 0 0.00018025829796462848 -0.0045276394284441959 0 0.00017743119188375073 -0.0045577569716869666 0 0.0002075182978043811 -0.0045421621893642281 0 0.00016717436417755375 -0.004589131108145383 0 0.00019334897575346772 -0.0045708648400617407 0 0.00017743119188375073 -0.0045577569716869666 0 0.00019334897575346772 -0.0045708648400617407 0 0.00017743119188375073 -0.0045577569716869666 0 0.0002075182978043811 -0.0045421621893642281 0 0.00014241355188504619 -0.0045896891994714351 0 0.00016717436417755375 -0.004589131108145383 0 0.0001538011195850565 -0.0045680343410322097 0 0.00017743119188375073 -0.0045577569716869666 0 0.0001538011195850565 -0.0045680343410322097 0 0.00015484623841656491 -0.0045442040667599843 0 0.00016717436417755375 -0.004589131108145383 0 0.00017743119188375073 -0.0045577569716869666 0 0.0001538011195850565 -0.0045680343410322097 0 0.00014241355188504619 -0.0045896891994714351 0 0.0001538011195850565 -0.0045680343410322097 0 0.00013276483269539043 -0.004571574693743757 0 0.00011918070263429926 -0.0046016428786314467 0 0.00014241355188504619 -0.0045896891994714351 0 0.00013276483269539043 -0.004571574693743757 0 0.0001538011195850565 -0.0045680343410322097 0 0.00013276483269539043 -0.004571574693743757 0 0.00015484623841656491 -0.0045442040667599843 0 0.00013276483269539043 -0.004571574693743757 0 0.00015484623841656491 -0.0045442040667599843 0 0.00012384615030638625 -0.0045441517049811331 0 0.00014672669865332073 -0.004515876709284823 0 0.00015484623841656491 -0.0045442040667599843 0 0.00012384615030638625 -0.0045441517049811331 0 0.00012384615030638625 -0.0045441517049811331 0 0.00010615262801108435 -0.0045761708893510243 0 8.7278509412283122e-05 -0.0045477313693840921 0 0.00011020210005671436 -0.004507473946563755 0 0.00012384615030638625 -0.0045441517049811331 0 8.7278509412283122e-05 -0.0045477313693840921 0 0.00010615262801108435 -0.0045761708893510243 0 7.803252878299901e-05 -0.0045844087468767903 0 8.7278509412283122e-05 -0.0045477313693840921 0 0.00013276483269539043 -0.004571574693743757 0 0.00012384615030638625 -0.0045441517049811331 0 0.00010615262801108435 -0.0045761708893510243 0 0.00011918070263429926 -0.0046016428786314467 0 0.00010615262801108435 -0.0045761708893510243 0 9.2235204687023516e-05 -0.0046012362647267248 0 0.00011918070263429926 -0.0046016428786314467 0 0.00013276483269539043 -0.004571574693743757 0 0.00010615262801108435 -0.0045761708893510243 0 0.00010615262801108435 -0.0045761708893510243 0 9.2235204687023516e-05 -0.0046012362647267248 0 7.803252878299901e-05 -0.0045844087468767903 0 6.6324191673000602e-05 -0.0046175010788814148 0 9.2235204687023516e-05 -0.0046012362647267248 0 7.803252878299901e-05 -0.0045844087468767903 0 7.803252878299901e-05 -0.0045844087468767903 0 5.0265989452902872e-05 -0.0046007773101920876 0 5.8499982567898467e-05 -0.0045664342690225224 0 6.6324191673000602e-05 -0.0046175010788814148 0 7.803252878299901e-05 -0.0045844087468767903 0 5.0265989452902872e-05 -0.0046007773101920876 0 3.3409716652566925e-05 -0.0046382236646303832 0 5.0265989452902872e-05 -0.0046007773101920876 0 1.9200867800987061e-05 -0.0046155564561715708 0 5.0265989452902872e-05 -0.0046007773101920876 0 1.9200867800987061e-05 -0.0046155564561715708 0 3.4082826827214168e-05 -0.0045860818292219512 0 1.9200867800987061e-05 -0.0046155564561715708 0 3.4082826827214168e-05 -0.0045860818292219512 0 1.029963673803348e-06 -0.004591059480896954 0 5.0265989452902872e-05 -0.0046007773101920876 0 3.4082826827214168e-05 -0.0045860818292219512 0 5.8499982567898467e-05 -0.0045664342690225224 0 3.4082826827214168e-05 -0.0045860818292219512 0 2.3274176887818443e-05 -0.0045578092233781054 0 5.8499982567898467e-05 -0.0045664342690225224 0 3.4082826827214168e-05 -0.0045860818292219512 0 2.3274176887818443e-05 -0.0045578092233781054 0 1.029963673803348e-06 -0.004591059480896954 0 2.3274176887818443e-05 -0.0045578092233781054 0 5.8499982567898467e-05 -0.0045664342690225224 0 5.0228779864642957e-05 -0.0045345688483369694 0 8.7278509412283122e-05 -0.0045477313693840921 0 5.8499982567898467e-05 -0.0045664342690225224 0 5.0228779864642957e-05 -0.0045345688483369694 0 7.803252878299901e-05 -0.0045844087468767903 0 8.7278509412283122e-05 -0.0045477313693840921 0 5.8499982567898467e-05 -0.0045664342690225224 0 -0.00010066922213975259 -0.0046339442151815151 0 -3.9931870532539501e-05 -0.0046343143979497448 0 -5.0144511389682384e-05 -0.0045998679218421188 0 -3.9931870532539501e-05 -0.0046343143979497448 0 -1.2656156537021235e-05 -0.0046208141966017167 0 -5.0144511389682384e-05 -0.0045998679218421188 0 -1.2656156537021235e-05 -0.0046208141966017167 0 1.029963673803348e-06 -0.004591059480896954 0 -5.0144511389682384e-05 -0.0045998679218421188 0 -3.9990937970605195e-06 -0.004658275996544026 0 -3.9931870532539501e-05 -0.0046343143979497448 0 -1.2656156537021235e-05 -0.0046208141966017167 0 -3.9990937970605195e-06 -0.004658275996544026 0 1.9200867800987061e-05 -0.0046155564561715708 0 -1.2656156537021235e-05 -0.0046208141966017167 0 1.9200867800987061e-05 -0.0046155564561715708 0 -1.2656156537021235e-05 -0.0046208141966017167 0 1.029963673803348e-06 -0.004591059480896954 0 1.029963673803348e-06 -0.004591059480896954 0 -1.167790736292221e-05 -0.004565212540509205 0 -5.0144511389682384e-05 -0.0045998679218421188 0 2.3274176887818443e-05 -0.0045578092233781054 0 1.029963673803348e-06 -0.004591059480896954 0 -1.167790736292221e-05 -0.004565212540509205 0 -7.6410123701935707e-05 -0.0045667399420789021 0 -4.2218164138303963e-05 -0.0045650393236212859 0 -5.0144511389682384e-05 -0.0045998679218421188 0 -1.167790736292221e-05 -0.004565212540509205 0 -4.2218164138303963e-05 -0.0045650393236212859 0 -5.0144511389682384e-05 -0.0045998679218421188 0 -1.167790736292221e-05 -0.004565212540509205 0 -4.2218164138303963e-05 -0.0045650393236212859 0 -2.7733094145171599e-05 -0.004522533835785803 0 -7.6410123701935707e-05 -0.0045667399420789021 0 -7.6504919728294431e-05 -0.0045226198302090667 0 -2.7733094145171599e-05 -0.004522533835785803 0 -7.6410123701935707e-05 -0.0045667399420789021 0 -4.2218164138303963e-05 -0.0045650393236212859 0 -2.7733094145171599e-05 -0.004522533835785803 0 -1.167790736292221e-05 -0.004565212540509205 0 -2.7733094145171599e-05 -0.004522533835785803 0 1.1694771903696862e-05 -0.0045231034388656726 0 2.3274176887818443e-05 -0.0045578092233781054 0 -1.167790736292221e-05 -0.004565212540509205 0 1.1694771903696862e-05 -0.0045231034388656726 0 -2.7733094145171599e-05 -0.004522533835785803 0 -4.1935396451338762e-05 -0.0044728276366823539 0 2.0693886786634789e-05 -0.0044478594976420658 0 -2.7733094145171599e-05 -0.004522533835785803 0 1.1694771903696862e-05 -0.0045231034388656726 0 2.0693886786634789e-05 -0.0044478594976420658 0 -7.6504919728294431e-05 -0.0045226198302090667 0 -2.7733094145171599e-05 -0.004522533835785803 0 -4.1935396451338762e-05 -0.0044728276366823539 0 0.00011020210005671436 -0.004507473946563755 0 8.7278509412283122e-05 -0.0045477313693840921 0 7.5357720577776759e-05 -0.0045037181196345734 0 8.7278509412283122e-05 -0.0045477313693840921 0 7.5357720577776759e-05 -0.0045037181196345734 0 5.0228779864642957e-05 -0.0045345688483369694 0 7.5357720577776759e-05 -0.0045037181196345734 0 5.0228779864642957e-05 -0.0045345688483369694 0 4.3442497505565453e-05 -0.0044973970846474264 0 2.3274176887818443e-05 -0.0045578092233781054 0 1.1694771903696862e-05 -0.0045231034388656726 0 5.0228779864642957e-05 -0.0045345688483369694 0 1.1694771903696862e-05 -0.0045231034388656726 0 5.0228779864642957e-05 -0.0045345688483369694 0 4.3442497505565453e-05 -0.0044973970846474264 0 1.1694771903696862e-05 -0.0045231034388656726 0 4.3442497505565453e-05 -0.0044973970846474264 0 2.0693886786634789e-05 -0.0044478594976420658 0 4.3442497505565453e-05 -0.0044973970846474264 0 6.5892736506990106e-05 -0.004466314429845273 0 2.0693886786634789e-05 -0.0044478594976420658 0 7.5357720577776759e-05 -0.0045037181196345734 0 4.3442497505565453e-05 -0.0044973970846474264 0 6.5892736506990106e-05 -0.004466314429845273 0 9.8555247956928733e-05 -0.0044582575007196135 0 7.5357720577776759e-05 -0.0045037181196345734 0 6.5892736506990106e-05 -0.004466314429845273 0 9.8555247956928733e-05 -0.0044582575007196135 0 6.5892736506990106e-05 -0.004466314429845273 0 9.7167537692825756e-05 -0.0044033062799998133 0 6.5892736506990106e-05 -0.004466314429845273 0 2.0693886786634789e-05 -0.0044478594976420658 0 9.7167537692825756e-05 -0.0044033062799998133 0 2.8464360198755663e-05 -0.0043301196271864056 0 9.6026029145305261e-05 -0.0043354429511771172 0 9.7167537692825756e-05 -0.0044033062799998133 0 -1.1337763423214585e-05 -0.0043831804288647722 0 2.8464360198755663e-05 -0.0043301196271864056 0 9.7167537692825756e-05 -0.0044033062799998133 0 8.5968280435275175e-06 -0.0044156263167587691 0 9.5533820004014799e-05 -0.0044033314495424969 0 -1.1337763423214585e-05 -0.0043831804288647722 0 2.8464360198755663e-05 -0.0043301196271864056 0 -7.0630219759968029e-05 -0.0043275777363278112 0 -8.0549797070847195e-06 -0.0042250340215120516 0 2.8464360198755663e-05 -0.0043301196271864056 0 -7.0630219759968029e-05 -0.0043275777363278112 0 -9.5768987102799312e-06 -0.0042214284438638191 0 6.8008463878049298e-05 -0.0042436458418267714 0 -8.0549797070847195e-06 -0.0042250340215120516 0 5.4680267027882097e-05 -0.0041544433261293135 0 3.50719533515799e-05 -0.0041578350432154628 0 5.4680267027882097e-05 -0.0041544433261293135 0 3.50719533515799e-05 -0.0041578350432154628 0 5.6462431646250721e-05 -0.0041363202234417839 0 -8.0549797070847195e-06 -0.0042250340215120516 0 2.8464360198755663e-05 -0.0043301196271864056 0 9.6026029145305261e-05 -0.0043354429511771172 0 -0.00015417839327265396 -0.0043778179049798844 0 -0.0001057735449567522 -0.0044014130035609726 0 -7.0630219759968029e-05 -0.0043275777363278112 0 -0.0001057735449567522 -0.0044014130035609726 0 -1.1337763423214585e-05 -0.0043831804288647722 0 -7.0630219759968029e-05 -0.0043275777363278112 0 -7.6530751994235939e-05 -0.0044400330355926273 0 8.5968280435275175e-06 -0.0044156263167587691 0 -8.0549797070847195e-06 -0.0042250340215120516 0 -7.0630219759968029e-05 -0.0043275777363278112 0 -0.00012353251846081533 -0.0042402986949508529 0 -0.00015417839327265396 -0.0043778179049798844 0 -7.0630219759968029e-05 -0.0043275777363278112 0 -0.00012353251846081533 -0.0042402986949508529 0 -5.3871622348767078e-05 -0.0048720381508739309 0 -4.7784140052428058e-05 -0.0048813758693553614 0 -4.0649024757344507e-05 -0.0048677142046107801 0 -8.2145565530698057e-05 -0.0045546726411205742 0 -1.4942785024407313e-05 -0.0045057392179333362 0 -8.0549797070847195e-06 -0.0042250340215120516 0 -0.00012353251846081533 -0.0042402986949508529 0 -5.6825949275354617e-05 -0.0041098222673102633 0 -2.9781321091980964e-05 -0.0048402182308187785 0 1.1582565868656085e-05 -0.0048599829145965666 0 -4.0649024757344507e-05 -0.0048677142046107801 0 -4.7784140052428058e-05 -0.0048813758693553614 0 1.1582565868656085e-05 -0.0048599829145965666 0 -4.0649024757344507e-05 -0.0048677142046107801 0 -2.9781321091980964e-05 -0.0048402182308187785 0 -5.571804924751958e-05 -0.0048768172081700622 0 -4.0649024757344507e-05 -0.0048677142046107801 0 -5.3871622348767078e-05 -0.0048720381508739309 0 -5.571804924751958e-05 -0.0048768172081700622 0 -4.0649024757344507e-05 -0.0048677142046107801 0 3.50719533515799e-05 -0.0041578350432154628 0 8.0554067153869347e-06 -0.0041265124756294114 0 4.3090389328120479e-05 -0.0041202365072644902 0 3.50719533515799e-05 -0.0041578350432154628 0 4.3090389328120479e-05 -0.0041202365072644902 0 5.6462431646250721e-05 -0.0041363202234417839 0 -8.0549797070847195e-06 -0.0042250340215120516 0 -5.6825949275354617e-05 -0.0041098222673102633 0 8.0554067153869347e-06 -0.0041265124756294114 0 -8.0549797070847195e-06 -0.0042250340215120516 0 3.50719533515799e-05 -0.0041578350432154628 0 8.0554067153869347e-06 -0.0041265124756294114 0 -4.1996855155378217e-06 -0.0040707386948039201 0 -5.6825949275354617e-05 -0.0041098222673102633 0 8.0554067153869347e-06 -0.0041265124756294114 0 -4.1996855155378217e-06 -0.0040707386948039201 0 8.0554067153869347e-06 -0.0041265124756294114 0 2.9813300781304503e-05 -0.0040856870214033688 0 8.0554067153869347e-06 -0.0041265124756294114 0 4.3090389328120479e-05 -0.0041202365072644902 0 2.9813300781304503e-05 -0.0040856870214033688 0 4.3090389328120479e-05 -0.0041202365072644902 0 2.9813300781304503e-05 -0.0040856870214033688 0 5.749858929512438e-05 -0.0040839065893323503 0 4.3090389328120479e-05 -0.0041202365072644902 0 5.749858929512438e-05 -0.0040839065893323503 0 6.9184360735812024e-05 -0.0041040983841923373 0 5.749858929512438e-05 -0.0040839065893323503 0 8.373950971048559e-05 -0.0040746714886865619 0 6.9184360735812024e-05 -0.0041040983841923373 0 7.2126173422092151e-05 -0.0040508571302674719 0 5.749858929512438e-05 -0.0040839065893323503 0 8.373950971048559e-05 -0.0040746714886865619 0 8.373950971048559e-05 -0.0040746714886865619 0 8.9710944264640796e-05 -0.0040935716970013792 0 6.9184360735812024e-05 -0.0041040983841923373 0 8.9710944264640796e-05 -0.0040935716970013792 0 6.9184360735812024e-05 -0.0041040983841923373 0 7.5232245233612823e-05 -0.0041162126857007247 0 8.9710944264640796e-05 -0.0040935716970013792 0 7.5232245233612823e-05 -0.0041162126857007247 0 9.1114345890199738e-05 -0.0041064966884114531 0 4.3090389328120479e-05 -0.0041202365072644902 0 6.9184360735812024e-05 -0.0041040983841923373 0 5.6462431646250721e-05 -0.0041363202234417839 0 7.5232245233612823e-05 -0.0041162126857007247 0 5.6462431646250721e-05 -0.0041363202234417839 0 7.4185400462277917e-05 -0.0041267342990543455 0 6.9184360735812024e-05 -0.0041040983841923373 0 7.5232245233612823e-05 -0.0041162126857007247 0 5.6462431646250721e-05 -0.0041363202234417839 0 5.4680267027882097e-05 -0.0041544433261293135 0 5.6462431646250721e-05 -0.0041363202234417839 0 7.4185400462277917e-05 -0.0041267342990543455 0 5.4680267027882097e-05 -0.0041544433261293135 0 7.4185400462277917e-05 -0.0041267342990543455 0 8.9074369718780555e-05 -0.0041164290526754235 0 6.8008463878049298e-05 -0.0042436458418267714 0 0.00011986072285614592 -0.0042570642885007793 0 7.5232245233612823e-05 -0.0041162126857007247 0 7.4185400462277917e-05 -0.0041267342990543455 0 9.1114345890199738e-05 -0.0041064966884114531 0 7.4185400462277917e-05 -0.0041267342990543455 0 9.1114345890199738e-05 -0.0041064966884114531 0 8.9074369718780555e-05 -0.0041164290526754235 0 0.00013371215151478891 -0.004457501277656521 0 0.00016851921904383939 -0.0044494488032597564 0 0.00015792078063672969 -0.0044071292143077123 0 0.00013371215151478891 -0.004457501277656521 0 0.00015792078063672969 -0.0044071292143077123 0 9.7167537692825756e-05 -0.0044033062799998133 0 9.6026029145305261e-05 -0.0043354429511771172 0 0.00015792078063672969 -0.0044071292143077123 0 9.7167537692825756e-05 -0.0044033062799998133 0 0.0001069979926461468 -0.0040862891783525696 0 0.00012300136604360089 -0.0040639318884103538 0 0.00010759708155634118 -0.0040873277211582286 0 8.9074369718780555e-05 -0.0041164290526754235 0 0.0001069979926461468 -0.0040862891783525696 0 0.00010759708155634118 -0.0040873277211582286 0 0.00011986072285614592 -0.0042570642885007793 0 0.00015374323231930677 -0.0042854861525506664 0 0.00016851921904383939 -0.0044494488032597564 0 0.00015792078063672969 -0.0044071292143077123 0 0.00020282353334729374 -0.0044443850842481886 0 9.1114345890199738e-05 -0.0041064966884114531 0 8.9074369718780555e-05 -0.0041164290526754235 0 0.00010759708155634118 -0.0040873277211582286 0 9.1114345890199738e-05 -0.0041064966884114531 0 0.00010759708155634118 -0.0040873277211582286 0 0.00010610221025456049 -0.0040865492101988471 0 0.00010759708155634118 -0.0040873277211582286 0 0.00010610221025456049 -0.0040865492101988471 0 0.00011363204768798278 -0.0040752603877664204 0 0.00012300136604360089 -0.0040639318884103538 0 0.00010759708155634118 -0.0040873277211582286 0 0.00011363204768798278 -0.0040752603877664204 0 0.00010610221025456049 -0.0040865492101988471 0 0.00011354703686683812 -0.0040725601673420554 0 0.00011363204768798278 -0.0040752603877664204 0 8.9710944264640796e-05 -0.0040935716970013792 0 0.00010610221025456049 -0.0040865492101988471 0 0.00010602700368697791 -0.0040650225289147234 0 8.9710944264640796e-05 -0.0040935716970013792 0 9.1114345890199738e-05 -0.0041064966884114531 0 0.00010610221025456049 -0.0040865492101988471 0 8.373950971048559e-05 -0.0040746714886865619 0 8.9710944264640796e-05 -0.0040935716970013792 0 0.00010602700368697791 -0.0040650225289147234 0 0.00010610221025456049 -0.0040865492101988471 0 0.00010602700368697791 -0.0040650225289147234 0 0.00011354703686683812 -0.0040725601673420554 0 0.00012502915818584601 -0.0040402540797240712 0 0.00010602700368697791 -0.0040650225289147234 0 0.00011354703686683812 -0.0040725601673420554 0 0.00012502915818584601 -0.0040402540797240712 0 0.00011354703686683812 -0.0040725601673420554 0 0.00011213507366750855 -0.004072702156853303 0 0.00068797343149769178 -0.002552448445259542 0 0.00055153476832800583 -0.0022958541832864628 0 0.00048851739786890975 -0.0023223081600658702 0 0.00022617208945227072 -0.0027088588417265719 0 0.00016889739753424336 -0.0018356106267658086 0 0.00022617208945227072 -0.0027088588417265719 0 0.00038391627699439751 -0.0033082381863501439 0 0.00055153476832800583 -0.0022958541832864628 0 0.00048851739786890975 -0.0023223081600658702 0 0.00040119336236485811 -0.0020054844065033419 0 0.00011213507366750855 -0.004072702156853303 0 0.00011363204768798278 -0.0040752603877664204 0 6.9888380308944214e-05 -0.0040673419023215729 0 0.00038391627699439751 -0.0033082381863501439 0 0.00021745233008068271 -0.0030008789935987009 0 0.00011354703686683812 -0.0040725601673420554 0 0.00011213507366750855 -0.004072702156853303 0 0.00011363204768798278 -0.0040752603877664204 0 -0.00016500892993444048 -0.001376778811918615 0 -0.00011040611456328562 -0.0014280949270015584 0 -0.00014559328491456954 -0.0013311442087282626 0 -0.00016500892993444048 -0.001376778811918615 0 -0.00016468427293010935 -0.0014217884582030835 0 -0.00011040611456328562 -0.0014280949270015584 0 -6.3571875966378526e-05 -0.001572307700899341 0 -6.4777264544793007e-05 -0.0016073698231938987 0 -4.5231551948534987e-05 -0.0016230123108408423 0 -9.0602790301413556e-05 -0.0014984733655439501 0 -9.8294999095018717e-05 -0.0014758690831883285 0 -0.00010668587380632191 -0.0015980761859612073 0 -6.3571875966378526e-05 -0.001572307700899341 0 -6.4777264544793007e-05 -0.0016073698231938987 0 -0.00010668587380632191 -0.0015980761859612073 0 -6.4777264544793007e-05 -0.0016073698231938987 0 -5.1956897200630801e-05 -0.00163225568703211 0 0.00016889739753424336 -0.0018356106267658086 0 0.00011456460128222446 -0.0018714660622697612 0 0.00048851739786890975 -0.0023223081600658702 0 0.00026236007314811392 -0.0020627561161623287 0 0.00040119336236485811 -0.0020054844065033419 0 -6.4777264544793007e-05 -0.0016073698231938987 0 -4.5231551948534987e-05 -0.0016230123108408423 0 -5.1956897200630801e-05 -0.00163225568703211 0 -0.00016500892993444048 -0.001376778811918615 0 -0.00014559328491456954 -0.0013311442087282626 0 -0.00021573652212751165 -0.0013219832315321169 0 -4.5231551948534987e-05 -0.0016230123108408423 0 -5.4486537289361134e-05 -0.0016225962453787111 0 -5.1956897200630801e-05 -0.00163225568703211 0 -9.8294999095018717e-05 -0.0014758690831883285 0 -0.00015204579018455338 -0.0014261169242700095 0 0.00011456460128222446 -0.0018714660622697612 0 -1.264362713948498e-05 -0.0016841747062879713 0 -5.4486537289361134e-05 -0.0016225962453787111 0 -5.1956897200630801e-05 -0.00163225568703211 0 -5.3230812112590037e-05 -0.0016017479488553239 0 -4.5231551948534987e-05 -0.0016230123108408423 0 -5.4486537289361134e-05 -0.0016225962453787111 0 -6.9247022560770726e-05 -0.0016233100180931953 0 0.00026236007314811392 -0.0020627561161623287 0 0.0002347146040343203 -0.001698657172782783 0 0.00040119336236485811 -0.0020054844065033419 0 -8.5854431791070548e-06 -0.0039974373926526443 0 6.9888380308944214e-05 -0.0040673419023215729 0 6.4221826467054821e-05 -0.004004277233732154 0 0.00012527727327866874 -0.0028764407921579773 0 0.00021745233008068271 -0.0030008789935987009 0 0.0002347146040343203 -0.001698657172782783 0 8.4561033227614432e-05 -0.0016187227601235287 0 3.159425384508354e-05 -0.0017819999148726456 0 0.00026236007314811392 -0.0020627561161623287 0 0.0002347146040343203 -0.001698657172782783 0 3.159425384508354e-05 -0.0017819999148726456 0 0.00012300136604360089 -0.0040639318884103538 0 0.00011363204768798278 -0.0040752603877664204 0 9.8935114662021333e-05 -0.0040555654487705699 0 0.00011363204768798278 -0.0040752603877664204 0 9.8935114662021333e-05 -0.0040555654487705699 0 6.9888380308944214e-05 -0.0040673419023215729 0 9.8935114662021333e-05 -0.0040555654487705699 0 6.9888380308944214e-05 -0.0040673419023215729 0 6.4221826467054821e-05 -0.004004277233732154 0 9.8935114662021333e-05 -0.0040555654487705699 0 6.4221826467054821e-05 -0.004004277233732154 0 0.00010341958581241733 -0.0040269447256827771 0 0.00012300136604360089 -0.0040639318884103538 0 0.00010341958581241733 -0.0040269447256827771 0 0.00012020235962797829 -0.0039749282375467453 0 0.00012300136604360089 -0.0040639318884103538 0 9.8935114662021333e-05 -0.0040555654487705699 0 0.00010341958581241733 -0.0040269447256827771 0 9.9498525676267722e-05 -0.0040180936434869533 0 0.00022082423518255756 -0.0041237230305027064 0 0.00022082423518255756 -0.0041237230305027064 0 0.00025129117501371869 -0.004300717401258254 0 0.00021989790449267952 -0.0045254520870821723 0 0.00025129117501371869 -0.004300717401258254 0 0.00022714485070822655 -0.0044929418127800311 0 0.00024800541580138473 -0.0044641507030938211 0 0.00026759120160460841 -0.0045005311833100281 0 0.00034765914801663638 -0.0040170451101285516 0 0.00015333860486151392 -0.003933622156157294 0 0.000239088380082155 -0.0038160399152473417 0 0.00015333860486151392 -0.003933622156157294 0 0.000239088380082155 -0.0038160399152473417 0 8.468496190865538e-05 -0.0038322683095161898 0 6.4221826467054821e-05 -0.004004277233732154 0 0.00010341958581241733 -0.0040269447256827771 0 0.00012020235962797829 -0.0039749282375467453 0 6.4221826467054821e-05 -0.004004277233732154 0 0.00012020235962797829 -0.0039749282375467453 0 5.3392255693632554e-05 -0.0039160555010114145 0 0.00022082423518255756 -0.0041237230305027064 0 9.5574427775967091e-05 -0.0039103820982462406 0 -8.5854431791070548e-06 -0.0039974373926526443 0 6.4221826467054821e-05 -0.004004277233732154 0 -1.5306145868356187e-06 -0.0039291317273012086 0 6.4221826467054821e-05 -0.004004277233732154 0 5.3392255693632554e-05 -0.0039160555010114145 0 -1.5306145868356187e-06 -0.0039291317273012086 0 0.00012527727327866874 -0.0028764407921579773 0 -5.9224893585665865e-05 -0.0025525529560276134 0 -8.5854431791070548e-06 -0.0039974373926526443 0 -1.5306145868356187e-06 -0.0039291317273012086 0 -0.00010681017458701999 -0.0038683187123994575 0 8.4561033227614432e-05 -0.0016187227601235287 0 6.1765725669977195e-05 -0.0014492127051169603 0 3.5919909049258431e-06 -0.0015645084394622442 0 0.0002347146040343203 -0.001698657172782783 0 8.4561033227614432e-05 -0.0016187227601235287 0 6.1765725669977195e-05 -0.0014492127051169603 0 -1.5306145868356187e-06 -0.0039291317273012086 0 -0.00010681017458701999 -0.0038683187123994575 0 -4.3221079323353121e-05 -0.0038440818821240197 0 -0.00010681017458701999 -0.0038683187123994575 0 -4.3221079323353121e-05 -0.0038440818821240197 0 -0.00011589686677647295 -0.0037609104782355247 0 9.5574427775967091e-05 -0.0039103820982462406 0 -3.175050170644806e-05 -0.0038551859822805474 0 0.00015333860486151392 -0.003933622156157294 0 -4.3221079323353121e-05 -0.0038440818821240197 0 8.468496190865538e-05 -0.0038322683095161898 0 5.3392255693632554e-05 -0.0039160555010114145 0 -1.5306145868356187e-06 -0.0039291317273012086 0 -4.3221079323353121e-05 -0.0038440818821240197 0 0.00036417123520833392 -0.0043805218577369076 0 0.00029694639094451924 -0.004364355482265039 0 0.00034242938279721504 -0.0043394751799317038 0 0.00025129117501371869 -0.004300717401258254 0 0.00017733170790472518 -0.0041638068230757351 0 0.000239088380082155 -0.0038160399152473417 0 8.468496190865538e-05 -0.0038322683095161898 0 -1.0322709025099229e-05 -0.0037368575054973685 0 0.00029694639094451924 -0.004364355482265039 0 0.00030886941435012688 -0.0043271291364070982 0 0.00034242938279721504 -0.0043394751799317038 0 -4.3221079323353121e-05 -0.0038440818821240197 0 8.468496190865538e-05 -0.0038322683095161898 0 -1.0322709025099229e-05 -0.0037368575054973685 0 0.00017733170790472518 -0.0041638068230757351 0 -5.2548530801929468e-05 -0.0029899892677412616 0 -0.00011589686677647295 -0.0037609104782355247 0 -1.0322709025099229e-05 -0.0037368575054973685 0 -0.00023783669558669727 -0.0036606463942720109 0 -4.3221079323353121e-05 -0.0038440818821240197 0 -0.00011589686677647295 -0.0037609104782355247 0 -1.0322709025099229e-05 -0.0037368575054973685 0 0.00029694639094451924 -0.004364355482265039 0 0.00027460066183844506 -0.0043041868427675526 0 0.00030886941435012688 -0.0043271291364070982 0 0.00021135594042516633 -0.0043554611012379596 0 0.00023019517603929066 -0.004300064158038565 0 0.0002133581248815458 -0.00441130394208072 0 0.00029694639094451924 -0.004364355482265039 0 0.00027460066183844506 -0.0043041868427675526 0 0.00022494195824888661 -0.0043206969157861012 0 0.00024974611211037108 -0.0043304525480146114 0 0.00022279235817378398 -0.0044558820269427193 0 0.00024974611211037108 -0.0043304525480146114 0 0.00022960843876885934 -0.0043254016122399076 0 0.00030793918570588423 -0.0044690461659915521 0 0.00022279235817378398 -0.0044558820269427193 0 0.00030886941435012688 -0.0043271291364070982 0 0.00034242938279721504 -0.0043394751799317038 0 0.00031793632518761745 -0.00429086313277604 0 0.00023424265929958683 -0.0045686400830865954 0 0.00024302442058708775 -0.0045481373713358733 0 0.00025764240595869357 -0.0045736436473345007 0 0.00027460066183844506 -0.0043041868427675526 0 0.00030886941435012688 -0.0043271291364070982 0 0.00031793632518761745 -0.00429086313277604 0 0.00023424265929958683 -0.0045686400830865954 0 0.00024302442058708775 -0.0045481373713358733 0 0.00022021724830716073 -0.0045629080133800905 0 0.00024302442058708775 -0.0045481373713358733 0 0.00022021724830716073 -0.0045629080133800905 0 0.00022503978722078813 -0.0045442082464062965 0 0.00019334897575346772 -0.0045708648400617407 0 0.00022021724830716073 -0.0045629080133800905 0 0.0002075182978043811 -0.0045421621893642281 0 0.00022021724830716073 -0.0045629080133800905 0 0.0002075182978043811 -0.0045421621893642281 0 0.00022503978722078813 -0.0045442082464062965 0 0.0002018865856987809 -0.0045140087768333033 0 0.00022998034392783984 -0.0045242576433532763 0 0.0002075182978043811 -0.0045421621893642281 0 0.00022998034392783984 -0.0045242576433532763 0 0.0002075182978043811 -0.0045421621893642281 0 0.00022503978722078813 -0.0045442082464062965 0 0.00022998034392783984 -0.0045242576433532763 0 0.00024302442058708775 -0.0045481373713358733 0 0.00022503978722078813 -0.0045442082464062965 0 0.00025129117501371869 -0.004300717401258254 0 0.00030793918570588423 -0.0044690461659915521 0 -0.00015112659448301844 -0.0013415763048355669 0 -0.000172137159383896 -0.0013852007225501977 0 -0.00017467193406808427 -0.0013982363204531115 0 -0.00015112659448301844 -0.0013415763048355669 0 -5.6655090731653668e-05 -0.0012476683516949739 0 -4.5645576521117569e-05 -0.0011957084346363171 0 -8.587980640134294e-05 -0.0008857673642904668 0 -0.00032392632216660285 -0.0010032128205488757 0 -0.0001522637947480979 -0.0013431993915908106 0 -9.5475119220101541e-05 -0.001277498704435468 0 -0.00017129735384774846 -0.00069221973714979259 0 -0.00011293003533031686 -0.00048810806570930655 0 -0.00037317605847039982 -0.00078276257106813592 0 -0.00015112659448301844 -0.0013415763048355669 0 -5.6655090731653668e-05 -0.0012476683516949739 0 -0.00016063362475164425 -0.0013933825288750311 0 -0.00017129735384774846 -0.00069221973714979259 0 -0.00011293003533031686 -0.00048810806570930655 0 -7.819039973279398e-05 -0.00061503587466173204 0 -0.00015112659448301844 -0.0013415763048355669 0 -0.00016120767589807131 -0.0013821432926275543 0 -0.000172137159383896 -0.0013852007225501977 0 -0.00011293003533031686 -0.00048810806570930655 0 -4.3157656219512601e-05 -0.00052263196080949541 0 -7.819039973279398e-05 -0.00061503587466173204 0 -0.00011293003533031686 -0.00048810806570930655 0 -4.3157656219512601e-05 -0.00052263196080949541 0 2.1295641393649072e-06 -0.00044529452487407681 0 -4.3157656219512601e-05 -0.00052263196080949541 0 1.7293367059265942e-05 -0.00055258414782760276 0 2.1295641393649072e-06 -0.00044529452487407681 0 -4.3157656219512601e-05 -0.00052263196080949541 0 1.7293367059265942e-05 -0.00055258414782760276 0 -7.819039973279398e-05 -0.00061503587466173204 0 0.00010190434561285477 -0.00049077601704246255 0 1.7293367059265942e-05 -0.00055258414782760276 0 2.1295641393649072e-06 -0.00044529452487407681 0 0.00010190434561285477 -0.00049077601704246255 0 1.7293367059265942e-05 -0.00055258414782760276 0 0.00010826927001127956 -0.00058725228784351836 0 0.00010826927001127956 -0.00058725228784351836 0 2.8572585475693534e-05 -0.00066363547295273544 0 0.000172148379025551 -0.00071378071384838103 0 1.7293367059265942e-05 -0.00055258414782760276 0 0.00010826927001127956 -0.00058725228784351836 0 2.8572585475693534e-05 -0.00066363547295273544 0 1.7293367059265942e-05 -0.00055258414782760276 0 2.8572585475693534e-05 -0.00066363547295273544 0 -7.819039973279398e-05 -0.00061503587466173204 0 2.8572585475693534e-05 -0.00066363547295273544 0 -7.819039973279398e-05 -0.00061503587466173204 0 -7.9235962246019609e-05 -0.00072315234812484082 0 -0.00017129735384774846 -0.00069221973714979259 0 -7.819039973279398e-05 -0.00061503587466173204 0 -7.9235962246019609e-05 -0.00072315234812484082 0 -7.9235962246019609e-05 -0.00072315234812484082 0 -4.2393859797395162e-06 -0.00078638958049659954 0 -0.00016341500228384852 -0.00084794496480603064 0 2.8572585475693534e-05 -0.00066363547295273544 0 -7.9235962246019609e-05 -0.00072315234812484082 0 -4.2393859797395162e-06 -0.00078638958049659954 0 2.8572585475693534e-05 -0.00066363547295273544 0 -4.2393859797395162e-06 -0.00078638958049659954 0 0.000172148379025551 -0.00071378071384838103 0 -4.2393859797395162e-06 -0.00078638958049659954 0 6.601699328367814e-05 -0.00091274775224731825 0 0.000172148379025551 -0.00071378071384838103 0 6.601699328367814e-05 -0.00091274775224731825 0 -0.00016341500228384852 -0.00084794496480603064 0 -0.00014396198746652989 -0.0010585423365708803 0 -4.2393859797395162e-06 -0.00078638958049659954 0 6.601699328367814e-05 -0.00091274775224731825 0 -0.00016341500228384852 -0.00084794496480603064 0 -0.00016341500228384852 -0.00084794496480603064 0 -0.00030550491465735805 -0.00091040773092622071 0 -0.00014396198746652989 -0.0010585423365708803 0 -0.00017129735384774846 -0.00069221973714979259 0 -0.00016341500228384852 -0.00084794496480603064 0 -0.00037317605847039982 -0.00078276257106813592 0 -0.00017129735384774846 -0.00069221973714979259 0 -7.9235962246019609e-05 -0.00072315234812484082 0 -0.00016341500228384852 -0.00084794496480603064 0 -0.0002342670562568554 -0.00085708119349852145 0 -0.00032392632216660285 -0.0010032128205488757 0 -0.00016341500228384852 -0.00084794496480603064 0 -0.00030550491465735805 -0.00091040773092622071 0 -0.00039064896743447471 -0.00079137051266481317 0 -8.7749261446148046e-05 -0.0025752302961545327 0 -9.3006996534743177e-05 -0.002584701506336053 0 -0.00010058358672423119 -0.0025589693194281115 0 -0.0004391354963163062 -0.00085187333596045277 0 -0.00047933314975052689 -0.00076587259150635953 0 -0.00042708201516185134 -0.0011440548225395825 0 -0.0001264837094897905 -0.0014672362655867638 0 -0.00016813175383083829 -0.0025248588893585907 0 -0.00030550491465735805 -0.00091040773092622071 0 -0.0004391354963163062 -0.00085187333596045277 0 -0.00039064896743447471 -0.00079137051266481317 0 9.101510521153135e-05 -0.0035424664126523548 0 -5.2548530801929468e-05 -0.0029899892677412616 0 -0.0001264837094897905 -0.0014672362655867638 0 -5.2548530801929468e-05 -0.0029899892677412616 0 -8.7749261446148046e-05 -0.0025752302961545327 0 -9.3006996534743177e-05 -0.002584701506336053 0 -7.5170064857747726e-05 -0.0025926123188399364 0 -0.00015112659448301844 -0.0013415763048355669 0 -0.00016640599310109041 -0.0013711829175695463 0 -0.00016063362475164425 -0.0013933825288750311 0 -0.0004391354963163062 -0.00085187333596045277 0 -0.00047933314975052689 -0.00076587259150635953 0 -0.00038901809504424454 -0.00079380312565186081 0 -0.0001264837094897905 -0.0014672362655867638 0 -0.00032392632216660285 -0.0010032128205488757 0 -0.00032683295796943131 -0.00095171977817599257 0 -0.00032392632216660285 -0.0010032128205488757 0 0.00021135594042516633 -0.0043554611012379596 0 0.00023019517603929066 -0.004300064158038565 0 0.00022494195824888661 -0.0043206969157861012 0 5.4330664698454911e-05 -0.0042447729987938766 0 0.00023019517603929066 -0.004300064158038565 0 0.00014876939227706159 -0.0041569030867702724 0 5.4330664698454911e-05 -0.0042447729987938766 0 0.00023019517603929066 -0.004300064158038565 0 0.00018785429122803666 -0.0043605474917847234 0 0.00023019517603929066 -0.004300064158038565 0 0.00022494195824888661 -0.0043206969157861012 0 0.00018785429122803666 -0.0043605474917847234 0 -0.00010681017458701999 -0.0038683187123994575 0 -0.00011589686677647295 -0.0037609104782355247 0 -0.00023783669558669727 -0.0036606463942720109 0 0.00029694639094451924 -0.004364355482265039 0 0.00022494195824888661 -0.0043206969157861012 0 0.00018785429122803666 -0.0043605474917847234 0 -5.9224893585665865e-05 -0.0025525529560276134 0 -5.2548530801929468e-05 -0.0029899892677412616 0 6.1765725669977195e-05 -0.0014492127051169603 0 -6.278394486958043e-05 -0.0013052095514239884 0 -8.421598296141164e-05 -0.0013919212182463459 0 -0.0001264837094897905 -0.0014672362655867638 0 -0.00014642656774773368 -0.0013317129440175825 0 -0.00015112659448301844 -0.0013415763048355669 0 -0.00013288277480096833 -0.0013482999849112323 0 -0.00014001782119421886 -0.0013721815933592947 0 -0.00015112659448301844 -0.0013415763048355669 0 -0.00016640599310109041 -0.0013711829175695463 0 -0.00013288277480096833 -0.0013482999849112323 0 -6.278394486958043e-05 -0.0013052095514239884 0 -0.00013288277480096833 -0.0013482999849112323 0 -8.421598296141164e-05 -0.0013919212182463459 0 -0.00014506757412197972 -0.0012838816873759662 0 -6.278394486958043e-05 -0.0013052095514239884 0 -0.00013288277480096833 -0.0013482999849112323 0 -0.00013288277480096833 -0.0013482999849112323 0 -8.421598296141164e-05 -0.0013919212182463459 0 -0.00014001782119421886 -0.0013721815933592947 0 -0.00015112659448301844 -0.0013415763048355669 0 -0.00014001782119421886 -0.0013721815933592947 0 -0.00016120767589807131 -0.0013821432926275543 0 -0.00014001782119421886 -0.0013721815933592947 0 -0.00013404022211743706 -0.0014124995340607242 0 -0.00016120767589807131 -0.0013821432926275543 0 -0.00013404022211743706 -0.0014124995340607242 0 -0.00012499013282570032 -0.0015076903007246684 0 -0.00019533928207893356 -0.0013986752838028439 0 -8.421598296141164e-05 -0.0013919212182463459 0 -0.00013404022211743706 -0.0014124995340607242 0 -6.0170748416013897e-05 -0.001461369146582828 0 -8.421598296141164e-05 -0.0013919212182463459 0 -0.00014001782119421886 -0.0013721815933592947 0 -0.00013404022211743706 -0.0014124995340607242 0 -0.00013404022211743706 -0.0014124995340607242 0 -6.0170748416013897e-05 -0.001461369146582828 0 -0.00012499013282570032 -0.0015076903007246684 0 6.1765725669977195e-05 -0.0014492127051169603 0 -8.421598296141164e-05 -0.0013919212182463459 0 -6.0170748416013897e-05 -0.001461369146582828 0 6.1765725669977195e-05 -0.0014492127051169603 0 -6.0170748416013897e-05 -0.001461369146582828 0 3.5919909049258431e-06 -0.0015645084394622442 0 -0.00012499013282570032 -0.0015076903007246684 0 -0.00013392318324186825 -0.0015605185243862628 0 -5.3230812112590037e-05 -0.0016017479488553239 0 3.5919909049258431e-06 -0.0015645084394622442 0 -0.00012499013282570032 -0.0015076903007246684 0 3.159425384508354e-05 -0.0017819999148726456 0 -0.00011980020199347846 -0.001524323184708902 0 -1.264362713948498e-05 -0.0016841747062879713 0 -6.0170748416013897e-05 -0.001461369146582828 0 3.5919909049258431e-06 -0.0015645084394622442 0 -0.00012499013282570032 -0.0015076903007246684 0 8.4561033227614432e-05 -0.0016187227601235287 0 3.5919909049258431e-06 -0.0015645084394622442 0 3.159425384508354e-05 -0.0017819999148726456 0 -0.00012499013282570032 -0.0015076903007246684 0 -0.00013392318324186825 -0.0015605185243862628 0 -0.00019533928207893356 -0.0013986752838028439 0 -0.00019693314147054659 -0.0013979419356118408 0 -0.00019380492749968117 -0.0014026762007326877 0 -0.00026926196106542898 -0.001231583822926598 0 -0.00018774786364637801 -0.0013096978090626997 0 -0.00019533928207893356 -0.0013986752838028439 0 -0.00026926196106542898 -0.001231583822926598 0 -0.00019591765937048314 -0.0012502755725325504 0 -0.00018774786364637801 -0.0013096978090626997 0 -0.00019591765937048314 -0.0012502755725325504 0 -0.00016326052904212262 -0.0012754344566791355 0 -0.00018774786364637801 -0.0013096978090626997 0 -0.00019591765937048314 -0.0012502755725325504 0 -0.00016326052904212262 -0.0012754344566791355 0 -0.00015405118267721856 -0.0012216409263566877 0 -0.00016326052904212262 -0.0012754344566791355 0 -0.00018774786364637801 -0.0013096978090626997 0 -0.00015362209588185512 -0.0013260152493156036 0 -0.00018774786364637801 -0.0013096978090626997 0 -0.00017527732641145803 -0.0013687893612630531 0 -0.00015362209588185512 -0.0013260152493156036 0 -0.00018774786364637801 -0.0013096978090626997 0 -0.00019533928207893356 -0.0013986752838028439 0 -0.00017527732641145803 -0.0013687893612630531 0 -0.00019533928207893356 -0.0013986752838028439 0 -0.00017527732641145803 -0.0013687893612630531 0 -0.00018119391974097474 -0.0013919743443105291 0 -0.00018119391974097474 -0.0013919743443105291 0 -0.000172137159383896 -0.0013852007225501977 0 -0.00017467193406808427 -0.0013982363204531115 0 -0.00019533928207893356 -0.0013986752838028439 0 -0.00018119391974097474 -0.0013919743443105291 0 -0.000172137159383896 -0.0013852007225501977 0 -0.00017527732641145803 -0.0013687893612630531 0 -0.00018119391974097474 -0.0013919743443105291 0 -0.00017467193406808427 -0.0013982363204531115 0 -0.00019533928207893356 -0.0013986752838028439 0 -0.00016120767589807131 -0.0013821432926275543 0 -0.000172137159383896 -0.0013852007225501977 0 -0.00013404022211743706 -0.0014124995340607242 0 -0.00019533928207893356 -0.0013986752838028439 0 -0.00016120767589807131 -0.0013821432926275543 0 -8.587980640134294e-05 -0.0008857673642904668 0 0.00012919470690545031 -0.00060751377075919221 0 7.8531789073016262e-05 -0.00039279127711637713 0 2.1295641393649072e-06 -0.00044529452487407681 0 0.00012855821920063044 -0.00022373497977362482 0 -0.00011293003533031686 -0.00048810806570930655 0 2.1295641393649072e-06 -0.00044529452487407681 0 0.00012855821920063044 -0.00022373497977362482 0 -0.00017467193406808427 -0.0013982363204531115 0 -0.00012272163510579316 -0.0013237781452361487 0 -0.00013240312695222126 -0.0013115239720697745 0 -0.00017467193406808427 -0.0013982363204531115 0 -0.00015362209588185512 -0.0013260152493156036 0 -0.00013240312695222126 -0.0013115239720697745 0 -9.5475119220101541e-05 -0.001277498704435468 0 -3.7721126930854797e-05 -0.001238312676688247 0 -4.5645576521117569e-05 -0.0011957084346363171 0 9.0282610431605505e-05 -0.0010473572165747768 0 9.7247378288482664e-05 -0.0010170921311130146 0 -0.00017467193406808427 -0.0013982363204531115 0 -0.00012272163510579316 -0.0013237781452361487 0 -8.4363089079907532e-05 -0.0013028202642792555 0 -5.6655090731653668e-05 -0.0012476683516949739 0 -4.5645576521117569e-05 -0.0011957084346363171 0 9.0282610431605505e-05 -0.0010473572165747768 0 0.00010190434561285477 -0.00049077601704246255 0 7.8531789073016262e-05 -0.00039279127711637713 0 0.00017149064859094498 -0.00043204427622868345 0 0.00010190434561285477 -0.00049077601704246255 0 7.8531789073016262e-05 -0.00039279127711637713 0 2.1295641393649072e-06 -0.00044529452487407681 0 -0.00017527732641145803 -0.0013687893612630531 0 -0.00017467193406808427 -0.0013982363204531115 0 -0.00015362209588185512 -0.0013260152493156036 0 7.8531789073016262e-05 -0.00039279127711637713 0 0.00015382482359483724 -0.00034826913945575902 0 0.00012855821920063044 -0.00022373497977362482 0 -0.00012272163510579316 -0.0013237781452361487 0 -0.00013240312695222126 -0.0013115239720697745 0 -0.00010318416996951637 -0.0012809920076771531 0 -0.00012272163510579316 -0.0013237781452361487 0 -0.00010318416996951637 -0.0012809920076771531 0 -8.4363089079907532e-05 -0.0013028202642792555 0 -0.00013240312695222126 -0.0013115239720697745 0 -0.00014356608604851426 -0.0012914734018843964 0 -0.00012785012178484937 -0.0012621505390490631 0 -0.00016326052904212262 -0.0012754344566791355 0 -0.00015362209588185512 -0.0013260152493156036 0 -0.00014356608604851426 -0.0012914734018843964 0 -0.00015362209588185512 -0.0013260152493156036 0 -0.00013240312695222126 -0.0013115239720697745 0 -0.00014356608604851426 -0.0012914734018843964 0 -0.00016326052904212262 -0.0012754344566791355 0 -0.00014356608604851426 -0.0012914734018843964 0 -0.00012785012178484937 -0.0012621505390490631 0 -0.00016326052904212262 -0.0012754344566791355 0 -0.00012785012178484937 -0.0012621505390490631 0 -0.00015405118267721856 -0.0012216409263566877 0 -0.00010318416996951637 -0.0012809920076771531 0 -9.3952955971934749e-05 -0.0012575701797095313 0 -8.4363089079907532e-05 -0.0013028202642792555 0 -0.00013240312695222126 -0.0013115239720697745 0 -0.00010318416996951637 -0.0012809920076771531 0 -0.00012785012178484937 -0.0012621505390490631 0 -0.00012785012178484937 -0.0012621505390490631 0 -9.3952955971934749e-05 -0.0012575701797095313 0 -0.00010479896311617576 -0.0012131544575171181 0 -0.00010318416996951637 -0.0012809920076771531 0 -0.00012785012178484937 -0.0012621505390490631 0 -9.3952955971934749e-05 -0.0012575701797095313 0 -0.00012785012178484937 -0.0012621505390490631 0 -0.00010479896311617576 -0.0012131544575171181 0 -0.00015405118267721856 -0.0012216409263566877 0 -0.00010479896311617576 -0.0012131544575171181 0 -0.00012494861560317542 -0.0011607283959921982 0 -0.00015405118267721856 -0.0012216409263566877 0 -0.00010479896311617576 -0.0012131544575171181 0 -0.00012494861560317542 -0.0011607283959921982 0 -7.7948959215995173e-05 -0.0011641771095582943 0 -0.00012494861560317542 -0.0011607283959921982 0 -0.00015405118267721856 -0.0012216409263566877 0 -0.00016519250616765945 -0.0011783433113632198 0 -0.00019591765937048314 -0.0012502755725325504 0 -0.00015405118267721856 -0.0012216409263566877 0 -0.00019516360480341413 -0.0012046685763540477 0 -0.00019591765937048314 -0.0012502755725325504 0 -0.00019516360480341413 -0.0012046685763540477 0 -0.00022926883315627905 -0.0012177735836099871 0 -0.00019516360480341413 -0.0012046685763540477 0 -0.00022926883315627905 -0.0012177735836099871 0 -0.00022472995900784664 -0.0011936400957225032 0 -0.00019516360480341413 -0.0012046685763540477 0 -0.00019261881470284705 -0.0011648415931986957 0 -0.00022472995900784664 -0.0011936400957225032 0 -0.00015405118267721856 -0.0012216409263566877 0 -0.00019516360480341413 -0.0012046685763540477 0 -0.00016519250616765945 -0.0011783433113632198 0 -0.00019516360480341413 -0.0012046685763540477 0 -0.00016519250616765945 -0.0011783433113632198 0 -0.00019261881470284705 -0.0011648415931986957 0 -0.00015974166939214238 -0.0011386141397993492 0 -0.00019261881470284705 -0.0011648415931986957 0 -0.00019029738602085869 -0.001126607420578135 0 -0.00016519250616765945 -0.0011783433113632198 0 -0.00015974166939214238 -0.0011386141397993492 0 -0.00019261881470284705 -0.0011648415931986957 0 -0.00019261881470284705 -0.0011648415931986957 0 -0.00022472995900784664 -0.0011936400957225032 0 -0.00021886100179664971 -0.0011500044558475644 0 -0.00019261881470284705 -0.0011648415931986957 0 -0.00019029738602085869 -0.001126607420578135 0 -0.00021886100179664971 -0.0011500044558475644 0 -0.00019029738602085869 -0.001126607420578135 0 -0.00021886100179664971 -0.0011500044558475644 0 -0.00021092242199535318 -0.0011050603241392265 0 -0.00015974166939214238 -0.0011386141397993492 0 -0.00019029738602085869 -0.001126607420578135 0 -0.00016639805999640921 -0.0010907983859296721 0 -0.00015974166939214238 -0.0011386141397993492 0 -0.00012022150964618092 -0.0011115760772516616 0 -0.00016639805999640921 -0.0010907983859296721 0 -0.00012494861560317542 -0.0011607283959921982 0 -0.00012022150964618092 -0.0011115760772516616 0 -8.9063369235297527e-05 -0.0011249484268321202 0 -0.00012494861560317542 -0.0011607283959921982 0 -0.00016519250616765945 -0.0011783433113632198 0 -0.00015974166939214238 -0.0011386141397993492 0 -0.00012494861560317542 -0.0011607283959921982 0 -0.00015974166939214238 -0.0011386141397993492 0 -0.00012022150964618092 -0.0011115760772516616 0 -0.00013392318324186825 -0.0015605185243862628 0 -5.3230812112590037e-05 -0.0016017479488553239 0 -6.9247022560770726e-05 -0.0016233100180931953 0 -0.00019693314147054659 -0.0013979419356118408 0 -0.00015204579018455338 -0.0014261169242700095 0 -0.00026926196106542898 -0.001231583822926598 0 -0.00024953897878547161 -0.0012245565395579093 0 -0.000233888814261138 -0.0012271482227352813 0 -0.00026926196106542898 -0.001231583822926598 0 -0.00019591765937048314 -0.0012502755725325504 0 -0.00022926883315627905 -0.0012177735836099871 0 -0.00024953897878547161 -0.0012245565395579093 0 -0.00024746983356020437 -0.0012139467400203638 0 -0.00023982545668988563 -0.0011847668589278939 0 -0.00026926196106542898 -0.001231583822926598 0 -0.00024953897878547161 -0.0012245565395579093 0 -0.00024746983356020437 -0.0012139467400203638 0 -0.00026926196106542898 -0.001231583822926598 0 -0.00022926883315627905 -0.0012177735836099871 0 -0.00024746983356020437 -0.0012139467400203638 0 -0.00024746983356020437 -0.0012139467400203638 0 -0.00022472995900784664 -0.0011936400957225032 0 -0.00023982545668988563 -0.0011847668589278939 0 -0.00022926883315627905 -0.0012177735836099871 0 -0.00024746983356020437 -0.0012139467400203638 0 -0.00022472995900784664 -0.0011936400957225032 0 -0.00025242231691239696 -0.0012160217417472472 0 -0.0002681098554225004 -0.0012092042278371465 0 -0.00024953897878547161 -0.0012245565395579093 0 -0.00023982545668988563 -0.0011847668589278939 0 -0.00025966920143718873 -0.0011161294689654149 0 -0.00022472995900784664 -0.0011936400957225032 0 -0.00023982545668988563 -0.0011847668589278939 0 -0.00021886100179664971 -0.0011500044558475644 0 -0.00021886100179664971 -0.0011500044558475644 0 -0.00025966920143718873 -0.0011161294689654149 0 -0.00021092242199535318 -0.0011050603241392265 0 -0.00023982545668988563 -0.0011847668589278939 0 -0.00021886100179664971 -0.0011500044558475644 0 -0.00025966920143718873 -0.0011161294689654149 0 -0.00024953897878547161 -0.0012245565395579093 0 -0.000233888814261138 -0.0012271482227352813 0 -0.00027318298058538195 -0.0012894540847396849 0 -0.000233888814261138 -0.0012271482227352813 0 -0.00021573652212751165 -0.0013219832315321169 0 -0.00027318298058538195 -0.0012894540847396849 0 -5.4486537289361134e-05 -0.0016225962453787111 0 -5.3230812112590037e-05 -0.0016017479488553239 0 -6.9247022560770726e-05 -0.0016233100180931953 0 -0.00014559328491456954 -0.0013311442087282626 0 -0.000233888814261138 -0.0012271482227352813 0 -0.00021573652212751165 -0.0013219832315321169 0 -0.00016500892993444048 -0.001376778811918615 0 -0.00021573652212751165 -0.0013219832315321169 0 -0.00021427995051018757 -0.0013719129411026206 0 -0.00021573652212751165 -0.0013219832315321169 0 -0.00024160128627150374 -0.0013459144249698476 0 -0.00027318298058538195 -0.0012894540847396849 0 -0.00021573652212751165 -0.0013219832315321169 0 -0.00024160128627150374 -0.0013459144249698476 0 -0.00021427995051018757 -0.0013719129411026206 0 -0.0002681098554225004 -0.0012092042278371465 0 -0.00020918873064596635 -0.0011841650144222464 0 -0.00024160128627150374 -0.0013459144249698476 0 -0.00027318298058538195 -0.0012894540847396849 0 -0.00026667610107349162 -0.0013661288166884357 0 -0.00027318298058538195 -0.0012894540847396849 0 -0.00029370158431220577 -0.0013829286864693129 0 -0.00026667610107349162 -0.0013661288166884357 0 -0.00025966920143718873 -0.0011161294689654149 0 -0.00022968609847408877 -0.0010239459761087048 0 -0.00020877813903763225 -0.0010558604505325185 0 -0.00025966920143718873 -0.0011161294689654149 0 -0.00021092242199535318 -0.0011050603241392265 0 -0.00020877813903763225 -0.0010558604505325185 0 -0.00022665945297984627 -0.001028286530897508 0 -0.00022358654209995706 -0.0010193536980104096 0 -0.00020877813903763225 -0.0010558604505325185 0 -0.00020918873064596635 -0.0011841650144222464 0 -0.00024464749385966537 -0.0010626312275803158 0 -0.00027578855125111741 -0.001385867201047921 0 -0.00029370158431220577 -0.0013829286864693129 0 -0.00026667610107349162 -0.0013661288166884357 0 -0.00022439379556196044 -0.0012094657437565913 0 -0.00022567925590529186 -0.0012133627657948825 0 -0.00022121930047874216 -0.0012143049869198245 0 -0.00020918873064596635 -0.0011841650144222464 0 -0.00018424517802722654 -0.0011516652579407882 0 -0.00018424517802722654 -0.0011516652579407882 0 -0.00015605764495077836 -0.0012863253083815077 0 -0.00027578855125111741 -0.001385867201047921 0 -0.00029370158431220577 -0.0013829286864693129 0 -0.00028587728449226869 -0.0013957312812675742 0 -0.00027578855125111741 -0.001385867201047921 0 -0.00028587728449226869 -0.0013957312812675742 0 -0.00025603035769968636 -0.0013998836833106611 0 -0.00020918873064596635 -0.0011841650144222464 0 -0.00015605764495077836 -0.0012863253083815077 0 -0.00015605764495077836 -0.0012863253083815077 0 -0.00022531999621071063 -0.0013117564445543767 0 -0.00024160128627150374 -0.0013459144249698476 0 -0.00026667610107349162 -0.0013661288166884357 0 -0.00023854627839259301 -0.0013800219749268089 0 -0.00025603035769968636 -0.0013998836833106611 0 -0.00026667610107349162 -0.0013661288166884357 0 -0.00023854627839259301 -0.0013800219749268089 0 -0.00027578855125111741 -0.001385867201047921 0 -0.00025603035769968636 -0.0013998836833106611 0 -0.00026667610107349162 -0.0013661288166884357 0 -0.00024160128627150374 -0.0013459144249698476 0 -0.00023854627839259301 -0.0013800219749268089 0 -0.00021427995051018757 -0.0013719129411026206 0 -0.00025603035769968636 -0.0013998836833106611 0 -0.00023854627839259301 -0.0013800219749268089 0 -0.00021011022169013953 -0.0014158647162382976 0 -0.00023854627839259301 -0.0013800219749268089 0 -0.00021427995051018757 -0.0013719129411026206 0 -0.00021011022169013953 -0.0014158647162382976 0 -0.00016468427293010935 -0.0014217884582030835 0 -0.00021427995051018757 -0.0013719129411026206 0 -0.00021011022169013953 -0.0014158647162382976 0 -0.00016500892993444048 -0.001376778811918615 0 -0.00016468427293010935 -0.0014217884582030835 0 -0.00021427995051018757 -0.0013719129411026206 0 -0.00012113036597860129 -0.0010743587105114033 0 -0.00016639805999640921 -0.0010907983859296721 0 -0.00015576605039536155 -0.0010302693585791951 0 -0.00012022150964618092 -0.0011115760772516616 0 -0.00012113036597860129 -0.0010743587105114033 0 -7.5643260479243962e-05 -0.0010937725334244463 0 -0.00012022150964618092 -0.0011115760772516616 0 -0.00012113036597860129 -0.0010743587105114033 0 -0.00016639805999640921 -0.0010907983859296721 0 -0.00016639805999640921 -0.0010907983859296721 0 -0.00020877813903763225 -0.0010558604505325185 0 -0.00015576605039536155 -0.0010302693585791951 0 -0.00019029738602085869 -0.001126607420578135 0 -0.00016639805999640921 -0.0010907983859296721 0 -0.00021092242199535318 -0.0011050603241392265 0 -0.00016639805999640921 -0.0010907983859296721 0 -0.00021092242199535318 -0.0011050603241392265 0 -0.00020877813903763225 -0.0010558604505325185 0 -0.00015848877793860503 -0.00086645948558012947 0 -0.00016504489196265168 -0.0008731535719819272 0 -0.00015639401750431586 -0.00087222289603493838 0 -0.00022358654209995706 -0.0010193536980104096 0 -0.00020877813903763225 -0.0010558604505325185 0 -0.00015576605039536155 -0.0010302693585791951 0 -0.00018424517802722654 -0.0011516652579407882 0 -0.0001584855288163692 -0.00095123709042814616 0 -0.0001584855288163692 -0.00095123709042814616 0 -0.00011674208021010074 -0.00073732087668039686 0 -0.00012113036597860129 -0.0010743587105114033 0 -0.00015576605039536155 -0.0010302693585791951 0 -9.4272815151724042e-05 -0.0010412173434292422 0 -0.00015260477685740778 -0.00086006997357191437 0 -0.00015639401750431586 -0.00087222289603493838 0 -0.00014868054566169719 -0.00087170924642782175 0 6.6258581201553927e-05 -0.00030771391006286452 0 -3.5646597469815217e-05 -0.00044829951766842558 0 8.8965257641334495e-05 -0.00048507716083425644 0 -0.00011674208021010074 -0.00073732087668039686 0 2.7377115692374598e-05 -0.00050962313658098151 0 -0.00011674208021010074 -0.00073732087668039686 0 -0.00012289405941370886 -0.00092997566193040013 0 -0.00012113036597860129 -0.0010743587105114033 0 -9.4272815151724042e-05 -0.0010412173434292422 0 -7.5643260479243962e-05 -0.0010937725334244463 0 -0.00027805479189398633 -0.00046931968513565676 0 -0.00017801327340410993 -0.0007625329098963886 0 -1.6200377306493755e-05 -0.00051582595367593849 0 8.0654834857931827e-05 -0.00072727810183409415 0 0.00023101015597473213 -0.00054946152313518838 0 0.00022211481324004541 -0.00071739948407966488 0 8.0654834857931827e-05 -0.00072727810183409415 0 0.00022211481324004541 -0.00071739948407966488 0 0.0001447569978310741 -0.00082305914265200176 0 -0.00017801327340410993 -0.0007625329098963886 0 8.0654834857931827e-05 -0.00072727810183409415 0 -1.6200377306493755e-05 -0.00051582595367593849 0 2.7377115692374598e-05 -0.00050962313658098151 0 0.00021267515518655982 -0.00054208410703194599 0 8.0654834857931827e-05 -0.00072727810183409415 0 -1.6200377306493755e-05 -0.00051582595367593849 0 0.00023101015597473213 -0.00054946152313518838 0 8.8965257641334495e-05 -0.00048507716083425644 0 0.00019849713609505919 -0.00038269627400004007 0 0.00023101015597473213 -0.00054946152313518838 0 6.6258581201553927e-05 -0.00030771391006286452 0 8.8965257641334495e-05 -0.00048507716083425644 0 0.00019849713609505919 -0.00038269627400004007 0 0.0003194764254888132 -0.000282733484702453 0 0.00019849713609505919 -0.00038269627400004007 0 0.00033581432068422238 -0.00042566584485448437 0 0.00019849713609505919 -0.00038269627400004007 0 0.00033581432068422238 -0.00042566584485448437 0 0.00023101015597473213 -0.00054946152313518838 0 0.0003194764254888132 -0.000282733484702453 0 0.00033581432068422238 -0.00042566584485448437 0 0.00051391090236413731 -0.00035650415568538993 0 0.00033581432068422238 -0.00042566584485448437 0 0.00051391090236413731 -0.00035650415568538993 0 0.0004008235863316007 -0.00057676774986415206 0 0.00058882983039028802 0.00011053781970254723 0 0.0005537256086829089 -9.9521444135525623e-05 0 0.00065991479756824848 0.00029386669170272585 0 0.00072957475236315266 0.00044585914122033453 0 0.00073363478855323642 0.00044012696426394511 0 0.00065991479756824848 0.00029386669170272585 0 0.00072957475236315266 0.00044585914122033453 0 0.00066391164366264629 0.00050407728289140195 0 0.00072957475236315266 0.00044585914122033453 0 0.00070592362944966157 0.00038182207119299787 0 0.00069440206056424849 0.00029944638804045088 0 0.00072957475236315266 0.00044585914122033453 0 0.00073363478855323642 0.00044012696426394511 0 0.00070592362944966157 0.00038182207119299787 0 0.00072957475236315266 0.00044585914122033453 0 0.00066391164366264629 0.00050407728289140195 0 0.00068072758185018945 0.00058228371494002098 0 0.0004008235863316007 -0.00057676774986415206 0 0.00022211481324004541 -0.00071739948407966488 0 0.00021779663916809372 -0.00092308831848208811 0 0.0005537256086829089 -9.9521444135525623e-05 0 0.00036127419841449997 -0.0003440755525424744 0 0.00023101015597473213 -0.00054946152313518838 0 0.0004008235863316007 -0.00057676774986415206 0 0.00022211481324004541 -0.00071739948407966488 0 0.00033581432068422238 -0.00042566584485448437 0 0.00023101015597473213 -0.00054946152313518838 0 0.0004008235863316007 -0.00057676774986415206 0 0.00073363478855323642 0.00044012696426394511 0 0.00070592362944966157 0.00038182207119299787 0 0.00065920141312768711 0.00033090120964228756 0 0.00065920141312768711 0.00033090120964228756 0 0.00054816765936484496 0.00027936161432632348 0 0.0006181342772075694 0.00023120394635675989 0 0.00073363478855323642 0.00044012696426394511 0 0.00065920141312768711 0.00033090120964228756 0 0.00054816765936484496 0.00027936161432632348 0 0.00065920141312768711 0.00033090120964228756 0 0.00069440206056424849 0.00029944638804045088 0 0.0006181342772075694 0.00023120394635675989 0 0.00070592362944966157 0.00038182207119299787 0 0.00065920141312768711 0.00033090120964228756 0 0.00069440206056424849 0.00029944638804045088 0 0.00069440206056424849 0.00029944638804045088 0 0.0006181342772075694 0.00023120394635675989 0 0.00073473239245158597 0.00015544658238273668 0 0.0006181342772075694 0.00023120394635675989 0 0.00058161890219631364 0.00013882110217505375 0 0.00052331441958573951 0.00022162357829856938 0 0.00054816765936484496 0.00027936161432632348 0 0.0006181342772075694 0.00023120394635675989 0 0.00052331441958573951 0.00022162357829856938 0 0.00073530110935664901 0.00044042395685753169 0 0.00075190137008308768 0.00042294089865707292 0 0.00072957475236315266 0.00044585914122033453 0 0.00068072758185018945 0.00058228371494002098 0 0.00078063494123247531 0.00069817776044118986 0 0.00072957475236315266 0.00044585914122033453 0 0.00069440206056424849 0.00029944638804045088 0 0.00073473239245158597 0.00015544658238273668 0 0.00068072758185018945 0.00058228371494002098 0 0.0006564758022645173 0.00070267377818493903 0 0.00058487912334595363 0.00053451101878743666 0 0.00066391164366264629 0.00050407728289140195 0 0.00068072758185018945 0.00058228371494002098 0 0.00058487912334595363 0.00053451101878743666 0 0.00068072758185018945 0.00058228371494002098 0 0.0006564758022645173 0.00070267377818493903 0 0.00078063494123247531 0.00069817776044118986 0 0.0006564758022645173 0.00070267377818493903 0 0.00078063494123247531 0.00069817776044118986 0 0.00068657848656642406 0.00086626668582158971 0 0.00073473239245158597 0.00015544658238273668 0 0.00057449063553630401 1.5425838401605247e-05 0 0.00067001108143591301 -0.0001916705911828979 0 0.00075190137008308768 0.00042294089865707292 0 0.00072948408306035988 0.00035784828189894594 0 0.00058161890219631364 0.00013882110217505375 0 0.00073473239245158597 0.00015544658238273668 0 0.00057449063553630401 1.5425838401605247e-05 0 0.0006181342772075694 0.00023120394635675989 0 0.00058161890219631364 0.00013882110217505375 0 0.00073473239245158597 0.00015544658238273668 0 0.00058161890219631364 0.00013882110217505375 0 0.00057449063553630401 1.5425838401605247e-05 0 0.00049465045691111833 6.5915257467976038e-05 0 0.00057449063553630401 1.5425838401605247e-05 0 0.00049465045691111833 6.5915257467976038e-05 0 0.00044693937286313944 -8.670272379682789e-05 0 0.00021779663916809372 -0.00092308831848208811 0 -1.3338143223198526e-05 -0.0012178519470141395 0 -4.2408660114567803e-05 -0.0010943905830271962 0 0.00036127419841449997 -0.0003440755525424744 0 0.00021127738035657206 -0.00052342652877269047 0 0.00058161890219631364 0.00013882110217505375 0 0.00049465045691111833 6.5915257467976038e-05 0 0.00052331441958573951 0.00022162357829856938 0 0.00049465045691111833 6.5915257467976038e-05 0 0.00034799794263196403 3.2939817728667736e-05 0 0.00052331441958573951 0.00022162357829856938 0 0.00021127738035657206 -0.00052342652877269047 0 0.00059610226643859812 0.00034093589681801872 0 0.00049465045691111833 6.5915257467976038e-05 0 0.00034799794263196403 3.2939817728667736e-05 0 0.00044693937286313944 -8.670272379682789e-05 0 -1.3338143223198526e-05 -0.0012178519470141395 0 -6.9868043541021323e-05 -0.0012319473507685908 0 -7.7948959215995173e-05 -0.0011641771095582943 0 -0.00010479896311617576 -0.0012131544575171181 0 -6.9868043541021323e-05 -0.0012319473507685908 0 -7.7948959215995173e-05 -0.0011641771095582943 0 -9.3952955971934749e-05 -0.0012575701797095313 0 -0.00010479896311617576 -0.0012131544575171181 0 -6.9868043541021323e-05 -0.0012319473507685908 0 -0.00012494861560317542 -0.0011607283959921982 0 -7.7948959215995173e-05 -0.0011641771095582943 0 -8.9063369235297527e-05 -0.0011249484268321202 0 -7.7948959215995173e-05 -0.0011641771095582943 0 -4.2408660114567803e-05 -0.0010943905830271962 0 -8.9063369235297527e-05 -0.0011249484268321202 0 -1.3338143223198526e-05 -0.0012178519470141395 0 -7.7948959215995173e-05 -0.0011641771095582943 0 -4.2408660114567803e-05 -0.0010943905830271962 0 -7.5643260479243962e-05 -0.0010937725334244463 0 -4.2408660114567803e-05 -0.0010943905830271962 0 -8.9063369235297527e-05 -0.0011249484268321202 0 -0.00017801327340410993 -0.0007625329098963886 0 -4.2408660114567803e-05 -0.0010943905830271962 0 3.3131766487424764e-05 -0.00086109963028439677 0 -0.00012289405941370886 -0.00092997566193040013 0 -5.6135624774227732e-05 -0.0010791984824769065 0 -0.00012022150964618092 -0.0011115760772516616 0 -7.5643260479243962e-05 -0.0010937725334244463 0 -8.9063369235297527e-05 -0.0011249484268321202 0 0.00054816765936484496 0.00027936161432632348 0 0.00025820300152138711 -5.7863075895145777e-05 0 0.00052331441958573951 0.00022162357829856938 0 -0.00017801327340410993 -0.0007625329098963886 0 8.0654834857931827e-05 -0.00072727810183409415 0 3.3131766487424764e-05 -0.00086109963028439677 0 0.00021779663916809372 -0.00092308831848208811 0 -4.2408660114567803e-05 -0.0010943905830271962 0 8.8418215422049156e-05 -0.00092504898560972452 0 8.0654834857931827e-05 -0.00072727810183409415 0 3.3131766487424764e-05 -0.00086109963028439677 0 0.0001447569978310741 -0.00082305914265200176 0 0.00021779663916809372 -0.00092308831848208811 0 0.0001447569978310741 -0.00082305914265200176 0 8.8418215422049156e-05 -0.00092504898560972452 0 0.00022211481324004541 -0.00071739948407966488 0 0.00021779663916809372 -0.00092308831848208811 0 0.0001447569978310741 -0.00082305914265200176 0 3.3131766487424764e-05 -0.00086109963028439677 0 0.0001447569978310741 -0.00082305914265200176 0 8.8418215422049156e-05 -0.00092504898560972452 0 -4.2408660114567803e-05 -0.0010943905830271962 0 3.3131766487424764e-05 -0.00086109963028439677 0 8.8418215422049156e-05 -0.00092504898560972452 0 0.00030013989059582392 0.0007531145466466478 0 0.00042403784537097634 0.00068922053148758467 0 0.00042266434483741031 0.00079059260965106532 0 0.00029514685649880714 0.00063541428460710378 0 0.00030013989059582392 0.0007531145466466478 0 0.00042403784537097634 0.00068922053148758467 0 0.00031837514500039594 0.00048491187093416808 0 0.00029514685649880714 0.00063541428460710378 0 0.00042640681523581781 0.00055308058862204733 0 0.00029514685649880714 0.00063541428460710378 0 0.00042403784537097634 0.00068922053148758467 0 0.00042640681523581781 0.00055308058862204733 0 0.00054238974804034939 0.00045572940239345096 0 0.00042640681523581781 0.00055308058862204733 0 0.00055048669441535008 0.00060772578687566157 0 0.00042403784537097634 0.00068922053148758467 0 0.00042640681523581781 0.00055308058862204733 0 0.00055048669441535008 0.00060772578687566157 0 0.00042403784537097634 0.00068922053148758467 0 0.00056246289799518842 0.00076820634351671281 0 0.00042266434483741031 0.00079059260965106532 0 0.00042403784537097634 0.00068922053148758467 0 0.00055048669441535008 0.00060772578687566157 0 0.00056246289799518842 0.00076820634351671281 0 0.00055048669441535008 0.00060772578687566157 0 0.00066066227438102865 0.00063522900818853108 0 0.00056246289799518842 0.00076820634351671281 0 0.00066066227438102865 0.00063522900818853108 0 0.00072371918730409525 0.00075864828272155049 0 0.00056246289799518842 0.00076820634351671281 0 0.00054238974804034939 0.00045572940239345096 0 0.00055048669441535008 0.00060772578687566157 0 0.00065619328583666229 0.00050573286009191506 0 0.00055048669441535008 0.00060772578687566157 0 0.00066066227438102865 0.00063522900818853108 0 0.00065619328583666229 0.00050573286009191506 0 0.0008105839675647162 0.0005305385216979999 0 0.00066066227438102865 0.00063522900818853108 0 0.00065619328583666229 0.00050573286009191506 0 0.0008105839675647162 0.0005305385216979999 0 0.00066066227438102865 0.00063522900818853108 0 0.00072371918730409525 0.00075864828272155049 0 0.00065991479756824848 0.00029386669170272585 0 0.00066391164366264629 0.00050407728289140195 0 0.00058487912334595363 0.00053451101878743666 0 0.00058882983039028802 0.00011053781970254723 0 0.00067185951509263859 0.0007112048772057617 0 0.00072371918730409525 0.00075864828272155049 0 0.00063378233368813197 0.0009402072301437557 0 0.00056246289799518842 0.00076820634351671281 0 0.00067185951509263859 0.0007112048772057617 0 0.0005888186509805394 0.00085930782942539026 0 0.0006564758022645173 0.00070267377818493903 0 0.00058487912334595363 0.00053451101878743666 0 0.00054238825968761764 0.00081643325803597289 0 0.0006564758022645173 0.00070267377818493903 0 0.00054238825968761764 0.00081643325803597289 0 0.00068657848656642406 0.00086626668582158971 0 0.00063378233368813197 0.0009402072301437557 0 0.00056246289799518842 0.00076820634351671281 0 0.00048887327621996066 0.00090810629697991158 0 0.00056246289799518842 0.00076820634351671281 0 0.00048887327621996066 0.00090810629697991158 0 0.00042266434483741031 0.00079059260965106532 0 0.00048887327621996066 0.00090810629697991158 0 0.00034624688514695007 0.00085531012844410547 0 0.0003658914058502072 0.00094798178407225512 0 0.00048887327621996066 0.00090810629697991158 0 0.00042266434483741031 0.00079059260965106532 0 0.00034624688514695007 0.00085531012844410547 0 0.00030013989059582392 0.0007531145466466478 0 0.00042266434483741031 0.00079059260965106532 0 0.00034624688514695007 0.00085531012844410547 0 0.00034116001438154014 0.0010739022426012655 0 0.00035135837674035188 0.00095880263106600438 0 0.00044966748970243572 0.0010336886730802522 0 0.00035647036128261792 0.00095096711023377972 0 0.00046888715368574303 0.0010294783803082379 0 0.00048887327621996066 0.00090810629697991158 0 0.0003658914058502072 0.00094798178407225512 0 0.00048603498856573919 0.0010242742108805443 0 0.00048887327621996066 0.00090810629697991158 0 0.00048603498856573919 0.0010242742108805443 0 0.00054266871632806799 0.00098509735426902611 0 0.00044966748970243572 0.0010336886730802522 0 0.0005513637423955859 0.0010814930154953134 0 0.00045982395654511535 0.0010958990282355402 0 0.00034116001438154014 0.0010739022426012655 0 0.00044966748970243572 0.0010336886730802522 0 0.00045982395654511535 0.0010958990282355402 0 0.00048603498856573919 0.0010242742108805443 0 0.00055229495924924389 0.0010460637100373094 0 0.00054266871632806799 0.00098509735426902611 0 0.00048603498856573919 0.0010242742108805443 0 0.00055229495924924389 0.0010460637100373094 0 0.0005513637423955859 0.0010814930154953134 0 0.00046888715368574303 0.0010294783803082379 0 0.0005471463470009682 0.0010815079130669534 0 0.00063378233368813197 0.0009402072301437557 0 0.00055229495924924389 0.0010460637100373094 0 0.00054266871632806799 0.00098509735426902611 0 0.00063378233368813197 0.0009402072301437557 0 0.00048887327621996066 0.00090810629697991158 0 0.00054266871632806799 0.00098509735426902611 0 0.00054238825968761764 0.00081643325803597289 0 0.00061633073309336098 0.00096895661272871573 0 0.00068657848656642406 0.00086626668582158971 0 0.0005888186509805394 0.00085930782942539026 0 0.00055424235232916447 0.0010407311202450091 0 0.00054238825968761764 0.00081643325803597289 0 0.00055229495924924389 0.0010460637100373094 0 0.00061633073309336098 0.00096895661272871573 0 0.00055229495924924389 0.0010460637100373094 0 0.00061633073309336098 0.00096895661272871573 0 0.00060788614206744047 0.0010526435486531874 0 0.00061633073309336098 0.00096895661272871573 0 0.00060788614206744047 0.0010526435486531874 0 0.00068390676806598762 0.0010319021743627082 0 0.00059493470099350747 0.0011002612632005217 0 0.00057200871065101193 0.0011581285562503056 0 0.0005513637423955859 0.0010814930154953134 0 0.00060788614206744047 0.0010526435486531874 0 0.00064061796807003549 0.0011158101766469382 0 0.00068390676806598762 0.0010319021743627082 0 0.00055229495924924389 0.0010460637100373094 0 0.00060788614206744047 0.0010526435486531874 0 0.0005513637423955859 0.0010814930154953134 0 0.00060788614206744047 0.0010526435486531874 0 0.00059493470099350747 0.0011002612632005217 0 0.0005513637423955859 0.0010814930154953134 0 0.00060788614206744047 0.0010526435486531874 0 0.00059493470099350747 0.0011002612632005217 0 0.00064061796807003549 0.0011158101766469382 0 0.00064061796807003549 0.0011158101766469382 0 0.00057200871065101193 0.0011581285562503056 0 0.00065708463045195773 0.0011902183497251966 0 0.00059493470099350747 0.0011002612632005217 0 0.00064061796807003549 0.0011158101766469382 0 0.00057200871065101193 0.0011581285562503056 0 0.00049723829810366914 0.0011455757788711224 0 0.00057200871065101193 0.0011581285562503056 0 0.00047945752861647901 0.0012322934962087245 0 0.00049723829810366914 0.0011455757788711224 0 0.0005513637423955859 0.0010814930154953134 0 0.00045982395654511535 0.0010958990282355402 0 0.00049723829810366914 0.0011455757788711224 0 0.00057200871065101193 0.0011581285562503056 0 0.0005513637423955859 0.0010814930154953134 0 0.00024565825401940842 0.0011883666596371016 0 0.00041755423164493581 0.0011669359984553482 0 0.00033861312025773723 0.0012864235761256943 0 0.00049723829810366914 0.0011455757788711224 0 0.00045982395654511535 0.0010958990282355402 0 0.00041755423164493581 0.0011669359984553482 0 0.00042126571312625237 0.0011714471950925271 0 0.00047170949723873397 0.0012569768585667762 0 0.00049723829810366914 0.0011455757788711224 0 0.00041755423164493581 0.0011669359984553482 0 0.00047945752861647901 0.0012322934962087245 0 0.00041755423164493581 0.0011669359984553482 0 0.00033861312025773723 0.0012864235761256943 0 0.00046884063674264428 0.0012876242576505173 0 0.00034116001438154014 0.0010739022426012655 0 0.00045982395654511535 0.0010958990282355402 0 0.00041755423164493581 0.0011669359984553482 0 0.00040966711341043903 -0.00028975602872348736 0 0.00036875651587410746 -0.0004592440774137213 0 0.00059461501638368602 -0.00054766323786471901 0 0.00036875651587410746 -0.0004592440774137213 0 0.00025558698852902288 -0.00044762797847159225 0 0.00025083075274911067 -0.00036289309103347279 0 0.00040966711341043903 -0.00028975602872348736 0 0.00036875651587410746 -0.0004592440774137213 0 0.00025083075274911067 -0.00036289309103347279 0 0.00025558698852902288 -0.00044762797847159225 0 0.00025083075274911067 -0.00036289309103347279 0 0.00017149064859094498 -0.00043204427622868345 0 0.00025083075274911067 -0.00036289309103347279 0 0.00017149064859094498 -0.00043204427622868345 0 0.00015382482359483724 -0.00034826913945575902 0 7.8531789073016262e-05 -0.00039279127711637713 0 0.00017149064859094498 -0.00043204427622868345 0 0.00015382482359483724 -0.00034826913945575902 0 0.00015382482359483724 -0.00034826913945575902 0 0.00018206335321648763 -0.00029547807758912822 0 0.00012855821920063044 -0.00022373497977362482 0 0.00025083075274911067 -0.00036289309103347279 0 0.00018206335321648763 -0.00029547807758912822 0 0.00025667523374748078 -0.00026282319495252209 0 0.00025083075274911067 -0.00036289309103347279 0 0.00015382482359483724 -0.00034826913945575902 0 0.00018206335321648763 -0.00029547807758912822 0 0.00018206335321648763 -0.00029547807758912822 0 0.00025667523374748078 -0.00026282319495252209 0 0.00021605013599581448 -0.00023565625349496376 0 0.00018206335321648763 -0.00029547807758912822 0 0.00012855821920063044 -0.00022373497977362482 0 0.00021605013599581448 -0.00023565625349496376 0 0.00040966711341043903 -0.00028975602872348736 0 0.00025083075274911067 -0.00036289309103347279 0 0.00025667523374748078 -0.00026282319495252209 0 0.00025926848236536662 -0.0008221949009540704 0 9.0282610431605505e-05 -0.0010473572165747768 0 9.7247378288482664e-05 -0.0010170921311130146 0 0.00021127738035657206 -0.00052342652877269047 0 0.00012919470690545031 -0.00060751377075919221 0 0.00040966711341043903 -0.00028975602872348736 0 0.00025667523374748078 -0.00026282319495252209 0 0.00029668708941702051 -0.00016113389175598383 0 0.00021127738035657206 -0.00052342652877269047 0 -3.7721126930854797e-05 -0.001238312676688247 0 0.00034799794263196403 3.2939817728667736e-05 0 0.00029668708941702051 -0.00016113389175598383 0 0.00012855821920063044 -0.00022373497977362482 0 -1.3338143223198526e-05 -0.0012178519470141395 0 -6.9868043541021323e-05 -0.0012319473507685908 0 -8.4363089079907532e-05 -0.0013028202642792555 0 0.00025667523374748078 -0.00026282319495252209 0 0.00029668708941702051 -0.00016113389175598383 0 0.00021605013599581448 -0.00023565625349496376 0 0.00029668708941702051 -0.00016113389175598383 0 0.00012855821920063044 -0.00022373497977362482 0 0.00021605013599581448 -0.00023565625349496376 0 -9.3952955971934749e-05 -0.0012575701797095313 0 -6.9868043541021323e-05 -0.0012319473507685908 0 -8.4363089079907532e-05 -0.0013028202642792555 0 0.00040966711341043903 -0.00028975602872348736 0 0.00044693937286313944 -8.670272379682789e-05 0 0.00067001108143591301 -0.0001916705911828979 0 0.00034799794263196403 3.2939817728667736e-05 0 0.00029668708941702051 -0.00016113389175598383 0 0.00044693937286313944 -8.670272379682789e-05 0 0.00040966711341043903 -0.00028975602872348736 0 0.00029668708941702051 -0.00016113389175598383 0 0.00044693937286313944 -8.670272379682789e-05 0 0.00057449063553630401 1.5425838401605247e-05 0 0.00044693937286313944 -8.670272379682789e-05 0 0.00067001108143591301 -0.0001916705911828979 0 0.00078063494123247531 0.00069817776044118986 0 0.00078933303517721761 0.00091057983444400815 0 0.00068657848656642406 0.00086626668582158971 0 0.00061633073309336098 0.00096895661272871573 0 0.00068657848656642406 0.00086626668582158971 0 0.00068390676806598762 0.0010319021743627082 0 0.00078933303517721761 0.00091057983444400815 0 0.00068657848656642406 0.00086626668582158971 0 0.00068390676806598762 0.0010319021743627082 0 0.00078933303517721761 0.00091057983444400815 0 0.00068390676806598762 0.0010319021743627082 0 0.00077733879249389291 0.0010573614417181509 0 0.00040966711341043903 -0.00028975602872348736 0 0.00067001108143591301 -0.0001916705911828979 0 0.00059461501638368602 -0.00054766323786471901 0 0.00072948408306035988 0.00035784828189894594 0 0.00068147120452736792 0.00024531771275324368 0 0.00068390676806598762 0.0010319021743627082 0 0.00077733879249389291 0.0010573614417181509 0 0.00070388320442508025 0.001130713477939997 0 0.00064061796807003549 0.0011158101766469382 0 0.00068390676806598762 0.0010319021743627082 0 0.00070388320442508025 0.001130713477939997 0 0.00064061796807003549 0.0011158101766469382 0 0.00070388320442508025 0.001130713477939997 0 0.00065708463045195773 0.0011902183497251966 0 0.00077733879249389291 0.0010573614417181509 0 0.00070388320442508025 0.001130713477939997 0 0.00076252008125755313 0.0011461557871740051 0 0.00070388320442508025 0.001130713477939997 0 0.00076252008125755313 0.0011461557871740051 0 0.00072489742226791352 0.0011583316418342991 0 0.00059461501638368602 -0.00054766323786471901 0 0.000384280724719249 -0.0006672655116047758 0 0.00049243849711314903 -0.00087132807081975858 0 0.00068147120452736792 0.00024531771275324368 0 0.00064589569543444219 0.00017226832335607079 0 0.000384280724719249 -0.0006672655116047758 0 0.00033894463200524288 -0.0008481223830353983 0 0.00049243849711314903 -0.00087132807081975858 0 0.00036875651587410746 -0.0004592440774137213 0 0.00059461501638368602 -0.00054766323786471901 0 0.000384280724719249 -0.0006672655116047758 0 0.00010190434561285477 -0.00049077601704246255 0 0.00010826927001127956 -0.00058725228784351836 0 0.0002299671606420952 -0.0005362662232214759 0 0.00010190434561285477 -0.00049077601704246255 0 0.00017149064859094498 -0.00043204427622868345 0 0.0002299671606420952 -0.0005362662232214759 0 0.00025558698852902288 -0.00044762797847159225 0 0.00017149064859094498 -0.00043204427622868345 0 0.0002299671606420952 -0.0005362662232214759 0 0.00036875651587410746 -0.0004592440774137213 0 0.00025558698852902288 -0.00044762797847159225 0 0.0002299671606420952 -0.0005362662232214759 0 0.00036875651587410746 -0.0004592440774137213 0 0.000384280724719249 -0.0006672655116047758 0 0.0002299671606420952 -0.0005362662232214759 0 0.000384280724719249 -0.0006672655116047758 0 0.0002299671606420952 -0.0005362662232214759 0 0.000172148379025551 -0.00071378071384838103 0 0.00010826927001127956 -0.00058725228784351836 0 0.0002299671606420952 -0.0005362662232214759 0 0.000172148379025551 -0.00071378071384838103 0 6.601699328367814e-05 -0.00091274775224731825 0 0.000172148379025551 -0.00071378071384838103 0 0.00033894463200524288 -0.0008481223830353983 0 0.000384280724719249 -0.0006672655116047758 0 0.000172148379025551 -0.00071378071384838103 0 0.00033894463200524288 -0.0008481223830353983 0 0.00033894463200524288 -0.0008481223830353983 0 0.00024440257234473303 -0.0011861295829018736 0 0.00040004289805932279 -0.0013164192370160176 0 0.00033894463200524288 -0.0008481223830353983 0 0.00038846508686953663 -0.0010074745083506005 0 0.00039628655266048051 -0.00098014125692983539 0 6.601699328367814e-05 -0.00091274775224731825 0 0.00033894463200524288 -0.0008481223830353983 0 0.00017041660835142685 -0.0010509617377181995 0 0.00033894463200524288 -0.0008481223830353983 0 0.00017041660835142685 -0.0010509617377181995 0 0.00024440257234473303 -0.0011861295829018736 0 0.0003438455026106526 -0.00083717942027881659 0 0.00039813474333040989 -0.0012259884872120124 0 0.00017041660835142685 -0.0010509617377181995 0 0.00024440257234473303 -0.0011861295829018736 0 0.0001182055799713529 -0.0011852814931033132 0 0.00024440257234473303 -0.0011861295829018736 0 0.00027124128617447331 -0.0013319519403504965 0 0.00015588099929718041 -0.0013498860037271321 0 0.00024440257234473303 -0.0011861295829018736 0 0.00015588099929718041 -0.0013498860037271321 0 0.0001182055799713529 -0.0011852814931033132 0 0.00024440257234473303 -0.0011861295829018736 0 0.00027124128617447331 -0.0013319519403504965 0 0.00040004289805932279 -0.0013164192370160176 0 0.00027124128617447331 -0.0013319519403504965 0 0.00040004289805932279 -0.0013164192370160176 0 0.00028537539379823679 -0.0014726912740346107 0 0.00028537539379823679 -0.0014726912740346107 0 0.00015588099929718041 -0.0013498860037271321 0 0.00014819285855274553 -0.0015920195263031927 0 0.00027124128617447331 -0.0013319519403504965 0 0.00028537539379823679 -0.0014726912740346107 0 0.00015588099929718041 -0.0013498860037271321 0 0.00047619251245258851 -6.1666501307459373e-05 0 0.0006205573357116695 -0.00095251825711714709 0 0.00038846508686953663 -0.0010074745083506005 0 0.00040459553972691626 -0.001013406280725512 0 0.00039628655266048051 -0.00098014125692983539 0 0.00033894463200524288 -0.0008481223830353983 0 0.00039628655266048051 -0.00098014125692983539 0 0.00049243849711314903 -0.00087132807081975858 0 0.00047619251245258851 -6.1666501307459373e-05 0 0.00064589569543444219 0.00017226832335607079 0 0.00075375224083676026 0.0011919787552151931 0 0.00076252008125755313 0.0011461557871740051 0 0.00073106146467514165 0.0011841846664140208 0 0.00042700744805271768 -0.0010334590960525696 0 0.00039628655266048051 -0.00098014125692983539 0 0.00049243849711314903 -0.00087132807081975858 0 0.00076252008125755313 0.0011461557871740051 0 0.00072489742226791352 0.0011583316418342991 0 0.00073106146467514165 0.0011841846664140208 0 0.00070388320442508025 0.001130713477939997 0 0.00072489742226791352 0.0011583316418342991 0 0.00070271638344679432 0.0011845077928578759 0 0.00072489742226791352 0.0011583316418342991 0 0.00070271638344679432 0.0011845077928578759 0 0.00073106146467514165 0.0011841846664140208 0 0.00070388320442508025 0.001130713477939997 0 0.00070271638344679432 0.0011845077928578759 0 0.00065708463045195773 0.0011902183497251966 0 0.00069434969933990817 0.0013127640176803866 0 0.0006337077623846018 0.001241504683001762 0 0.0006313975271327873 0.001305193362907643 0 0.00075994545484457557 0.0013573590916073259 0 0.00062738842521247134 0.001192980064971195 0 0.00070271638344679432 0.0011845077928578759 0 0.00071087791138440225 0.0012053517106581527 0 0.00065708463045195773 0.0011902183497251966 0 0.00069434969933990817 0.0013127640176803866 0 0.00065108589399813456 0.0013494354657499301 0 0.0006313975271327873 0.001305193362907643 0 0.00070271638344679432 0.0011845077928578759 0 0.00071087791138440225 0.0012053517106581527 0 0.00073106146467514165 0.0011841846664140208 0 0.00071087791138440225 0.0012053517106581527 0 0.00073106146467514165 0.0011841846664140208 0 0.00073318646421431134 0.0012004446223659968 0 0.00075375224083676026 0.0011919787552151931 0 0.00073106146467514165 0.0011841846664140208 0 0.00073318646421431134 0.0012004446223659968 0 0.00071087791138440225 0.0012053517106581527 0 0.00073318646421431134 0.0012004446223659968 0 0.00073433687721316413 0.0012176572542535284 0 0.00075994545484457557 0.0013573590916073259 0 0.00056706477867618618 0.00075011407312039989 0 0.00069434969933990817 0.0013127640176803866 0 0.00076083299242336215 0.0013844763808875608 0 0.00065108589399813456 0.0013494354657499301 0 0.00065108589399813456 0.0013494354657499301 0 0.00067035446912547443 0.0014179180949834681 0 0.00057473319556754839 0.0014010721413923446 0 0.00076083299242336215 0.0013844763808875608 0 0.00065108589399813456 0.0013494354657499301 0 0.00067035446912547443 0.0014179180949834681 0 0.00067035446912547443 0.0014179180949834681 0 0.00060774276110645324 0.001464684653998924 0 0.00071206160679122279 0.001479061094454255 0 0.00076083299242336215 0.0013844763808875608 0 0.00067035446912547443 0.0014179180949834681 0 0.00071206160679122279 0.001479061094454255 0 0.00056706477867618618 0.00075011407312039989 0 0.00051724675698901635 0.00095215264277024572 0 0.00031054465201572201 0.00035435165908962384 0 0.00030024116152263769 0.00025727179715515525 0 0.00035852003817095563 0.00026534644685564284 0 0.00056856128286050713 -0.00022369295780482772 0 0.00033568005064610183 -0.00025479743409314323 0 0.00035324091935214671 -0.00048190333044347786 0 0.00031054465201572201 0.00035435165908962384 0 0.00024129897293725057 0.00026870893218030131 0 0.00030024116152263769 0.00025727179715515525 0 0.00056706477867618618 0.00075011407312039989 0 0.0002750561351523055 -0.0006278454050030241 0 0.00036934904070235467 -0.0010957108002888048 0 0.0002750561351523055 -0.0006278454050030241 0 0.0004326580453195066 -0.0017554900858643412 0 0.0001792400823403425 -0.0018508277770672092 0 0.00033966307486389945 -0.0021386462941346885 0 0.00030495629560301315 -0.0009699271350810183 0 0.00020020979566039873 -0.0013931575527969373 0 0.00032704901812451826 -0.0012728008000945875 0 0.00036934904070235467 -0.0010957108002888048 0 9.1056205130768901e-05 -0.0018099448524255442 0 0.0001792400823403425 -0.0018508277770672092 0 0.00033966307486389945 -0.0021386462941346885 0 3.8469316512604782e-05 -0.0020364330412966473 0 0.0004326580453195066 -0.0017554900858643412 0 0.0001792400823403425 -0.0018508277770672092 0 0.00014819285855274553 -0.0015920195263031927 0 0.00028537539379823679 -0.0014726912740346107 0 0.0004326580453195066 -0.0017554900858643412 0 0.00014819285855274553 -0.0015920195263031927 0 0.00040004289805932279 -0.0013164192370160176 0 0.00028537539379823679 -0.0014726912740346107 0 0.0004326580453195066 -0.0017554900858643412 0 0.00075375224083676026 0.0011919787552151931 0 0.00073318646421431134 0.0012004446223659968 0 0.00073433687721316413 0.0012176572542535284 0 0.00038846508686953663 -0.0010074745083506005 0 0.00040459553972691626 -0.001013406280725512 0 0.00039407673206420996 -0.0010495956572648649 0 0.00039813474333040989 -0.0012259884872120124 0 0.00036934904070235467 -0.0010957108002888048 0 0.00040912545878187434 4.8268331365840697e-05 0 0.00056856128286050713 -0.00022369295780482772 0 0.00033568005064610183 -0.00025479743409314323 0 0.00047619251245258851 -6.1666501307459373e-05 0 0.00036934904070235467 -0.0010957108002888048 0 0.00047619251245258851 -6.1666501307459373e-05 0 0.00056706477867618618 0.00075011407312039989 0 0.0003811245342280928 0.0013638491635521799 0 0.00045461437654366002 0.0013989525557027958 0 0.00033151690749410272 0.0014483163724442918 0 0.00029962203642337304 0.0013703220093864701 0 0.0003811245342280928 0.0013638491635521799 0 0.00033151690749410272 0.0014483163724442918 0 0.00029962203642337304 0.0013703220093864701 0 0.0003811245342280928 0.0013638491635521799 0 0.00033861312025773723 0.0012864235761256943 0 0.0003811245342280928 0.0013638491635521799 0 0.00033861312025773723 0.0012864235761256943 0 0.00046884063674264428 0.0012876242576505173 0 0.00046884063674264428 0.0012876242576505173 0 0.00045461437654366002 0.0013989525557027958 0 0.00051028349389303882 0.0013862103852598929 0 0.0003811245342280928 0.0013638491635521799 0 0.00046884063674264428 0.0012876242576505173 0 0.00045461437654366002 0.0013989525557027958 0 0.00053555071575913109 0.0013155527886672669 0 0.00055825302940942301 0.0012458887484177706 0 0.00058438653754044564 0.0012899201550653967 0 0.00047170949723873397 0.0012569768585667762 0 0.00052345927897435782 0.0013525324658242618 0 0.00047945752861647901 0.0012322934962087245 0 0.00053555071575913109 0.0013155527886672669 0 0.00055825302940942301 0.0012458887484177706 0 0.00057200871065101193 0.0011581285562503056 0 0.00047945752861647901 0.0012322934962087245 0 0.00055825302940942301 0.0012458887484177706 0 0.00057200871065101193 0.0011581285562503056 0 0.00055825302940942301 0.0012458887484177706 0 0.0006337077623846018 0.001241504683001762 0 0.00058393479014878466 0.001166143558816302 0 0.00062738842521247134 0.001192980064971195 0 0.00055825302940942301 0.0012458887484177706 0 0.0006337077623846018 0.001241504683001762 0 0.00058438653754044564 0.0012899201550653967 0 0.0006337077623846018 0.001241504683001762 0 0.00058438653754044564 0.0012899201550653967 0 0.0006313975271327873 0.001305193362907643 0 0.00053555071575913109 0.0013155527886672669 0 0.00058438653754044564 0.0012899201550653967 0 0.00059680804526435172 0.0013307078666907179 0 0.00065108589399813456 0.0013494354657499301 0 0.0006313975271327873 0.001305193362907643 0 0.00059680804526435172 0.0013307078666907179 0 0.00058438653754044564 0.0012899201550653967 0 0.0006313975271327873 0.001305193362907643 0 0.00059680804526435172 0.0013307078666907179 0 0.00065034423664072922 0.0013480056547634902 0 0.00057125288131467625 0.0014264222376470944 0 0.00065108589399813456 0.0013494354657499301 0 0.00059680804526435172 0.0013307078666907179 0 0.00058404750055465185 0.0013991009149897813 0 0.00053555071575913109 0.0013155527886672669 0 0.00059680804526435172 0.0013307078666907179 0 0.00058404750055465185 0.0013991009149897813 0 0.00067035446912547443 0.0014179180949834681 0 0.00060774276110645324 0.001464684653998924 0 0.00057473319556754839 0.0014010721413923446 0 0.00060774276110645324 0.001464684653998924 0 0.000570014057618666 0.0013980252536207451 0 0.00054777748598961525 0.0015276216155631483 0 0.00059886538166100648 0.0014505675910495928 0 0.00057125288131467625 0.0014264222376470944 0 0.000570014057618666 0.0013980252536207451 0 0.00044642974146360344 0.0014924371022618744 0 0.00054777748598961525 0.0015276216155631483 0 0.00055774746457528551 0.0014764439900830236 0 0.00047813201640837524 0.0014589417619403839 0 0.00044406216995746987 0.0015518881596586439 0 0.00057125288131467625 0.0014264222376470944 0 0.00044341999443167195 0.0015248567130302189 0 0.00051028349389303882 0.0013862103852598929 0 0.00055774746457528551 0.0014764439900830236 0 0.00047813201640837524 0.0014589417619403839 0 0.00045461437654366002 0.0013989525557027958 0 0.00051028349389303882 0.0013862103852598929 0 0.00047813201640837524 0.0014589417619403839 0 0.00052345927897435782 0.0013525324658242618 0 0.00057125288131467625 0.0014264222376470944 0 0.00045461437654366002 0.0013989525557027958 0 0.00047813201640837524 0.0014589417619403839 0 0.00041447543672296295 0.0014710830507347289 0 0.00047813201640837524 0.0014589417619403839 0 0.00041447543672296295 0.0014710830507347289 0 0.00044406216995746987 0.0015518881596586439 0 0.00041447543672296295 0.0014710830507347289 0 0.00035583822711000352 0.0015087229909959449 0 0.00044406216995746987 0.0015518881596586439 0 0.00044710306167540444 0.0014019389726679496 0 0.00033363839541120549 0.0014389602838425061 0 0.00045461437654366002 0.0013989525557027958 0 0.00041447543672296295 0.0014710830507347289 0 0.0003332102711805966 0.0014306424060978329 0 0.00041447543672296295 0.0014710830507347289 0 0.00035583822711000352 0.0015087229909959449 0 0.0003332102711805966 0.0014306424060978329 0 0.00032036409253726822 0.001640277890101611 0 0.00034948834217808438 0.001612581898842386 0 0.0003409879062015223 0.0016788636953401761 0 0.00039583796970842755 0.0015902468324668004 0 0.00034948834217808438 0.001612581898842386 0 0.00039628005600196288 0.001637612156018574 0 0.00039583796970842755 0.0015902468324668004 0 0.00034948834217808438 0.001612581898842386 0 0.00033356897916646651 0.0016079742537777437 0 0.00032036409253726822 0.001640277890101611 0 0.00034948834217808438 0.001612581898842386 0 0.00033356897916646651 0.0016079742537777437 0 0.00035583822711000352 0.0015087229909959449 0 0.00035448838938528305 0.0015590493224508382 0 0.00044406216995746987 0.0015518881596586439 0 0.00039583796970842755 0.0015902468324668004 0 0.00033356897916646651 0.0016079742537777437 0 0.00044642974146360344 0.0014924371022618744 0 0.00033356897916646651 0.0016079742537777437 0 0.00035448838938528305 0.0015590493224508382 0 0.00044406216995746987 0.0015518881596586439 0 0.00032208815190563298 0.0015783949780106478 0 0.00033356897916646651 0.0016079742537777437 0 0.00035448838938528305 0.0015590493224508382 0 0.00034098513376776648 0.0016014027630356707 0 0.00044341999443167195 0.0015248567130302189 0 0.00031309643544788317 0.0015454631169144306 0 0.00035583822711000352 0.0015087229909959449 0 0.00035448838938528305 0.0015590493224508382 0 0.00031309643544788317 0.0015454631169144306 0 0.00032208815190563298 0.0015783949780106478 0 0.00035448838938528305 0.0015590493224508382 0 0.00039583796970842755 0.0015902468324668004 0 0.00044642974146360344 0.0014924371022618744 0 0.00045618459636619319 0.0015949435653946041 0 0.00045618459636619319 0.0015949435653946041 0 0.00039628005600196288 0.001637612156018574 0 0.00041067747890815453 0.0016834988105114065 0 0.00039583796970842755 0.0015902468324668004 0 0.00045618459636619319 0.0015949435653946041 0 0.00039628005600196288 0.001637612156018574 0 0.00045618459636619319 0.0015949435653946041 0 0.00054777748598961525 0.0015276216155631483 0 0.00053361264323641209 0.0016353735339881045 0 0.00044642974146360344 0.0014924371022618744 0 0.00045618459636619319 0.0015949435653946041 0 0.00054777748598961525 0.0015276216155631483 0 0.00060774276110645324 0.001464684653998924 0 0.00054777748598961525 0.0015276216155631483 0 0.00065793854957952073 0.0015803375902748453 0 0.00048341978121661658 0.0012459582912388776 0 0.00045058154931683521 0.00052951928822918281 0 0.00054777748598961525 0.0015276216155631483 0 0.00053361264323641209 0.0016353735339881045 0 0.00065793854957952073 0.0015803375902748453 0 0.00033665823289704024 -9.4655009823164666e-06 0 0.00045058154931683521 0.00052951928822918281 0 0.00046717045212873846 0.00077245234543703637 0 0.00042711563669325914 0.0007315772305397653 0 0.00050999469536889663 0.0006976700808503253 0 0.00033665823289704024 -9.4655009823164666e-06 0 0.00031755572080509456 -0.00028797532720426243 0 0.00026194729870353961 -0.00046907319177273362 0 0.00025800711982069453 -0.00046796251497071921 0 0.00025776616740456865 -0.00047541454448047385 0 0.00033665823289704024 -9.4655009823164666e-06 0 0.000345764264286258 -1.8223721693856983e-05 0 0.00033665823289704024 -9.4655009823164666e-06 0 0.00039865501604662181 0.00053453008864168554 0 0.00025717109580182122 -0.00048152273887976696 0 0.00026560621748978057 -0.00047686276351977853 0 0.00025776616740456865 -0.00047541454448047385 0 0.00026194729870353961 -0.00046907319177273362 0 0.00026560621748978057 -0.00047686276351977853 0 0.00025776616740456865 -0.00047541454448047385 0 0.0003830882762028514 0.00027946562192592299 0 0.00037498920836697276 0.00028376532389567211 0 0.0003632293006806649 0.00028642257893474589 0 0.0003830882762028514 0.00027946562192592299 0 0.00037498920836697276 0.00028376532389567211 0 0.00037000517260701171 0.00029196732004673642 0 0.00035482213510071623 0.00030455823675041779 0 0.0003632293006806649 0.00028642257893474589 0 0.00033716539263899364 0.00029788321758682815 0 0.00037498920836697276 0.00028376532389567211 0 0.00037240631085105815 0.00030633153300830662 0 0.0003632293006806649 0.00028642257893474589 0 0.00034315885329561292 0.00035941587960423675 0 0.000345764264286258 -1.8223721693856983e-05 0 0.00037240631085105815 0.00030633153300830662 0 0.00035482213510071623 0.00030455823675041779 0 0.0003632293006806649 0.00028642257893474589 0 0.00041224670986553268 0.00079115961352916524 0 0.00042711563669325914 0.0007315772305397653 0 0.00038535269476311623 0.00077453964808092766 0 0.00046717045212873846 0.00077245234543703637 0 0.00041224670986553268 0.00079115961352916524 0 0.00042711563669325914 0.0007315772305397653 0 0.00045618459636619319 0.0015949435653946041 0 0.00053361264323641209 0.0016353735339881045 0 0.00041067747890815453 0.0016834988105114065 0 0.00042711563669325914 0.0007315772305397653 0 0.00034457281227321036 0.0007660189231563782 0 0.00038535269476311623 0.00077453964808092766 0 0.00048341978121661658 0.0012459582912388776 0 0.00041786173056109816 0.0013182853697665813 0 0.00039628005600196288 0.001637612156018574 0 0.00040845423186511987 0.0016694625492101425 0 0.00039831825012803178 0.0016734821826299539 0 0.00045037321997132811 0.0016725128676529214 0 0.00041786173056109816 0.0013182853697665813 0 0.00037041100672574904 0.0013849205461369627 0 0.00024719495795753774 0.00096498505739044213 0 0.00046878805520216471 0.0013501746666350464 0 0.00041786173056109816 0.0013182853697665813 0 0.0003473810370135505 0.0014539810932208054 0 0.00034457281227321036 0.0007660189231563782 0 0.00038535269476311623 0.00077453964808092766 0 0.0003576094541644787 0.00080919077810839759 0 0.00041224670986553268 0.00079115961352916524 0 0.00038535269476311623 0.00077453964808092766 0 0.0003576094541644787 0.00080919077810839759 0 0.00039865501604662181 0.00053453008864168554 0 0.00030838882677458292 0.0008999947158825493 0 0.00035482213510071623 0.00030455823675041779 0 0.00033870738425473837 0.00030189464830334908 0 0.00033716539263899364 0.00029788321758682815 0 0.00023675738900039587 0.0011819870923212663 0 0.00021693237912855912 0.0012091956965704918 0 0.00021906613807421045 0.0012161349326375314 0 0.00029427379158587471 0.00084565465164025656 0 0.00030838882677458292 0.0008999947158825493 0 0.00030838882677458292 0.0008999947158825493 0 0.0003473810370135505 0.0014539810932208054 0 0.00041786173056109816 0.0013182853697665813 0 0.00030838882677458292 0.0008999947158825493 0 0.00024047286751738444 0.0012230086289028975 0 0.00025941886398417362 0.0012284995981507857 0 0.00025321606669645485 0.0012469266202835283 0 0.00030838882677458292 0.0008999947158825493 0 0.00024103479786999723 0.0012264407219688385 0 0.00029857600476960907 0.0012323014773068439 0 0.00027222222466524899 0.0012148978010469698 0 0.00025941886398417362 0.0012284995981507857 0 0.00023675738900039587 0.0011819870923212663 0 0.00021906613807421045 0.0012161349326375314 0 0.00026278712354930886 0.0012075671149207549 0 0.00029857600476960907 0.0012323014773068439 0 0.00025941886398417362 0.0012284995981507857 0 0.00025321606669645485 0.0012469266202835283 0 0.00024047286751738444 0.0012230086289028975 0 0.00027222222466524899 0.0012148978010469698 0 0.00025941886398417362 0.0012284995981507857 0 0.00028455125919682001 0.0017420619900651189 0 0.00039520437186335328 0.0017037664168590718 0 0.0003409879062015223 0.0016788636953401761 0 0.00030312180606040327 0.0014553505418067215 0 0.0003473810370135505 0.0014539810932208054 0 0.00034948834217808438 0.001612581898842386 0 0.00039628005600196288 0.001637612156018574 0 0.00039831825012803178 0.0016734821826299539 0 0.00038659219793376682 0.0017016647271032787 0 0.0003473810370135505 0.0014539810932208054 0 0.00034948834217808438 0.001612581898842386 0 0.00039520437186335328 0.0017037664168590718 0 0.0003409879062015223 0.0016788636953401761 0 3.3621375615363447e-05 -0.00041709545156043025 0 -5.6461727334047727e-05 -0.00028211788632341285 0 0.00010694320228541346 -0.00033815515640545687 0 5.6630567681592616e-06 -0.00072697709209375836 0 -0.0001052564588697529 -0.001021433112554503 0 -0.00013070840006988797 -0.001413608196064578 0 -0.0001297373382757318 -0.0014120978222225795 0 -0.000131714437432507 -0.001412808423246854 0 3.3621375615363447e-05 -0.00041709545156043025 0 -5.6461727334047727e-05 -0.00028211788632341285 0 -4.4979816258603844e-05 -0.00053274126058309903 0 -0.00011956634989335583 -0.0017492151395266718 0 -0.00012584678425652592 -0.0021961788170592285 0 -0.00012584678425652592 -0.0021961788170592285 0 -0.0001515046620406438 -0.0028433404657017911 0 -0.00013100087371444567 -0.0014148790457215632 0 -0.00013070840006988797 -0.001413608196064578 0 -0.00013077738572765375 -0.0014141441310641933 0 -0.00014344915277495344 -0.0022207870095815713 0 -0.00014229154899698645 -0.0022186109146562823 0 -0.00014550833005983591 -0.00222348076804616 0 -0.00013100087371444567 -0.0014148790457215632 0 -0.00013070840006988797 -0.001413608196064578 0 -0.00012983254190235106 -0.0014142627984041324 0 -0.00013070840006988797 -0.001413608196064578 0 -0.00012983254190235106 -0.0014142627984041324 0 -0.0001297373382757318 -0.0014120978222225795 0 -0.000312405570984556 -0.0031791594465762148 0 -0.00031556459292071795 -0.0031927614110957947 0 -0.00019357319444299333 -0.0032399594445024992 0 -0.00012983254190235106 -0.0014142627984041324 0 -0.00012951640083440317 -0.0014142974104173617 0 -0.0001297373382757318 -0.0014120978222225795 0 9.1056205130768901e-05 -0.0018099448524255442 0 -5.9470427030534955e-05 -0.0026579239395058889 0 -0.00012584678425652592 -0.0021961788170592285 0 9.1056205130768901e-05 -0.0018099448524255442 0 9.1056205130768901e-05 -0.0018099448524255442 0 5.6630567681592616e-06 -0.00072697709209375836 0 9.1056205130768901e-05 -0.0018099448524255442 0 0.0002750561351523055 -0.0006278454050030241 0 5.6630567681592616e-06 -0.00072697709209375836 0 0.00020771258218690394 -6.0614244684715502e-05 0 7.7762420993192285e-05 -0.001146419085677038 0 0.00020260961512963427 -0.0010258682415047701 0 0.00021551821951065921 -0.0011935366587210977 0 0.00024484555570378539 0.00022849537995596402 0 0.00030024116152263769 0.00025727179715515525 0 0.00032776664726223091 0.00020788402328788757 0 0.00024129897293725057 0.00026870893218030131 0 0.00024484555570378539 0.00022849537995596402 0 0.00030024116152263769 0.00025727179715515525 0 0.0002750561351523055 -0.0006278454050030241 0 5.6630567681592616e-06 -0.00072697709209375836 0 0.00030024116152263769 0.00025727179715515525 0 0.00035852003817095563 0.00026534644685564284 0 0.00032776664726223091 0.00020788402328788757 0 0.00035852003817095563 0.00026534644685564284 0 0.00040433940152603169 0.0001862077762360877 0 0.00032776664726223091 0.00020788402328788757 0 0.00051724675698901635 0.00095215264277024572 0 0.00045058154931683521 0.00052951928822918281 0 0.00060774276110645324 0.001464684653998924 0 0.00071206160679122279 0.001479061094454255 0 0.00065793854957952073 0.0015803375902748453 0 0.00045058154931683521 0.00052951928822918281 0 0.00020771258218690394 -6.0614244684715502e-05 0 0.00025763866147528544 -0.00040479057796840673 0 0.0002411661555788374 -0.0004445046950767329 0 0.0001346395590531368 -0.00044141184883733609 0 0.00025763866147528544 -0.00040479057796840673 0 0.00010694320228541346 -0.00033815515640545687 0 0.0001346395590531368 -0.00044141184883733609 0 3.3621375615363447e-05 -0.00041709545156043025 0 0.0001346395590531368 -0.00044141184883733609 0 3.8539559664585853e-05 -0.00049065789732446021 0 3.3621375615363447e-05 -0.00041709545156043025 0 0.00010694320228541346 -0.00033815515640545687 0 0.0001346395590531368 -0.00044141184883733609 0 0.0001346395590531368 -0.00044141184883733609 0 5.1405377068723521e-05 -0.00056809032015705152 0 3.8539559664585853e-05 -0.00049065789732446021 0 0.0001346395590531368 -0.00044141184883733609 0 0.00015439596604191157 -0.00055225232564882294 0 5.1405377068723521e-05 -0.00056809032015705152 0 0.0002411661555788374 -0.0004445046950767329 0 0.0001346395590531368 -0.00044141184883733609 0 0.00015439596604191157 -0.00055225232564882294 0 0.00015439596604191157 -0.00055225232564882294 0 5.1405377068723521e-05 -0.00056809032015705152 0 0.00010563280303312668 -0.00067671492044892262 0 0.0002411661555788374 -0.0004445046950767329 0 0.00025800711982069453 -0.00046796251497071921 0 0.00025020077029744807 -0.00047911087579779793 0 0.0002411661555788374 -0.0004445046950767329 0 0.00015439596604191157 -0.00055225232564882294 0 0.00023044689280503312 -0.0006682457811178807 0 0.00024248069506283159 -0.00045899606582060524 0 0.00024367380090227725 -0.00056086289292147187 0 0.00028550457256994318 -0.0004740374167984456 0 0.00025763866147528544 -0.00040479057796840673 0 0.00025800711982069453 -0.00046796251497071921 0 0.00025763866147528544 -0.00040479057796840673 0 0.0002411661555788374 -0.0004445046950767329 0 0.00025800711982069453 -0.00046796251497071921 0 0.00025800711982069453 -0.00046796251497071921 0 0.00025776616740456865 -0.00047541454448047385 0 0.00025020077029744807 -0.00047911087579779793 0 0.00025717109580182122 -0.00048152273887976696 0 0.00025776616740456865 -0.00047541454448047385 0 0.00025020077029744807 -0.00047911087579779793 0 0.00015439596604191157 -0.00055225232564882294 0 0.00023044689280503312 -0.0006682457811178807 0 0.00010563280303312668 -0.00067671492044892262 0 0.0001212408377656303 -0.00078875058172928937 0 0.00023044689280503312 -0.0006682457811178807 0 0.00010563280303312668 -0.00067671492044892262 0 -0.00013277859795593963 -0.0014030938449558811 0 -0.000131714437432507 -0.001412808423246854 0 -0.00012990004268074708 -0.0014123874581796489 0 -4.4075054333641895e-05 -0.0010056292745739704 0 6.2058910413651417e-05 -0.00050122128766228 0 -2.7993303016504464e-05 -0.00081717317290971923 0 5.1405377068723521e-05 -0.00056809032015705152 0 -4.4979816258603844e-05 -0.00053274126058309903 0 -2.7601546156561757e-05 -0.00080650551819909757 0 5.1405377068723521e-05 -0.00056809032015705152 0 0.00010563280303312668 -0.00067671492044892262 0 -4.4075054333641895e-05 -0.0010056292745739704 0 -0.0001052564588697529 -0.001021433112554503 0 -0.00013070840006988797 -0.001413608196064578 0 -0.000131714437432507 -0.001412808423246854 0 -0.00013077738572765375 -0.0014141441310641933 0 3.3621375615363447e-05 -0.00041709545156043025 0 -4.4979816258603844e-05 -0.00053274126058309903 0 3.8539559664585853e-05 -0.00049065789732446021 0 5.1405377068723521e-05 -0.00056809032015705152 0 -4.4979816258603844e-05 -0.00053274126058309903 0 3.8539559664585853e-05 -0.00049065789732446021 0 -0.00011956634989335583 -0.0017492151395266718 0 -0.00019077394301937075 -0.0018896435313828228 0 -0.00013100087371444567 -0.0014148790457215632 0 -0.00013077738572765375 -0.0014141441310641933 0 -0.00013017452338411338 -0.0014150033888456837 0 -0.00014344915277495344 -0.0022207870095815713 0 -0.00014496479141185603 -0.0022212539289402315 0 -0.00014550833005983591 -0.00222348076804616 0 -0.000131714437432507 -0.001412808423246854 0 -0.00013077738572765375 -0.0014141441310641933 0 -0.00012990004268074708 -0.0014123874581796489 0 -0.00013077738572765375 -0.0014141441310641933 0 -0.00013017452338411338 -0.0014150033888456837 0 -0.00012990004268074708 -0.0014123874581796489 0 -0.00019077394301937075 -0.0018896435313828228 0 -0.00024389459370256707 -0.001462755532830842 0 -0.00019077394301937075 -0.0018896435313828228 0 -0.00020731038276036224 -0.0017600822158977522 0 -0.00013277859795593963 -0.0014030938449558811 0 -0.00012854526849892048 -0.0014062093132992187 0 -0.00012990004268074708 -0.0014123874581796489 0 -0.00012588741814047383 -0.0014193878945447218 0 -0.00012990004268074708 -0.0014123874581796489 0 -0.00012411153791539511 -0.001408000894952854 0 -0.00012854526849892048 -0.0014062093132992187 0 -0.00012990004268074708 -0.0014123874581796489 0 -0.00012411153791539511 -0.001408000894952854 0 -0.00027952648957880322 -0.0020927874168287317 0 -0.00012364969717966766 -0.0021430521921300635 0 -0.00018521157346039772 -0.0023384559447393563 0 -0.00036010523569193558 -0.0024492924507823351 0 -0.00027952648957880322 -0.0020927874168287317 0 -0.00018521157346039772 -0.0023384559447393563 0 -2.6699808622347026e-05 -0.0020238861461606026 0 -0.00012364969717966766 -0.0021430521921300635 0 1.9752130397831103e-05 -0.0023821322479578061 0 -0.00012364969717966766 -0.0021430521921300635 0 -0.00018521157346039772 -0.0023384559447393563 0 1.9752130397831103e-05 -0.0023821322479578061 0 -1.7484231413421314e-05 -0.0029154417953194773 0 9.1504273192306691e-05 -0.0030330503308008557 0 1.088308897738124e-05 -0.0031266823869730981 0 -8.5985321134673931e-05 -0.0023826216260099749 0 4.5062604813405565e-05 -0.0029133639868910372 0 9.1504273192306691e-05 -0.0030330503308008557 0 2.2427101856941823e-05 -0.0031268766290261088 0 0.00018563584415270701 -0.0031541907670164611 0 3.4255757753979446e-05 -0.0030654102527089251 0 4.5062604813405565e-05 -0.0029133639868910372 0 2.2427101856941823e-05 -0.0031268766290261088 0 5.4578145829487461e-05 -0.0032999140895500576 0 0.00012414626452835403 -0.0032877549020733409 0 2.2427101856941823e-05 -0.0031268766290261088 0 0.00012414626452835403 -0.0032877549020733409 0 0.00018563584415270701 -0.0031541907670164611 0 4.5062604813405565e-05 -0.0029133639868910372 0 5.6097325117353993e-05 -0.003368076523184401 0 3.3873451465709305e-05 -0.0031242855336873674 0 -6.3698815963560647e-05 -0.0032433815613191748 0 5.4578145829487461e-05 -0.0032999140895500576 0 -0.00036010523569193558 -0.0024492924507823351 0 -0.00018521157346039772 -0.0023384559447393563 0 -0.00018436615406563803 -0.0026226574353120568 0 -0.00018521157346039772 -0.0023384559447393563 0 1.9752130397831103e-05 -0.0023821322479578061 0 -0.00018436615406563803 -0.0026226574353120568 0 4.5062604813405565e-05 -0.0029133639868910372 0 -0.0001515046620406438 -0.0028433404657017911 0 -0.00019077394301937075 -0.0018896435313828228 0 -0.0001515046620406438 -0.0028433404657017911 0 -0.000312405570984556 -0.0031791594465762148 0 -0.00019580641629725139 -0.0030297554525583479 0 -0.00020044527409540883 -0.0031559752951714655 0 -0.00019580641629725139 -0.0030297554525583479 0 -9.9809968350614151e-05 -0.0031701763565116425 0 -0.00020044527409540883 -0.0031559752951714655 0 -6.3698815963560647e-05 -0.0032433815613191748 0 5.4578145829487461e-05 -0.0032999140895500576 0 8.4570595954452032e-05 -0.0033762690454576458 0 -0.0001515046620406438 -0.0028433404657017911 0 3.8885008920775554e-05 -0.0033331843559384657 0 -0.00019580641629725139 -0.0030297554525583479 0 -9.9809968350614151e-05 -0.0031701763565116425 0 -4.862423490573389e-05 -0.0031793247119809714 0 9.8609814255749934e-05 -0.0033304500067478115 0 0.00013401256370091023 -0.00334191451747858 0 0.00012414626452835403 -0.0032877549020733409 0 9.8609814255749934e-05 -0.0033304500067478115 0 5.4578145829487461e-05 -0.0032999140895500576 0 0.00012414626452835403 -0.0032877549020733409 0 9.8609814255749934e-05 -0.0033304500067478115 0 5.4578145829487461e-05 -0.0032999140895500576 0 8.4570595954452032e-05 -0.0033762690454576458 0 -4.862423490573389e-05 -0.0031793247119809714 0 -7.9952648449875077e-05 -0.0034396268554036354 0 4.8641800462019135e-05 -0.0034037018739416962 0 -9.9809968350614151e-05 -0.0031701763565116425 0 -0.00019357319444299333 -0.0032399594445024992 0 -8.2448399607489413e-05 -0.0032782117053635294 0 -9.9809968350614151e-05 -0.0031701763565116425 0 -4.862423490573389e-05 -0.0031793247119809714 0 -7.9952648449875077e-05 -0.0034396268554036354 0 -6.8329950667100897e-05 -0.0033361875210033217 0 -0.00022109463671732792 -0.0029656792352029749 0 9.8609814255749934e-05 -0.0033304500067478115 0 8.4570595954452032e-05 -0.0033762690454576458 0 0.00012289195224738614 -0.0033668034383714631 0 -0.000312405570984556 -0.0031791594465762148 0 -0.00019357319444299333 -0.0032399594445024992 0 -0.00020044527409540883 -0.0031559752951714655 0 -9.9809968350614151e-05 -0.0031701763565116425 0 -0.00019357319444299333 -0.0032399594445024992 0 -0.00020044527409540883 -0.0031559752951714655 0 0.00023623895660999651 -0.0033786508041696796 0 0.00019410637233067791 -0.003420999756981988 0 0.000192437417509186 -0.0033726707422269348 0 0.00023623895660999651 -0.0033786508041696796 0 0.000192437417509186 -0.0033726707422269348 0 0.00022135946945407871 -0.0033328491464667885 0 0.00029294616030248627 -0.003385372528022824 0 0.00027198071865554377 -0.003337634368093474 0 0.00033065391125682161 -0.003338204930635782 0 0.00023623895660999651 -0.0033786508041696796 0 0.00029294616030248627 -0.003385372528022824 0 0.00027198071865554377 -0.003337634368093474 0 0.00023623895660999651 -0.0033786508041696796 0 0.00029294616030248627 -0.003385372528022824 0 0.00024948457129645064 -0.0034239778254918571 0 0.00029294616030248627 -0.003385372528022824 0 0.00024948457129645064 -0.0034239778254918571 0 0.00031861842783709307 -0.0034391826120654246 0 0.00023623895660999651 -0.0033786508041696796 0 0.00024948457129645064 -0.0034239778254918571 0 0.00019410637233067791 -0.003420999756981988 0 0.00024948457129645064 -0.0034239778254918571 0 0.00019410637233067791 -0.003420999756981988 0 0.00021719861465782043 -0.0034487603817569428 0 -4.862423490573389e-05 -0.0031793247119809714 0 4.8641800462019135e-05 -0.0034037018739416962 0 0.00018253926099397929 -0.0034667748349263569 0 3.8885008920775554e-05 -0.0033331843559384657 0 0.00016110057290935595 -0.0034327553419048456 0 0.00019410637233067791 -0.003420999756981988 0 0.00014528946277255817 -0.0034042254668095713 0 0.00018253926099397929 -0.0034667748349263569 0 8.4570595954452032e-05 -0.0033762690454576458 0 0.00014528946277255817 -0.0034042254668095713 0 0.00018253926099397929 -0.0034667748349263569 0 0.00019410637233067791 -0.003420999756981988 0 0.00014528946277255817 -0.0034042254668095713 0 0.0001709579242801972 -0.0033928862385450629 0 8.4570595954452032e-05 -0.0033762690454576458 0 0.00014528946277255817 -0.0034042254668095713 0 0.00012289195224738614 -0.0033668034383714631 0 0.00014528946277255817 -0.0034042254668095713 0 0.00015203820977293319 -0.0033735652883013132 0 0.0001709579242801972 -0.0033928862385450629 0 0.00014528946277255817 -0.0034042254668095713 0 0.00015203820977293319 -0.0033735652883013132 0 0.00012289195224738614 -0.0033668034383714631 0 0.00015203820977293319 -0.0033735652883013132 0 0.00012289195224738614 -0.0033668034383714631 0 0.00013401256370091023 -0.00334191451747858 0 0.00019410637233067791 -0.003420999756981988 0 0.0001709579242801972 -0.0033928862385450629 0 0.000192437417509186 -0.0033726707422269348 0 0.00015203820977293319 -0.0033735652883013132 0 0.0001709579242801972 -0.0033928862385450629 0 0.000192437417509186 -0.0033726707422269348 0 0.00015203820977293319 -0.0033735652883013132 0 0.000192437417509186 -0.0033726707422269348 0 0.00017242553760713478 -0.0033339972125410525 0 0.000192437417509186 -0.0033726707422269348 0 0.00017242553760713478 -0.0033339972125410525 0 0.00022135946945407871 -0.0033328491464667885 0 0.00012414626452835403 -0.0032877549020733409 0 0.00020109931672696163 -0.0032958398782644434 0 0.00026785339982757494 -0.0032482058675434699 0 0.00017242553760713478 -0.0033339972125410525 0 0.00020109931672696163 -0.0032958398782644434 0 0.00022135946945407871 -0.0033328491464667885 0 0.00013658758616169123 -0.0032854066759252774 0 0.0003011289423605403 -0.0032422212916497499 0 0.00017242553760713478 -0.0033339972125410525 0 0.00012414626452835403 -0.0032877549020733409 0 0.00020109931672696163 -0.0032958398782644434 0 0.00017242553760713478 -0.0033339972125410525 0 0.00013401256370091023 -0.00334191451747858 0 0.00012414626452835403 -0.0032877549020733409 0 9.8609814255749934e-05 -0.0033304500067478115 0 0.00012289195224738614 -0.0033668034383714631 0 0.00013401256370091023 -0.00334191451747858 0 0.00015203820977293319 -0.0033735652883013132 0 0.00017242553760713478 -0.0033339972125410525 0 0.00013401256370091023 -0.00334191451747858 0 0.00020109931672696163 -0.0032958398782644434 0 0.00025086248413936849 -0.0033011698144519257 0 0.00026785339982757494 -0.0032482058675434699 0 0.00023623895660999651 -0.0033786508041696796 0 0.00022135946945407871 -0.0033328491464667885 0 0.00027198071865554377 -0.003337634368093474 0 0.00020109931672696163 -0.0032958398782644434 0 0.00025086248413936849 -0.0033011698144519257 0 0.00022135946945407871 -0.0033328491464667885 0 0.00025086248413936849 -0.0033011698144519257 0 0.00022135946945407871 -0.0033328491464667885 0 0.00027198071865554377 -0.003337634368093474 0 0.00027198071865554377 -0.003337634368093474 0 0.00029267191951722917 -0.0033045598589703635 0 0.00033065391125682161 -0.003338204930635782 0 0.00025086248413936849 -0.0033011698144519257 0 0.00027198071865554377 -0.003337634368093474 0 0.00029267191951722917 -0.0033045598589703635 0 0.00025086248413936849 -0.0033011698144519257 0 0.00029267191951722917 -0.0033045598589703635 0 0.00026785339982757494 -0.0032482058675434699 0 0.00029267191951722917 -0.0033045598589703635 0 0.00026785339982757494 -0.0032482058675434699 0 0.00034768208160086976 -0.0032878656389637969 0 0.00034327964718814877 -0.0032344373735798404 0 0.00030389484427880271 -0.0031682796586773921 0 0.00018563584415270701 -0.0031541907670164611 0 0.00034327964718814877 -0.0032344373735798404 0 0.00030389484427880271 -0.0031682796586773921 0 0.00038876655498075295 -0.0031681807013714011 0 0.00012414626452835403 -0.0032877549020733409 0 0.00034327964718814877 -0.0032344373735798404 0 0.00018563584415270701 -0.0031541907670164611 0 0.00030389484427880271 -0.0031682796586773921 0 0.00018563584415270701 -0.0031541907670164611 0 0.00022329428200710524 -0.0030494366882119358 0 0.00017520351190702986 -0.0028932608927057617 0 9.1504273192306691e-05 -0.0030330503308008557 0 0.00022329428200710524 -0.0030494366882119358 0 9.1504273192306691e-05 -0.0030330503308008557 0 0.00018563584415270701 -0.0031541907670164611 0 0.00022329428200710524 -0.0030494366882119358 0 0.0003830157106603858 -0.0031165167105784626 0 0.00030389484427880271 -0.0031682796586773921 0 0.00038876655498075295 -0.0031681807013714011 0 0.00042024268865492354 -0.0029552014131527817 0 0.00028820104862186963 -0.0029216460472360822 0 0.00022329428200710524 -0.0030494366882119358 0 0.00042024268865492354 -0.0029552014131527817 0 0.00030389484427880271 -0.0031682796586773921 0 0.00022329428200710524 -0.0030494366882119358 0 0.00039588804114319248 -0.0030408147264883241 0 0.00031244436954817894 -0.0031623279551763589 0 0.0003830157106603858 -0.0031165167105784626 0 0.00038876655498075295 -0.0031681807013714011 0 0.00044843141555166708 -0.0031283104983924788 0 0.00038876655498075295 -0.0031681807013714011 0 0.00044843141555166708 -0.0031283104983924788 0 0.00044895387981122402 -0.003202067551013934 0 0.00048853281202222742 -0.0031565470095892912 0 0.00044843141555166708 -0.0031283104983924788 0 0.00044895387981122402 -0.003202067551013934 0 0.00048853281202222742 -0.0031565470095892912 0 0.00044895387981122402 -0.003202067551013934 0 0.000537950436813505 -0.0031884473750075598 0 0.00051201704503094547 -0.0031208867526420518 0 0.00048853281202222742 -0.0031565470095892912 0 0.00044843141555166708 -0.0031283104983924788 0 0.00043531625603853265 -0.00320894667812278 0 0.00053169029480713956 -0.0031881985266961526 0 0.00041898464959817008 -0.0032150280729483453 0 0.000537950436813505 -0.0031884473750075598 0 0.00049887244788584162 -0.0032710098770549704 0 0.0003011289423605403 -0.0032422212916497499 0 0.00043531625603853265 -0.00320894667812278 0 0.00026785339982757494 -0.0032482058675434699 0 0.00041898464959817008 -0.0032150280729483453 0 0.00034768208160086976 -0.0032878656389637969 0 0.00034327964718814877 -0.0032344373735798404 0 0.00038876655498075295 -0.0031681807013714011 0 0.00044895387981122402 -0.003202067551013934 0 0.00056016596643217729 -0.0031136386751858063 0 0.00060693888815342354 -0.0031703528464028788 0 0.000537950436813505 -0.0031884473750075598 0 0.00051201704503094547 -0.0031208867526420518 0 0.00048853281202222742 -0.0031565470095892912 0 0.000537950436813505 -0.0031884473750075598 0 0.00056016596643217729 -0.0031136386751858063 0 0.00051201704503094547 -0.0031208867526420518 0 0.000537950436813505 -0.0031884473750075598 0 0.000537950436813505 -0.0031884473750075598 0 0.00057528314346434913 -0.0032597547542897506 0 0.00049887244788584162 -0.0032710098770549704 0 0.00060693888815342354 -0.0031703528464028788 0 0.000537950436813505 -0.0031884473750075598 0 0.00057528314346434913 -0.0032597547542897506 0 0.0002664401058433502 -0.0040036435709138955 0 0.00027866395720814468 -0.0040771387503620521 0 0.00031881451179639357 -0.004000129298671857 0 0.00039656363396326286 -0.0035397364702189015 0 0.00044303894499198227 -0.003654607810777187 0 0.0002664401058433502 -0.0040036435709138955 0 0.00031881451179639357 -0.004000129298671857 0 0.00033249782274735669 -0.0039394912030447961 0 0.00016357466282800894 -0.0046323780270498688 0 0.00016141332842645328 -0.0046217929682113197 0 0.00017800113400300588 -0.0046122054067119344 0 0.00022041105305644024 -0.0043064880464564158 0 0.00022981729085680408 -0.0043336571971269097 0 0.00031881451179639357 -0.004000129298671857 0 0.0003542072556547227 -0.0039381455024634325 0 0.00033249782274735669 -0.0039394912030447961 0 0.00057528314346434913 -0.0032597547542897506 0 0.00049887244788584162 -0.0032710098770549704 0 0.00053536263724085953 -0.0033776443123545671 0 0.00044303894499198227 -0.003654607810777187 0 0.00046692822744891682 -0.0036091727720763489 0 0.00046692822744891682 -0.0036091727720763489 0 0.00035887727271068245 -0.0039436545440268179 0 0.0003542072556547227 -0.0039381455024634325 0 0.00033249782274735669 -0.0039394912030447961 0 0.00038819837743221799 -0.0038863027317459884 0 0.00022981729085680408 -0.0043336571971269097 0 0.00035887727271068245 -0.0039436545440268179 0 0.00016141332842645328 -0.0046217929682113197 0 0.00017800113400300588 -0.0046122054067119344 0 0.00016613171063667632 -0.0045983341730354713 0 0.00041898464959817008 -0.0032150280729483453 0 0.00034768208160086976 -0.0032878656389637969 0 0.00041739957107104955 -0.0033277042311171466 0 0.00033065391125682161 -0.003338204930635782 0 0.00034768208160086976 -0.0032878656389637969 0 0.00041739957107104955 -0.0033277042311171466 0 0.00033065391125682161 -0.003338204930635782 0 0.00041739957107104955 -0.0033277042311171466 0 0.0003583435502794487 -0.0033887241278112799 0 0.00029267191951722917 -0.0033045598589703635 0 0.00033065391125682161 -0.003338204930635782 0 0.00034768208160086976 -0.0032878656389637969 0 0.00049887244788584162 -0.0032710098770549704 0 0.00053536263724085953 -0.0033776443123545671 0 0.00041739957107104955 -0.0033277042311171466 0 0.00041898464959817008 -0.0032150280729483453 0 0.00049887244788584162 -0.0032710098770549704 0 0.00041739957107104955 -0.0033277042311171466 0 0.00053536263724085953 -0.0033776443123545671 0 0.00042069001949237851 -0.0034360432663975886 0 0.00049009411451785521 -0.0035183226812896826 0 0.00053536263724085953 -0.0033776443123545671 0 0.00041739957107104955 -0.0033277042311171466 0 0.00042069001949237851 -0.0034360432663975886 0 0.00041739957107104955 -0.0033277042311171466 0 0.00042069001949237851 -0.0034360432663975886 0 0.0003583435502794487 -0.0033887241278112799 0 0.00042069001949237851 -0.0034360432663975886 0 0.0003583435502794487 -0.0033887241278112799 0 0.00031861842783709307 -0.0034391826120654246 0 0.00029294616030248627 -0.003385372528022824 0 0.00033065391125682161 -0.003338204930635782 0 0.0003583435502794487 -0.0033887241278112799 0 0.00029294616030248627 -0.003385372528022824 0 0.0003583435502794487 -0.0033887241278112799 0 0.00031861842783709307 -0.0034391826120654246 0 0.00031861842783709307 -0.0034391826120654246 0 0.00035860545469271085 -0.0035039780245166214 0 0.00024623233307705127 -0.003482945881292103 0 0.00035860545469271085 -0.0035039780245166214 0 0.00043302665672685978 -0.0035187132368183337 0 0.00040830354616426317 -0.0035935204678319379 0 0.00042069001949237851 -0.0034360432663975886 0 0.00035860545469271085 -0.0035039780245166214 0 0.00043302665672685978 -0.0035187132368183337 0 0.00042069001949237851 -0.0034360432663975886 0 0.00031861842783709307 -0.0034391826120654246 0 0.00035860545469271085 -0.0035039780245166214 0 0.00042069001949237851 -0.0034360432663975886 0 0.00049009411451785521 -0.0035183226812896826 0 0.00043302665672685978 -0.0035187132368183337 0 0.00035887727271068245 -0.0039436545440268179 0 0.00050153711741597043 -0.0037181562430863764 0 0.00049009411451785521 -0.0035183226812896826 0 0.00043302665672685978 -0.0035187132368183337 0 0.00047633585918780444 -0.003552729098194431 0 0.00043302665672685978 -0.0035187132368183337 0 0.00047633585918780444 -0.003552729098194431 0 0.00040830354616426317 -0.0035935204678319379 0 0.00035887727271068245 -0.0039436545440268179 0 0.00032333248285368809 -0.0041479485441296409 0 0.00047633585918780444 -0.003552729098194431 0 0.00045678095086898793 -0.0037017924298976771 0 0.00040830354616426317 -0.0035935204678319379 0 0.00019607219169266905 -0.0045831091453775227 0 0.00020866646899895969 -0.0045480922560365948 0 0.00018214109740264785 -0.0045603417052849987 0 0.00049517765949342132 -0.0035111815271116555 0 0.00047633585918780444 -0.003552729098194431 0 0.00045678095086898793 -0.0037017924298976771 0 0.00045678095086898793 -0.0037017924298976771 0 0.00033339855470018525 -0.0036308627527194192 0 0.00031748731152947635 -0.0037701011224298047 0 0.00035860545469271085 -0.0035039780245166214 0 0.00033339855470018525 -0.0036308627527194192 0 0.00023979102853641232 -0.0035622036666607651 0 0.00035860545469271085 -0.0035039780245166214 0 0.00033339855470018525 -0.0036308627527194192 0 0.00040830354616426317 -0.0035935204678319379 0 0.00045678095086898793 -0.0037017924298976771 0 0.00033339855470018525 -0.0036308627527194192 0 0.00040830354616426317 -0.0035935204678319379 0 0.00016613171063667632 -0.0045983341730354713 0 0.00017801029440060365 -0.0045867895324421901 0 0.00016850606553232584 -0.0045763018937245558 0 0.00017800113400300588 -0.0046122054067119344 0 0.00016613171063667632 -0.0045983341730354713 0 0.00017801029440060365 -0.0045867895324421901 0 0.00019607219169266905 -0.0045831091453775227 0 0.00017801029440060365 -0.0045867895324421901 0 0.00018214109740264785 -0.0045603417052849987 0 0.00017800113400300588 -0.0046122054067119344 0 0.00019607219169266905 -0.0045831091453775227 0 0.00017801029440060365 -0.0045867895324421901 0 0.00017801029440060365 -0.0045867895324421901 0 0.00018214109740264785 -0.0045603417052849987 0 0.00016850606553232584 -0.0045763018937245558 0 0.00018214109740264785 -0.0045603417052849987 0 0.00016850606553232584 -0.0045763018937245558 0 0.00016905351699743871 -0.0045537811301234023 0 0.00016850606553232584 -0.0045763018937245558 0 0.00016261862408827732 -0.004578552721655982 0 0.00016905351699743871 -0.0045537811301234023 0 0.00016613171063667632 -0.0045983341730354713 0 0.00016850606553232584 -0.0045763018937245558 0 0.00016400453758607452 -0.0045865349591570738 0 0.00016850606553232584 -0.0045763018937245558 0 0.00016400453758607452 -0.0045865349591570738 0 0.00016261862408827732 -0.004578552721655982 0 0.0001666101393659584 -0.0045948001170304249 0 0.00016261862408827732 -0.004578552721655982 0 0.00016324940619791983 -0.0045343513624000395 0 0.00017186339675311085 -0.0045864478585789532 0 0.00018929353702849496 -0.0045722483229130827 0 0.00016261862408827732 -0.004578552721655982 0 0.00016905351699743871 -0.0045537811301234023 0 0.00016324940619791983 -0.0045343513624000395 0 0.00016905351699743871 -0.0045537811301234023 0 0.00016324940619791983 -0.0045343513624000395 0 0.00017822086563412572 -0.0045201978133280248 0 0.00018214109740264785 -0.0045603417052849987 0 0.00016905351699743871 -0.0045537811301234023 0 0.00017822086563412572 -0.0045201978133280248 0 0.00023424265929958683 -0.0045686400830865954 0 0.00021593367236129703 -0.0045907181971842608 0 0.00025764240595869357 -0.0045736436473345007 0 0.00018929353702849496 -0.0045722483229130827 0 0.00022279235817378398 -0.0044558820269427193 0 0.00023424265929958683 -0.0045686400830865954 0 0.00022021724830716073 -0.0045629080133800905 0 0.00021593367236129703 -0.0045907181971842608 0 0.00016324940619791983 -0.0045343513624000395 0 0.00017822086563412572 -0.0045201978133280248 0 0.00018374802992534764 -0.0044816763882357885 0 0.00018386975442477905 -0.0045859070713462746 0 0.00019334897575346772 -0.0045708648400617407 0 0.00021593367236129703 -0.0045907181971842608 0 0.00019334897575346772 -0.0045708648400617407 0 0.00022021724830716073 -0.0045629080133800905 0 0.00021593367236129703 -0.0045907181971842608 0 0.00020866646899895969 -0.0045480922560365948 0 0.00018525243703523819 -0.0044768004106478512 0 0.0002410950612833808 -0.0044684905317017142 0 0.00032333248285368809 -0.0041479485441296409 0 0.00030042509930059086 -0.0042188952558667378 0 0.00045678095086898793 -0.0037017924298976771 0 0.00031748731152947635 -0.0037701011224298047 0 0.00037547578051923025 -0.0039701219823715678 0 0.00020866646899895969 -0.0045480922560365948 0 0.00018214109740264785 -0.0045603417052849987 0 0.00017822086563412572 -0.0045201978133280248 0 0.00020866646899895969 -0.0045480922560365948 0 0.00017822086563412572 -0.0045201978133280248 0 0.00018525243703523819 -0.0044768004106478512 0 0.00017822086563412572 -0.0045201978133280248 0 0.00018525243703523819 -0.0044768004106478512 0 0.00018374802992534764 -0.0044816763882357885 0 0.00018689379456174904 -0.0044565293188023117 0 0.00022279235817378398 -0.0044558820269427193 0 0.00018525243703523819 -0.0044768004106478512 0 0.00013940745805279532 -0.0043984549985348611 0 0.0002133581248815458 -0.00441130394208072 0 0.00023019517603929066 -0.004300064158038565 0 0.0002133581248815458 -0.00441130394208072 0 0.0002410950612833808 -0.0044684905317017142 0 0.00021135594042516633 -0.0043554611012379596 0 0.00013940745805279532 -0.0043984549985348611 0 0.0002133581248815458 -0.00441130394208072 0 0.00018525243703523819 -0.0044768004106478512 0 0.0002133581248815458 -0.00441130394208072 0 0.0002410950612833808 -0.0044684905317017142 0 0.00023596374479332874 -0.0043048964732212806 0 0.00030042509930059086 -0.0042188952558667378 0 0.00023019517603929066 -0.004300064158038565 0 0.00037547578051923025 -0.0039701219823715678 0 0.00022495033525460697 -0.004073733668734713 0 0.00023019517603929066 -0.004300064158038565 0 0.00014876939227706159 -0.0041569030867702724 0 0.00022495033525460697 -0.004073733668734713 0 0.00014876939227706159 -0.0041569030867702724 0 0.00013742298138335666 -0.0040363702696754504 0 0.00022495033525460697 -0.004073733668734713 0 0.00014876939227706159 -0.0041569030867702724 0 0.00013742298138335666 -0.0040363702696754504 0 6.2033604330144067e-05 -0.0041112577688173484 0 0.00013742298138335666 -0.0040363702696754504 0 0.00022495033525460697 -0.004073733668734713 0 0.00023716864797627369 -0.0039169477579129291 0 0.00013742298138335666 -0.0040363702696754504 0 0.00012999303501422219 -0.0039299683249801 0 8.3134895925307447e-05 -0.0039816807319498293 0 0.00037547578051923025 -0.0039701219823715678 0 0.00022495033525460697 -0.004073733668734713 0 0.00023716864797627369 -0.0039169477579129291 0 0.00031748731152947635 -0.0037701011224298047 0 0.00037547578051923025 -0.0039701219823715678 0 0.00023716864797627369 -0.0039169477579129291 0 0.00013742298138335666 -0.0040363702696754504 0 0.00023716864797627369 -0.0039169477579129291 0 0.00012999303501422219 -0.0039299683249801 0 0.00023716864797627369 -0.0039169477579129291 0 0.00012999303501422219 -0.0039299683249801 0 0.0001337716754417818 -0.0038163815475911076 0 0.00031748731152947635 -0.0037701011224298047 0 0.0001337716754417818 -0.0038163815475911076 0 0.00021324739967974114 -0.0036907545001750291 0 0.00031748731152947635 -0.0037701011224298047 0 0.00023716864797627369 -0.0039169477579129291 0 0.0001337716754417818 -0.0038163815475911076 0 -1.0851773521313018e-05 -0.0037843620683437628 0 2.8089176117194167e-05 -0.0039406567036216833 0 -8.1616239645248943e-05 -0.0040283433257950344 0 -1.0851773521313018e-05 -0.0037843620683437628 0 -8.1616239645248943e-05 -0.0040283433257950344 0 -0.00015089834202776915 -0.0036992165088961036 0 0.0001337716754417818 -0.0038163815475911076 0 -1.0851773521313018e-05 -0.0037843620683437628 0 7.7665114254213996e-05 -0.0036466230122064575 0 0.0001337716754417818 -0.0038163815475911076 0 -1.0851773521313018e-05 -0.0037843620683437628 0 2.8089176117194167e-05 -0.0039406567036216833 0 0.00012999303501422219 -0.0039299683249801 0 0.0001337716754417818 -0.0038163815475911076 0 2.8089176117194167e-05 -0.0039406567036216833 0 0.00012999303501422219 -0.0039299683249801 0 2.8089176117194167e-05 -0.0039406567036216833 0 8.3134895925307447e-05 -0.0039816807319498293 0 -0.00030550491465735805 -0.00091040773092622071 0 -0.0004391354963163062 -0.00085187333596045277 0 -0.00042708201516185134 -0.0011440548225395825 0 -8.1616239645248943e-05 -0.0040283433257950344 0 4.2500208052235192e-05 -0.0040280550930393531 0 6.2033604330144067e-05 -0.0041112577688173484 0 2.8089176117194167e-05 -0.0039406567036216833 0 -8.1616239645248943e-05 -0.0040283433257950344 0 4.2500208052235192e-05 -0.0040280550930393531 0 0.00013742298138335666 -0.0040363702696754504 0 8.3134895925307447e-05 -0.0039816807319498293 0 4.2500208052235192e-05 -0.0040280550930393531 0 2.8089176117194167e-05 -0.0039406567036216833 0 8.3134895925307447e-05 -0.0039816807319498293 0 4.2500208052235192e-05 -0.0040280550930393531 0 0.00013742298138335666 -0.0040363702696754504 0 4.2500208052235192e-05 -0.0040280550930393531 0 6.2033604330144067e-05 -0.0041112577688173484 0 5.4330664698454911e-05 -0.0042447729987938766 0 -8.1616239645248943e-05 -0.0040283433257950344 0 6.2033604330144067e-05 -0.0041112577688173484 0 5.4330664698454911e-05 -0.0042447729987938766 0 0.00014876939227706159 -0.0041569030867702724 0 6.2033604330144067e-05 -0.0041112577688173484 0 9.101510521153135e-05 -0.0035424664126523548 0 -0.00016813175383083829 -0.0025248588893585907 0 -0.00042708201516185134 -0.0011440548225395825 0 -0.00014396198746652989 -0.0010585423365708803 0 -0.00019798147685657253 -0.0012849204078609826 0 -0.00030550491465735805 -0.00091040773092622071 0 -0.00042708201516185134 -0.0011440548225395825 0 -0.00014396198746652989 -0.0010585423365708803 0 6.601699328367814e-05 -0.00091274775224731825 0 0.00017041660835142685 -0.0010509617377181995 0 4.4184332891933239e-05 -0.0010850281107316069 0 6.601699328367814e-05 -0.00091274775224731825 0 -0.00014396198746652989 -0.0010585423365708803 0 4.4184332891933239e-05 -0.0010850281107316069 0 -0.00014396198746652989 -0.0010585423365708803 0 4.4184332891933239e-05 -0.0010850281107316069 0 -1.5035448484567681e-05 -0.0012275360812284508 0 -0.00014396198746652989 -0.0010585423365708803 0 -1.5035448484567681e-05 -0.0012275360812284508 0 -0.00019798147685657253 -0.0012849204078609826 0 4.4184332891933239e-05 -0.0010850281107316069 0 0.0001182055799713529 -0.0011852814931033132 0 -1.5035448484567681e-05 -0.0012275360812284508 0 0.00017041660835142685 -0.0010509617377181995 0 4.4184332891933239e-05 -0.0010850281107316069 0 0.0001182055799713529 -0.0011852814931033132 0 0.00015588099929718041 -0.0013498860037271321 0 0.0001182055799713529 -0.0011852814931033132 0 -1.5035448484567681e-05 -0.0012275360812284508 0 0.00015588099929718041 -0.0013498860037271321 0 -1.5035448484567681e-05 -0.0012275360812284508 0 -5.6042966791864172e-05 -0.0014537441541217421 0 -1.5035448484567681e-05 -0.0012275360812284508 0 -5.6042966791864172e-05 -0.0014537441541217421 0 -0.00019798147685657253 -0.0012849204078609826 0 0.00015588099929718041 -0.0013498860037271321 0 0.00014819285855274553 -0.0015920195263031927 0 -5.6042966791864172e-05 -0.0014537441541217421 0 -0.00042708201516185134 -0.0011440548225395825 0 -0.00019798147685657253 -0.0012849204078609826 0 -0.00034199898274843763 -0.0015392987426022721 0 -5.6042966791864172e-05 -0.0014537441541217421 0 -0.00019798147685657253 -0.0012849204078609826 0 -0.00034199898274843763 -0.0015392987426022721 0 -0.00016813175383083829 -0.0025248588893585907 0 -0.00025851908618726194 -0.0025737390448497752 0 -0.00034199898274843763 -0.0015392987426022721 0 -6.3371066962333912e-05 -0.0017289038433788795 0 -0.00026420057758535132 -0.0019353026600653508 0 -5.6042966791864172e-05 -0.0014537441541217421 0 -0.00034199898274843763 -0.0015392987426022721 0 -6.3371066962333912e-05 -0.0017289038433788795 0 -0.00025851908618726194 -0.0025737390448497752 0 -0.00022109463671732792 -0.0029656792352029749 0 -0.00015089834202776915 -0.0036992165088961036 0 -0.00021641704466742172 -0.0033743995034463048 0 -5.8341946005203402e-05 -0.0035933325264647003 0 0.00014819285855274553 -0.0015920195263031927 0 -5.6042966791864172e-05 -0.0014537441541217421 0 -6.3371066962333912e-05 -0.0017289038433788795 0 0.0001792400823403425 -0.0018508277770672092 0 0.00014819285855274553 -0.0015920195263031927 0 -6.3371066962333912e-05 -0.0017289038433788795 0 3.8469316512604782e-05 -0.0020364330412966473 0 -6.3371066962333912e-05 -0.0017289038433788795 0 -0.00026420057758535132 -0.0019353026600653508 0 0.0001792400823403425 -0.0018508277770672092 0 3.8469316512604782e-05 -0.0020364330412966473 0 -6.3371066962333912e-05 -0.0017289038433788795 0 -5.9470427030534955e-05 -0.0026579239395058889 0 -0.00022109463671732792 -0.0029656792352029749 0 -0.00021641704466742172 -0.0033743995034463048 0 9.5083824143443276e-06 -0.0034589005395940947 0 -5.8341946005203402e-05 -0.0035933325264647003 0 0.00013684406141237685 -0.0035180475462212053 0 0.00018253926099397929 -0.0034667748349263569 0 0.00023979102853641232 -0.0035622036666607651 0 4.8641800462019135e-05 -0.0034037018739416962 0 0.00013684406141237685 -0.0035180475462212053 0 0.00018253926099397929 -0.0034667748349263569 0 -7.9952648449875077e-05 -0.0034396268554036354 0 4.8641800462019135e-05 -0.0034037018739416962 0 0.00013684406141237685 -0.0035180475462212053 0 -0.00022109463671732792 -0.0029656792352029749 0 0.00010844111570020997 -0.0034978858891720481 0 0.00019410637233067791 -0.003420999756981988 0 0.00018253926099397929 -0.0034667748349263569 0 0.00021719861465782043 -0.0034487603817569428 0 0.00010844111570020997 -0.0034978858891720481 0 0.00020886203179504062 -0.003546023414193823 0 0.00024948457129645064 -0.0034239778254918571 0 0.00024623233307705127 -0.003482945881292103 0 0.00021719861465782043 -0.0034487603817569428 0 0.00018253926099397929 -0.0034667748349263569 0 0.00024623233307705127 -0.003482945881292103 0 0.00021719861465782043 -0.0034487603817569428 0 0.00024948457129645064 -0.0034239778254918571 0 0.00031861842783709307 -0.0034391826120654246 0 0.00024623233307705127 -0.003482945881292103 0 0.00035860545469271085 -0.0035039780245166214 0 0.00024623233307705127 -0.003482945881292103 0 0.00023979102853641232 -0.0035622036666607651 0 0.00018253926099397929 -0.0034667748349263569 0 0.00024623233307705127 -0.003482945881292103 0 0.00023979102853641232 -0.0035622036666607651 0 0.00023979102853641232 -0.0035622036666607651 0 0.00021324739967974114 -0.0036907545001750291 0 7.7665114254213996e-05 -0.0036466230122064575 0 0.00033339855470018525 -0.0036308627527194192 0 0.00023979102853641232 -0.0035622036666607651 0 0.00021324739967974114 -0.0036907545001750291 0 0.00033339855470018525 -0.0036308627527194192 0 0.00031748731152947635 -0.0037701011224298047 0 0.00021324739967974114 -0.0036907545001750291 0 0.0001337716754417818 -0.0038163815475911076 0 0.00021324739967974114 -0.0036907545001750291 0 7.7665114254213996e-05 -0.0036466230122064575 0 9.5083824143443276e-06 -0.0034589005395940947 0 0.00023979102853641232 -0.0035622036666607651 0 7.7665114254213996e-05 -0.0036466230122064575 0 -1.0851773521313018e-05 -0.0037843620683437628 0 7.7665114254213996e-05 -0.0036466230122064575 0 -5.8341946005203402e-05 -0.0035933325264647003 0 -1.0851773521313018e-05 -0.0037843620683437628 0 -0.00015089834202776915 -0.0036992165088961036 0 -5.8341946005203402e-05 -0.0035933325264647003 0 9.5083824143443276e-06 -0.0034589005395940947 0 7.7665114254213996e-05 -0.0036466230122064575 0 -5.8341946005203402e-05 -0.0035933325264647003 0 
</DataArray>
</PointData>
<CellData Scalars="region_id,cross_section_updated," Vectors="" Tensors="stress,">
<DataArray type="Float64" Name="region_id" format="ascii">
5 5 5 5 5 6 5 5 5 5 6 5 5 6 5 5 6 5 5 6 6 5 5 5 5 5 5 5 5 5 5 6 5 5 6 5 5 5 5 5 5 5 6 6 5 5 5 5 5 6 5 5 5 5 6 6 5 5 5 5 5 6 5 5 6 5 5 5 5 6 5 5 5 6 5 5 5 5 5 5 5 5 5 5 5 5 5 5 5 5 5 5 5 5 6 5 5 5 5 5 5 5 6 5 5 5 5 5 5 5 5 5 5 5 5 6 5 5 5 5 5 5 5 5 5 5 5 5 5 5 5 5 5 6 5 5 6 5 6 5 5 5 5 6 5 5 5 5 5 5 5 5 5 5 5 5 5 5 6 5 5 5 5 5 5 5 5 5 5 5 5 5 5 5 5 6 5 5 5 5 5 6 5 5 5 5 6 5 5 5 5 5 5 5 5 6 5 5 6 5 5 5 5 6 5 5 5 5 5 5 5 5 5 5 5 5 5 5 5 5 5 5 5 5 5 5 5 5 6 5 5 5 5 5 5 5 5 5 5 5 5 5 5 5 5 5 5 5 5 5 5 5 5 5 5 6 5 6 5 5 5 5 6 5 5 5 5 5 6 5 5 5 5 5 5 6 5 5 6 6 5 5 6 5 5 5 5 6 5 5 6 5 5 5 5 6 5 5 5 5 6 5 5 5 5 6 5 5 6 5 5 5 6 5 6 5 5 5 5 5 5 5 5 5 5 5 6 5 5 6 5 5 6 6 5 5 5 6 5 6 5 5 5 5 5 6 5 6 5 5 5 5 5 5 5 5 5 5 5 5 6 5 6 5 5 6 6 5 5 5 5 5 5 6 5 6 5 5 5 5 6 5 5 5 5 5 5 5 5 5 5 5 5 5 5 5 5 5 5 5 5 5 5 5 5 5 5 5 5 5 5 5 5 5 5 5 5 6 5 5 5 5 5 5 5 6 5 5 5 6 5 5 5 6 5 5 5 5 5 5 5 5 5 5 5 6 5 6 5 5 5 5 5 5 5 5 5 5 5 5 5 6 5 5 6 5 5 5 5 5 5 5 5 5 5 5 5 5 5 5 5 5 5 5 5 5 5 5 5 5 5 5 5 6 6 5 5 5 5 5 5 5 5 5 5 5 5 5 5 5 5 5 5 5 5 6 5 5 6 5 5 5 6 5 6 5 6 6 5 5 5 5 5 5 5 5 6 5 5 5 5 5 5 5 5 5 5 5 5 5 5 5 5 5 5 5 5 6 5 5 5 5 5 5 5 5 6 6 5 5 5 5 5 5 5 5 6 5 5 5 5 6 6 5 5 6 5 5 5 6 5 5 5 5 6 6 5 5 6 5 6 6 5 5 5 5 6 5 6 5 6 5 5 6 5 6 5 5 5 6 5 6 5 5 5 5 5 5 5 5 6 5 5 5 5 5 5 5 5 6 5 5 6 5 5 6 5 6 5 5 5 5 6 5 5 5 5 5 5 5 5 5 5 5 5 5 5 5 5 5 5 5 5 5 5 5 6 6 5 5 6 5 6 5 5 5 5 6 5 5 5 5 5 5 5 5 5 6 5 5 5 6 5 5 6 5 5 5 5 5 5 5 5 5 5 5 6 5 6 5 5 5 6 5 5 5 5 5 5 5 5 5 5 5 6 5 5 5 5 5 5 6 5 5 5 5 5 6 6 6 5 5 5 6 5 6 5 5 5 5 5 5 5 5 5 5 5 5 5 5 5 5 5 5 6 5 5 6 5 5 5 6 5 5 6 5 5 5 6 5 5 5 6 5 5 6 5 6 5 5 5 5 6 5 5 5 5 6 5 5 5 5 5 5 6 5 5 5 5 6 5 5 5 6 6 5 6 5 5 5 5 6 6 5 6 6 5 5 6 5 5 5 5 6 5 5 5 5 5 5 6 6 6 5 6 5 6 5 6 5 6 5 5 5 6 5 5 5 6 5 5 5 5 5 5 6 6 5 6 5 6 5 5 6 6 5 5 6 5 5 5 5 5 5 5 5 5 5 5 5 5 5 6 5 5 5 5 6 5 5 5 5 5 6 6 5 6 5 6 5 5 5 5 5 5 5 6 6 5 5 5 5 5 5 6 5 5 5 5 5 5 5 6 5 5 5 5 6 5 5 6 5 5 5 5 5 5 5 5 5 5 5 5 5 5 6 6 5 5 5 5 5 5 5 5 6 5 5 5 5 6 5 5 5 5 5 5 5 5 6 5 5 5 5 5 5 5 5 5 6 5 6 5 5 5 5 5 5 6 6 5 5 5 6 5 5 5 5 5 5 5 6 5 5 5 5 5 5 5 5 5 5 5 5 6 5 5 5 5 5 5 5 5 6 5 5 5 6 5 5 5 5 5 5 6 5 6 5 5 5 5 6 5 5 5 6 6 5 5 5 6 6 6 5 5 5 5 5 6 5 5 5 6 5 6 5 5 5 5 6 5 5 6 5 5 5 6 5 6 6 5 5 5 5 5 5 5 5 5 5 5 5 6 5 5 5 5 5 5 6 5 5 5 5 5 6 5 5 5 5 5 5 5 5 6 5 5 6 5 5 5 5 6 5 5 5 5 6 5 5 6 6 5 5 5 5 6 6 5 5 5 6 5 6 6 5 6 5 6 5 5 5 5 6 5 6 5 5 5 5 5 5 6 5 6 5 5 5 5 5 6 5 5 5 5 5 5 5 5 5 5 5 5 5 5 5 6 5 6 5 5 6 5 5 6 5 5 5 6 6 5 5 5 5 6 5 5 5 5 5 6 5 5 6 5 5 6 5 5 5 6 6 6 5 5 6 6 5 5 5 5 5 5 5 5 5 5 5 5 5 5 5 5 6 6 5 5 5 5 6 5 5 6 6 5 5 5 6 5 5 5 5 5 5 5 5 5 5 5 5 5 5 5 6 5 5 5 5 5 5 5 5 5 5 5 5 5 5 5 5 5 5 5 5 5 5 5 5 5 5 5 5 5 5 5 5 5 5 5 5 5 5 5 5 5 5 5 6 5 5 5 6 5 6 5 5 5 6 5 5 5 5 5 5 5 5 5 5 5 5 5 5 5 5 5 5 5 5 5 5 5 5 6 5 5 5 5 5 5 5 5 5 5 5 5 5 5 5 6 5 5 5 6 5 6 5 5 5 5 5 5 5 5 5 5 5 5 5 5 5 5 5 5 5 5 5 5 5 5 5 5 5 5 5 5 5 5 5 5 5 5 6 5 6 5 5 6 5 5 6 6 5 5 5 5 5 5 5 5 6 5 5 5 5 5 5 5 5 6 5 5 5 6 5 5 5 5 5 5 5 6 5 5 5 5 5 5 6 5 5 5 5 5 5 5 5 5 5 5 5 5 5 5 5 6 5 5 5 5 5 5 5 5 5 5 5 5 5 5 5 5 5 5 5 5 5 6 5 5 6 5 5 5 5 5 5 5 5 5 5 5 5 5 5 5 5 5 5 5 5 6 5 5 5 5 5 5 6 5 5 5 5 5 5 5 5 5 5 5 5 5 5 5 5 5 6 5 5 6 5 6 5 5 6 5 6 5 5 6 5 5 6 6 5 6 5 5 5 6 5 5 5 6 5 5 5 5 5 5 5 5 5 5 5 5 5 5 5 5 5 5 5 5 5 5 5 6 6 5 5 5 5 5 6 5 5 5 5 5 5 6 5 6 5 5 5 5 5 5 5 5 5 6 5 5 6 6 5 5 5 6 5 5 5 5 5 5 5 5 5 5 5 5 5 5 5 5 5 6 5 5 5 5 5 5 5 6 5 5 5 5 6 5 5 6 5 5 5 5 5 5 5 6 5 5 5 5 5 5 5 5 5 5 5 6 5 5 5 5 5 5 5 5 5 6 5 6 5 6 5 5 5 5 5 5 5 5 6 6 5 5 5 6 5 5 6 5 5 6 6 5 6 5 5 5 5 5 6 5 5 5 5 5 5 5 5 6 6 5 5 5 5 5 5 5 5 5 5 6 5 5 5 5 5 5 6 5 6 5 6 5 5 5 5 5 5 5 5 5 6 5 5 6 6 5 5 5 6 6 5 5 6 5 5 5 6 5 5 5 5 5 5 5 5 5 6 5 5 6 5 5 6 5 5 5 5 5 5 5 5 6 5 5 6 6 6 5 5 5 5 6 6 5 5 5 6 5 5 6 6 5 5 5 5 5 5 5 5 5 5 5 5 6 5 5 5 6 5 6 5 5 5 6 5 5 5 5 5 5 5 5 6 5 5 5 5 5 5 5 5 5 5 5 5 5 5 5 5 5 5 5 5 5 5 6 5 5 6 5 5 5 5 5 5 6 5 5 5 6 5 5 5 5 6 5 6 5 5 5 5 6 6 5 5 5 5 5 5 5 5 5 5 5 5 5 5 5 5 5 5 5 5 5 5 5 5 5 5 5 5 5 5 5 5 5 5 5 5 5 5 5 5 5 5 5 5 5 5 5 5 5 5 5 5 5 5 5 5 5 5 5 5 5 5 5 5 5 5 5 5 5 5 5 5 5 5 5 5 5 5 5 6 6 5 5 5 5 6 5 5 5 5 5 6 5 5 5 5 6 5 6 5 5 5 6 5 5 5 6 5 5 5 5 5 5 5 5 5 5 5 5 5 5 5 5 5 6 5 5 6 5 5 6 5 5 5 5 5 5 5 5 5 6 5 6 5 6 5 5 5 5 5 5 5 5 5 5 6 5 5 6 5 5 5 5 5 5 5 5 5 5 5 5 5 5 6 5 5 6 5 5 5 5 5 5 6 5 6 5 5 5 5 5 5 6 5 5 5 5 5 5 6 5 5 5 5 5 5 5 5 5 5 6 5 5 5 6 5 5 5 6 5 5 5 5 5 5 5 5 5 5 5 5 5 5 5 5 5 5 5 5 5 5 5 5 5 5 5 5 5 5 5 5 5 5 5 5 5 5 5 5 5 5 5 5 5 5 5 5 6 5 5 5 5 5 5 5 5 6 5 5 5 5 5 6 5 5 5 6 6 5 5 5 5 5 5 5 6 5 5 5 5 6 5 5 5 5 5 5 5 6 5 5 5 6 6 5 6 6 5 5 5 5 5 6 5 5 5 5 5 5 5 5 5 5 5 5 5 5 5 5 5 5 5 5 5 5 5 5 5 5 5 5 5 5 5 5 5 5 5 5 6 5 5 5 5 5 5 5 5 6 5 5 5 5 6 5 6 5 5 5 5 5 6 5 5 5 6 5 6 5 5 5 5 5 5 5 5 5 5 5 5 5 5 5 5 5 5 5 5 5 5 5 5 5 5 6 5 5 6 5 5 5 5 5 5 5 5 5 5 5 5 5 5 6 5 5 5 5 5 5 5 5 5 5 5 5 5 6 5 5 5 5 6 5 5 5 5 5 5 5 5 5 6 5 5 5 6 5 6 5 5 5 5 5 5 6 5 5 6 5 5 5 5 5 5 5 5 6 5 6 5 5 5 5 5 5 5 5 5 6 5 5 5 5 5 5 6 5 5 5 6 5 6 5 5 5 5 5 5 5 5 5 5 5 5 5 5 5 5 5 5 5 5 5 5 5 6 5 5 5 5 5 5 5 6 5 5 5 5 5 6 5 5 5 5 5 5 5 5 5 6 5 5 5 5 5 5 5 5 5 5 5 5 5 5 5 5 6 5 5 5 5 5 5 5 6 5 5 6 5 5 5 5 5 5 5 5 5 5 6 5 5 5 5 5 5 5 5 5 5 5 5 6 6 5 5 5 5 5 5 5 5 5 5 5 6 5 5 5 5 5 5 5 5 5 5 5 5 5 5 5 5 5 5 5 5 5 5 5 5 5 5 6 5 5 6 5 6 5 5 5 5 5 5 5 5 5 5 5 5 5 5 5 6 5 5 5 5 6 5 5 5 5 5 6 5 5 6 6 5 5 5 6 5 5 5 5 6 5 5 5 5 5 5 5 5 5 5 5 5 5 5 5 5 5 5 5 5 5 5 5 5 5 5 5 5 5 5 6 5 5 5 5 5 6 5 5 5 5 5 5 5 5 5 6 5 5 5 5 5 5 5 5 5 5 5 5 5 5 5 5 5 5 5 5 5 5 5 5 5 5 5 5 5 6 6 5 5 5 5 6 5 5 5 5 5 5 5 5 5 5 5 5 5 5 6 5 5 5 5 5 5 5 5 5 5 5 5 5 5 5 6 5 5 6 5 5 5 5 5 5 5 5 5 5 5 5 5 5 5 5 5 5 5 5 5 5 5 5 5 5 5 5 5 5 5 5 5 5 5 5 5 5 5 5 5 5 5 5 5 5 5 5 5 5 5 5 5 5 5 5 5 5 5 5 5 5 5 5 5 6 5 5 5 6 5 5 5 5 5 5 5 5 5 5 5 6 5 5 5 5 5 5 5 6 5 5 6 5 5 5 5 6 5 5 5 5 5 6 5 5 5 5 6 5 5 5 5 5 5 5 5 5 6 5 5 5 5 6 5 5 5 5 5 5 5 5 5 5 5 6 5 5 5 5 5 6 5 6 5 6 5 6 5 5 6 5 5 6 5 5 6 6 5 5 5 5 5 5 5 5 5 5 5 6 5 5 6 5 5 6 5 5 5 5 5 5 6 5 5 5 5 5 6 5 5 5 6 5 6 5 5 5 5 5 5 6 5 5 5 5 5 5 5 5 6 5 5 5 5 5 5 5 6 5 5 5 5 6 5 5 5 5 5 5 5 5 5 5 6 5 5 5 6 5 5 5 5 5 5 5 6 5 5 5 5 5 5 5 5 5 5 5 5 5 5 5 5 5 5 5 5 5 5 5 5 5 6 5 5 5 5 6 5 5 5 5 5 5 5 5 5 5 5 5 6 5 5 5 5 5 5 6 5 5 5 5 6 5 5 5 5 5 5 5 5 5 5 5 5 5 5 5 5 5 5 5 5 5 5 5 5 5 5 5 6 5 5 5 5 5 5 5 6 5 5 5 5 6 5 6 5 5 5 5 5 5 5 6 6 5 5 5 5 5 5 5 5 5 5 5 5 6 5 6 5 5 5 5 6 5 5 5 6 5 5 5 5 5 5 5 5 5 5 5 5 5 5 5 5 5 5 5 5 5 5 5 6 6 5 5 5 5 6 5 6 5 5 6 5 5 5 5 5 5 5 5 5 5 5 5 5 5 5 5 6 5 5 5 5 5 5 6 5 6 5 6 5 5 6 5 5 5 5 5 5 5 5 5 6 5 5 6 5 5 5 5 5 5 5 5 5 5 5 5 5 6 5 5 5 5 5 5 5 5 5 6 5 5 6 5 5 5 5 5 5 5 5 5 5 5 6 5 5 5 5 5 5 5 5 5 5 5 5 5 5 5 5 5 5 5 5 6 5 6 5 5 5 5 5 6 5 6 5 5 5 5 5 5 5 5 6 5 5 5 5 5 5 6 5 5 6 5 5 5 5 5 5 6 5 5 5 5 5 5 5 5 5 5 5 5 5 5 5 5 5 5 5 5 6 5 5 5 5 5 5 5 5 5 5 6 5 6 5 6 5 5 5 5 6 5 5 5 5 5 5 5 5 5 5 5 6 5 6 6 5 5 5 5 5 5 6 5 5 5 5 5 5 5 5 5 5 5 5 5 5 5 5 5 5 5 5 5 5 5 5 5 5 5 5 5 5 5 5 5 5 5 5 5 5 5 5 5 5 5 5 6 5 5 5 5 5 5 5 5 5 5 5 5 5 5 5 5 5 5 5 5 5 5 6 5 5 6 5 5 5 6 5 5 6 6 5 5 5 5 5 6 5 5 5 5 5 6 5 5 5 5 5 5 5 5 5 5 5 5 5 6 5 5 5 5 5 5 5 5 5 5 5 6 6 5 5 5 5 5 5 5 5 5 5 5 5 5 5 5 5 5 5 5 5 5 5 5 5 5 5 5 5 5 5 5 5 5 5 5 5 5 5 5 5 5 5 5 5 5 5 5 5 5 5 5 5 5 5 5 5 5 5 6 6 5 5 6 5 5 5 5 6 5 6 6 5 5 5 5 5 5 5 5 5 5 5 5 6 5 5 5 5 5 6 5 5 6 6 5 5 5 5 5 5 5 5 5 6 5 6 5 6 6 5 5 5 6 5 5 6 5 5 6 5 5 5 6 5 6 5 6 5 6 5 5 5 5 6 5 5 6 5 6 6 6 6 5 5 5 6 5 5 5 6 5 5 6 6 5 5 5 6 6 5 5 5 5 5 5 5 6 5 5 5 5 5 5 5 6 5 5 5 5 5 5 6 5 5 6 5 5 5 5 5 5 5 5 5 6 5 5 5 5 5 5 6 6 5 6 5 5 5 5 5 6 5 6 5 5 5 5 6 5 6 5 5 5 6 5 5 5 5 5 5 5 5 6 5 5 5 5 5 5 5 5 5 5 5 5 6 5 6 5 5 6 6 5 5 5 5 6 6 5 5 5 5 6 5 5 5 5 5 5 5 5 5 5 5 5 5 6 5 6 5 6 5 5 5 5 5 5 5 5 5 5 6 5 6 5 5 5 5 5 6 5 5 5 5 5 5 5 5 5 5 5 5 6 5 5 5 5 5 6 5 5 6 5 5 5 5 5 6 5 5 6 6 5 5 5 5 5 6 5 5 5 5 5 5 5 5 5 5 5 5 5 5 5 5 6 5 5 6 5 5 6 5 6 5 5 5 5 6 5 5 5 5 6 5 5 5 5 5 5 5 5 5 6 5 6 5 5 5 5 5 5 5 5 5 5 5 5 5 5 5 5 5 5 5 5 5 6 5 5 5 5 5 5 5 5 6 5 5 5 5 5 5 5 6 5 5 5 5 5 5 5 5 5 5 6 5 5 5 6 6 5 6 5 5 6 5 5 6 5 5 5 5 6 5 5 6 5 6 5 5 5 5 6 6 5 5 5 6 5 5 5 5 5 5 5 5 5 5 6 5 5 5 5 5 5 5 5 5 5 5 5 5 5 5 5 5 6 5 5 5 5 5 5 5 5 5 5 5 5 5 5 5 6 5 5 5 5 5 5 5 5 5 5 5 5 5 5 5 5 5 5 5 5 5 5 5 5 5 5 5 5 5 5 5 5 5 5 5 5 5 5 5 5 5 5 5 5 5 6 5 5 5 6 5 5 5 5 5 5 5 5 5 5 5 5 6 5 5 5 5 5 5 5 5 5 5 5 5 5 5 5 5 5 5 5 5 5 5 5 5 5 5 5 5 6 6 5 5 5 5 5 5 5 5 5 5 5 5 5 5 5 5 5 5 5 5 5 5 5 5 5 5 5 5 5 6 5 5 5 5 5 5 5 5 5 5 5 5 5 5 5 5 5 5 6 5 5 5 5 5 5 6 5 5 6 5 6 5 5 5 5 6 6 5 5 5 5 5 5 5 5 5 5 5 5 5 5 5 5 5 6 5 5 5 6 5 5 5 5 5 5 5 5 5 5 5 6 5 5 5 5 5 5 5 5 6 5 5 5 6 5 5 5 5 5 5 5 5 5 5 5 5 5 6 5 5 5 5 6 5 5 5 5 5 5 5 5 6 5 5 5 5 5 5 5 5 5 5 5 5 6 5 5 6 5 5 5 5 5 5 5 5 5 5 6 5 5 5 5 5 5 5 6 5 5 6 5 5 5 5 5 5 5 5 5 5 5 5 5 5 5 5 5 5 5 6 5 5 6 5 5 5 5 5 5 5 5 5 6 6 5 6 5 5 5 5 5 6 5 5 5 5 5 5 5 5 5 5 5 5 5 5 5 5 5 5 5 5 5 5 5 5 5 5 5 5 5 6 6 5 6 5 5 5 5 5 5 5 5 5 5 5 5 5 5 5 5 5 5 5 5 5 5 5 5 5 5 6 5 5 5 5 5 5 5 6 5 5 5 5 6 5 5 5 5 5 5 5 6 5 5 5 5 5 5 5 5 5 5 5 5 5 5 5 6 5 5 6 5 5 5 5 5 5 5 5 5 5 5 5 5 5 5 5 5 5 6 5 5 5 5 5 5 5 5 5 5 5 5 5 5 6 5 5 5 5 5 5 5 6 5 5 5 5 5 5 5 6 5 5 5 5 6 5 5 5 5 5 5 5 5 5 5 5 5 5 5 5 5 5 5 5 5 5 5 5 5 5 5 5 5 5 5 5 5 5 5 5 5 5 5 5 5 5 5 5 5 5 5 5 5 5 5 5 5 5 5 5 5 5 5 5 5 5 5 5 5 5 5 5 5 5 5 5 5 5 5 5 5 5 5 5 5 5 5 5 5 5 5 5 5 5 5 5 5 5 5 5 5 5 6 5 5 5 5 5 5 5 5 5 5 5 5 5 5 5 5 5 5 5 5 5 6 6 5 5 5 5 5 6 5 5 5 5 5 5 6 5 5 5 5 5 5 5 5 6 5 5 5 5 6 5 5 5 5 5 5 5 5 5 5 5 5 5 5 5 5 5 5 5 5 5 5 5 5 5 5 5 5 5 5 5 5 5 6 5 5 5 5 5 5 5 5 5 5 5 5 5 5 5 5 5 5 5 5 5 5 5 5 5 5 5 5 5 5 5 5 5 5 5 5 5 5 5 5 5 6 5 5 5 5 5 5 5 6 5 5 5 5 5 5 5 5 5 5 5 5 5 5 6 5 5 5 5 5 5 5 5 5 5 5 5 5 5 5 5 5 5 5 5 5 5 5 5 5 5 5 5 5 5 5 5 5 5 5 5 5 5 5 5 5 5 5 5 5 5 5 6 5 5 5 5 5 5 5 5 5 5 5 6 5 5 5 5 5 5 5 5 5 5 5 5 5 6 5 5 5 5 5 5 5 5 6 5 5 5 5 5 5 5 5 5 5 5 5 5 6 5 5 5 5 5 5 6 5 5 5 5 5 5 5 5 5 5 5 5 5 5 5 5 5 5 5 5 5 5 5 5 5 5 5 5 6 5 5 5 5 5 6 5 5 5 5 6 5 5 5 5 5 5 5 5 5 5 6 5 5 5 5 5 5 5 5 6 5 5 5 5 5 5 6 5 5 6 5 5 6 5 5 5 5 5 5 5 5 5 5 5 5 5 5 5 5 6 5 6 5 5 5 6 5 5 5 6 5 5 5 5 6 5 5 5 5 5 5 5 5 6 6 5 5 5 5 5 6 5 5 6 5 5 5 5 6 5 5 5 6 6 5 6 5 5 5 5 5 6 5 5 5 5 5 5 5 5 5 5 6 5 5 5 5 5 5 5 5 5 5 5 5 5 5 5 5 5 5 5 5 6 5 5 5 5 5 5 5 5 5 5 5 5 5 5 5 5 5 5 5 5 5 5 6 6 5 6 5 5 5 5 5 5 5 5 5 5 5 5 6 5 6 5 5 5 6 5 5 5 5 5 5 5 6 6 5 5 6 5 5 6 5 5 6 6 5 5 6 6 5 5 6 5 6 5 5 5 5 5 6 5 5 6 5 6 6 5 5 5 5 5 5 5 6 5 5 5 5 5 5 5 5 5 5 6 5 5 6 5 5 5 5 5 6 5 5 6 5 5 5 5 5 5 5 6 5 5 5 6 5 5 5 5 5 5 5 5 5 5 5 5 5 5 5 5 5 5 5 5 5 5 5 6 5 5 5 5 5 6 6 6 6 5 5 6 6 6 6 5 6 5 5 6 5 5 5 5 5 5 5 5 5 5 5 5 5 5 5 5 5 5 5 5 5 5 5 5 5 5 5 5 5 5 5 5 5 5 5 5 5 5 5 5 5 5 5 5 5 5 5 5 5 5 5 5 5 5 5 5 5 5 5 5 5 6 5 6 5 5 5 5 5 5 5 5 5 6 5 5 5 5 6 5 5 5 5 5 5 5 6 5 5 5 5 5 5 5 6 5 6 5 5 5 5 5 5 5 5 6 5 5 5 5 5 5 6 5 5 5 5 5 5 5 5 5 5 5 5 5 5 5 5 5 5 5 6 5 5 5 5 5 5 5 5 5 5 5 6 5 5 6 5 5 6 6 5 5 6 5 6 6 5 5 6 5 6 5 6 5 5 5 5 5 5 5 5 5 5 5 5 5 5 5 5 6 5 5 5 5 5 6 5 5 5 5 5 5 5 5 5 5 6 5 5 5 6 5 6 5 5 5 5 5 5 5 5 5 5 6 5 5 5 5 5 5 5 5 5 5 5 5 5 5 5 5 5 5 5 5 5 5 5 5 5 5 6 5 5 5 5 5 5 5 5 5 5 5 5 6 5 5 5 5 5 5 5 5 5 5 5 5 5 5 5 5 5 6 5 5 5 5 5 5 5 5 5 5 5 5 5 5 5 5 5 5 5 5 5 5 5 6 5 5 5 5 5 5 5 5 5 5 5 5 5 5 5 5 5 5 5 5 5 5 5 5 5 5 5 5 5 5 5 5 5 6 5 6 5 6 5 5 5 5 5 5 6 5 5 5 5 5 5 5 5 5 6 5 5 5 5 5 5 6 5 5 6 5 6 5 5 5 6 5 5 5 5 5 5 6 5 5 5 6 6 5 6 6 5 6 5 5 5 5 5 5 5 5 5 5 5 5 5 5 5 5 5 5 6 5 5 5 5 5 5 5 5 6 5 5 5 5 6 5 5 6 5 5 5 6 5 5 5 5 5 5 6 6 5 6 5 5 6 5 5 5 6 5 5 5 5 5 5 5 5 5 5 5 5 5 5 5 5 5 5 5 5 5 5 5 5 5 5 5 5 5 5 5 5 5 5 5 5 5 5 5 5 5 5 5 5 6 5 5 5 5 5 5 5 5 5 5 5 5 5 6 6 5 5 5 5 6 5 5 6 5 5 5 5 5 6 5 5 5 5 5 5 5 6 5 5 5 6 5 5 5 5 5 5 6 5 5 6 5 5 6 6 6 5 5 5 5 5 5 5 5 5 5 5 5 5 5 5 5 5 5 5 5 5 5 5 5 5 5 6 5 5 5 5 6 5 5 5 6 5 5 5 5 5 5 5 6 5 5 5 5 5 5 5 6 5 5 5 5 5 5 5 5 5 5 5 5 5 5 5 5 5 5 5 5 5 5 5 5 5 5 6 6 5 5 5 5 6 6 5 5 5 5 5 5 5 6 5 6 5 5 5 5 5 5 5 5 6 5 5 5 5 5 6 6 5 5 5 6 5 5 5 6 5 5 5 5 5 5 5 5 5 5 5 5 5 5 5 5 5 5 5 5 5 5 5 5 5 5 6 5 5 5 5 5 5 5 5 5 5 6 5 5 5 5 5 5 6 5 6 5 5 5 5 5 5 5 5 6 5 5 6 5 5 5 6 6 6 5 5 5 5 5 5 5 5 5 5 5 5 6 5 5 5 5 5 6 5 5 5 5 5 6 5 5 5 5 5 5 6 5 5 5 5 5 5 5 5 6 6 5 5 5 6 5 5 5 6 5 5 5 5 6 5 5 5 5 5 6 5 5 6 5 5 5 5 5 5 5 5 5 5 5 5 5 5 5 5 5 5 5 5 5 5 5 5 5 5 5 5 5 5 5 5 5 5 5 5 5 5 5 5 5 5 5 5 5 5 5 5 5 5 5 5 5 5 5 5 6 5 5 5 5 5 5 5 5 5 5 5 5 5 6 5 5 6 5 5 5 5 5 5 5 5 5 6 5 5 5 5 5 5 5 5 6 5 5 5 5 5 5 5 5 6 5 5 5 5 5 5 5 5 5 5 5 5 5 5 5 5 5 5 5 5 5 5 5 6 6 6 5 5 5 5 5 5 5 5 6 5 5 5 5 5 5 5 6 5 5 5 5 5 6 5 6 5 5 5 5 5 5 5 5 5 5 5 5 5 5 5 5 5 5 5 5 5 6 5 5 6 5 5 5 6 6 5 5 5 5 5 5 5 5 5 5 5 5 5 5 5 5 5 5 5 5 6 5 6 5 5 5 5 5 5 5 6 5 6 5 5 6 5 5 6 5 5 5 5 5 6 5 5 5 6 6 5 5 5 5 5 5 5 5 5 6 5 5 6 5 5 5 5 5 5 5 6 5 5 5 5 5 5 5 5 6 5 6 5 6 5 5 5 5 6 6 5 5 5 6 6 5 5 5 5 5 5 5 6 5 5 5 6 6 5 5 5 5 5 5 6 5 5 5 5 5 5 6 5 5 5 5 5 5 5 5 5 5 5 5 5 5 5 5 5 5 5 5 5 6 5 5 5 5 5 5 5 5 5 5 6 5 5 5 5 5 5 5 5 5 5 5 5 5 5 6 5 5 6 5 5 5 5 5 5 5 5 5 5 5 5 5 6 5 5 6 5 5 5 5 5 5 6 5 5 6 5 5 5 5 5 5 5 5 6 6 5 5 5 5 6 5 5 5 5 5 5 5 5 5 5 5 5 5 6 6 5 5 5 5 5 5 5 5 6 5 5 5 5 5 6 5 5 5 5 5 5 6 6 5 5 5 5 6 6 6 5 6 6 5 5 5 5 6 6 5 5 5 5 5 5 5 6 5 5 5 5 6 5 5 5 5 5 5 5 5 6 5 5 5 5 5 5 6 5 5 5 5 5 5 5 5 6 5 5 5 5 5 5 5 5 6 5 5 5 5 5 5 5 5 5 5 6 5 5 5 5 5 5 5 5 5 5 5 5 5 5 5 5 5 5 5 5 5 6 6 5 5 5 5 5 5 5 5 5 5 6 5 6 5 5 6 5 5 5 5 5 6 5 6 6 5 5 5 6 5 6 5 6 5 5 5 5 5 5 5 5 5 6 5 5 5 5 5 5 6 5 5 5 5 5 6 5 5 5 5 6 5 5 5 5 5 6 5 5 5 5 5 5 5 5 5 6 5 5 5 5 5 6 6 6 5 5 5 5 6 6 5 5 5 5 6 5 6 5 5 5 5 5 5 5 5 6 5 5 5 5 5 5 5 5 5 5 5 6 6 5 5 5 5 6 5 5 6 6 5 5 5 5 5 5 5 5 5 6 5 5 5 5 5 5 5 5 5 5 5 5 5 5 5 5 5 6 5 5 5 5 6 5 6 5 6 6 5 5 5 5 5 5 5 5 5 5 6 5 5 5 5 5 5 5 5 5 5 5 5 5 5 5 5 5 5 5 5 5 5 5 6 5 5 5 5 5 5 5 5 5 5 5 5 5 5 5 5 5 5 5 5 5 5 5 5 5 5 5 5 5 5 5 5 5 5 5 5 5 5 5 5 5 5 5 6 5 5 5 5 5 5 5 5 5 5 5 5 5 5 5 5 5 5 5 5 5 5 5 5 5 5 5 5 5 5 5 5 5 5 5 5 5 5 5 5 5 5 5 5 5 5 5 5 5 5 5 5 5 5 5 5 5 5 5 5 5 5 5 6 6 5 5 6 5 5 5 5 5 5 5 5 5 6 5 5 6 5 5 5 6 5 5 5 5 5 5 5 5 5 5 5 6 5 5 5 5 5 5 5 6 5 5 6 5 5 5 5 6 5 5 5 5 5 5 5 5 5 5 5 5 5 6 5 5 5 6 5 5 5 5 5 6 5 5 5 5 5 5 5 5 6 5 5 5 5 5 5 5 5 5 5 5 5 5 5 5 5 5 5 5 5 5 5 5 5 5 5 5 5 5 5 5 5 5 5 5 5 5 5 6 5 5 5 6 5 5 6 5 5 5 5 5 5 6 5 6 5 5 5 5 5 5 5 6 5 5 5 6 5 5 5 5 6 5 5 5 5 5 5 5 5 5 5 5 5 5 5 5 6 5 5 5 5 5 5 5 5 5 5 5 5 5 5 5 5 5 5 5 5 5 6 5 5 5 5 5 5 5 6 6 5 5 6 6 5 5 5 5 5 5 6 5 5 5 6 5 5 5 5 5 6 5 5 5 5 5 5 5 5 5 5 5 5 5 5 5 5 5 5 6 5 5 5 6 5 6 5 5 5 5 5 5 5 5 6 5 5 6 5 5 5 5 6 5 5 5 6 5 5 5 5 5 5 5 6 5 5 5 6 5 5 5 5 6 5 5 5 5 5 5 5 6 5 5 5 5 5 5 5 5 5 5 5 5 5 5 5 5 5 5 5 5 5 6 5 5 5 5 5 6 5 6 5 5 5 5 6 5 5 5 5 5 5 5 5 5 5 6 5 6 5 5 5 5 5 5 5 5 5 6 5 5 5 5 5 5 5 5 5 5 5 5 5 5 5 5 5 5 5 5 5 5 6 5 5 5 6 5 5 5 6 5 5 6 5 5 5 5 5 5 5 5 6 5 5 5 5 5 6 6 5 5 5 5 6 5 5 6 5 5 5 6 5 5 5 5 6 5 5 5 5 5 6 5 5 5 5 5 5 5 5 6 5 5 5 5 5 5 6 5 5 6 5 5 6 5 5 5 5 5 6 5 5 5 5 5 6 5 5 5 5 5 6 5 5 5 6 5 5 5 6 6 5 5 5 5 6 5 5 5 5 5 5 5 5 5 5 6 6 5 5 5 6 5 6 5 5 5 5 6 5 5 5 5 5 5 5 5 6 5 5 5 5 5 5 5 6 6 5 6 5 6 5 6 5 5 5 6 5 5 6 6 5 5 5 5 6 5 5 5 5 6 5 5 5 5 5 5 5 5 5 6 5 5 6 5 5 5 5 5 5 5 5 5 5 5 6 5 5 5 5 5 6 5 6 5 5 5 5 5 5 6 6 5 6 5 5 5 5 5 6 5 5 6 5 5 6 5 5 5 6 5 5 5 5 5 5 5 5 5 6 5 6 5 5 5 5 5 5 5 5 5 6 5 6 5 5 5 5 5 6 5 5 6 5 5 5 5 5 6 5 5 5 5 5 5 6 5 5 5 5 5 5 5 5 5 5 5 5 5 5 6 5 5 5 5 5 5 5 5 6 5 5 5 5 5 5 6 5 6 5 5 5 5 5 5 5 5 5 5 5 5 5 5 5 5 5 5 5 5 6 5 5 5 5 6 5 5 5 5 5 5 5 6 6 5 5 5 5 5 6 5 6 5 6 6 5 5 5 6 5 6 5 5 6 5 5 5 6 6 5 5 5 5 6 5 5 5 6 6 5 5 6 6 5 5 5 6 5 5 6 5 6 5 5 5 5 5 5 5 6 6 5 5 5 5 6 6 5 5 5 6 5 5 6 6 6 5 5 6 5 5 5 6 5 6 5 5 6 5 5 5 5 5 5 5 5 5 5 5 6 5 5 5 5 5 5 5 5 5 5 5 5 5 5 5 6 5 5 5 5 5 6 5 5 5 5 5 5 5 6 5 6 5 5 6 5 5 5 6 5 5 5 6 5 5 6 5 5 5 6 5 5 5 5 6 5 5 5 5 5 5 5 5 5 5 5 5 5 5 5 5 5 5 5 5 5 5 6 5 5 6 5 5 6 5 5 5 5 5 5 5 5 5 5 5 5 5 5 5 6 5 5 5 6 5 5 5 5 5 5 5 5 5 5 5 5 6 5 5 5 5 5 5 5 6 5 5 5 5 5 5 5 5 6 5 5 5 5 6 5 5 5 5 5 5 6 5 5 5 5 6 5 5 5 5 6 5 5 5 5 5 5 5 5 5 5 5 5 5 5 5 5 5 5 5 5 5 5 5 5 5 5 6 5 6 5 5 5 5 5 5 5 6 6 5 5 6 5 5 5 5 5 5 5 5 5 5 5 5 5 5 5 5 5 5 5 5 6 5 6 5 5 5 5 5 5 5 5 5 5 5 5 5 5 6 5 5 5 5 5 5 5 5 5 5 6 5 5 5 5 6 5 6 5 5 5 5 5 5 6 5 5 5 6 5 5 5 5 5 5 5 5 5 5 5 6 5 5 5 5 5 5 5 5 6 5 5 5 6 5 5 5 5 5 5 5 5 5 5 5 5 6 5 5 5 6 5 5 5 5 5 5 6 5 6 5 5 6 5 5 5 5 6 5 5 5 6 5 5 5 5 5 6 5 5 5 5 6 5 5 6 5 5 5 5 6 6 5 5 5 6 5 5 6 5 5 5 6 5 5 5 6 5 5 5 6 5 5 6 6 5 5 5 5 5 5 5 5 6 5 5 6 5 5 5 6 5 5 5 5 5 5 5 6 5 5 5 5 5 5 5 5 5 6 5 5 6 5 6 5 5 5 6 5 5 5 5 5 5 5 5 5 5 5 6 5 5 6 5 5 5 5 5 5 5 5 5 5 6 5 5 5 5 5 5 5 5 6 5 5 5 6 5 5 5 5 5 5 5 5 6 5 6 5 5 5 5 6 6 5 5 5 5 5 5 5 5 5 5 5 5 5 5 5 5 6 5 5 5 5 6 5 5 5 6 5 6 5 6 6 5 5 6 5 5 5 6 6 5 5 6 6 5 5 6 6 5 5 5 6 5 5 5 5 5 5 6 5 6 5 6 6 6 5 5 5 5 5 5 6 5 5 6 6 5 6 5 6 6 5 6 5 5 5 6 5 5 5 6 5 5 5 5 5 6 5 5 5 6 5 6 6 5 5 5 5 5 6 5 5 6 5 5 6 5 5 5 6 5 6 5 5 5 6 6 6 5 5 6 5 6 6 5 5 6 5 6 5 5 5 6 5 5 6 6 5 5 6 5 5 5 5 6 5 5 5 5 6 6 5 6 5 5 5 5 5 5 5 5 5 5 5 5 5 6 5 5 6 5 6 5 5 5 5 5 5 5 5 5 5 5 6 5 5 5 5 5 6 5 5 5 6 5 5 5 6 5 6 5 6 5 5 6 5 6 5 6 5 5 6 5 5 5 5 6 6 5 5 5 6 5 5 6 5 5 5 5 6 5 6 5 5 5 5 5 5 6 5 5 5 5 5 5 5 5 5 5 5 5 5 5 5 5 5 5 5 5 5 5 5 5 5 5 5 5 5 5 5 5 5 6 6 5 5 6 5 6 5 6 5 5 5 5 5 5 5 5 5 5 6 5 5 5 5 5 5 5 6 5 5 5 5 5 5 5 6 5 5 5 5 5 5 5 5 5 5 5 5 5 5 5 5 5 5 5 6 5 5 5 6 5 5 6 5 5 5 6 5 5 6 5 5 5 6 5 5 6 5 5 5 6 6 5 5 5 5 5 5 5 6 5 5 5 5 6 5 5 5 5 6 5 5 6 6 5 5 5 5 6 5 5 5 6 6 5 6 5 5 5 5 5 5 5 5 5 5 5 5 5 6 5 5 5 5 5 6 5 6 6 5 5 5 5 5 5 5 5 6 5 5 5 5 5 5 5 5 5 5 5 5 5 5 5 5 5 6 5 5 5 5 5 5 5 5 5 6 5 5 5 6 5 5 5 5 5 6 5 5 5 5 5 5 5 5 5 5 5 5 5 5 5 6 5 5 5 5 5 5 6 5 5 5 5 5 6 5 6 6 5 5 5 5 5 6 5 5 5 5 5 6 6 5 5 5 6 6 5 5 6 6 5 5 5 5 5 6 5 5 5 5 5 5 5 5 5 5 5 5 6 5 5 5 5 5 5 5 5 6 5 5 6 5 5 5 5 5 5 5 5 5 5 5 5 5 5 6 5 5 5 5 5 5 6 5 6 5 5 5 6 5 5 5 5 6 5 6 5 5 6 5 5 5 6 5 5 6 6 6 6 5 5 6 5 6 5 5 6 5 5 6 5 5 5 5 5 6 5 6 5 5 6 6 6 5 5 6 6 5 6 5 5 5 5 5 5 5 6 5 5 5 5 5 6 5 5 5 5 5 5 5 5 5 6 5 5 5 5 5 6 5 5 5 5 6 5 5 5 5 5 5 5 5 5 5 5 5 5 6 5 5 5 5 5 5 5 5 5 5 5 6 5 5 5 5 5 5 5 6 6 5 5 6 5 5 5 5 5 5 5 6 5 5 5 5 6 5 5 5 5 5 5 5 6 5 5 5 6 5 5 5 6 5 5 5 5 5 5 5 6 5 5 5 5 5 5 5 6 5 5 5 5 5 5 5 5 5 5 5 5 5 5 5 6 5 5 5 6 5 5 5 5 5 5 5 5 5 5 5 5 5 6 5 5 5 5 6 5 5 5 5 5 5 5 5 5 5 5 5 5 5 5 5 5 5 6 5 5 5 5 5 5 5 5 5 5 6 6 5 5 5 5 5 5 5 5 5 5 5 5 5 5 5 6 5 5 5 5 6 5 5 5 5 5 6 5 5 5 5 5 5 5 5 5 5 5 6 5 5 5 5 5 5 5 5 5 5 5 6 5 5 5 5 5 5 6 5 5 5 5 5 5 5 5 5 5 5 5 5 5 5 5 5 5 5 5 5 5 5 5 5 5 5 5 5 6 5 5 5 6 5 5 5 5 5 6 5 5 5 5 5 5 5 5 5 5 5 6 5 5 5 5 5 5 5 5 5 5 5 5 5 5 5 5 5 5 5 5 5 5 5 5 5 5 5 5 5 5 5 5 5 5 5 6 5 5 5 6 5 5 5 5 5 5 5 5 6 6 5 5 5 5 5 6 5 5 5 6 5 5 5 5 5 5 6 5 5 5 5 5 5 5 5 5 5 5 5 5 5 6 5 6 5 6 6 5 5 5 5 5 5 5 5 5 5 5 6 5 5 5 5 5 5 6 5 5 5 5 5 5 5 5 5 5 5 5 5 5 5 5 5 5 5 5 5 5 5 6 5 5 5 5 6 5 5 5 5 5 5 5 5 6 5 5 5 5 5 6 6 5 6 5 5 5 5 6 6 5 6 5 5 5 5 5 6 5 5 5 5 5 5 5 5 5 5 5 6 5 5 5 6 5 5 5 5 5 5 5 6 5 5 6 6 5 5 5 5 5 5 5 6 6 5 5 6 5 6 5 5 6 5 6 5 5 5 5 5 6 5 5 5 5 5 5 5 5 5 5 5 5 5 6 6 5 5 5 5 5 5 5 5 6 5 5 5 5 6 5 5 6 5 5 6 5 6 5 5 5 6 5 5 5 5 5 5 5 5 5 5 6 5 5 5 5 5 6 5 5 5 5 5 5 5 5 5 5 5 5 5 5 5 5 5 5 5 6 5 5 6 6 5 5 5 5 5 5 5 6 6 5 5 5 5 5 5 5 5 5 5 5 5 5 5 5 6 5 5 5 5 5 5 6 5 5 6 6 5 5 6 5 5 5 5 5 5 5 5 5 5 6 5 5 5 5 5 5 5 5 5 5 5 5 5 5 5 5 5 5 5 5 5 5 5 5 5 5 5 5 5 5 5 5 5 5 5 5 5 5 5 5 5 5 5 6 5 5 5 5 5 5 5 5 5 5 6 5 5 5 5 5 5 5 5 5 5 5 5 5 5 5 5 5 5 5 5 5 5 5 5 5 5 5 5 5 5 5 5 5 5 5 5 6 5 6 5 5 5 5 5 6 5 5 5 6 5 5 6 5 5 5 5 5 5 5 5 5 5 5 5 5 5 5 5 5 5 6 5 5 5 6 5 5 5 5 5 6 5 5 5 6 5 5 5 5 5 6 5 5 5 5 5 5 5 5 5 5 5 5 5 5 5 6 5 5 5 5 5 5 6 5 5 5 6 6 5 5 5 6 5 5 5 5 5 5 5 5 5 5 5 5 6 5 5 5 5 5 5 5 6 5 5 5 5 5 5 5 5 6 5 5 5 5 5 5 5 6 5 5 5 5 6 5 5 5 5 5 5 5 5 5 5 5 5 5 5 5 5 5 5 6 6 5 5 5 5 5 5 5 5 5 5 5 5 5 5 5 5 5 5 5 6 5 5 5 5 5 5 5 5 5 5 5 5 5 6 5 5 5 5 5 5 6 5 5 5 5 5 5 5 5 5 5 5 5 5 6 5 5 5 6 5 5 5 5 5 5 5 6 5 5 5 5 6 5 5 5 5 6 5 5 5 5 5 5 5 5 5 5 5 5 5 6 5 5 5 5 5 5 5 5 5 5 5 6 5 5 5 5 5 5 5 6 5 5 5 5 6 5 5 5 5 5 5 5 5 5 5 5 5 5 5 5 5 5 5 5 5 6 5 5 5 5 5 5 5 5 5 5 5 5 5 5 5 5 5 5 5 5 5 5 5 5 5 5 6 6 5 5 5 5 5 5 5 5 5 5 5 5 5 5 5 5 5 5 5 5 5 5 5 5 5 5 5 5 5 5 5 5 5 5 5 5 5 5 5 5 5 5 5 5 5 5 5 5 5 5 5 5 5 5 5 5 5 5 5 5 5 5 5 5 5 5 6 5 5 6 5 5 5 5 5 6 5 5 5 6 5 5 5 5 5 5 5 5 5 5 5 5 5 5 5 5 5 5 5 5 5 5 5 5 6 5 5 5 5 5 5 5 6 5 5 5 5 5 5 5 5 5 5 5 5 5 6 6 5 5 6 5 5 5 5 6 5 5 6 5 5 5 5 6 6 5 5 5 5 6 5 5 5 5 5 5 5 5 6 6 6 5 5 5 5 5 6 5 5 6 5 5 5 5 5 6 5 5 5 6 5 5 5 6 5 5 5 5 5 6 6 6 5 5 5 5 5 5 5 5 5 5 6 5 5 6 6 5 5 5 5 5 5 5 5 5 5 5 5 5 5 5 5 5 5 5 5 5 5 5 5 6 5 5 5 6 5 6 6 5 5 5 6 6 5 5 5 5 5 5 6 5 6 5 5 5 5 5 5 5 5 5 5 5 5 5 5 5 6 5 5 5 6 5 5 5 5 5 5 5 5 5 5 5 5 5 6 5 5 5 5 6 5 5 5 5 5 5 5 5 5 5 5 5 5 5 5 5 5 5 5 5 5 5 5 5 5 5 5 5 5 5 5 5 5 5 5 5 5 5 5 6 5 5 5 5 5 5 5 6 5 5 5 5 5 5 5 5 5 5 5 6 5 5 5 5 5 6 5 5 6 6 5 5 6 6 5 5 5 5 5 5 5 5 5 5 5 5 5 5 5 5 6 6 5 5 5 6 6 5 5 5 5 5 6 5 5 5 5 5 5 5 6 5 5 5 5 5 5 6 5 5 5 5 5 5 5 5 5 5 6 5 5 5 5 5 5 5 6 5 5 5 5 5 6 5 5 6 5 5 5 5 5 5 5 5 5 6 5 5 5 5 5 5 5 5 5 5 5 5 5 5 5 5 5 5 5 5 5 5 5 5 6 5 6 5 5 5 5 5 5 5 5 6 5 5 5 5 5 5 6 5 5 5 6 5 5 5 5 5 5 5 5 5 5 5 5 5 5 5 6 5 5 5 5 5 5 5 5 5 5 5 5 5 5 5 5 6 5 6 5 5 5 5 5 5 5 5 5 5 5 5 5 5 6 5 5 5 5 5 5 6 5 5 5 5 5 5 5 5 5 5 5 5 5 5 5 6 5 5 5 5 5 5 5 6 5 5 6 5 5 5 5 5 5 5 6 5 5 5 5 5 5 6 5 5 5 5 5 6 5 5 5 6 6 5 5 6 5 5 5 5 5 5 6 5 6 6 5 5 5 5 5 5 5 6 5 5 5 6 5 5 5 5 5 6 5 5 5 5 6 5 5 6 5 5 6 5 5 5 6 5 5 5 5 5 5 5 5 5 5 6 5 5 5 5 5 5 5 5 6 5 6 5 6 5 6 6 5 5 5 5 5 5 6 5 5 5 5 5 6 5 6 5 6 5 5 6 5 5 6 6 6 5 6 5 5 5 5 5 6 5 6 5 5 6 5 5 6 6 5 5 5 5 5 5 6 6 6 6 6 5 5 5 6 5 5 6 5 6 5 5 5 5 5 5 5 5 5 5 6 5 5 5 5 5 5 5 6 5 5 6 5 5 5 6 5 5 5 5 6 6 5 5 5 5 5 5 5 5 6 5 6 5 5 6 5 5 5 6 6 5 5 5 6 5 5 5 5 5 5 5 6 5 5 5 5 5 5 5 5 5 5 5 5 6 5 5 5 5 5 5 5 5 5 5 5 5 5 6 5 5 5 5 5 5 5 5 5 5 5 5 5 5 5 5 5 5 5 5 5 6 5 5 5 5 5 6 5 6 5 5 5 5 5 5 5 5 6 5 5 6 5 5 6 6 5 6 5 5 5 5 5 5 5 5 5 5 5 5 5 5 5 5 5 5 6 5 5 6 5 5 5 5 5 5 5 5 5 5 5 5 5 5 5 5 5 6 5 5 5 5 6 5 5 5 5 5 6 5 5 5 5 6 5 5 5 5 6 5 5 5 5 5 5 5 5 5 5 5 5 5 5 5 5 5 5 5 5 5 5 5 5 5 5 6 5 5 5 5 5 5 5 5 5 5 5 5 5 5 6 5 5 6 5 5 5 5 5 6 5 5 5 5 6 5 6 5 5 5 5 5 5 5 5 5 5 5 5 5 
</DataArray>
<DataArray type="Float64" Name="stress" NumberOfComponents="9" format="ascii">
-0.75742158428578321 -153.5785544480359 0 -153.5785544480359 499.60167708794506 0 0 0 0 -0.010070803928867958 -0.2964067918821911 0 -0.2964067918821911 316.61254134613728 0 0 0 0 48.841589387072439 -59.549844009357912 0 -59.549844009357912 39.399753151650657 0 0 0 0 13.312764760477377 -10.258772391501225 0 -10.258772391501225 -12.936323643569267 0 0 0 0 1.2683335605351829 -19.800321309475748 0 -19.800321309475748 15.461015040948041 0 0 0 0 0.4445172588710074 -0.88132749568923074 0 -0.88132749568923074 0.57402716067266812 0 0 0 0 -18.015878598219388 -55.380962415623799 0 -55.380962415623799 682.53704919405777 0 0 0 0 -20.778782771523122 -29.667272055838566 0 -29.667272055838566 454.03671586435667 0 0 0 0 -13.236407062544707 -65.296989325648155 0 -65.296989325648155 499.7206211589546 0 0 0 0 52.300066857819637 110.8199444167094 0 110.8199444167094 245.35411200308044 0 0 0 0 0.78975518097970165 -0.43385070988309948 0 -0.43385070988309948 -0.32241998357420698 0 0 0 0 46.922646246317072 -131.40270950369086 0 -131.40270950369086 376.66167302151007 0 0 0 0 -6.5715529567435738 -9.9941079069685657 0 -9.9941079069685657 3.2271268682954997 0 0 0 0 1.1305673680405237 -2.2031839067700432 0 -2.2031839067700432 1.6363088099537419 0 0 0 0 27.574881045508061 -206.39535675695606 0 -206.39535675695606 403.59256126737159 0 0 0 0 -20.190049095352748 -12.823701521382645 0 -12.823701521382645 373.48156542484048 0 0 0 0 0.57675565494833514 -0.13727403818197104 0 -0.13727403818197104 3.0321711654178651 0 0 0 0 0.22854885139696535 -1.2253590070249629 0 -1.2253590070249629 7.2446844912901724 0 0 0 0 -6.0830508423468928 5.3424110864643808 0 5.3424110864643808 6.8341245248830091 0 0 0 0 -0.63294850264084512 2.3820452478405958 0 2.3820452478405958 4.8930462558836965 0 0 0 0 -0.15042473907452159 -0.5471373556962984 0 -0.5471373556962984 1.9595529900559439 0 0 0 0 -7.4968681368701482 9.5171958854207332 0 9.5171958854207332 15.212159636375418 0 0 0 0 -4.0744276071517334 8.3487459938387474 0 8.3487459938387474 11.201697691720369 0 0 0 0 -2.6641561149140784 12.533941209360819 0 12.533941209360819 15.673333303388063 0 0 0 0 -4.52814326209716 8.5774514401882698 0 8.5774514401882698 14.939177553242189 0 0 0 0 -5.3492898112938292 6.7318763688708714 0 6.7318763688708714 11.168891599162293 0 0 0 0 -8.8720158964410416 9.0401068877254147 0 9.0401068877254147 18.560648682872852 0 0 0 0 -9.3749488801544203 8.6891557491926505 0 8.6891557491926505 18.773169537987087 0 0 0 0 -7.6852263956533875 13.473220678306461 0 13.473220678306461 24.943096872779279 0 0 0 0 -26.255364136386447 4.798217434583421 0 4.798217434583421 32.697833794132748 0 0 0 0 -18.543764881708228 -4.7384047559171449 0 -4.7384047559171449 19.526731737257705 0 0 0 0 -0.85202486544398348 1.5453694389856061 0 1.5453694389856061 7.5387934539850967 0 0 0 0 -2.027324663629031 -1.2088651333770031 0 -1.2088651333770031 16.969931212212032 0 0 0 0 -11.631763483197282 -1.6169844935205901 0 -1.6169844935205901 17.213988023713682 0 0 0 0 0.58761761856749006 -4.9703334260857481 0 -4.9703334260857481 14.037735237500151 0 0 0 0 2.0649842098586362 -6.0388115446830852 0 -6.0388115446830852 19.067990289724548 0 0 0 0 -18.450707970954134 1.3728025475151071 0 1.3728025475151071 20.773092299914424 0 0 0 0 -22.752760745781529 -6.7138745617367022 0 -6.7138745617367022 6.1572159867318987 0 0 0 0 -18.49415756294357 7.5633968677111625 0 7.5633968677111625 14.41457266373618 0 0 0 0 -28.400940040030946 -0.43050741076149279 0 -0.43050741076149279 26.986692520009456 0 0 0 0 -14.730930541352336 -0.47779430312584736 0 -0.47779430312584736 10.753474094942902 0 0 0 0 0.59232144458997027 -2.3594883378486884 0 -2.3594883378486884 10.797893832650516 0 0 0 0 -0.14335359722326302 -0.82830563182846717 0 -0.82830563182846717 2.3080181785256286 0 0 0 0 0.43271155483007423 -2.0007969373637717 0 -2.0007969373637717 6.4999441517946082 0 0 0 0 -1.4542727486299043 -11.449257060604168 0 -11.449257060604168 25.847570626427114 0 0 0 0 -12.831385941059722 -1.3683103276534894 0 -1.3683103276534894 27.608225819472182 0 0 0 0 -15.65813489555137 -12.817277657286468 0 -12.817277657286468 30.163732197244826 0 0 0 0 -14.359946075489461 -6.0173518727124247 0 -6.0173518727124247 24.142413734199636 0 0 0 0 -5.3596918833019913 -3.6107332346864496 0 -3.6107332346864496 21.086732524012405 0 0 0 0 -3.7237169016079497 3.1921526857586251 0 3.1921526857586251 11.82347645603906 0 0 0 0 -15.393977769594272 9.4779773869131532 0 9.4779773869131532 18.373894371360393 0 0 0 0 -11.95744560636496 3.5019946049908413 0 3.5019946049908413 9.260406310640974 0 0 0 0 -60.939011999327469 -6.173798979934304 0 -6.173798979934304 25.924336501782818 0 0 0 0 -54.617266394633305 -32.814869399227064 0 -32.814869399227064 1.169884824332712 0 0 0 0 -0.77959353750298643 2.0726910062126409 0 2.0726910062126409 1.6105700789498982 0 0 0 0 -2.8095218641479471 3.3142907777446293 0 3.3142907777446293 12.877129609653316 0 0 0 0 -3.8932599900832656 14.106719814572898 0 14.106719814572898 6.8273548652778118 0 0 0 0 -5.5735883907210564 -2.249078766070852 0 -2.249078766070852 18.46263480491757 0 0 0 0 -9.4928182770438525 1.9035613601827208 0 1.9035613601827208 16.944810192165278 0 0 0 0 3.7731875951213851 6.9155633873915576 0 6.9155633873915576 4.1181576345684334 0 0 0 0 9.1191540469424979 16.419466064684002 0 16.419466064684002 20.828438326807373 0 0 0 0 0.3020362678630038 -0.1151451648761519 0 -0.1151451648761519 -0.6334732017539153 0 0 0 0 1.0298689778770012 4.5404376448107087 0 4.5404376448107087 18.496101646966054 0 0 0 0 -0.78122267450333993 6.4781884967389942 0 6.4781884967389942 19.331065528414911 0 0 0 0 -0.093909410723402864 0.29090486702295237 0 0.29090486702295237 0.24936787788557169 0 0 0 0 -1.1383266013710909 -10.648497906166995 0 -10.648497906166995 33.683174482313007 0 0 0 0 17.144305114154292 -14.903091294802834 0 -14.903091294802834 19.301961679685064 0 0 0 0 -10.339226149511546 17.214271055933295 0 17.214271055933295 5.6734600008185225 0 0 0 0 -6.4659510665223934 -2.9697634965023099 0 -2.9697634965023099 11.399943774136318 0 0 0 0 -0.13363966278953132 0.37476303345165007 0 0.37476303345165007 0.26325336406425137 0 0 0 0 -7.7602962950182928 1.6686597057480412 0 1.6686597057480412 27.359089442115874 0 0 0 0 -4.3262410282844144 -5.6724655969044306 0 -5.6724655969044306 18.386119480976049 0 0 0 0 -8.2162172752166498 13.492555619767245 0 13.492555619767245 5.4710972976254197 0 0 0 0 -4.3205697993808529 2.4061430313681704 0 2.4061430313681704 11.182193818868583 0 0 0 0 -12.709482819263506 2.8339448239485137 0 2.8339448239485137 -0.077667022909736261 0 0 0 0 10.986862046750844 20.438751866549865 0 20.438751866549865 -19.191259512082979 0 0 0 0 -24.606294778559374 18.140099438285688 0 18.140099438285688 11.532715816079872 0 0 0 0 -8.3065644928871123 10.010317370405573 0 10.010317370405573 11.152559883552385 0 0 0 0 -5.7787601226270198 9.668452017738673 0 9.668452017738673 10.490300668490363 0 0 0 0 -3.9858672084422651 15.252527306482079 0 15.252527306482079 7.5120237777446164 0 0 0 0 -6.8344780877955458 16.447467609144041 0 16.447467609144041 10.989728738315534 0 0 0 0 -9.9146749637435221 11.949653975576439 0 11.949653975576439 5.8579987300581706 0 0 0 0 -7.7777354776722092 2.0496508960641222 0 2.0496508960641222 9.392898292639984 0 0 0 0 -0.82283223114151394 5.3201565927479351 0 5.3201565927479351 1.5282872098541702 0 0 0 0 0.072204691527179593 15.941119377035648 0 15.941119377035648 18.52005917838278 0 0 0 0 -10.94487779374801 8.6496101836160051 0 8.6496101836160051 58.153408276639311 0 0 0 0 -13.854178909273173 -21.206597468230939 0 -21.206597468230939 76.309368599715981 0 0 0 0 0.84151771676260978 -11.631409827145035 0 -11.631409827145035 30.675099515598959 0 0 0 0 -17.473006142232656 10.52859983768667 0 10.52859983768667 37.49918016871743 0 0 0 0 6.8807790000315663 -4.3716870477846896 0 -4.3716870477846896 -6.8844998109434528 0 0 0 0 0.47995162140261982 9.6600377356935496 0 9.6600377356935496 -14.596825559566241 0 0 0 0 31.247242010805266 -57.131460631951313 0 -57.131460631951313 145.80825098392233 0 0 0 0 71.049828577546066 -48.462120077353575 0 -48.462120077353575 147.07020547718184 0 0 0 0 -46.800487495595576 -78.528552671591569 0 -78.528552671591569 184.1586704788624 0 0 0 0 1.0496151384292842 -0.19401274737975349 0 -0.19401274737975349 -0.19728381284766705 0 0 0 0 15.328856804501314 -78.046476412860784 0 -78.046476412860784 177.14131493611603 0 0 0 0 -89.050022064718647 -34.326463302198647 0 -34.326463302198647 274.97415287190961 0 0 0 0 -10.967507146557921 -50.059760856828689 0 -50.059760856828689 205.46631451771464 0 0 0 0 -101.88354961437113 40.719613972412503 0 40.719613972412503 140.88041348774277 0 0 0 0 -168.26924897753941 -20.912197493289455 0 -20.912197493289455 499.4930738229923 0 0 0 0 -130.10367852691323 43.425603661460968 0 43.425603661460968 2.8943763186525757 0 0 0 0 114.92201495554971 -180.8921261188334 0 -180.8921261188334 -43.841430473130458 0 0 0 0 0.79059630623180088 -0.94975221039920399 0 -0.94975221039920399 1.0586965095908774 0 0 0 0 135.98748607677183 -268.17047981710846 0 -268.17047981710846 237.57298470919159 0 0 0 0 24.198744695378196 31.35826123555762 0 31.35826123555762 -25.352150412833112 0 0 0 0 76.256899571520407 -74.302260987705722 0 -74.302260987705722 132.34266722738539 0 0 0 0 90.364723396371929 -68.185436243808908 0 -68.185436243808908 122.41959808913816 0 0 0 0 -1.554756954968763 -15.457817886036651 0 -15.457817886036651 138.26872808480584 0 0 0 0 71.367508187439114 -41.19867136074663 0 -41.19867136074663 183.25045656127531 0 0 0 0 95.620980948191175 -112.95588372116094 0 -112.95588372116094 203.1359624601655 0 0 0 0 -0.28913422362343699 -197.32274709981448 0 -197.32274709981448 498.99738580145095 0 0 0 0 -25.054655788848606 -67.402512454508724 0 -67.402512454508724 499.97201050294825 0 0 0 0 -20.348768491392864 -81.526298466530989 0 -81.526298466530989 300.19184025167851 0 0 0 0 81.419301895677364 -38.78398970010295 0 -38.78398970010295 137.49577869527275 0 0 0 0 83.677620758124675 -26.053466188444986 0 -26.053466188444986 129.0709667164756 0 0 0 0 0.34347410813568069 -0.0011521001914385209 0 -0.0011521001914385209 0.084697659640013967 0 0 0 0 95.246806034482717 -75.324311206003586 0 -75.324311206003586 143.40851804442718 0 0 0 0 109.55984868063359 -57.456827813649397 0 -57.456827813649397 120.06587772832449 0 0 0 0 102.56211558496744 -29.666207009041727 0 -29.666207009041727 54.314409200993396 0 0 0 0 64.520931666923374 -10.064696796900535 0 -10.064696796900535 118.98197040301056 0 0 0 0 9.8483984069028665 6.3591937908886393 0 6.3591937908886393 63.792712069672234 0 0 0 0 65.183374986608058 -27.262102459096695 0 -27.262102459096695 78.353738794779929 0 0 0 0 25.343860424737944 47.700422535407142 0 47.700422535407142 103.63003624290923 0 0 0 0 27.704690438528058 20.23801745800165 0 20.23801745800165 270.0984111810194 0 0 0 0 -45.578137156600548 36.62301811113548 0 36.62301811113548 267.19307941784518 0 0 0 0 -29.874773105520735 159.18785726199803 0 159.18785726199803 232.15625408407294 0 0 0 0 -55.292226534664003 67.349323258642471 0 67.349323258642471 499.87974639458844 0 0 0 0 -10.594865321400505 58.739013828346742 0 58.739013828346742 227.38732228061235 0 0 0 0 -42.686894010304812 119.70833896629665 0 119.70833896629665 150.44085477352883 0 0 0 0 -28.795775274863335 168.13327672422542 0 168.13327672422542 301.85633512785353 0 0 0 0 0.74457681553974198 303.10962350997488 0 303.10962350997488 499.4420828356815 0 0 0 0 91.344682356821394 152.78995777495129 0 152.78995777495129 114.01638173289393 0 0 0 0 223.61406720078875 -127.7984106922886 0 -127.7984106922886 78.47170061730867 0 0 0 0 -0.41520100335058985 0.74743285620350752 0 0.74743285620350752 1.9735109542477858 0 0 0 0 393.916861140283 390.39481740061819 0 390.39481740061819 144.62360875598279 0 0 0 0 21.409702706805859 65.263969006786283 0 65.263969006786283 67.49211401279581 0 0 0 0 -0.87806874684205993 1.9777155870222813 0 1.9777155870222813 4.1458250266996828 0 0 0 0 -72.252155286680733 58.592152733825515 0 58.592152733825515 143.05438394815701 0 0 0 0 -0.074240148331992689 1.240123417124396 0 1.240123417124396 -0.90180521134722369 0 0 0 0 6.6896812779883135 8.7686930365116496 0 8.7686930365116496 0.38250418276948039 0 0 0 0 -3.9938275573144271 7.527084404983043 0 7.527084404983043 10.896320541123714 0 0 0 0 -3.3287458465524793 7.8393004317704253 0 7.8393004317704253 10.67299250177166 0 0 0 0 43.367736811841453 36.25138817489551 0 36.25138817489551 17.943355213325958 0 0 0 0 -0.12894893602112789 0.14086427985973282 0 0.14086427985973282 -0.075676139120226082 0 0 0 0 -3.0556138543049798 10.690222892634324 0 10.690222892634324 11.925976521144548 0 0 0 0 -144.07006496703985 -20.844159000586387 0 -20.844159000586387 78.412319609959468 0 0 0 0 5.7086821560646932 47.093331697001645 0 47.093331697001645 -8.0180260249198909 0 0 0 0 9.9402388653726135 6.3074472021426118 0 6.3074472021426118 18.824889635426189 0 0 0 0 -32.603699470756965 27.698357835995012 0 27.698357835995012 52.728421772044385 0 0 0 0 -37.955445315833487 -1.6361671535851201 0 -1.6361671535851201 25.980586523868624 0 0 0 0 -38.147686561961436 6.670974653041867 0 6.670974653041867 9.1234056974444684 0 0 0 0 -38.825424513218053 -12.968273277554204 0 -12.968273277554204 42.673030333708084 0 0 0 0 15.158353577103842 -9.1671460434185974 0 -9.1671460434185974 23.167305612485507 0 0 0 0 1.4534598224504087 -38.410159090423804 0 -38.410159090423804 40.038177623560841 0 0 0 0 -27.768701635661401 -1.4509400892884514 0 -1.4509400892884514 13.274551257543862 0 0 0 0 -78.75894335079289 -44.411829272322393 0 -44.411829272322393 3.9052616796296888 0 0 0 0 9.3546741177491697 -41.65681190372834 0 -41.65681190372834 17.290612516794454 0 0 0 0 -27.644352794662161 -26.559794852516688 0 -26.559794852516688 43.22666892165762 0 0 0 0 -0.11872471133412943 0.19489915690520121 0 0.19489915690520121 0.20465431931538802 0 0 0 0 14.722879221408732 -28.101739091387572 0 -28.101739091387572 41.043806650569877 0 0 0 0 8.4400103546780514 -32.652607119326149 0 -32.652607119326149 64.993992733247069 0 0 0 0 24.550631249856202 -46.655845179053358 0 -46.655845179053358 42.889615758044215 0 0 0 0 9.1948392488777131 -36.543980432173385 0 -36.543980432173385 45.137196178785416 0 0 0 0 36.049303474239295 -29.33735295481938 0 -29.33735295481938 68.176743636874562 0 0 0 0 43.882693148430604 -35.74983233672674 0 -35.74983233672674 30.205387663814946 0 0 0 0 68.388645339394557 -5.4296703946256457 0 -5.4296703946256457 56.401175454087024 0 0 0 0 101.27941198944941 -39.137592649724866 0 -39.137592649724866 30.041089302414804 0 0 0 0 48.200151448733557 -47.339165313704768 0 -47.339165313704768 55.994873600466235 0 0 0 0 44.868912157547058 -33.816855138381015 0 -33.816855138381015 22.20049405786358 0 0 0 0 34.142346984297284 -42.268398819222966 0 -42.268398819222966 53.586921087193673 0 0 0 0 83.707787610105129 -12.397813118390332 0 -12.397813118390332 45.792448716321815 0 0 0 0 111.15378406158148 -40.791795539389113 0 -40.791795539389113 55.797114135392803 0 0 0 0 86.353247255538648 -66.109754402972044 0 -66.109754402972044 31.595065360384979 0 0 0 0 67.713383865973015 -4.1284060129877389 0 -4.1284060129877389 9.6135182112429902 0 0 0 0 -3.2993042433178914 17.312550111335895 0 17.312550111335895 30.81413338879247 0 0 0 0 0.77154905501375981 -0.19649070699929183 0 -0.19649070699929183 0.0083025605687865323 0 0 0 0 21.73596791445641 -40.454770921769523 0 -40.454770921769523 46.253306071681436 0 0 0 0 44.136573788886437 29.076569608167574 0 29.076569608167574 7.4548530942938669 0 0 0 0 114.35454509973056 7.6808248791118103 0 7.6808248791118103 -11.257543497238657 0 0 0 0 12.825357779833212 18.876780567087735 0 18.876780567087735 50.290506206208875 0 0 0 0 0.030955682302078458 -0.42518114045378752 0 -0.42518114045378752 -2.1917183896939605 0 0 0 0 1.337936398000287 -0.53372554708191444 0 -0.53372554708191444 0.17129120658658792 0 0 0 0 9.8331110722556332 23.713618935507384 0 23.713618935507384 59.499984469200172 0 0 0 0 30.275594277820204 -16.510117353229248 0 -16.510117353229248 -20.928167230522376 0 0 0 0 7.200952821408622 -58.183885853721002 0 -58.183885853721002 89.149642637524266 0 0 0 0 55.496916098507199 2.2269688759097335 0 2.2269688759097335 4.0611079977893496 0 0 0 0 0.66831636847820519 -0.25693801676940708 0 -0.25693801676940708 0.11219039340501524 0 0 0 0 0.41251803042106339 15.569502853762039 0 15.569502853762039 15.740779179512174 0 0 0 0 6.5237156838124406 8.9421728724273635 0 8.9421728724273635 10.897318626496599 0 0 0 0 5.9318182877510139 11.029063988391954 0 11.029063988391954 17.163161219863468 0 0 0 0 3.5453280585348352 16.514902289033671 0 16.514902289033671 6.2070810356549373 0 0 0 0 -0.3506022360790837 -4.6380388776502741 0 -4.6380388776502741 6.7058204488475894 0 0 0 0 5.2784140126306056 21.292346322432422 0 21.292346322432422 2.4239310610541906 0 0 0 0 6.7530362635428673 5.6093914590510394 0 5.6093914590510394 2.1338862085485744 0 0 0 0 -1.3429607291166121 2.6703381516381341 0 2.6703381516381341 18.515013034967524 0 0 0 0 0.24197869502895744 -0.5134214580640255 0 -0.5134214580640255 0.69986419969622915 0 0 0 0 16.27023139646144 -29.181196081448434 0 -29.181196081448434 48.123640463609263 0 0 0 0 123.6187476965309 91.045204650733581 0 91.045204650733581 54.124731019979663 0 0 0 0 1.0865168404503609 -1.6289504090156122 0 -1.6289504090156122 2.5235114618604761 0 0 0 0 -2.4565765073857619 -22.810104176953246 0 -22.810104176953246 -2.2825986118532455 0 0 0 0 1.0589227128634775 -8.4413520968937519 0 -8.4413520968937519 7.5927996807558884 0 0 0 0 34.720830967406641 -16.057245506818845 0 -16.057245506818845 -3.0187864008385077 0 0 0 0 11.759169225663754 98.304507185321199 0 98.304507185321199 328.03438139588616 0 0 0 0 0.73321808617621897 -0.6626608569132344 0 -0.6626608569132344 0.8098362477770813 0 0 0 0 97.851395729160458 -43.850627257924316 0 -43.850627257924316 -9.8886386877929908 0 0 0 0 32.064057790816605 -2.7910449302189591 0 -2.7910449302189591 353.60409907749067 0 0 0 0 32.261759064723265 9.5092153729701749 0 9.5092153729701749 227.43858466821985 0 0 0 0 98.419383850106527 46.190124357829177 0 46.190124357829177 163.32891676803592 0 0 0 0 101.84138252999355 69.597965985147312 0 69.597965985147312 258.64309631650212 0 0 0 0 26.668317466468977 132.96297262342796 0 132.96297262342796 210.26413517395486 0 0 0 0 69.722503811366721 20.301926521429323 0 20.301926521429323 169.94420465821713 0 0 0 0 67.710970661567103 -54.607716903612527 0 -54.607716903612527 91.160210442399148 0 0 0 0 55.681181891726965 -47.791347302051236 0 -47.791347302051236 87.773110225736673 0 0 0 0 56.208601993735329 -15.718837142330813 0 -15.718837142330813 88.81710110957556 0 0 0 0 133.49496066171139 -56.056538090086178 0 -56.056538090086178 178.83720334036843 0 0 0 0 70.111674857404722 13.157442900449666 0 13.157442900449666 124.57359797596109 0 0 0 0 21.472468684593309 16.293230314768152 0 16.293230314768152 139.34788161347387 0 0 0 0 107.66310949029932 60.961990863158576 0 60.961990863158576 146.49583242539666 0 0 0 0 37.723038534116995 42.180105512083856 0 42.180105512083856 114.19961024082295 0 0 0 0 39.404935333029243 16.672850505058705 0 16.672850505058705 49.950729526414761 0 0 0 0 27.798835303882868 13.848387178825305 0 13.848387178825305 113.42501863490543 0 0 0 0 19.191995763181595 24.910750824481056 0 24.910750824481056 126.40115682071701 0 0 0 0 -43.248902965627735 -17.638661781060364 0 -17.638661781060364 182.36026364006375 0 0 0 0 17.33778089793509 -77.087632088235296 0 -77.087632088235296 287.81676845388029 0 0 0 0 22.562121685900593 -45.177413092114875 0 -45.177413092114875 71.713799949440727 0 0 0 0 45.424445499272451 -46.423138125561309 0 -46.423138125561309 4.3836578494738205 0 0 0 0 -39.397941355425246 -33.843900745349856 0 -33.843900745349856 77.082732113256498 0 0 0 0 -49.144468074031238 11.389630678332196 0 11.389630678332196 7.2610325198866121 0 0 0 0 -0.86235828218318678 -0.095734826380690308 0 -0.095734826380690308 0.43367082794294731 0 0 0 0 8.1118941685735848 -38.671322895067533 0 -38.671322895067533 90.699770734627236 0 0 0 0 6.7483934068705693 -46.575907681599347 0 -46.575907681599347 114.27928360047099 0 0 0 0 16.937709020483734 -49.362017854149713 0 -49.362017854149713 102.43980248776279 0 0 0 0 -16.781938080948521 -40.621938850972356 0 -40.621938850972356 120.1162579831489 0 0 0 0 23.059137617685707 -76.590932182883535 0 -76.590932182883535 140.9318216012407 0 0 0 0 19.412400041181144 -30.641210891809806 0 -30.641210891809806 118.7515254291684 0 0 0 0 20.933715173669469 -4.8108903881166043 0 -4.8108903881166043 65.353870423330591 0 0 0 0 19.167963076677356 -44.679619134765744 0 -44.679619134765744 67.187046000712144 0 0 0 0 19.154702142034669 -33.65068022015987 0 -33.65068022015987 89.622224219088821 0 0 0 0 16.086878177722667 -45.527287161676895 0 -45.527287161676895 96.55655451061466 0 0 0 0 6.8365309304147193 -47.739240344677086 0 -47.739240344677086 96.062156978770872 0 0 0 0 19.584226775133459 -48.549424899139012 0 -48.549424899139012 70.297337295766283 0 0 0 0 14.83944262507346 -38.84361836764856 0 -38.84361836764856 62.442453837093126 0 0 0 0 25.030258434882342 -62.179716953934076 0 -62.179716953934076 87.245303702970887 0 0 0 0 24.081917686836675 -76.618309178210438 0 -76.618309178210438 128.9951721771813 0 0 0 0 11.176989496451696 -52.120382364657416 0 -52.120382364657416 94.997304016527778 0 0 0 0 6.4804204946303798 -57.06072740732543 0 -57.06072740732543 116.05051873555749 0 0 0 0 6.2273814994426147 -43.418784534761471 0 -43.418784534761471 112.08373201763789 0 0 0 0 -0.074894143186000406 -44.463932799799295 0 -44.463932799799295 115.15726738556407 0 0 0 0 -1.8596465157722264 -29.53650809503597 0 -29.53650809503597 98.733834922622918 0 0 0 0 -6.0803305718903573 -33.782325948359357 0 -33.782325948359357 132.13521725824921 0 0 0 0 4.7272746174697886 -44.416829898138076 0 -44.416829898138076 146.53080730956572 0 0 0 0 3.5598237871996616 -50.131450762663917 0 -50.131450762663917 123.41417182644 0 0 0 0 -7.431233581566441 -7.0399422374877076 0 -7.0399422374877076 106.82514580832685 0 0 0 0 4.45827214247673 -30.225665535415828 0 -30.225665535415828 97.452643238863857 0 0 0 0 9.940035840688445 -24.611483349667651 0 -24.611483349667651 75.298724633476922 0 0 0 0 -1.2305877012114614 -1.6917205716840868 0 -1.6917205716840868 1.0257356722981257 0 0 0 0 4.8580873990079567 -23.030381096883502 0 -23.030381096883502 76.373028894564925 0 0 0 0 0.39591515456868531 0.86683237090358034 0 0.86683237090358034 2.1507090239330608 0 0 0 0 -2.8643280198039065 1.5809495910546048 0 1.5809495910546048 77.203884644166465 0 0 0 0 -21.232425579890901 31.998891061445647 0 31.998891061445647 0.3875427574485002 0 0 0 0 -9.2043008602437908 -9.0215587248630982 0 -9.0215587248630982 17.7887826643273 0 0 0 0 -13.12778453473743 -1.7519768380025198 0 -1.7519768380025198 7.0247241707497778 0 0 0 0 0.098839727294208313 0.36472288033845501 0 0.36472288033845501 0.63555870450498375 0 0 0 0 9.3231824303079236 27.72067411009084 0 27.72067411009084 77.151748122101708 0 0 0 0 4.4567368763735828 -89.858685682010446 0 -89.858685682010446 213.03035213041767 0 0 0 0 20.548940906230008 -43.109620135059231 0 -43.109620135059231 102.06433108677084 0 0 0 0 -52.617158018390796 10.314505858298617 0 10.314505858298617 235.93191478107838 0 0 0 0 -0.23542967644573309 11.071762085832688 0 11.071762085832688 27.334148301969435 0 0 0 0 -0.75880168984649521 -0.07123495009336267 0 -0.07123495009336267 0.20095227293289675 0 0 0 0 10.244868932738029 6.0378092283463047 0 6.0378092283463047 8.8151625440409589 0 0 0 0 10.088198444937792 0.54334186313280952 0 0.54334186313280952 55.989659358814606 0 0 0 0 3.418376897648983 -31.766974797611965 0 -31.766974797611965 53.865015603403663 0 0 0 0 3.0298888087856426 -16.508280996851681 0 -16.508280996851681 12.036152932121695 0 0 0 0 -2.4697756846687593 11.540028045561485 0 11.540028045561485 48.211109087245177 0 0 0 0 -3.427910248117513 5.1434308708765002 0 5.1434308708765002 27.522426946747146 0 0 0 0 -2.2116003425597985 0.26649569566807685 0 0.26649569566807685 0.13176079283033104 0 0 0 0 -3.9753835593463691 8.0406688324001152 0 8.0406688324001152 21.838862727230662 0 0 0 0 -11.629659164295276 -2.1653623980237171 0 -2.1653623980237171 103.60717150200344 0 0 0 0 0.34555630928048414 0.011125820936882747 0 0.011125820936882747 0.0072625176176224215 0 0 0 0 1.3932868383030916 -0.51089716257644469 0 -0.51089716257644469 0.40942880893049871 0 0 0 0 10.947635335099967 -26.356044504618012 0 -26.356044504618012 88.382472487400264 0 0 0 0 5.3546202229911302 -27.862663821626484 0 -27.862663821626484 92.235538200415476 0 0 0 0 -1.7801462264945034 -0.61053354242597813 0 -0.61053354242597813 1.0166032896824539 0 0 0 0 -7.82476671006863 -7.4908717638281814 0 -7.4908717638281814 0.64282491546418896 0 0 0 0 -9.7993870954229862 -6.0369975805224385 0 -6.0369975805224385 13.279396439289485 0 0 0 0 1.3111868796192425 -27.260044321599707 0 -27.260044321599707 -31.372883227285456 0 0 0 0 3.277874729896439 -37.719969872547608 0 -37.719969872547608 2.7817541862114012 0 0 0 0 0.52659286912168013 0.078478081579238079 0 0.078478081579238079 -0.0054354139581302974 0 0 0 0 -14.009035785463304 28.45540964792886 0 28.45540964792886 111.45282853494155 0 0 0 0 11.245612544059213 -36.483344685908378 0 -36.483344685908378 43.095299832380988 0 0 0 0 0.49977658774129186 -0.079196717137371309 0 -0.079196717137371309 0.039307274152591276 0 0 0 0 -4.2832662070298682 8.1322582592465551 0 8.1322582592465551 32.803529990209427 0 0 0 0 4.3502791233529479 0.29927699814197695 0 0.29927699814197695 19.118950015681548 0 0 0 0 17.226602012578056 5.5749914798570899 0 5.5749914798570899 -9.1011929144715396 0 0 0 0 -6.2799693700129637 21.612528496402774 0 21.612528496402774 41.31289089603797 0 0 0 0 0.35847984093172869 0.12157038387659824 0 0.12157038387659824 -0.13024712913753334 0 0 0 0 -7.0123478765781329 -4.9768059846155666 0 -4.9768059846155666 -13.288986278660559 0 0 0 0 -11.697939810499292 -1.6327103117237129 0 -1.6327103117237129 -8.0365827764144342 0 0 0 0 -9.9871996407872814 1.7592586784393376 0 1.7592586784393376 11.020339347616755 0 0 0 0 -34.39356822538889 -4.520765013755863 0 -4.520765013755863 6.4215160014573485 0 0 0 0 -0.0010344414520490203 -0.98312156240278603 0 -0.98312156240278603 8.175896568988442 0 0 0 0 4.4370646525044322 -29.733849055300198 0 -29.733849055300198 25.299326909775118 0 0 0 0 -15.600158867414279 11.914790984781575 0 11.914790984781575 19.922559573548824 0 0 0 0 -16.138633976769597 -15.469285476795449 0 -15.469285476795449 15.531405547870236 0 0 0 0 -27.505301792493718 -2.5932736520574906 0 -2.5932736520574906 11.073898779042793 0 0 0 0 0.12514496768417541 -1.5136960088125238 0 -1.5136960088125238 4.6877761003370892 0 0 0 0 -3.2506929329289846 0.625663381444582 0 0.625663381444582 4.8630733465797675 0 0 0 0 23.909154906709091 -9.1137527532646345 0 -9.1137527532646345 -17.491276176976498 0 0 0 0 1.7528226974334005 -3.5959510323317687 0 -3.5959510323317687 2.2980354356027011 0 0 0 0 24.506197712928497 1.8253272449601354 0 1.8253272449601354 -10.296098873235678 0 0 0 0 -9.7784304279113101 0.18980512816710871 0 0.18980512816710871 20.001991396820813 0 0 0 0 -67.719612471556729 1.4631765042186089 0 1.4631765042186089 11.409157333048597 0 0 0 0 2.3627715960434332 -4.8474716230736954 0 -4.8474716230736954 7.5320423597456525 0 0 0 0 -24.363006528927372 -34.99864481143868 0 -34.99864481143868 -23.003935226837712 0 0 0 0 -0.6184890496876152 -0.635049379412294 0 -0.635049379412294 2.3957951058419882 0 0 0 0 -18.925071059290545 -36.794989243551299 0 -36.794989243551299 12.13489995117925 0 0 0 0 22.725761787627221 -21.826735160526368 0 -21.826735160526368 -5.2381841590686236 0 0 0 0 49.477499744812263 22.224439793617876 0 22.224439793617876 13.985977936445124 0 0 0 0 7.9384441477423309 4.9462478771692986 0 4.9462478771692986 31.716001092230726 0 0 0 0 8.768719475906039 22.823059621569882 0 22.823059621569882 108.2887805677783 0 0 0 0 -8.5228439025971596 -14.784806079168447 0 -14.784806079168447 98.22302877695256 0 0 0 0 -0.79978315101155317 -0.062969970567792188 0 -0.062969970567792188 61.638648121730512 0 0 0 0 13.803139359793676 2.4109232988603253 0 2.4109232988603253 31.812950198114777 0 0 0 0 -0.037154722722385243 -10.863002097339631 0 -10.863002097339631 14.201312783188769 0 0 0 0 -8.9967461071565324 -44.495763755881399 0 -44.495763755881399 58.070046576820459 0 0 0 0 -6.690098771038123 -21.684948439960863 0 -21.684948439960863 36.343394554907718 0 0 0 0 0.057560070088305187 -0.079636988500457306 0 -0.079636988500457306 -0.13040404670748273 0 0 0 0 -3.2616094930138928 2.8783820733660832 0 2.8783820733660832 40.784928998341911 0 0 0 0 -0.77746316697237627 -1.8677341834463732 0 -1.8677341834463732 2.5258666979898408 0 0 0 0 1.1296404770244375 -1.3656013840543508 0 -1.3656013840543508 0.87159250530039589 0 0 0 0 1.2268477111436784 -2.1450777644140544 0 -2.1450777644140544 3.1265715546687716 0 0 0 0 1.2414552969437835 -1.9657935370523774 0 -1.9657935370523774 1.9539759312901879 0 0 0 0 -0.063371471996363282 -0.17642675838762045 0 -0.17642675838762045 0.98553365739546717 0 0 0 0 0.2266253736394272 -0.38788023096362778 0 -0.38788023096362778 0.6060269891650627 0 0 0 0 0.0020442406110408057 -0.80078056625643512 0 -0.80078056625643512 1.7955431117807166 0 0 0 0 -5.7255253916123365 17.579773427667533 0 17.579773427667533 1.1720053791714236 0 0 0 0 -3.870368610554948 -15.371298598059184 0 -15.371298598059184 9.735900254579974 0 0 0 0 0.047706707087055877 -0.80264771009962033 0 -0.80264771009962033 0.5862835112992002 0 0 0 0 0.99504583090026344 -1.4426120838056704 0 -1.4426120838056704 5.595747657611355 0 0 0 0 -0.6007405933319947 -0.86526240660935905 0 -0.86526240660935905 3.2085669402650865 0 0 0 0 -0.045443252693136808 12.882860882823985 0 12.882860882823985 -1.5848153895494761 0 0 0 0 1.235035045759048 -2.8996767806784192 0 -2.8996767806784192 4.1371791360581938 0 0 0 0 -0.49184208309384303 -2.1747495699382853 0 -2.1747495699382853 5.5923672351163987 0 0 0 0 -3.1737473972264567 7.2138769333951132 0 7.2138769333951132 -11.651627818011548 0 0 0 0 -3.8488292620768494 6.9518347205084865 0 6.9518347205084865 -11.745658281826763 0 0 0 0 -0.97422879893515235 0.48326763708510256 0 0.48326763708510256 1.9042479667106988 0 0 0 0 -6.6792598520353259 14.708030924057766 0 14.708030924057766 -5.4147585552163946 0 0 0 0 -0.71841963691744393 0.897637700360157 0 0.897637700360157 1.7947588871349573 0 0 0 0 -4.1873046508016074 15.049199267881704 0 15.049199267881704 -15.579978349920566 0 0 0 0 -5.8241892094298606 6.2420096859150362 0 6.2420096859150362 -7.3341099942626897 0 0 0 0 -8.0909164106700331 5.5375059042726207 0 5.5375059042726207 2.6771073397012515 0 0 0 0 -5.8473720101415836 9.5006754380847269 0 9.5006754380847269 0.53002209466649219 0 0 0 0 -10.396142509861278 11.219742915463939 0 11.219742915463939 6.6243485256345593 0 0 0 0 -6.5910398712043445 1.8239539951828192 0 1.8239539951828192 -10.398025011043501 0 0 0 0 -25.041651866043054 20.507350606403634 0 20.507350606403634 -15.842930312144745 0 0 0 0 -11.921378154756837 8.8325689382909331 0 8.8325689382909331 5.3114604702132056 0 0 0 0 -13.035130094568103 5.4327619371069886 0 5.4327619371069886 -0.37371732493920717 0 0 0 0 -10.662938200451464 1.4625525131341419 0 1.4625525131341419 -8.1619702867719752 0 0 0 0 -8.3333300969082416 5.7064619246375514 0 5.7064619246375514 -5.1205408803216415 0 0 0 0 -11.113126936310607 9.7361363358322706 0 9.7361363358322706 6.8269212585946661 0 0 0 0 -0.22149627266087984 0.43363481866628462 0 0.43363481866628462 -0.4476668642336179 0 0 0 0 -0.28099001257874079 -1.3105138372293368 0 -1.3105138372293368 8.3239878489875991 0 0 0 0 -5.0403628181110784 4.0566350922562613 0 4.0566350922562613 2.5981221272189785 0 0 0 0 0.06540692420094274 -2.6269493661466186 0 -2.6269493661466186 4.8596879233045911 0 0 0 0 0.84173368892652434 -3.3096844622969002 0 -3.3096844622969002 5.4599173693347893 0 0 0 0 1.6893403336855197 -3.4599463491471294 0 -3.4599463491471294 5.3222551688129087 0 0 0 0 -0.35459126702009924 -2.2130422165974082 0 -2.2130422165974082 3.9387156933468646 0 0 0 0 -8.0703647631796684 -8.4162290914546247 0 -8.4162290914546247 6.5567066925141262 0 0 0 0 -10.162855232108541 -20.089641614016728 0 -20.089641614016728 -7.6020077547018445 0 0 0 0 -36.754513712968446 -14.789237748587766 0 -14.789237748587766 25.14643351079576 0 0 0 0 -22.568434484222962 -4.0542424047998793 0 -4.0542424047998793 23.547089987052459 0 0 0 0 -17.012802760833267 13.37409632964841 0 13.37409632964841 11.691050955270839 0 0 0 0 -12.785633482729338 33.505474378245708 0 33.505474378245708 -4.3212303743985103 0 0 0 0 -5.0099514889137442 1.8053715730991478 0 1.8053715730991478 9.4469910686456267 0 0 0 0 5.937416151009927 -29.815921212976718 0 -29.815921212976718 64.012505650635831 0 0 0 0 0.75513412160384252 -1.3505081241258772 0 -1.3505081241258772 2.1733329541304727 0 0 0 0 -17.841950931114127 2.4241970168745297 0 2.4241970168745297 30.270801547925657 0 0 0 0 -22.508248881630607 7.1203091803527059 0 7.1203091803527059 15.235609888273757 0 0 0 0 -18.161242733714062 -3.4625901989002159 0 -3.4625901989002159 4.1416623450231782 0 0 0 0 -19.04203140132563 -2.4037388890819784 0 -2.4037388890819784 35.425723116980407 0 0 0 0 -0.19123375500685302 0.33237713710865435 0 0.33237713710865435 0.23647492487646815 0 0 0 0 -2.5829319807073716 3.5878925098186301 0 3.5878925098186301 28.909931124358991 0 0 0 0 14.812145924453262 6.4041615315127274 0 6.4041615315127274 3.4760902749267188 0 0 0 0 10.748490009976592 -10.0187348975644 0 -10.0187348975644 35.301593703698018 0 0 0 0 21.068839119187487 4.7084480839566822 0 4.7084480839566822 17.537937544362649 0 0 0 0 -2.8499390681467389 1.7915002993111102 0 1.7915002993111102 18.567076671992254 0 0 0 0 52.060452918165538 -17.216040986328153 0 -17.216040986328153 21.15455595208914 0 0 0 0 20.486271738949938 -0.34715423515172006 0 -0.34715423515172006 26.3013913115592 0 0 0 0 -3.4739494783486862 15.154167935735131 0 15.154167935735131 17.937486093156622 0 0 0 0 20.64007275319409 -1.3528420363782061 0 -1.3528420363782061 17.240964243666724 0 0 0 0 -51.334591636445566 -31.026962870651914 0 -31.026962870651914 7.0937778861771221 0 0 0 0 -27.614890041552826 7.1998655215938925 0 7.1998655215938925 28.530259816888019 0 0 0 0 16.210698429183878 -39.420785881946358 0 -39.420785881946358 60.932495866668432 0 0 0 0 12.617084212971577 -27.455921787369334 0 -27.455921787369334 43.8246976646642 0 0 0 0 6.2002650991406654 7.0715134589054287 0 7.0715134589054287 21.250662184476823 0 0 0 0 34.84031925897807 -34.638951538885522 0 -34.638951538885522 63.529697791209401 0 0 0 0 46.589792338951156 -45.546040868861382 0 -45.546040868861382 40.654440545173088 0 0 0 0 19.672067944900789 -50.186363546585198 0 -50.186363546585198 86.089123004087014 0 0 0 0 35.140721495398054 -62.573825149178447 0 -62.573825149178447 85.94108813256112 0 0 0 0 54.336090413984778 -100.63905745282852 0 -100.63905745282852 150.44728621852664 0 0 0 0 66.59558651433386 -57.994499324604362 0 -57.994499324604362 59.017946266665604 0 0 0 0 62.052902830109019 -71.25149744322789 0 -71.25149744322789 110.29737575587933 0 0 0 0 27.045955348545874 -39.897628217046076 0 -39.897628217046076 276.18959488061955 0 0 0 0 142.10419441594968 -145.51031799126213 0 -145.51031799126213 146.17759781521636 0 0 0 0 19.980463257007557 -58.119056486042155 0 -58.119056486042155 158.807439627034 0 0 0 0 34.62793154665161 -39.376322135109149 0 -39.376322135109149 169.33546060967728 0 0 0 0 59.546106605371733 -33.817080375116348 0 -33.817080375116348 -21.931755000355224 0 0 0 0 -52.911773483147812 40.433918090764294 0 40.433918090764294 11.855523358128266 0 0 0 0 58.074697523602936 -60.304885756102522 0 -60.304885756102522 83.25302577124603 0 0 0 0 90.108203111942203 -42.093135205579529 0 -42.093135205579529 9.8565536545866053 0 0 0 0 76.39695733014014 -53.16634172774684 0 -53.16634172774684 84.205066596639881 0 0 0 0 117.09114256983071 -165.43220212384222 0 -165.43220212384222 120.93977240873028 0 0 0 0 136.73547478211924 -208.06242472905225 0 -208.06242472905225 205.8613993996878 0 0 0 0 -62.423093557282073 18.747878083967407 0 18.747878083967407 31.958301381704587 0 0 0 0 136.78194008583682 -68.662476961129869 0 -68.662476961129869 -23.83650359427611 0 0 0 0 11.933921337514676 70.702380231554343 0 70.702380231554343 366.30155722888958 0 0 0 0 205.36592793742284 -187.45171163729992 0 -187.45171163729992 93.307267282594694 0 0 0 0 1.0504631159479549 -1.6815135504290417 0 -1.6815135504290417 3.2538981029950236 0 0 0 0 40.85553011838465 -94.381394481990355 0 -94.381394481990355 516.12691094079401 0 0 0 0 34.984001535750167 -170.77813278520989 0 -170.77813278520989 204.16957437822788 0 0 0 0 106.29014876037218 -295.46396441708521 0 -295.46396441708521 386.36825211806172 0 0 0 0 93.794483965798463 94.97919331934645 0 94.97919331934645 402.00872020617874 0 0 0 0 -16.966343509403714 -28.406001160840788 0 -28.406001160840788 267.81821572705303 0 0 0 0 108.283108482731 -8.1903907584382978 0 -8.1903907584382978 197.77652099100214 0 0 0 0 79.271600357789566 110.44705831089959 0 110.44705831089959 170.42503189329454 0 0 0 0 -0.15005464785569345 0.079831784122035288 0 0.079831784122035288 0.69333921329500114 0 0 0 0 88.216075884173961 -112.48766124778922 0 -112.48766124778922 398.03828860517388 0 0 0 0 379.71927899665502 16.949782540924389 0 16.949782540924389 192.16128903899516 0 0 0 0 247.8525160981489 -210.20536811584179 0 -210.20536811584179 439.27273872110891 0 0 0 0 -0.41703298264912814 -1.4739881422488956 0 -1.4739881422488956 0.61701999978103927 0 0 0 0 -17.952630369973576 -33.882069593647429 0 -33.882069593647429 -29.342214701353441 0 0 0 0 -6.6772486866653384 -20.087588548256548 0 -20.087588548256548 204.3876964351366 0 0 0 0 14.093116717327149 -163.65539998187751 0 -163.65539998187751 503.82953808515776 0 0 0 0 0.037491710370201936 -0.46616041767692806 0 -0.46616041767692806 0.30846549964442627 0 0 0 0 70.330145232016079 -237.59767100279316 0 -237.59767100279316 -153.81860335132478 0 0 0 0 -36.27057661856179 26.103115034115035 0 26.103115034115035 46.715024259618986 0 0 0 0 -10.464187397735429 -29.686168770218728 0 -29.686168770218728 103.6980275378628 0 0 0 0 -44.185022543046102 49.723674792097881 0 49.723674792097881 141.5771362764599 0 0 0 0 -48.402024492056739 16.081581528222159 0 16.081581528222159 125.52282837002713 0 0 0 0 -15.68951021988596 37.26654746215354 0 37.26654746215354 64.731212834890243 0 0 0 0 -75.672347847629197 -29.42459221043282 0 -29.42459221043282 65.085088707270188 0 0 0 0 -21.840031466143273 61.003917223561075 0 61.003917223561075 116.01964621680054 0 0 0 0 3.4506759116445664 9.1776075896286784 0 9.1776075896286784 18.340244076838189 0 0 0 0 -52.977165383523925 50.151758837178932 0 50.151758837178932 169.23671336592633 0 0 0 0 34.436883038375981 28.098715206513589 0 28.098715206513589 173.23094938241411 0 0 0 0 -0.060782921101629084 -0.07880295868970677 0 -0.07880295868970677 0.22212804190233548 0 0 0 0 -4.3410973063258211 17.652794459066627 0 17.652794459066627 12.082210456430403 0 0 0 0 0.10826927610577064 0.17140959488361318 0 0.17140959488361318 -0.015193294311734107 0 0 0 0 1.660137660260375 32.364838223020342 0 32.364838223020342 78.112055622867956 0 0 0 0 67.100003422058364 27.179927557021301 0 27.179927557021301 -15.187642459088238 0 0 0 0 57.453828974767561 62.270828763554618 0 62.270828763554618 118.36380736274441 0 0 0 0 18.84015174217916 43.676792272853163 0 43.676792272853163 96.903634454138228 0 0 0 0 67.702582525071932 25.662236343421682 0 25.662236343421682 15.180887476988573 0 0 0 0 23.919799607459026 65.569200299879412 0 65.569200299879412 91.934901892559083 0 0 0 0 27.477386719606557 22.260267520196066 0 22.260267520196066 27.795999171199583 0 0 0 0 39.018378338989237 9.290927803179784 0 9.290927803179784 7.4150161770412524 0 0 0 0 9.3280335416088747 -16.47944643586743 0 -16.47944643586743 27.772562175950952 0 0 0 0 -5.5811234792664663 3.3044212748845894 0 3.3044212748845894 2.1067449588626914 0 0 0 0 -5.9222234247615688 3.8249613503649016 0 3.8249613503649016 13.754524490815243 0 0 0 0 -2.9800750362499002 -4.5343681832300717 0 -4.5343681832300717 5.4472246175264445 0 0 0 0 -3.1925406213578071 -3.3556472661430234 0 -3.3556472661430234 13.429453765151266 0 0 0 0 -0.94370708417142257 0.064429675563214772 0 0.064429675563214772 2.2273400847845082 0 0 0 0 11.218212559613107 -93.656303333227697 0 -93.656303333227697 224.83455584481908 0 0 0 0 10.801405773469035 -96.685872694306795 0 -96.685872694306795 214.08777924010974 0 0 0 0 -0.77486914496722226 0.4419942569143771 0 0.4419942569143771 1.4673240945432759 0 0 0 0 72.151428341169549 -193.23010964621426 0 -193.23010964621426 404.14677619168651 0 0 0 0 41.890500498862252 -131.89846389565355 0 -131.89846389565355 410.82555470324223 0 0 0 0 -3.0910937520393418 -49.481078859567788 0 -49.481078859567788 300.08977598470847 0 0 0 0 79.342870522301851 -159.3245277784381 0 -159.3245277784381 287.36155705638521 0 0 0 0 -30.931173832253549 -45.528213909815349 0 -45.528213909815349 244.53922822980894 0 0 0 0 -23.723909631735452 -64.77136573915277 0 -64.77136573915277 289.38185457214786 0 0 0 0 -17.7777734447819 -48.019894857715826 0 -48.019894857715826 215.9642325661116 0 0 0 0 -3.5147660912348897 -8.1930434200148738 0 -8.1930434200148738 121.21040726034835 0 0 0 0 -17.313539677742909 28.683816012824082 0 28.683816012824082 178.01600642222547 0 0 0 0 8.227947801398841 -14.920463852184184 0 -14.920463852184184 243.20623684034217 0 0 0 0 44.487854092289354 125.06820302667256 0 125.06820302667256 94.313396796656889 0 0 0 0 -15.238040094754695 20.716094883274309 0 20.716094883274309 336.85999507869201 0 0 0 0 -27.033841880705012 16.221273199403186 0 16.221273199403186 256.33916024333303 0 0 0 0 -20.569577377040037 -51.902013757985515 0 -51.902013757985515 181.64150318892098 0 0 0 0 -0.0077121077905928821 -49.562426548798612 0 -49.562426548798612 128.33371051961331 0 0 0 0 -18.20720075378739 -28.693510904089635 0 -28.693510904089635 123.08863596936862 0 0 0 0 -6.8301538610654404 -16.710919318518791 0 -16.710919318518791 80.171909076412703 0 0 0 0 -10.943846105498061 -34.925062524162286 0 -34.925062524162286 114.49149679073525 0 0 0 0 -4.3175038442061187 7.8690557648581603 0 7.8690557648581603 114.16882288833585 0 0 0 0 -24.033497687522797 -35.023262827468898 0 -35.023262827468898 179.88006030126962 0 0 0 0 -16.312953543816747 -42.700123947201973 0 -42.700123947201973 172.54965894622273 0 0 0 0 -27.027506769045868 -37.290365715499775 0 -37.290365715499775 196.56123818582819 0 0 0 0 -0.04131903026842218 -71.555286527993303 0 -71.555286527993303 239.7927028965114 0 0 0 0 1.4425613107203219 -59.959735209261453 0 -59.959735209261453 207.02093531775199 0 0 0 0 -6.0353847814141943 -73.780896813826985 0 -73.780896813826985 183.08564822381959 0 0 0 0 4.0539604632228929 8.8909612379284226 0 8.8909612379284226 149.43177034529435 0 0 0 0 -3.5991444224601992 -0.1588212326505527 0 -0.1588212326505527 255.63276797201956 0 0 0 0 0.00193619045355299 -1.3432186349611206 0 -1.3432186349611206 2.3125262949779426 0 0 0 0 0.13620219882631257 -0.39267768311393425 0 -0.39267768311393425 0.90160380519678185 0 0 0 0 0.18416142533265981 -0.37616434912238006 0 -0.37616434912238006 0.53435292689637848 0 0 0 0 0.29877125667109616 -0.9598278165285592 0 -0.9598278165285592 2.6268688732743612 0 0 0 0 -11.842431762514979 14.548558535708253 0 14.548558535708253 5.273532995084679 0 0 0 0 -24.821247742689696 12.047319022196461 0 12.047319022196461 31.142511047873995 0 0 0 0 22.44678204420336 -34.372560714976316 0 -34.372560714976316 27.403490714019426 0 0 0 0 -26.863519154249104 0.12485200666560559 0 0.12485200666560559 47.521624271481414 0 0 0 0 19.380883382404086 -15.421494002086547 0 -15.421494002086547 9.8456539193466597 0 0 0 0 1.764559751505665 -21.75446700370594 0 -21.75446700370594 37.092252532820567 0 0 0 0 -3.3794672813675675 -3.8991466244006006 0 -3.8991466244006006 7.5934889369927987 0 0 0 0 3.4195010841766731 -10.101043049113287 0 -10.101043049113287 10.492891970196979 0 0 0 0 6.2594315455539729 -5.3473240127186727 0 -5.3473240127186727 2.2278285472912103 0 0 0 0 10.281010749061771 -4.3306778696114634 0 -4.3306778696114634 2.0110352399842668 0 0 0 0 -0.83261822977322253 -5.5284656589683436 0 -5.5284656589683436 3.541266609370723 0 0 0 0 -0.0048905814522765077 -0.936093094484022 0 -0.936093094484022 3.9735136070739827 0 0 0 0 1.6144269595380081 -6.6417686832955951 0 -6.6417686832955951 4.210983721568482 0 0 0 0 -0.68725710534953599 -6.1628260201559897 0 -6.1628260201559897 4.439224564174765 0 0 0 0 -0.034540166291542107 -4.4456273005616822 0 -4.4456273005616822 -2.4622799274875433 0 0 0 0 -1.3647088448159055 -2.3573982430707474 0 -2.3573982430707474 0.4236542595026549 0 0 0 0 1.2105288879760927 -2.4245250476415094 0 -2.4245250476415094 -4.5410826580427965 0 0 0 0 -2.9562634784070951 -12.9385276570938 0 -12.9385276570938 13.173721880667159 0 0 0 0 -2.79466237090611 -9.8184327672038307 0 -9.8184327672038307 -5.5309281412319251 0 0 0 0 1.7387947098399439 -2.5364276690331202 0 -2.5364276690331202 2.6792373632218833 0 0 0 0 -2.0122358854725064 20.954377391095477 0 20.954377391095477 -3.7569583498925567 0 0 0 0 -2.3896274948290852 0.10802737004269147 0 0.10802737004269147 2.2733948624390905 0 0 0 0 0.090303815184651609 -0.1714424992921515 0 -0.1714424992921515 0.25744224320328613 0 0 0 0 15.92933958999053 -3.1497475977325848 0 -3.1497475977325848 1.4769972067260824 0 0 0 0 4.1977231677449893 2.1470222957614169 0 2.1470222957614169 -0.12948565106853493 0 0 0 0 1.7878800668433428 3.2900995670879638 0 3.2900995670879638 6.1948127364314587 0 0 0 0 1.4739880499909686 -2.2042837652438436 0 -2.2042837652438436 2.1980266801486081 0 0 0 0 5.0445509826426616 -7.6192262127016193 0 -7.6192262127016193 6.9406110042036744 0 0 0 0 0.49255833376814712 -0.42080952858478327 0 -0.42080952858478327 0.84217918475900433 0 0 0 0 0.36860018942346429 -0.94479357286400045 0 -0.94479357286400045 1.1421810053379886 0 0 0 0 0.45452090481362045 -0.69241470616360701 0 -0.69241470616360701 2.3918400926391001 0 0 0 0 0.080851812266465789 -0.11458930525985522 0 -0.11458930525985522 0.39646202638101435 0 0 0 0 1.8127465834015304 -0.53266143717701198 0 -0.53266143717701198 2.2182174005065463 0 0 0 0 0.17190481970176208 -1.3844280131247615 0 -1.3844280131247615 0.1663231355651078 0 0 0 0 0.46418635243480999 -1.4227338671507823 0 -1.4227338671507823 0.11800476233111112 0 0 0 0 0.48514748036083866 -1.1822056301607518 0 -1.1822056301607518 0.33512014773896226 0 0 0 0 -0.9697069630519799 -2.0987906987625138 0 -2.0987906987625138 0.47195697924780688 0 0 0 0 3.4085029493566452 -5.4466237755850671 0 -5.4466237755850671 5.646895342728385 0 0 0 0 -1.0242543335981615 -4.5626522367947473 0 -4.5626522367947473 6.2173583941075776 0 0 0 0 0.95075557632995888 -5.9913480201748825 0 -5.9913480201748825 7.6392296900758083 0 0 0 0 0.026043124635507925 -0.0045017550867179068 0 -0.0045017550867179068 -0.055184917122777399 0 0 0 0 1.4692519312955206 -1.2478459737922094 0 -1.2478459737922094 0.93535068759683782 0 0 0 0 3.4833966157620857 -4.5735027281061775 0 -4.5735027281061775 6.4208383200693788 0 0 0 0 1.401346362642689 -0.43434594900645607 0 -0.43434594900645607 -2.5728649853790557 0 0 0 0 -0.015115953201934262 -0.48759850664123405 0 -0.48759850664123405 0.1543761199209257 0 0 0 0 0.69667901807850408 -1.5596773458519237 0 -1.5596773458519237 0.30531101686028705 0 0 0 0 0.0042499577933770684 -2.5674040256099033 0 -2.5674040256099033 4.7836133185173821 0 0 0 0 0.98868783514255587 0.044280784276452323 0 0.044280784276452323 1.3574737834360349 0 0 0 0 0.00071046371628717751 -0.64908261363096986 0 -0.64908261363096986 2.8102130539500649 0 0 0 0 0.27193672215389419 0.44204407908910071 0 0.44204407908910071 4.7536453087918744 0 0 0 0 2.391963457918338 0.1622077935408015 0 0.1622077935408015 1.7864115645861602 0 0 0 0 1.2797399319130598 -0.73100316397722054 0 -0.73100316397722054 0.15473961331070818 0 0 0 0 0.62873019386087514 -1.023969018884145 0 -1.023969018884145 1.4224951133292052 0 0 0 0 0.87087610380582792 -1.7328229391209788 0 -1.7328229391209788 0.93552427446775255 0 0 0 0 0.640216243236015 -0.71266356043543055 0 -0.71266356043543055 1.5662170265636632 0 0 0 0 0.26513468784246719 -2.2332503126524443 0 -2.2332503126524443 0.10488354417611845 0 0 0 0 1.0444900261256977 -1.3795508174825954 0 -1.3795508174825954 0.25479544156951306 0 0 0 0 1.2232226515267315 -1.5283278916122072 0 -1.5283278916122072 2.3868597957589373 0 0 0 0 5.5045649133393084 0.21177949520733819 0 0.21177949520733819 2.8624706759751462 0 0 0 0 -0.45752217528358408 -1.772941052922306 0 -1.772941052922306 8.1327079800157662 0 0 0 0 2.5641523746406483 3.9632793328228217 0 3.9632793328228217 4.3710750358550285 0 0 0 0 0.0017847140208514343 0.0062876837567311661 0 0.0062876837567311661 0.079787852123800462 0 0 0 0 2.2298668078774742 -2.8283123345545391 0 -2.8283123345545391 2.1055840985354735 0 0 0 0 0.0093990792979353754 -1.8895781017390618 0 -1.8895781017390618 7.5579667367599086 0 0 0 0 0.10861054034635009 -1.7770662021539465 0 -1.7770662021539465 3.7834024188632611 0 0 0 0 0.10177195162766584 0.048829189494426828 0 0.048829189494426828 4.7169532488460391 0 0 0 0 -0.0017442895162054905 -0.47372115205143928 0 -0.47372115205143928 5.6794156515898067 0 0 0 0 0.52250655460136097 1.3704916380875147 0 1.3704916380875147 7.9753422145749937 0 0 0 0 0.66996597115341316 -0.74262844185295762 0 -0.74262844185295762 1.9580649742092646 0 0 0 0 -0.077529286665406261 -0.51112056561123609 0 -0.51112056561123609 1.987144729730062 0 0 0 0 0.097786440098629995 0.21405388889907151 0 0.21405388889907151 1.5316307412456496 0 0 0 0 -0.10999773595471014 -0.33809825362731516 0 -0.33809825362731516 1.6677972613909411 0 0 0 0 0.62973033027472702 0.83039075691249309 0 0.83039075691249309 3.1495656576325928 0 0 0 0 0.063605866956244483 1.1977210341628961 0 1.1977210341628961 -1.4718813177605625 0 0 0 0 0.88277801681441792 -1.7293415166257091 0 -1.7293415166257091 1.0971621672615584 0 0 0 0 0.087470283778340985 -0.35271734711113822 0 -0.35271734711113822 1.4443874815842719 0 0 0 0 0.008689385059838628 1.9572099827855709 0 1.9572099827855709 8.5276748737405796 0 0 0 0 0.61043798688441342 -3.2151005912801338 0 -3.2151005912801338 8.0861730441156396 0 0 0 0 3.7989028994466452 -3.1039006117280223 0 -3.1039006117280223 1.4409312732232138 0 0 0 0 -0.67165136271957238 8.3416837614427095 0 8.3416837614427095 2.6035550607266487 0 0 0 0 0.068481516701476675 -0.021508808959636028 0 -0.021508808959636028 1.4931369522986628 0 0 0 0 -2.5066359714405735 -0.5023732837425996 0 -0.5023732837425996 2.302572402217038 0 0 0 0 -0.70661293284162774 -0.50570236369094346 0 -0.50570236369094346 1.8273596051094501 0 0 0 0 -2.0648319949918097 0.65647416646879719 0 0.65647416646879719 4.3062581102503827 0 0 0 0 0.28322535380274871 2.0281146555671512 0 2.0281146555671512 1.8826680387228407 0 0 0 0 0.048737012816431627 -0.33309213837478246 0 -0.33309213837478246 1.6987413456934632 0 0 0 0 0.0052112274912686218 -0.37906616732975174 0 -0.37906616732975174 1.5439153636828777 0 0 0 0 -3.0211430876288468 -2.394789314587797 0 -2.394789314587797 2.7310518106310155 0 0 0 0 -0.0070537225880613619 -0.28009598164089766 0 -0.28009598164089766 2.0830124066669669 0 0 0 0 0.20595178908430301 -0.58635670510446047 0 -0.58635670510446047 0.86876587888046686 0 0 0 0 0.92664520467120326 0.39798815373978869 0 0.39798815373978869 1.4014852653708658 0 0 0 0 1.3550543406539646 0.3575230561200442 0 0.3575230561200442 1.6867584794554205 0 0 0 0 1.580599748494194 0.85677562360615411 0 0.85677562360615411 2.2508740135608605 0 0 0 0 0.26361638172393365 -0.38139098658529846 0 -0.38139098658529846 1.2460176814167099 0 0 0 0 0.89002361223572279 0.56097910874632362 0 0.56097910874632362 2.0044578236762902 0 0 0 0 0.91942911461933363 0.42848617944218859 0 0.42848617944218859 1.6752410617409623 0 0 0 0 0.4041330143455717 0.41550865741191956 0 0.41550865741191956 2.9269703273603227 0 0 0 0 1.6516543784193463 1.0763875087141059 0 1.0763875087141059 1.4871498319553211 0 0 0 0 0.48219381406622663 0.72290074617193412 0 0.72290074617193412 1.6787376635399482 0 0 0 0 0.48374738954633401 0.56897249223635527 0 0.56897249223635527 1.4122343119139487 0 0 0 0 0.53141064768465185 0.47804492933119036 0 0.47804492933119036 2.9628896147369232 0 0 0 0 0.78872548671773757 0.93606107814230199 0 0.93606107814230199 2.1685247589152823 0 0 0 0 0.25532084052370552 -0.2749448872403164 0 -0.2749448872403164 0.81820717399924447 0 0 0 0 1.1350754763237347 1.1993383129797621 0 1.1993383129797621 2.9489672671861626 0 0 0 0 -0.24219523673938687 0.1835127055907062 0 0.1835127055907062 1.9284552961509007 0 0 0 0 1.0883144649506262 0.24684053248961746 0 0.24684053248961746 0.15224231653780063 0 0 0 0 0.95529178447242202 0.37274861799414793 0 0.37274861799414793 1.5309889288546401 0 0 0 0 1.3521696119082094 0.22466446956968866 0 0.22466446956968866 1.5565454715833766 0 0 0 0 0.87720178116092029 0.040686161597477621 0 0.040686161597477621 1.8822678237629589 0 0 0 0 -0.78311394094621001 2.2081744425913712 0 2.2081744425913712 2.7321422706663725 0 0 0 0 0.16943607066707542 0.58902928891167239 0 0.58902928891167239 1.2697551846076394 0 0 0 0 0.47485142783801848 0.18778412037408998 0 0.18778412037408998 1.8565223808691371 0 0 0 0 0.16168572485522453 -0.39606361338637086 0 -0.39606361338637086 1.236888971651581 0 0 0 0 0.25698750039727969 -0.17677485726562736 0 -0.17677485726562736 1.664067795194569 0 0 0 0 0.067575387000944495 -0.40153054329891091 0 -0.40153054329891091 1.3291053080320196 0 0 0 0 1.5008013129211406 1.2756743148129317 0 1.2756743148129317 2.7982452388878301 0 0 0 0 1.2585889812909841 0.32118667493364228 0 0.32118667493364228 2.2593027677085047 0 0 0 0 1.2435528379229015 -0.070544021394677969 0 -0.070544021394677969 0.56103435342247643 0 0 0 0 1.1782906903779349 0.55839860152968868 0 0.55839860152968868 2.6312813763888698 0 0 0 0 0.69343899582398405 -0.54496867255610226 0 -0.54496867255610226 0.74342716236495932 0 0 0 0 0.9534889503047097 -0.021590630725540905 0 -0.021590630725540905 4.9804650829591992 0 0 0 0 0.73514278486739215 0.38871195517003798 0 0.38871195517003798 3.593458130279032 0 0 0 0 1.3957277732413473 -0.13602220076882077 0 -0.13602220076882077 3.2471407826960785 0 0 0 0 1.1463727354619366 0.45958196703783827 0 0.45958196703783827 1.1761812335900563 0 0 0 0 8.5498530824107775 -12.279572677084616 0 -12.279572677084616 -13.975940287137746 0 0 0 0 1.0460608006828773 -1.5757188416999881 0 -1.5757188416999881 2.0513062928849202 0 0 0 0 7.6573731593555294 -5.6886543189648364 0 -5.6886543189648364 4.8926008810449275 0 0 0 0 5.6409312270669716 4.0255299704203935 0 4.0255299704203935 -9.6690467026642182 0 0 0 0 28.541626168004029 14.997700663029718 0 14.997700663029718 10.71563847978905 0 0 0 0 20.455410159042117 17.051559775984515 0 17.051559775984515 12.706449105628053 0 0 0 0 6.2141873355481607 1.9474694835553237 0 1.9474694835553237 2.4510532782223891 0 0 0 0 6.5884815765957683 -0.97843623990320339 0 -0.97843623990320339 11.520187231354157 0 0 0 0 14.094521439798427 22.894028343596347 0 22.894028343596347 32.165308343093784 0 0 0 0 -15.58517778668687 3.3871126772114621 0 3.3871126772114621 13.772784848195442 0 0 0 0 0.53333529396583024 0.099883830849761601 0 0.099883830849761601 0.027612875689463579 0 0 0 0 5.5986267626188919 10.940019330233554 0 10.940019330233554 -11.28316114279778 0 0 0 0 0.8368881817576721 13.623408865804777 0 13.623408865804777 12.354860964003819 0 0 0 0 8.5364268479064549 24.549496663470563 0 24.549496663470563 25.072381171652523 0 0 0 0 7.2770378720342705 5.5954035528138775 0 5.5954035528138775 20.83479897648067 0 0 0 0 22.336216655093466 35.591609794987562 0 35.591609794987562 43.64213709077012 0 0 0 0 9.6279301687698933 14.959572062090274 0 14.959572062090274 44.207980057519308 0 0 0 0 11.554528297030046 25.150554047890409 0 25.150554047890409 33.113864215916692 0 0 0 0 -2.0857495938462023 26.673420990774048 0 26.673420990774048 38.204389605301913 0 0 0 0 0.35822560627306221 0.23002723967861982 0 0.23002723967861982 -0.074274363028310475 0 0 0 0 7.0620168229514491 27.600804038494971 0 27.600804038494971 35.33670334751514 0 0 0 0 5.6849718970323124 19.606038823209019 0 19.606038823209019 41.027347496501534 0 0 0 0 1.6620948704941945 0.5273216937084797 0 0.5273216937084797 0.20250791681778679 0 0 0 0 -7.9297857122027153 22.550131181506913 0 22.550131181506913 94.636873953285431 0 0 0 0 34.58907842625743 -2.571019541491296 0 -2.571019541491296 -6.6516358337635211 0 0 0 0 0.59085120529936341 0.12086423958980674 0 0.12086423958980674 0.071158559081181849 0 0 0 0 -7.5934004990132564 14.336866257286147 0 14.336866257286147 37.344135849344639 0 0 0 0 0.48111656872667785 0.069720922832956944 0 0.069720922832956944 -0.033178816927424748 0 0 0 0 63.72514971100108 4.3269420102287768 0 4.3269420102287768 -14.255320998008756 0 0 0 0 13.424103891937705 -0.72205775669772265 0 -0.72205775669772265 3.8576025676547943 0 0 0 0 -12.971719777486896 17.34471040516928 0 17.34471040516928 41.672730527280692 0 0 0 0 -10.271665690230407 -8.9102238103332638 0 -8.9102238103332638 14.981661107904074 0 0 0 0 0.1893851121823158 -0.056886572248867395 0 -0.056886572248867395 0.061674762005399231 0 0 0 0 -2.1541839668383318 6.7414649550610193 0 6.7414649550610193 29.257370160577921 0 0 0 0 -22.412982863343842 3.4860850185659729 0 3.4860850185659729 68.164137233463407 0 0 0 0 40.754191396026954 44.419865928726722 0 44.419865928726722 36.503165284508214 0 0 0 0 4.4234940811076946 14.39760513669728 0 14.39760513669728 14.68184149850822 0 0 0 0 4.3936635251028235 14.255893103170592 0 14.255893103170592 22.387897804375825 0 0 0 0 1.3606659812581938 8.5616674466637051 0 8.5616674466637051 13.840055915894482 0 0 0 0 6.0179149900436926 7.0588658190599745 0 7.0588658190599745 6.7020192830241285 0 0 0 0 -2.1994645028504465 11.335468246307755 0 11.335468246307755 13.52315342054294 0 0 0 0 16.922093155184569 15.641521779595678 0 15.641521779595678 10.928891691286481 0 0 0 0 8.4614663459443022 10.159985351137948 0 10.159985351137948 7.6528005626378217 0 0 0 0 26.104154150608679 6.3830097106429093 0 6.3830097106429093 1.1450226735332762 0 0 0 0 11.024417842304132 4.2254727682593511 0 4.2254727682593511 2.8263635545454235 0 0 0 0 10.985089185797534 4.0661759987669939 0 4.0661759987669939 4.0171239036135375 0 0 0 0 1.7834197539707617 -1.415193731432737 0 -1.415193731432737 4.7831051881498752 0 0 0 0 -3.0747113632089125 -0.84030146007171425 0 -0.84030146007171425 4.4692014330539678 0 0 0 0 -0.096752932524267976 1.3403380126846969 0 1.3403380126846969 3.2232490114474786 0 0 0 0 1.1470206477581613 0.75177796174648392 0 0.75177796174648392 0.96754302451154217 0 0 0 0 1.5913218051277482 2.5180245972351258 0 2.5180245972351258 5.9553304426522118 0 0 0 0 2.9175310772627085 3.6519735244692129 0 3.6519735244692129 -1.4509307457960858 0 0 0 0 11.295445586907647 -1.6658093748092142 0 -1.6658093748092142 3.9987859080356429 0 0 0 0 2.1937361601075125 1.7825950418095999 0 1.7825950418095999 4.6956625382881612 0 0 0 0 -7.1977084466133441 7.4322830752079057 0 7.4322830752079057 9.5952297833136981 0 0 0 0 -4.2469327404502337 7.5172929822101651 0 7.5172929822101651 18.012918706253913 0 0 0 0 -1.0248372694217149 4.4909059256774508 0 4.4909059256774508 11.536162514988419 0 0 0 0 -0.065461794398719242 0.68744927563147584 0 0.68744927563147584 4.2118354355541001 0 0 0 0 -12.054028714523156 -5.1787489380449188 0 -5.1787489380449188 9.1814513540630287 0 0 0 0 -21.562436701626439 16.262010029509838 0 16.262010029509838 34.129610906185007 0 0 0 0 -0.89129911357206748 -1.0752077136445017 0 -1.0752077136445017 11.287462978950742 0 0 0 0 -12.365257144253839 -2.940239656864577 0 -2.940239656864577 13.978037027183746 0 0 0 0 -6.2226717189058665 1.9846167442928291 0 1.9846167442928291 1.6956944144338841 0 0 0 0 -8.3808151712615313 -2.6181744434597931 0 -2.6181744434597931 14.367563992407668 0 0 0 0 -8.1952897538128013 5.1509947300810381 0 5.1509947300810381 16.612311560194939 0 0 0 0 -5.1482179950372711 13.091241540038027 0 13.091241540038027 21.605330020478505 0 0 0 0 -11.182252573008611 7.0170699444618094 0 7.0170699444618094 26.982248438494935 0 0 0 0 -4.0972587646168153 0.70187755574251653 0 0.70187755574251653 -0.33046681152714363 0 0 0 0 9.3448827858030086 -5.1017475002927313 0 -5.1017475002927313 7.5749454540127772 0 0 0 0 -0.62084436050207614 8.0288368369049294 0 8.0288368369049294 22.06274031124849 0 0 0 0 -1.3487928965034257 13.52296181846441 0 13.52296181846441 17.585501742069027 0 0 0 0 -0.53104346908651223 12.58808140677047 0 12.58808140677047 7.3731714273626494 0 0 0 0 -5.1840292552647043 9.6179232808390225 0 9.6179232808390225 14.047233793949999 0 0 0 0 -4.5952172641758438 13.925372569378908 0 13.925372569378908 7.4118188994380034 0 0 0 0 -6.8171827589126224 9.446496972605928 0 9.446496972605928 17.337239538088397 0 0 0 0 -6.8184918717644383 9.5164570364402579 0 9.5164570364402579 16.47090221432336 0 0 0 0 12.394811025199232 7.5417961093380654 0 7.5417961093380654 -67.825492619771921 0 0 0 0 0.90967883331872323 6.3889987321635076 0 6.3889987321635076 11.294709131625879 0 0 0 0 -23.913681713517065 -120.30976247338367 0 -120.30976247338367 -3.4877437826680762 0 0 0 0 8.0013747090046099 2.7139473417597486 0 2.7139473417597486 7.5037438754343384 0 0 0 0 -8.6177481349270124 2.0688079592109716 0 2.0688079592109716 -12.494523320328881 0 0 0 0 -0.26115222081674072 1.8275699118452415 0 1.8275699118452415 3.2903550905801602 0 0 0 0 6.750933024240009 56.971833483802271 0 56.971833483802271 95.23462357587141 0 0 0 0 25.730516446582676 -12.818765141728363 0 -12.818765141728363 5.556877770207393 0 0 0 0 0.063665141097436928 -0.40349271093871064 0 -0.40349271093871064 1.1896571401747238 0 0 0 0 21.458852591697791 -19.916838596645448 0 -19.916838596645448 32.484476375207123 0 0 0 0 54.309920781879768 37.861027524963561 0 37.861027524963561 35.372833100635034 0 0 0 0 -9.1783998827966116 -9.1566018324965626 0 -9.1566018324965626 0.55995184331459313 0 0 0 0 -16.709419501115946 36.154632709513862 0 36.154632709513862 61.349621184439457 0 0 0 0 -11.128904111871844 15.699575079461397 0 15.699575079461397 91.441799341495425 0 0 0 0 -26.960252389923554 55.294178285427733 0 55.294178285427733 51.417228946784235 0 0 0 0 18.397195744292958 67.660486447176027 0 67.660486447176027 61.897598814332014 0 0 0 0 -12.126419163642254 22.189620815989656 0 22.189620815989656 125.62590694861501 0 0 0 0 -7.1903107981651431 17.692197168606981 0 17.692197168606981 -12.645319714912148 0 0 0 0 6.1098874456595809 -11.47107591873737 0 -11.47107591873737 10.054714965386665 0 0 0 0 -8.4555987165176703 17.426134622331119 0 17.426134622331119 7.2890789714413984 0 0 0 0 0.0093425776075536926 0.24014329032876525 0 0.24014329032876525 1.3128489825550353 0 0 0 0 18.800097679442516 -21.596354301067095 0 -21.596354301067095 11.999017792253653 0 0 0 0 0.97779619031913712 6.3904462932665318 0 6.3904462932665318 9.8221215271992612 0 0 0 0 -10.942694235874301 82.817085714189005 0 82.817085714189005 132.99208903419822 0 0 0 0 -6.0220327952048365 18.580427237752701 0 18.580427237752701 -2.024037788631631 0 0 0 0 -7.822781893210113 9.370856420963122 0 9.370856420963122 5.9858959634912026 0 0 0 0 -0.26987784508936574 5.4776558179359149 0 5.4776558179359149 9.2365143491988384 0 0 0 0 4.0768315347579858 -14.603266995243757 0 -14.603266995243757 22.041720049084688 0 0 0 0 5.6886381841936782 -0.49193620602636656 0 -0.49193620602636656 22.263228759533376 0 0 0 0 2.9027789350864168 -5.8133774152616979 0 -5.8133774152616979 12.686762203542457 0 0 0 0 3.7535067533697202 0.52013449460628181 0 0.52013449460628181 12.644012375822385 0 0 0 0 6.9442236901184629 -4.7236940114912613 0 -4.7236940114912613 7.1366385790133791 0 0 0 0 7.0321774029337121 2.0621867725585616 0 2.0621867725585616 6.5644721907714256 0 0 0 0 3.1756723169723955 2.6581489823784068 0 2.6581489823784068 10.700464661198566 0 0 0 0 3.8469232131675426 5.1510231279053187 0 5.1510231279053187 -0.70133251126617324 0 0 0 0 -1.0219977153867887 -5.7673770034757581 0 -5.7673770034757581 4.9707963247146836 0 0 0 0 6.5708442179359849 5.2488081857532052 0 5.2488081857532052 -0.50773080032922735 0 0 0 0 -39.80142491449827 -11.151418044026059 0 -11.151418044026059 0.59962467019249743 0 0 0 0 -0.00045556833197990532 0.58087516832561192 0 0.58087516832561192 3.4320143068836089 0 0 0 0 -6.0750440414750528 0.18149919127017711 0 0.18149919127017711 13.146567755763499 0 0 0 0 1.1092615053156578 1.0755049338913523 0 1.0755049338913523 8.8233190085188653 0 0 0 0 20.302773323743395 -27.977094932447926 0 -27.977094932447926 -32.03427716902479 0 0 0 0 -12.996530318957781 -40.811057998100296 0 -40.811057998100296 15.223858728962568 0 0 0 0 3.7117816453765613 10.944398433372953 0 10.944398433372953 -3.0087279869562735 0 0 0 0 3.0936929848090138 -12.879710320372851 0 -12.879710320372851 -28.681136278332815 0 0 0 0 0.6220229986086272 0.56756058758654682 0 0.56756058758654682 0.36006115361634983 0 0 0 0 -0.7898821062541046 -0.15647235046787955 0 -0.15647235046787955 -3.0278461076804888 0 0 0 0 10.024264915982798 3.2287807760637861 0 3.2287807760637861 -1.9829284545312476 0 0 0 0 29.608290374282745 -75.469124565233869 0 -75.469124565233869 34.406403124612552 0 0 0 0 0.68585296593789735 -1.6800507291864051 0 -1.6800507291864051 2.2679642914845317 0 0 0 0 0.48081096335749862 -0.66058127061842242 0 -0.66058127061842242 0.9888991690822877 0 0 0 0 -0.030654250117242765 -0.55989463413363083 0 -0.55989463413363083 0.98702207995090419 0 0 0 0 0.095695456297901688 -0.10134394702618543 0 -0.10134394702618543 0.090273264311036883 0 0 0 0 -0.14605343710797181 -0.03989510401234142 0 -0.03989510401234142 0.33191168048114505 0 0 0 0 1.0657033871489148 -0.89147652730935079 0 -0.89147652730935079 0.93990729812162499 0 0 0 0 0.95835710460877976 -0.26092374242216465 0 -0.26092374242216465 0.71368421986790054 0 0 0 0 0.39289841199556008 -0.04190529027255252 0 -0.04190529027255252 0.78124529424212596 0 0 0 0 0.13539294142520492 0.081241974289805619 0 0.081241974289805619 0.53577099498109959 0 0 0 0 0.58813735207047912 0.20627551323104854 0 0.20627551323104854 1.0963362979709927 0 0 0 0 -0.099945039993567991 -0.2713227224694279 0 -0.2713227224694279 1.3743072350224104 0 0 0 0 1.0101187107051572 -2.3951187874408788 0 -2.3951187874408788 0.85916009515676706 0 0 0 0 16.851856937103946 4.6598211659511435 0 4.6598211659511435 1.2800137752074079 0 0 0 0 -1.0555279540884612 0.36966236325542923 0 0.36966236325542923 4.1755572494366788 0 0 0 0 7.9758771314524495 7.6349090464900655 0 7.6349090464900655 6.0608498753026652 0 0 0 0 16.506993003562314 4.5688874146699163 0 4.5688874146699163 4.7894351077120518 0 0 0 0 10.249124697301426 3.5587953254353124 0 3.5587953254353124 5.9193305539720313 0 0 0 0 16.869073910232089 10.424995782081169 0 10.424995782081169 10.325034260198663 0 0 0 0 1.0487840157424557 12.428669002036258 0 12.428669002036258 6.6540201679082287 0 0 0 0 -7.0118212187725817 8.7369376369169913 0 8.7369376369169913 6.3070790547135402 0 0 0 0 3.027315842584926 9.1084181011765395 0 9.1084181011765395 -4.6164808815137803 0 0 0 0 26.71707349837682 3.6838249129327778 0 3.6838249129327778 0.23895224722946296 0 0 0 0 17.735222060459819 -0.37019778824833338 0 -0.37019778824833338 12.767028682694217 0 0 0 0 20.742229932182113 2.0329890459906892 0 2.0329890459906892 2.362734048096172 0 0 0 0 1.8287181253006111 11.806112336960723 0 11.806112336960723 8.0332974851157815 0 0 0 0 12.433722689265778 -13.961735787615908 0 -13.961735787615908 33.305039832455805 0 0 0 0 -2.7492084949167293 25.362714968992805 0 25.362714968992805 6.0253257217618739 0 0 0 0 -0.41333372825852166 5.3488354806404459 0 5.3488354806404459 -16.186550435582831 0 0 0 0 -2.4692557116459426 0.60854626625405217 0 0.60854626625405217 7.0490247516918316 0 0 0 0 -0.80630276433280068 1.5558027113365434 0 1.5558027113365434 2.1784566073636995 0 0 0 0 12.586302877538856 -3.6128339062424857 0 -3.6128339062424857 11.335243105697373 0 0 0 0 11.301861948506598 -6.3669031543222445 0 -6.3669031543222445 14.208720235101282 0 0 0 0 -1.0034654967569816 4.0945358458504479 0 4.0945358458504479 8.6438547219591975 0 0 0 0 0.32150410949265051 14.970454171856545 0 14.970454171856545 -5.2866119641174691 0 0 0 0 7.8736740069093685 -2.2863396339234896 0 -2.2863396339234896 13.100167306914955 0 0 0 0 4.9788296156580145 -0.30507870202382037 0 -0.30507870202382037 14.986431886962237 0 0 0 0 1.409393019889756 -2.4969755244383993 0 -2.4969755244383993 6.9581183198576966 0 0 0 0 10.364622909818877 -2.9866775121508908 0 -2.9866775121508908 8.3092713308778912 0 0 0 0 10.363162085362546 -2.5409464329914044 0 -2.5409464329914044 13.967320594611124 0 0 0 0 0.37435886561249343 -1.6203862479762496 0 -1.6203862479762496 0.31158282900088707 0 0 0 0 15.759311361166965 7.301686631539269 0 7.301686631539269 10.599666448605603 0 0 0 0 8.4316127546587722 1.2793653447952238 0 1.2793653447952238 6.239250284854279 0 0 0 0 7.9743076176562226 -0.95228800585391582 0 -0.95228800585391582 13.77632617405834 0 0 0 0 0.50085736918107027 0.75142799227489476 0 0.75142799227489476 3.7549011750412546 0 0 0 0 1.827506770795452 -0.82082440820863667 0 -0.82082440820863667 6.8735217322828248 0 0 0 0 1.8985070538699205 -0.6143949589550175 0 -0.6143949589550175 6.6155293120846181 0 0 0 0 0.34558270904760491 2.7409826792654712 0 2.7409826792654712 6.3256356181354931 0 0 0 0 0.24466706769506602 0.7898489401283233 0 0.7898489401283233 2.2113292278906584 0 0 0 0 -7.1368825962765783 3.6790825249408954 0 3.6790825249408954 8.3147807886525698 0 0 0 0 -2.3128166887221653 5.7935344597481162 0 5.7935344597481162 -1.2259824613647652 0 0 0 0 0.20406235804656211 -0.46091416692764042 0 -0.46091416692764042 3.3427823323519696 0 0 0 0 -4.73717462360257 1.5257409006098896 0 1.5257409006098896 5.5893810356210452 0 0 0 0 0.040983873435761708 0.24030208299666711 0 0.24030208299666711 1.7745267506819644 0 0 0 0 -2.9933394855311342 -1.8489140539134041 0 -1.8489140539134041 2.63151600099809 0 0 0 0 13.051662044262628 0.21206589565645118 0 0.21206589565645118 -19.488809865517396 0 0 0 0 -0.29956857324708608 -0.15745910451005329 0 -0.15745910451005329 -0.71147495469631394 0 0 0 0 4.1366620637071065 11.686706806631264 0 11.686706806631264 3.6229539302075864 0 0 0 0 -0.036673782058805865 0.05153760929947282 0 0.05153760929947282 0.18879819970350553 0 0 0 0 5.6047365438764842 -1.9370807735394919 0 -1.9370807735394919 0.49202174900347018 0 0 0 0 0.370424399350469 -3.8385039112554296 0 -3.8385039112554296 10.212931867998122 0 0 0 0 3.52247876544169 -4.8477150519465795 0 -4.8477150519465795 2.1178000510153652 0 0 0 0 -1.0253348102024669 -0.69775379276643434 0 -0.69775379276643434 4.6786638062239945 0 0 0 0 0.13133875702467382 -0.71840966221373392 0 -0.71840966221373392 2.0957561692923363 0 0 0 0 26.31878948927357 -8.8075534372874245 0 -8.8075534372874245 1.4490342322794731 0 0 0 0 -2.0227456590657198 5.295376069163467 0 5.295376069163467 10.770351380794864 0 0 0 0 -0.13546807010228168 -0.18650006262123497 0 -0.18650006262123497 4.2035323576037626 0 0 0 0 -0.69758812148053728 0.054119624796840071 0 0.054119624796840071 4.3170865962838434 0 0 0 0 0.26936019465827599 -1.4676336864522455 0 -1.4676336864522455 4.2102887339260633 0 0 0 0 0.82799643650452026 -1.3874439603641804 0 -1.3874439603641804 4.1966534122420853 0 0 0 0 -0.12445788936523243 0.63157824075297242 0 0.63157824075297242 2.1532382491415945 0 0 0 0 1.1202945151681725 -2.0373740825008326 0 -2.0373740825008326 3.5715309005499876 0 0 0 0 1.0226209247232312 -1.0371286242228166 0 -1.0371286242228166 2.4113188487463049 0 0 0 0 0.79431496371742583 -0.89301600827047878 0 -0.89301600827047878 2.9699347773821501 0 0 0 0 0.094829874635660616 0.26482345130352769 0 0.26482345130352769 2.6029263095701936 0 0 0 0 0.04174545881475452 -0.89763436589108991 0 -0.89763436589108991 2.7262876619086498 0 0 0 0 2.3849644816930891 -0.67006506464349513 0 -0.67006506464349513 1.7992947868178817 0 0 0 0 3.220248278324334 -1.9297971975393011 0 -1.9297971975393011 2.3314669902601963 0 0 0 0 2.0915738461222801 -0.61310598128534366 0 -0.61310598128534366 6.5674648013009573 0 0 0 0 1.0241645308298748 -1.3767262121346171 0 -1.3767262121346171 3.0436733712735133 0 0 0 0 -0.34424087498801981 0.2967237562470646 0 0.2967237562470646 4.4489008593229045 0 0 0 0 -1.5301589973015481 0.22576715679770132 0 0.22576715679770132 2.7934270781479427 0 0 0 0 0.11843434499804464 0.56913224163674059 0 0.56913224163674059 3.8180421833207063 0 0 0 0 2.5707357104135156 -0.65079544002765033 0 -0.65079544002765033 4.7802025885739567 0 0 0 0 2.5668956900026956 -0.5779915476377937 0 -0.5779915476377937 6.5689869930936311 0 0 0 0 2.1903199745025272 0.41395922266531215 0 0.41395922266531215 4.9104700210245937 0 0 0 0 2.8204222971122803 -1.6349952632781424 0 -1.6349952632781424 6.4969096855584212 0 0 0 0 0.57793512261044644 -0.66895195563697429 0 -0.66895195563697429 4.7198530978760189 0 0 0 0 1.4762052454846961 -0.81160209126961291 0 -0.81160209126961291 2.2991944689147701 0 0 0 0 1.4547602111821432 -1.8808584764184388 0 -1.8808584764184388 6.3242018478013051 0 0 0 0 0.79943225993900913 -0.52886006923424667 0 -0.52886006923424667 4.0861593541173846 0 0 0 0 0.40976787828060635 2.1412838510469534 0 2.1412838510469534 6.5864387092656607 0 0 0 0 1.7790456417759821 -1.8109148604632423 0 -1.8109148604632423 7.7110139534488553 0 0 0 0 2.8753149431120377 -0.55769903818327293 0 -0.55769903818327293 4.8024738819628965 0 0 0 0 1.7456134673678672 -2.0270266636966969 0 -2.0270266636966969 4.6162456181280405 0 0 0 0 1.7645509962499553 -3.1066151545790177 0 -3.1066151545790177 9.6952693697749055 0 0 0 0 4.613749435431771 -3.9958717677272944 0 -3.9958717677272944 9.353274973713269 0 0 0 0 2.0304089113337795 -3.4050148986316344 0 -3.4050148986316344 9.4309349122049753 0 0 0 0 5.9132641734093099 -12.293026441527104 0 -12.293026441527104 4.5726731528957316 0 0 0 0 0.1211810395488282 -1.484870876808067 0 -1.484870876808067 2.9764052402087806 0 0 0 0 1.8002147148014842 -4.3080619965985534 0 -4.3080619965985534 11.252019043008659 0 0 0 0 1.8851841950023527 -4.3588123434174122 0 -4.3588123434174122 9.7282066266255072 0 0 0 0 2.2881166747929882 -5.4857980598344511 0 -5.4857980598344511 8.8206653558445396 0 0 0 0 2.2805835058131834 -1.7817621827248331 0 -1.7817621827248331 6.0442701423135077 0 0 0 0 2.5717506147507265 -2.4912434290345118 0 -2.4912434290345118 9.6698630225118904 0 0 0 0 -6.0688516094787701 -1.0476700804319989 0 -1.0476700804319989 6.3560280074016191 0 0 0 0 -0.56572707439892944 2.4166636234006553 0 2.4166636234006553 9.4794148274921994 0 0 0 0 -1.3284059185967676 -2.0063146157231655 0 -2.0063146157231655 8.3181119338541052 0 0 0 0 -0.32679391145137826 -2.5036284708520995 0 -2.5036284708520995 8.8041585435279401 0 0 0 0 -5.4424666937494521 -10.608593516686597 0 -10.608593516686597 28.378373422026925 0 0 0 0 -0.58076412170043201 -1.6114514981437491 0 -1.6114514981437491 2.2611937000228579 0 0 0 0 1.3994479126471333 8.1076109480090963 0 8.1076109480090963 -8.3902554262240301 0 0 0 0 -0.98647903244457802 -5.7434636803034209 0 -5.7434636803034209 11.438403444864822 0 0 0 0 -2.74900566217174 7.1376448952664759 0 7.1376448952664759 8.3100595321593573 0 0 0 0 -0.20139153276256438 -2.7969535000771053 0 -2.7969535000771053 8.0108533449062058 0 0 0 0 0.87564541673821505 1.8984892408408882 0 1.8984892408408882 13.81864120397222 0 0 0 0 -0.4454411078169126 -1.0072913882619985 0 -1.0072913882619985 6.5206378688127273 0 0 0 0 -10.333913580788675 1.8217453529596241 0 1.8217453529596241 13.592994347098283 0 0 0 0 -5.3321532992368219 -2.3381207955972059 0 -2.3381207955972059 13.489528817166502 0 0 0 0 3.6043921310693108 -2.0798699205206503 0 -2.0798699205206503 9.3660704858793906 0 0 0 0 -0.25194527763607977 -0.69344594007259985 0 -0.69344594007259985 3.1753007264146547 0 0 0 0 1.35562625354396 -11.56962367378128 0 -11.56962367378128 6.5152946366251854 0 0 0 0 -10.357695869849692 -35.983068662943879 0 -35.983068662943879 8.5693616385615314 0 0 0 0 -3.0686369489073968 1.6407862116957403 0 1.6407862116957403 17.334890321199055 0 0 0 0 -0.26931587628392206 -0.037961565241090511 0 -0.037961565241090511 0.31603496342310677 0 0 0 0 -7.7533433861483161 -22.698313774142662 0 -22.698313774142662 -2.0154855747023248 0 0 0 0 -10.483439650668686 -2.654529222225392 0 -2.654529222225392 7.5623203639429448 0 0 0 0 2.7787475704158737 -4.6804237710439338 0 -4.6804237710439338 7.0715585619550438 0 0 0 0 14.862266605295218 -6.811809706027816 0 -6.811809706027816 4.4644433308403677 0 0 0 0 -0.15194436979925285 -7.3672133610325545 0 -7.3672133610325545 10.469403094995869 0 0 0 0 19.441975426227884 -10.453704143576033 0 -10.453704143576033 -5.1109998202664428 0 0 0 0 -0.16884680250987105 -0.63457146498263661 0 -0.63457146498263661 1.1036810896318272 0 0 0 0 -0.047427618242989522 -0.27241139111249879 0 -0.27241139111249879 0.83505015166776531 0 0 0 0 -0.53766136694343913 -0.55194548405324895 0 -0.55194548405324895 1.2866060255510092 0 0 0 0 -0.24196740017200705 -0.65113614247395901 0 -0.65113614247395901 1.3755836431487687 0 0 0 0 0.53364855086798002 -1.0999628280260367 0 -1.0999628280260367 1.9264516352268402 0 0 0 0 0.343308218174875 -0.98868453008296164 0 -0.98868453008296164 1.7664565796636325 0 0 0 0 -0.11924668848385522 -0.81098398425183404 0 -0.81098398425183404 1.8025627058141254 0 0 0 0 0.0025332771485935268 -0.69852991760762961 0 -0.69852991760762961 2.5198050518731634 0 0 0 0 -0.26852803472773951 -0.14350247288592399 0 -0.14350247288592399 0.68741808622632306 0 0 0 0 -0.2933319900878254 -0.57972610715322581 0 -0.57972610715322581 1.8864479475838678 0 0 0 0 0.15008333718206757 -1.399381909126987 0 -1.399381909126987 3.0813296484120656 0 0 0 0 4.1992804006530946 -8.5484765192722989 0 -8.5484765192722989 10.063766761333682 0 0 0 0 -1.5364966566739209 2.946801340407073 0 2.946801340407073 10.397903233122392 0 0 0 0 8.6252259904740072 -7.8301349979976749 0 -7.8301349979976749 18.922114852357538 0 0 0 0 -0.45886362804522207 -4.6429277698318572 0 -4.6429277698318572 19.994475373126988 0 0 0 0 12.54204814269545 -10.961746228230368 0 -10.961746228230368 8.3595651549176182 0 0 0 0 -0.18734533309520174 1.6110306761665925 0 1.6110306761665925 15.32656073329963 0 0 0 0 4.1350793610622247 -2.4984498754465676 0 -2.4984498754465676 -7.8660952395066488 0 0 0 0 -10.938677184623357 4.2732564727125464 0 4.2732564727125464 9.2745530417032569 0 0 0 0 2.7300892835758264 3.8324234307988263 0 3.8324234307988263 14.965979409209467 0 0 0 0 -1.584708385790389 -8.8963752255913278 0 -8.8963752255913278 18.655734384638436 0 0 0 0 -1.699054532122144 -7.8422022773966091 0 -7.8422022773966091 9.0107164520686638 0 0 0 0 4.4316813438881262 -6.3985410930981743 0 -6.3985410930981743 5.0101912831451045 0 0 0 0 0.044743629699155463 4.1552324378462799 0 4.1552324378462799 -2.6918405291235104 0 0 0 0 -2.5300690568511062 1.0940130600874909 0 1.0940130600874909 6.15898488030507 0 0 0 0 -0.48015080876425031 -0.20826491753359733 0 -0.20826491753359733 -1.6866140028851078 0 0 0 0 -2.1681463053470091 4.4713118189365559 0 4.4713118189365559 2.3852161600416366 0 0 0 0 0.24136272242333739 0.11669446849255394 0 0.11669446849255394 1.0103590377811926 0 0 0 0 -5.0173302725505096 -4.7098935589865505 0 -4.7098935589865505 11.530474901847811 0 0 0 0 -4.3871563648011431 8.72332889498648 0 8.72332889498648 2.1273343650536845 0 0 0 0 -0.54595922992506107 -1.304041445785515 0 -1.304041445785515 8.3018508454952098 0 0 0 0 3.6749326552140928 4.6549986877830634 0 4.6549986877830634 5.1192420014176605 0 0 0 0 0.35995601448871134 1.1493420602531215 0 1.1493420602531215 4.6231830433114496 0 0 0 0 3.9049272370132826 0.68661637117276086 0 0.68661637117276086 1.7876244347753527 0 0 0 0 -1.8859914322764553 7.2988855673729631 0 7.2988855673729631 6.6100187370293497 0 0 0 0 0.34475704365827298 3.0240454474205762 0 3.0240454474205762 11.388089747866616 0 0 0 0 -9.8555696318016714 2.1303315010491133 0 2.1303315010491133 2.3233591022126348 0 0 0 0 -2.0100195524001947 1.0803021173014713 0 1.0803021173014713 2.3409912391070975 0 0 0 0 -0.011861258313426937 0.97443912510493735 0 0.97443912510493735 2.4534130903624245 0 0 0 0 0.951053028469379 0.47567212123472657 0 0.47567212123472657 4.329277459238952 0 0 0 0 -0.57762141852708027 1.8962175691544871 0 1.8962175691544871 0.56133281054280815 0 0 0 0 -0.1302807840150948 2.6311606956038842 0 2.6311606956038842 1.3976766868531385 0 0 0 0 5.5654008117815748 20.168368014122507 0 20.168368014122507 31.140709371797129 0 0 0 0 0.30216197571775461 0.21355031387742773 0 0.21355031387742773 0.60436343107816626 0 0 0 0 -10.833114708671932 -4.7859888750126629 0 -4.7859888750126629 18.115481989371119 0 0 0 0 2.7567613336969377 6.342311589000019 0 6.342311589000019 14.466064664688929 0 0 0 0 -6.0842405927649015 -0.70552076407193454 0 -0.70552076407193454 40.891415685166066 0 0 0 0 -2.5043080652584364 1.7255707893136787 0 1.7255707893136787 8.1738949171558488 0 0 0 0 5.6903714266994285 2.4860282439722141 0 2.4860282439722141 14.910133895289619 0 0 0 0 -1.8570723043211794 -16.034965097035638 0 -16.034965097035638 15.496336525743573 0 0 0 0 1.2171063585524413 -19.815624542286059 0 -19.815624542286059 1.8004648112353152 0 0 0 0 0.44994520999447207 -3.6746763262162698 0 -3.6746763262162698 8.9061739913683482 0 0 0 0 -1.3762293046946019 1.0750975279426118 0 1.0750975279426118 12.409630700020736 0 0 0 0 10.669542243803164 -8.1699844485067388 0 -8.1699844485067388 24.233821875742706 0 0 0 0 13.439955537132134 17.930881234080061 0 17.930881234080061 15.511203219060349 0 0 0 0 9.9836609966729561 -5.5724164066086814 0 -5.5724164066086814 4.5901197283751571 0 0 0 0 -2.8271642044159435 -18.55311685207198 0 -18.55311685207198 24.5113778318198 0 0 0 0 9.9005710940246576 -16.194529803125736 0 -16.194529803125736 12.90238864764251 0 0 0 0 10.331979146627191 -9.1450066468908062 0 -9.1450066468908062 19.091635329664314 0 0 0 0 -1.4181668805588672 3.0935860935865218 0 3.0935860935865218 9.7530455728994383 0 0 0 0 -5.0956115601265548 -10.433654182440478 0 -10.433654182440478 17.991624163918459 0 0 0 0 12.61909056083914 -7.6132480128519546 0 -7.6132480128519546 19.212332959208453 0 0 0 0 10.608257742818466 -9.8095805465602552 0 -9.8095805465602552 16.950501126352265 0 0 0 0 18.949890846161168 2.6877603054272186 0 2.6877603054272186 21.913876773328866 0 0 0 0 12.187415248704141 1.0065545915682605 0 1.0065545915682605 27.002547323639192 0 0 0 0 15.353242149293095 -2.8593816539178079 0 -2.8593816539178079 14.612405978170955 0 0 0 0 12.1746672231547 -1.6509482225826559 0 -1.6509482225826559 25.112833458866135 0 0 0 0 2.2651419027657358 -9.8363644286284977 0 -9.8363644286284977 17.633857415547041 0 0 0 0 12.056770733555709 0.49720020508630114 0 0.49720020508630114 25.433415550797292 0 0 0 0 -5.7778205733074834 -28.563551698299648 0 -28.563551698299648 0.14127112131427566 0 0 0 0 5.0158725506795037 -20.079351685448728 0 -20.079351685448728 5.2626222599428729 0 0 0 0 10.930567073462306 -11.694446655962565 0 -11.694446655962565 7.6111806030039588 0 0 0 0 2.052323246905388 -9.4265552586542398 0 -9.4265552586542398 18.417229363721063 0 0 0 0 11.546377438251056 -2.2176925578969531 0 -2.2176925578969531 24.854357218365749 0 0 0 0 3.9893325252660929 -8.0222431094980493 0 -8.0222431094980493 13.471416482126074 0 0 0 0 -0.2013280324387039 -2.0175688649267691 0 -2.0175688649267691 2.5755315951126541 0 0 0 0 16.549201797140718 -14.360551204254989 0 -14.360551204254989 6.2342024325444072 0 0 0 0 21.2943319281623 -10.284018148742234 0 -10.284018148742234 9.0114334095123922 0 0 0 0 14.385916171693452 -15.598191637541731 0 -15.598191637541731 15.943688763323735 0 0 0 0 19.034792782362558 -11.453332627421332 0 -11.453332627421332 28.634501198039288 0 0 0 0 21.295608450244799 -13.023448846455722 0 -13.023448846455722 16.359269029169354 0 0 0 0 10.356799933541595 -11.980567520839941 0 -11.980567520839941 14.155130322232026 0 0 0 0 -1.1337575196263003 -20.731007133008006 0 -20.731007133008006 12.708428888827257 0 0 0 0 -4.1276592658194886 -19.101019156609254 0 -19.101019156609254 8.5160405708302278 0 0 0 0 13.334533499128028 -12.675061458900473 0 -12.675061458900473 8.2236513985735655 0 0 0 0 -2.8477585227790598 -16.779034739964573 0 -16.779034739964573 5.1657594394509943 0 0 0 0 -5.5583893666775737 -17.006114538392467 0 -17.006114538392467 21.572473704183722 0 0 0 0 -2.7064351832493685 -16.5631506949303 0 -16.5631506949303 3.0823689500045859 0 0 0 0 2.1304081756138089 -0.035126638452538828 0 -0.035126638452538828 27.782200174573518 0 0 0 0 -15.876543384261907 -29.852059828689562 0 -29.852059828689562 3.1496079715461747 0 0 0 0 2.984970690926378 -9.253179788572016 0 -9.253179788572016 18.081616033680234 0 0 0 0 -0.46927153032383884 0.5269039545150882 0 0.5269039545150882 2.3269231865552982 0 0 0 0 64.728889917474675 -23.644170431907696 0 -23.644170431907696 -39.393545576589531 0 0 0 0 -58.767980697324532 -3.2378553438857125 0 -3.2378553438857125 115.68407678438234 0 0 0 0 0.21630660953894676 -13.006634341138124 0 -13.006634341138124 -1.6177597727091779 0 0 0 0 -0.49599423026511147 -31.963820263815705 0 -31.963820263815705 20.333961045198521 0 0 0 0 -5.7098167376659035 -3.9477367236877399 0 -3.9477367236877399 50.205126921104238 0 0 0 0 1.0164368881289931 -41.501996280501771 0 -41.501996280501771 72.86620853934437 0 0 0 0 -7.5116672363962778 13.602134698123336 0 13.602134698123336 83.268110527525096 0 0 0 0 -0.13060777074199592 -2.779946134198326 0 -2.779946134198326 4.9738562050624751 0 0 0 0 0.19148347434826404 -0.37794229109548461 0 -0.37794229109548461 0.45141448088329383 0 0 0 0 76.055628065939814 -2.4391650757652314 0 -2.4391650757652314 1.5127673496499483 0 0 0 0 24.201481958872762 17.08853021165487 0 17.08853021165487 14.372810461158224 0 0 0 0 -5.700142703685259 1.9890095308255695 0 1.9890095308255695 18.581274008582113 0 0 0 0 -6.1134233740152126 8.0436841375812946 0 8.0436841375812946 18.776171633433819 0 0 0 0 -0.0112414190315583 -0.32653773765723049 0 -0.32653773765723049 0.080343401978524298 0 0 0 0 24.966631291895943 -21.096880542905865 0 -21.096880542905865 -12.159856080790632 0 0 0 0 28.159730584686628 -1.1479137785590865 0 -1.1479137785590865 4.1500838894098706 0 0 0 0 2.3260705504461612 -13.056648599425898 0 -13.056648599425898 16.494685235877114 0 0 0 0 -54.82646676280396 43.096905512444209 0 43.096905512444209 39.683228186502674 0 0 0 0 48.637561357055759 -42.09286336700643 0 -42.09286336700643 30.126028026854328 0 0 0 0 5.1764052292547404 -8.6182186184489638 0 -8.6182186184489638 -22.229537877203256 0 0 0 0 10.582730099341859 6.9209511372209818 0 6.9209511372209818 8.8040342315850921 0 0 0 0 4.0723653207190438 -6.2812130543079547 0 -6.2812130543079547 4.9241611828181249 0 0 0 0 -0.34529319664202213 -1.5785905836480465 0 -1.5785905836480465 6.267716912620152 0 0 0 0 -3.4929777593013398 3.4226199369359165 0 3.4226199369359165 7.9987794208736887 0 0 0 0 -3.6210628146106387 -1.7230293215206984 0 -1.7230293215206984 7.5431549354707386 0 0 0 0 2.876828802151806 -5.0758681024035468 0 -5.0758681024035468 6.7635760625569219 0 0 0 0 11.415870184713185 -19.545766246876155 0 -19.545766246876155 6.28327928273211 0 0 0 0 -13.905809741971268 -8.1370499329714221 0 -8.1370499329714221 12.164140401739132 0 0 0 0 1.5494158399348237 -1.6529244764315081 0 -1.6529244764315081 -2.2685145139257656 0 0 0 0 -0.54282103000406323 -8.683971314028895 0 -8.683971314028895 21.474620319080714 0 0 0 0 -25.440617391144656 1.3811471550297938 0 1.3811471550297938 16.042270140360415 0 0 0 0 2.1826255603885585 3.8749000862026151 0 3.8749000862026151 0.89811775592716003 0 0 0 0 -0.31110004283129905 -0.70208011838640516 0 -0.70208011838640516 5.5100787251703736 0 0 0 0 -6.0779036955429362 -9.5543994918252793 0 -9.5543994918252793 7.8003292290632089 0 0 0 0 0.42055300397725182 0.50554803278867233 0 0.50554803278867233 1.2289420413909191 0 0 0 0 18.610705894961356 -7.6519160463058142 0 -7.6519160463058142 8.8472194976202445 0 0 0 0 23.792678395125044 -16.013806856149131 0 -16.013806856149131 17.349162432252342 0 0 0 0 24.974161841841322 -7.4055572885981746 0 -7.4055572885981746 11.185692146858855 0 0 0 0 18.670908472161351 -10.710401179057953 0 -10.710401179057953 9.7154879257568609 0 0 0 0 0.86268194214192384 0.54780053307149501 0 0.54780053307149501 15.426777762751954 0 0 0 0 -32.511529983266819 18.042838397937885 0 18.042838397937885 16.901097813872184 0 0 0 0 -0.56544136836997627 1.5629361685270347 0 1.5629361685270347 6.3502565955944803 0 0 0 0 0.12178262129278848 0.98060034596703827 0 0.98060034596703827 -0.21478375243059844 0 0 0 0 -7.3433833069912353 -12.60794539885751 0 -12.60794539885751 28.867964404369559 0 0 0 0 -20.859133782703694 -24.134687529919574 0 -24.134687529919574 17.846134817169514 0 0 0 0 29.804781162682701 -4.1407903042381804 0 -4.1407903042381804 15.641475221711516 0 0 0 0 -0.20139980663591966 0.40452808132961771 0 0.40452808132961771 1.8321414175391268 0 0 0 0 26.260009262228561 -25.407129569302015 0 -25.407129569302015 14.318588537895266 0 0 0 0 14.959678718661607 0.71958457903383533 0 0.71958457903383533 6.6798565225217317 0 0 0 0 -25.058702856385992 37.108904503488702 0 37.108904503488702 -27.14370095525328 0 0 0 0 -15.656866303270597 -15.538719258406445 0 -15.538719258406445 4.035142257980624 0 0 0 0 -64.466236792400906 39.831952155445833 0 39.831952155445833 28.614911089220186 0 0 0 0 44.39497433416814 -56.938836414338766 0 -56.938836414338766 36.943208687396691 0 0 0 0 -0.53310227810078459 12.871044895532577 0 12.871044895532577 -35.646852326175576 0 0 0 0 -0.06907657870137035 0.13455976510214107 0 0.13455976510214107 0.64856812035547762 0 0 0 0 -0.24312224514403624 6.6181036510879494 0 6.6181036510879494 34.762010909123092 0 0 0 0 -6.1305832866135006 -8.4570067090389784 0 -8.4570067090389784 46.145441964375095 0 0 0 0 1.7707001823303301 -9.6604762775004929 0 -9.6604762775004929 29.979528534374367 0 0 0 0 -6.5594518031224993 -11.122891516622985 0 -11.122891516622985 30.30834776541451 0 0 0 0 4.87250230778033 -4.554285749197561 0 -4.554285749197561 24.03744593725969 0 0 0 0 13.972096989598285 -14.486378866115047 0 -14.486378866115047 16.904203452462752 0 0 0 0 4.0893016393881112 -0.96558892426719467 0 -0.96558892426719467 7.5940462251164718 0 0 0 0 5.632700375124557 -16.651848530895222 0 -16.651848530895222 8.1919312372218656 0 0 0 0 -1.0861437725890823 -16.151656243503794 0 -16.151656243503794 18.030654382117064 0 0 0 0 5.2336615529689965 -14.388111779035171 0 -14.388111779035171 18.488480255738978 0 0 0 0 4.8328378847023288 -16.560571168298338 0 -16.560571168298338 19.866570020280278 0 0 0 0 7.2746190549247132 -12.108417138506184 0 -12.108417138506184 19.09389004127479 0 0 0 0 -0.52369328028141449 -0.013191790188532337 0 -0.013191790188532337 0.40133028247613112 0 0 0 0 0.81530807334010547 -2.8985499734026234 0 -2.8985499734026234 1.4427664051008833 0 0 0 0 -0.1375125763001499 -0.73983523637889448 0 -0.73983523637889448 0.96796284513948194 0 0 0 0 0.30316572787160823 -0.59135299654849405 0 -0.59135299654849405 14.713182942017738 0 0 0 0 -3.2376212284095587 -7.6252019864941758 0 -7.6252019864941758 15.165665044505658 0 0 0 0 1.8787047134207953 -1.9546054563470534 0 -1.9546054563470534 2.452944040678176 0 0 0 0 0.45990566184990023 0.78122583026561188 0 0.78122583026561188 2.0093914389851761 0 0 0 0 0.63850797606727117 -2.3697749474915781 0 -2.3697749474915781 2.668009029042878 0 0 0 0 3.7538739712999245 -3.8736875847635019 0 -3.8736875847635019 -0.19470243554133049 0 0 0 0 -0.39022232337814655 -0.012019405708180386 0 -0.012019405708180386 0.37799183805402947 0 0 0 0 13.228267907020467 -19.794683380995593 0 -19.794683380995593 24.804618090114673 0 0 0 0 6.4446139059312948 -18.78011963612812 0 -18.78011963612812 27.810454476742962 0 0 0 0 12.586517920276847 -15.602111708967641 0 -15.602111708967641 23.949322135387547 0 0 0 0 -0.2090377107876738 0.02640487454067042 0 0.02640487454067042 0.30198360136978408 0 0 0 0 16.43276918570173 -24.982410839990052 0 -24.982410839990052 27.268626838735145 0 0 0 0 -4.6223552514241817 2.7614763833698817 0 2.7614763833698817 3.2799818172534287 0 0 0 0 5.3521907404167663 -8.537381701630693 0 -8.537381701630693 -1.5069017222922412 0 0 0 0 -6.4024630923895316 -7.0011750552566809 0 -7.0011750552566809 2.3251972552097868 0 0 0 0 0.72426602540187091 -4.893451377580277 0 -4.893451377580277 21.516173073645405 0 0 0 0 13.003022986738955 -1.9965630940660049 0 -1.9965630940660049 1.5901694480726292 0 0 0 0 0.060467824571397391 -0.025457238032746687 0 -0.025457238032746687 0.060701036141871612 0 0 0 0 0.39150134963915662 -0.14033235207534744 0 -0.14033235207534744 0.19541407250471821 0 0 0 0 0.11559941571080001 0.011155721041578914 0 0.011155721041578914 0.059582007083818667 0 0 0 0 1.3297839383955221 -0.86461958484778734 0 -0.86461958484778734 -0.0095136858069508889 0 0 0 0 5.8053794890440411 -6.6153995400497934 0 -6.6153995400497934 1.3283946277770156 0 0 0 0 -0.581769631213362 -6.0903296501692239 0 -6.0903296501692239 10.093811620688939 0 0 0 0 6.3999513506562575 -4.9796468790250401 0 -4.9796468790250401 1.7099507262755651 0 0 0 0 0.039015021205282073 -0.053236201254243554 0 -0.053236201254243554 0.039110357786910299 0 0 0 0 0.45892827291457472 -0.27056272806839843 0 -0.27056272806839843 0.28445103472677147 0 0 0 0 2.3473493466585182 0.35466981465106073 0 0.35466981465106073 14.262492009485868 0 0 0 0 0.36351627725304603 -0.46551179880589189 0 -0.46551179880589189 0.39655112530454062 0 0 0 0 0.01034183264489456 -0.039979162302348215 0 -0.039979162302348215 0.10071537739404945 0 0 0 0 0.30133168777161567 -0.27033593830708824 0 -0.27033593830708824 0.18654275657642927 0 0 0 0 0.00042249802281245867 -0.32200247978380503 0 -0.32200247978380503 0.29309272614227666 0 0 0 0 -0.0032481362018171589 -0.30599844632160966 0 -0.30599844632160966 0.29278602719382718 0 0 0 0 -9.3305772931811615e-05 -0.30795232301989017 0 -0.30795232301989017 0.017748644822859205 0 0 0 0 0.17593271879796754 -0.23275975660828152 0 -0.23275975660828152 0.2507712037760399 0 0 0 0 -0.14283589022428061 0.038473807546228755 0 0.038473807546228755 0.21043774853433206 0 0 0 0 0.1291504037703331 -0.1991583046860903 0 -0.1991583046860903 0.30654513830183561 0 0 0 0 -0.00024884742330407448 0.00018096301937475801 0 0.00018096301937475801 0.2487843056442216 0 0 0 0 0.22224449008569636 -0.079980705069601754 0 -0.079980705069601754 -0.025246824994610506 0 0 0 0 0.076438399580887051 -0.43278301865120739 0 -0.43278301865120739 0.5433109693476581 0 0 0 0 0.31737488927230117 -0.65216193659034616 0 -0.65216193659034616 0.57417026094253742 0 0 0 0 0.24318182898734442 -0.36902834507031912 0 -0.36902834507031912 0.77812029498090851 0 0 0 0 -0.2369089987995224 0.054988882392549954 0 0.054988882392549954 0.25207375302638368 0 0 0 0 -0.11612657028487718 -0.033656124823210121 0 -0.033656124823210121 0.35619868963749468 0 0 0 0 -0.00092539324263312414 -0.0017102062265621498 0 -0.0017102062265621498 0.36053808732413017 0 0 0 0 0.015095799366788596 -0.09590883283817675 0 -0.09590883283817675 0.39941546801037475 0 0 0 0 -0.0042653244212917385 0.017839594865616704 0 0.017839594865616704 0.031326466983930601 0 0 0 0 -0.17321201230242878 0.65659453422995284 0 0.65659453422995284 0.10790551266291004 0 0 0 0 -0.1426548284680432 -0.090260191819481861 0 -0.090260191819481861 0.10520083443520889 0 0 0 0 0.50578745677267989 -0.703416518839731 0 -0.703416518839731 -0.1003667280560876 0 0 0 0 -0.10459054373745857 -0.22791036689523025 0 -0.22791036689523025 1.9799162715225975 0 0 0 0 -0.089537010403518025 -0.97977447206267243 0 -0.97977447206267243 1.5422066210267076 0 0 0 0 0.16645104863084725 -1.15839335848068 0 -1.15839335848068 0.7246937048403197 0 0 0 0 -0.20320403019412103 0.12796654544226271 0 0.12796654544226271 0.26981712064807084 0 0 0 0 0.067163538685400148 0.19798222561854573 0 0.19798222561854573 1.941884982483316 0 0 0 0 2.0620273962480535 -2.1040354248966651 0 -2.1040354248966651 0.26650993233124609 0 0 0 0 -0.1375934039703417 0.024469696418631059 0 0.024469696418631059 0.12518609912568479 0 0 0 0 0.604792914965671 0.37602233623510983 0 0.37602233623510983 0.040126378637069138 0 0 0 0 0.4813902589181609 -1.4473077069897045 0 -1.4473077069897045 1.6350951190206615 0 0 0 0 0.54088787449128972 -1.5439273438723831 0 -1.5439273438723831 1.1377441975564579 0 0 0 0 -0.079846403511426259 0.044499076510135183 0 0.044499076510135183 0.16636715777839939 0 0 0 0 2.0562314364854615 -0.94032546274320339 0 -0.94032546274320339 1.1034526733310486 0 0 0 0 -0.052997072252022562 0.10301126092373902 0 0.10301126092373902 0.014008076588673646 0 0 0 0 -0.041681900252670358 0.022868183172129797 0 0.022868183172129797 0.30744136820429446 0 0 0 0 -0.3518778298921304 0.096813632379110004 0 0.096813632379110004 0.46303758516296512 0 0 0 0 -0.37401523641705647 -0.33666137717870015 0 -0.33666137717870015 -0.29058824599633226 0 0 0 0 -1.6764930866240668 -0.94103110618743813 0 -0.94103110618743813 0.66790675249421838 0 0 0 0 0.0018085402803676382 -0.010203311595459166 0 -0.010203311595459166 0.54686398479680065 0 0 0 0 0.041901523206508556 -0.25342017107504944 0 -0.25342017107504944 0.751912748718496 0 0 0 0 -0.17338070828648849 -0.003982924587035086 0 -0.003982924587035086 0.53105385978778941 0 0 0 0 -0.15043269737403014 0.065442970301774039 0 0.065442970301774039 0.43798999954469764 0 0 0 0 0.11528862878784132 -0.051382496516453102 0 -0.051382496516453102 0.39153940889264049 0 0 0 0 0.39053889135003161 -0.12098905530729098 0 -0.12098905530729098 0.13547442342314753 0 0 0 0 0.0022963413733518845 0.11431759125025565 0 0.11431759125025565 0.12620381470878783 0 0 0 0 0.076986778797749705 -0.13960968293758924 0 -0.13960968293758924 0.48719823255305528 0 0 0 0 0.00017874134205205213 0.11053600159650424 0 0.11053600159650424 -0.11478083936890471 0 0 0 0 -0.00010671387926362993 -0.00061093235958153969 0 -0.00061093235958153969 0.0034453749613874152 0 0 0 0 0.52230524800178335 -0.44313508304549032 0 -0.44313508304549032 0.42073759339200478 0 0 0 0 0.67411209747771883 -0.77886356039562088 0 -0.77886356039562088 0.40727927933494357 0 0 0 0 0.84197266027901196 -0.064897533954535902 0 -0.064897533954535902 0.066570468200552568 0 0 0 0 0.20691981786558106 -0.089151916728951619 0 -0.089151916728951619 0.15090854692425637 0 0 0 0 0.21020043883105655 -0.090539479982908233 0 -0.090539479982908233 0.11087427286395268 0 0 0 0 0.27578060356436407 0.63440062692870924 0 0.63440062692870924 0.64021463968310854 0 0 0 0 4.5645497403038761e-05 -0.0013624412816835019 0 -0.0013624412816835019 0.0040883352154565955 0 0 0 0 0.7082687688174174 -1.0242187867806933 0 -1.0242187867806933 2.0416837895209028 0 0 0 0 0.0013732039314378411 -0.41469514453229911 0 -0.41469514453229911 2.2941849320595793 0 0 0 0 0.0064201548808877629 -0.62121513430793129 0 -0.62121513430793129 3.0174155612303366 0 0 0 0 -0.64160949897756936 0.7324479221515503 0 0.7324479221515503 1.4955255271306669 0 0 0 0 -0.40232675635520465 0.80685807430927525 0 0.80685807430927525 1.2893924302825326 0 0 0 0 0.0035646193518810237 -0.0052110991232214854 0 -0.0052110991232214854 0.20873184592054628 0 0 0 0 -0.69661926671390051 0.6475020555581068 0 0.6475020555581068 1.3657909232351813 0 0 0 0 -0.7313917893727685 0.083722259453679726 0 0.083722259453679726 0.54789098242144973 0 0 0 0 -0.51150145321264162 0.67045440203492035 0 0.67045440203492035 1.128517134779031 0 0 0 0 0.42864677903705939 1.2082682715681585 0 1.2082682715681585 1.013732116052779 0 0 0 0 0.16950062966802903 1.6376678556935076 0 1.6376678556935076 1.4425720247600111 0 0 0 0 -0.6179646141478905 1.6964898335763792 0 1.6964898335763792 1.5569410581883858 0 0 0 0 0.20580005407884983 2.8903962360827791 0 2.8903962360827791 3.0784442982439941 0 0 0 0 -6.7842638468533032 -20.393521316876104 0 -20.393521316876104 11.0155822538959 0 0 0 0 0.057960307419212771 0.073551106113743714 0 0.073551106113743714 0.073658649383588681 0 0 0 0 1.733480782121128 0.82774803511188111 0 0.82774803511188111 1.7504653108208004 0 0 0 0 1.347609972766481 2.0044775034343729 0 2.0044775034343729 0.66376209569352795 0 0 0 0 0.062772498937676474 -0.16648525730701635 0 -0.16648525730701635 0.66332677201697976 0 0 0 0 -1.5651355404126761 0.40045582079255837 0 0.40045582079255837 2.5403708637418276 0 0 0 0 -0.17701082479787722 0.54360855775462369 0 0.54360855775462369 0.10750644016661681 0 0 0 0 0.41186059680449461 -0.1793113086705489 0 -0.1793113086705489 -0.35965539329845342 0 0 0 0 0.070200795679944861 -6.8888033614884989 0 -6.8888033614884989 4.7415633173837932 0 0 0 0 0.16477187606786661 -0.65138422834091436 0 -0.65138422834091436 2.2435328718801344 0 0 0 0 0.00080343326873411058 -2.0525045760268767 0 -2.0525045760268767 3.166965221565988 0 0 0 0 0.63169312437423741 2.5786109740620304 0 2.5786109740620304 4.6099617283070984 0 0 0 0 -0.91553318339574474 0.061240741803885612 0 0.061240741803885612 5.1709709407077753 0 0 0 0 3.043863625160327 3.2215102331174421 0 3.2215102331174421 5.0684842050377483 0 0 0 0 0.14708430979582693 -0.13883544218693622 0 -0.13883544218693622 -0.044749482201162039 0 0 0 0 0.14922513993811037 -0.26501086543430574 0 -0.26501086543430574 0.69603787625783298 0 0 0 0 1.8148456938651094 0.39053831660203286 0 0.39053831660203286 0.60611114581115544 0 0 0 0 0.0030957228397285666 -0.60124620601795442 0 -0.60124620601795442 0.85947081334354181 0 0 0 0 0.0084139575140383394 -0.055737595964426845 0 -0.055737595964426845 0.14614883149475233 0 0 0 0 0.12979171547278412 0.25470122567639919 0 0.25470122567639919 2.0541267156431786 0 0 0 0 0.018675863921096436 0.40027165202991455 0 0.40027165202991455 2.0150308050251624 0 0 0 0 -0.48491850739216602 -1.9197723540401057 0 -1.9197723540401057 2.3944929836325173 0 0 0 0 0.30400302231686283 -1.0014015966498846 0 -1.0014015966498846 2.844137833431887 0 0 0 0 0.42560181330740859 -1.2913241033277991 0 -1.2913241033277991 2.3934006402285846 0 0 0 0 -0.45276260410024571 0.11873356128976909 0 0.11873356128976909 1.6854977047975161 0 0 0 0 -0.14207839044602544 -0.44750156114423589 0 -0.44750156114423589 1.4870564249067684 0 0 0 0 -0.1270576187330974 -0.3981578530592742 0 -0.3981578530592742 1.3246516692306614 0 0 0 0 -0.157811389620645 -0.3319919762234349 0 -0.3319919762234349 1.3446591674801311 0 0 0 0 0.035675471155729804 -0.2579457682590327 0 -0.2579457682590327 0.88268447890616386 0 0 0 0 -0.13960377315044248 -0.28312817964069836 0 -0.28312817964069836 1.2478834265493788 0 0 0 0 0.17771259491904237 -0.85221608294927975 0 -0.85221608294927975 1.0746133478462809 0 0 0 0 0.098586770656658135 0.041063785605100378 0 0.041063785605100378 0.58171061692996417 0 0 0 0 0.53597130909821544 -1.0670038719817967 0 -1.0670038719817967 1.6122425419375759 0 0 0 0 0.22204483669124497 -0.46322366942909809 0 -0.46322366942909809 1.0680647997551773 0 0 0 0 0.38226070053815597 0.098206721800579544 0 0.098206721800579544 3.1965592307024053 0 0 0 0 0.029184913451249225 0.064871324179474499 0 0.064871324179474499 0.35111089988868116 0 0 0 0 0.16417302182073179 -0.20399055109828623 0 -0.20399055109828623 1.8230472979157639 0 0 0 0 0.40529207631564645 0.38163490021224789 0 0.38163490021224789 4.8239401537848607 0 0 0 0 4.785083166885272 0.74959391854645219 0 0.74959391854645219 -5.8413824215494969 0 0 0 0 -6.3604763844323031 -9.7658380712709913 0 -9.7658380712709913 16.156210003216984 0 0 0 0 0.15926447951913744 -0.092510162095248205 0 -0.092510162095248205 0.027768774647142891 0 0 0 0 4.4720221924120693 1.8532142364838364 0 1.8532142364838364 -3.229230732362339 0 0 0 0 -0.50732382937283749 -0.19629339129891576 0 -0.19629339129891576 0.68186961019133463 0 0 0 0 0.052619175801780216 -1.3820802532354719 0 -1.3820802532354719 5.7371721743065791 0 0 0 0 0.30331211854726803 -3.1647792223302531 0 -3.1647792223302531 4.0874896814020758 0 0 0 0 0.91784951372672197 -2.0720796001833151 0 -2.0720796001833151 2.8328481497956091 0 0 0 0 0.015604481067045484 -1.7499971118404574 0 -1.7499971118404574 2.7588419597341272 0 0 0 0 0.98232626315203575 -2.8560302355263048 0 -2.8560302355263048 2.7091029425928355 0 0 0 0 0.17956771359464052 0.093188079768651733 0 0.093188079768651733 1.2631726473482559 0 0 0 0 -0.074691333293551793 0.088952302966585961 0 0.088952302966585961 0.17578928307046482 0 0 0 0 18.117912161801282 4.9508725170662728 0 4.9508725170662728 -4.9858557320117143 0 0 0 0 0.054363287579570929 0.17635988506555833 0 0.17635988506555833 0.13547164467463091 0 0 0 0 -1.8130850735241033 0.48455820917934034 0 0.48455820917934034 3.7960207077603627 0 0 0 0 0.77803106965949453 -1.5239916109894693 0 -1.5239916109894693 1.5346594459260814 0 0 0 0 14.927783456006068 5.6452702022848484 0 5.6452702022848484 10.04920702560679 0 0 0 0 8.7305567894537717 6.4460706663957126 0 6.4460706663957126 10.510682914395375 0 0 0 0 15.871819445795381 8.1829451705683596 0 8.1829451705683596 9.2487004508694106 0 0 0 0 1.3074755696227898 -2.8705262263180811 0 -2.8705262263180811 6.0906018876493002 0 0 0 0 17.219339550913674 2.5584777982231799 0 2.5584777982231799 7.2694618829196997 0 0 0 0 19.847534568482615 4.9869296090749344 0 4.9869296090749344 9.2440262838450113 0 0 0 0 16.470610673421277 9.1819571465445051 0 9.1819571465445051 5.9390731595059378 0 0 0 0 22.748644014681304 7.8035375239490463 0 7.8035375239490463 6.2401657794104892 0 0 0 0 12.621209902324267 11.202942081354166 0 11.202942081354166 10.426810643393821 0 0 0 0 -7.1368764297949383 8.3074894730732183 0 8.3074894730732183 13.633623851354201 0 0 0 0 -1.3156916062932567 13.749254048447909 0 13.749254048447909 11.212019375650016 0 0 0 0 0.98981351055272171 9.408423399423782 0 9.408423399423782 12.121332748857583 0 0 0 0 -18.491759503855995 6.4881310855825518 0 6.4881310855825518 10.92023155643119 0 0 0 0 -19.870388156535938 8.4019776794715995 0 8.4019776794715995 10.692893147877044 0 0 0 0 -2.4978107905546345 7.3925900181824531 0 7.3925900181824531 6.6032951014045693 0 0 0 0 0.18307006863773267 14.331508345147881 0 14.331508345147881 8.547645387834109 0 0 0 0 -1.3866172832641155 8.823838479851986 0 8.823838479851986 13.943474046798201 0 0 0 0 -25.383541894862145 7.348023734061826 0 7.348023734061826 13.437213505995231 0 0 0 0 -11.222322040237458 18.315754708066493 0 18.315754708066493 14.408026921574674 0 0 0 0 -1.0404086823185565 0.98319070977882583 0 0.98319070977882583 14.010075595639494 0 0 0 0 -3.6024467715436481 13.949022551157455 0 13.949022551157455 8.9157221560354856 0 0 0 0 -0.79326955574820124 1.0538530968847466 0 1.0538530968847466 12.672997155631325 0 0 0 0 -4.9567258534727898 -18.917321093640339 0 -18.917321093640339 33.033370761986816 0 0 0 0 -2.0376859234725693 -2.1028058692364908 0 -2.1028058692364908 15.135309776102076 0 0 0 0 0.97439888000392216 0.73047050761510368 0 0.73047050761510368 5.3358564599822902 0 0 0 0 -7.1878687936490451 16.838422223439693 0 16.838422223439693 14.00569554822232 0 0 0 0 -3.0840334209110551 11.750618231085355 0 11.750618231085355 7.4415555290868269 0 0 0 0 -1.6134457671138693 1.6836380481826081 0 1.6836380481826081 4.8123279099272374 0 0 0 0 -6.5814950257917531 14.9988097404879 0 14.9988097404879 17.622398363198311 0 0 0 0 -0.98793782152120002 -6.5657821905219862 0 -6.5657821905219862 36.293982858850313 0 0 0 0 -2.1371409166742978 8.2596152560955716 0 8.2596152560955716 17.583562722725674 0 0 0 0 0.3141557898267282 -0.54341868214053268 0 -0.54341868214053268 0.80767987496322924 0 0 0 0 0.22248503652274379 -2.4191848954620845 0 -2.4191848954620845 8.3455711008031557 0 0 0 0 -21.189330100476241 -21.404502162318067 0 -21.404502162318067 -2.2787685796006372 0 0 0 0 27.726439343267515 38.325607919872027 0 38.325607919872027 -11.120351072025642 0 0 0 0 64.433996080812676 -13.88300779707788 0 -13.88300779707788 -92.07121829926291 0 0 0 0 -47.566842432555084 -36.588181440765879 0 -36.588181440765879 42.259094992540668 0 0 0 0 0.28828374064477447 -1.8970038409569048 0 -1.8970038409569048 2.996286725162467 0 0 0 0 -13.501374457798875 -29.63273268527837 0 -29.63273268527837 88.944991952937016 0 0 0 0 16.484849568403945 14.186808170328675 0 14.186808170328675 10.748966059545182 0 0 0 0 -14.352263894700741 7.0367529184941304 0 7.0367529184941304 -8.108982690711855 0 0 0 0 17.37600423360243 -34.439854189638936 0 -34.439854189638936 -11.894117720538361 0 0 0 0 -49.910571844550077 -47.220287129292728 0 -47.220287129292728 14.691044990762748 0 0 0 0 0.97590146406122735 -3.496377917494331 0 -3.496377917494331 7.0032175804268064 0 0 0 0 46.128646790300081 155.95718454738744 0 155.95718454738744 347.39613857494987 0 0 0 0 -33.132031856165895 36.420089242105746 0 36.420089242105746 32.928687423689553 0 0 0 0 0.41302490141175907 -0.039599215092550821 0 -0.039599215092550821 0.34969245512488412 0 0 0 0 8.5489366729230198 21.33277195578421 0 21.33277195578421 35.270356202101993 0 0 0 0 -10.522616676785333 4.757186059076048 0 4.757186059076048 88.877748280090827 0 0 0 0 0.51561896482646608 0.1308772233600628 0 0.1308772233600628 0.35562366633861364 0 0 0 0 1.1088729308453367 0.013940448357971036 0 0.013940448357971036 4.0654876267435611 0 0 0 0 3.4840231333284351 -0.96922868759747871 0 -0.96922868759747871 3.6180502646775494 0 0 0 0 -0.29139011871643561 0.81366186785271566 0 0.81366186785271566 1.9455927181662709 0 0 0 0 -0.46667023337320396 -0.038796621388158314 0 -0.038796621388158314 1.043333362320725 0 0 0 0 -0.067636820052609015 0.92201838216494991 0 0.92201838216494991 2.1023756717487707 0 0 0 0 -1.0170011627456821 -1.0196198718975751 0 -1.0196198718975751 0.93102383029054714 0 0 0 0 15.899993942417723 2.8175090944241674 0 2.8175090944241674 69.626076104039385 0 0 0 0 -0.011835249944851967 -0.11314878956545726 0 -0.11314878956545726 0.21416666087316116 0 0 0 0 -0.27112190081303689 -0.37591869256886667 0 -0.37591869256886667 0.92148183033014774 0 0 0 0 -0.65606172415366704 -0.40274179249848618 0 -0.40274179249848618 0.5027524570196924 0 0 0 0 25.255787450058364 12.623313502067276 0 12.623313502067276 66.085536242222588 0 0 0 0 -0.65205368786530471 11.04915175606493 0 11.04915175606493 50.417549246370982 0 0 0 0 6.7977974232023826 10.037725348875028 0 10.037725348875028 63.334192277141483 0 0 0 0 14.649055043517706 10.582040278066415 0 10.582040278066415 66.610312958848226 0 0 0 0 11.142322813285588 12.872704216698367 0 12.872704216698367 65.152416582357546 0 0 0 0 6.0866857817807158 2.9961344346957048 0 2.9961344346957048 70.757180691654867 0 0 0 0 -2.5069113856779381 8.2487415316736588 0 8.2487415316736588 68.597564446487922 0 0 0 0 6.4826990344328692 13.809062490073302 0 13.809062490073302 58.49702759070351 0 0 0 0 -1.8348263866556351 9.9476116201549303 0 9.9476116201549303 51.069495990653195 0 0 0 0 1.5454627403819359 6.6100158339677364 0 6.6100158339677364 53.98370672897363 0 0 0 0 -1.0432118811601185 1.4944854211935308 0 1.4944854211935308 37.654077703478833 0 0 0 0 -1.9492691143803 4.4413141450204421 0 4.4413141450204421 28.729415486242942 0 0 0 0 -6.9930042932737138 -1.2648250826659932 0 -1.2648250826659932 47.276097975968696 0 0 0 0 -13.520362047990204 16.949735244606018 0 16.949735244606018 82.919437878314056 0 0 0 0 -15.857137928569927 -15.734801711667387 0 -15.734801711667387 24.939074656173489 0 0 0 0 12.871260957429229 27.591936647550938 0 27.591936647550938 40.205655861813284 0 0 0 0 -1.1220834171859859 -0.36135740300711561 0 -0.36135740300711561 -0.088364433627351371 0 0 0 0 -0.54661201873954601 -0.059961962932693069 0 -0.059961962932693069 0.36203767739358628 0 0 0 0 2.5995893423504342 -0.15216921946466755 0 -0.15216921946466755 3.6849833199171371 0 0 0 0 -9.9076166508380474 11.203955797651361 0 11.203955797651361 -5.4243403539621795 0 0 0 0 -14.295500840969567 -4.9969332860737268 0 -4.9969332860737268 10.762871506994998 0 0 0 0 -28.211422309158849 18.73843522592415 0 18.73843522592415 26.821505740748762 0 0 0 0 -1.949456463195629 -0.25859190738304072 0 -0.25859190738304072 0.67481292911331803 0 0 0 0 -2.1510595942063837 -0.13768573536026452 0 -0.13768573536026452 5.2890946390862155 0 0 0 0 -3.0238322808276621 -1.4173039669640275 0 -1.4173039669640275 4.5111364317272091 0 0 0 0 0.67908542783478543 -0.60146073572895986 0 -0.60146073572895986 0.48628259252580897 0 0 0 0 0.22987653862026708 -0.2859351884167225 0 -0.2859351884167225 1.8392813568339288 0 0 0 0 9.5939708712640499 19.122745977729949 0 19.122745977729949 61.157625429943437 0 0 0 0 11.434204765446907 20.078305184495548 0 20.078305184495548 68.283911115218871 0 0 0 0 8.4485117399968885 0.53376627615216421 0 0.53376627615216421 -1.06702914929906 0 0 0 0 0.25102544216962552 -0.049203249936464744 0 -0.049203249936464744 -0.22742321177599223 0 0 0 0 23.89614164018937 20.500907136990463 0 20.500907136990463 68.141549170897633 0 0 0 0 -6.4963221079362334 -1.9495488061993456 0 -1.9495488061993456 0.51284565321475384 0 0 0 0 6.5159025834821023 18.211526052364206 0 18.211526052364206 65.835425652734557 0 0 0 0 8.9692982467190063 17.344884584897954 0 17.344884584897954 66.139189834642821 0 0 0 0 5.5699469819066678 15.988142194284592 0 15.988142194284592 61.457963497465244 0 0 0 0 3.4545350601634368 13.757292487294762 0 13.757292487294762 62.498254062866181 0 0 0 0 4.4330213200999609 15.009174134744626 0 15.009174134744626 59.650930154311936 0 0 0 0 3.2138756920315359 9.3968702090041916 0 9.3968702090041916 53.441060795548765 0 0 0 0 0.88263669338465434 9.4539602803915841 0 9.4539602803915841 54.154800867569065 0 0 0 0 2.4348939564079135 12.336425918842679 0 12.336425918842679 62.547401792136952 0 0 0 0 7.3625856502338323 10.975136039301105 0 10.975136039301105 63.516781312317107 0 0 0 0 7.3124775446730474 12.411100076671573 0 12.411100076671573 57.215061389706534 0 0 0 0 4.0406774334221414 15.554545783612866 0 15.554545783612866 70.776770065916935 0 0 0 0 5.423038923779397 21.062534575815789 0 21.062534575815789 70.146140219399967 0 0 0 0 14.831305056699627 26.17232081862403 0 26.17232081862403 81.174385145484848 0 0 0 0 0.32402709690687548 -0.12786250129071419 0 -0.12786250129071419 0.13148666639167494 0 0 0 0 6.702426993338193 14.949098487579022 0 14.949098487579022 169.83304269946711 0 0 0 0 7.9089661125284749 -46.744197476657973 0 -46.744197476657973 41.125035405802919 0 0 0 0 -6.3484336508863635 -17.563874453155677 0 -17.563874453155677 -14.185160444654684 0 0 0 0 43.558412803834642 -12.744326945006833 0 -12.744326945006833 25.926698146506169 0 0 0 0 25.288431039316691 -2.1737118884328765 0 -2.1737118884328765 51.716059605596456 0 0 0 0 48.988113359603432 -41.532915592355494 0 -41.532915592355494 85.64462724752957 0 0 0 0 30.794398261007803 -30.412655685792174 0 -30.412655685792174 72.371233835006933 0 0 0 0 11.390998193298037 -3.222641313670465 0 -3.222641313670465 41.177619375531322 0 0 0 0 2.488780109207255 -16.828661280757842 0 -16.828661280757842 31.790449079398059 0 0 0 0 13.862650360152871 -11.702718939235979 0 -11.702718939235979 29.056282554873178 0 0 0 0 -1.0955385328358886 -11.819104977582356 0 -11.819104977582356 55.725601441833533 0 0 0 0 0.72672813221780075 8.743535068680103 0 8.743535068680103 63.065451773612949 0 0 0 0 -1.424636068981215 -0.40603604505849944 0 -0.40603604505849944 43.538011722033843 0 0 0 0 1.6795347190437298 -12.762861299695487 0 -12.762861299695487 28.333658998186365 0 0 0 0 3.5844983593297144 -11.391543306549465 0 -11.391543306549465 10.378143655181702 0 0 0 0 -0.8873072291628894 -27.372869682035343 0 -27.372869682035343 6.7480205341271358 0 0 0 0 -3.4209972465991996 -22.601184715982527 0 -22.601184715982527 14.476907884958564 0 0 0 0 -1.4191920764559569 -20.721548561826239 0 -20.721548561826239 -9.8430406330589904 0 0 0 0 9.8936396657389309 -24.693032337227123 0 -24.693032337227123 -2.5499008184078775 0 0 0 0 3.2513615019313598 -15.315738235860636 0 -15.315738235860636 11.394554146321752 0 0 0 0 13.240099228269358 -15.172985444899496 0 -15.172985444899496 9.8273164561524027 0 0 0 0 13.483377956299478 -20.611840990743076 0 -20.611840990743076 34.312854714755304 0 0 0 0 34.455902132876361 -9.5540438800157972 0 -9.5540438800157972 9.191125468683822 0 0 0 0 13.441636519560952 -9.7363519243772316 0 -9.7363519243772316 -1.3778324419054115 0 0 0 0 13.687267012443442 -14.350736370145569 0 -14.350736370145569 9.9209006329020895 0 0 0 0 24.904533808320053 -0.67940132588182678 0 -0.67940132588182678 19.598307238393318 0 0 0 0 -10.267455870319139 -31.153413177951734 0 -31.153413177951734 -29.06444594093864 0 0 0 0 -18.577446283690023 -3.4698038173037276 0 -3.4698038173037276 1.0017780210382625 0 0 0 0 -11.226758671601743 -19.627716437615163 0 -19.627716437615163 13.057338217351116 0 0 0 0 -4.0216066092781659 -5.2654789688813253 0 -5.2654789688813253 24.537494324065847 0 0 0 0 -8.1073974320675859 -7.1133419279312875 0 -7.1133419279312875 39.939427705654907 0 0 0 0 -4.8840442544188818 0.079255260972786346 0 0.079255260972786346 44.147160870891639 0 0 0 0 -4.589456877592994 -21.626132465544174 0 -21.626132465544174 12.274382012876231 0 0 0 0 -8.1907399415073883 -8.3563488089193925 0 -8.3563488089193925 26.391191272256037 0 0 0 0 -17.909168162044068 -18.057096517951322 0 -18.057096517951322 12.322191107358776 0 0 0 0 -13.967387092905824 -18.349001504830085 0 -18.349001504830085 12.714597163885628 0 0 0 0 -15.319910815530879 -32.906828267252649 0 -32.906828267252649 -7.8903569700487424 0 0 0 0 -41.406845134443046 -37.037058222824271 0 -37.037058222824271 1.5177367465171301 0 0 0 0 -16.868930083949692 -29.996639332146515 0 -29.996639332146515 0.45898016822138743 0 0 0 0 -8.2870314218407088 -15.417165626947281 0 -15.417165626947281 4.4913554227459827 0 0 0 0 -18.229823667857872 -18.875000562920832 0 -18.875000562920832 -24.015376510657006 0 0 0 0 -14.057061769184031 -28.393409228381643 0 -28.393409228381643 -2.4401889594200838 0 0 0 0 -35.57410000146325 -20.133638580507977 0 -20.133638580507977 -3.4197783470735885 0 0 0 0 1.8252013967997809 -2.0836652292838869 0 -2.0836652292838869 -1.4881814637034436 0 0 0 0 -29.86254068310248 -52.399354179499824 0 -52.399354179499824 -15.037484771732352 0 0 0 0 16.280222052607826 -6.0581104693809777 0 -6.0581104693809777 -5.2416342149342654 0 0 0 0 1.4349346253568456 -41.10854944536328 0 -41.10854944536328 0.59492492375716211 0 0 0 0 3.3753102747806056 -7.007195454798774 0 -7.007195454798774 11.59976644405187 0 0 0 0 14.5871786944208 13.056591582608206 0 13.056591582608206 2.9031548465978148 0 0 0 0 -0.0049518460436228651 -0.047269118232368568 0 -0.047269118232368568 0.3482944364121795 0 0 0 0 0.37791508933639761 -3.5950271342456475 0 -3.5950271342456475 36.3524587842644 0 0 0 0 10.529450058696284 66.123175513969443 0 66.123175513969443 -81.883795330367889 0 0 0 0 34.280207672399683 -109.20116257399006 0 -109.20116257399006 -7.1962145234302284 0 0 0 0 4.0102761072281981 -7.9502280259379212 0 -7.9502280259379212 11.651431216112019 0 0 0 0 -32.921847367476005 -44.923540848182405 0 -44.923540848182405 104.97233945764543 0 0 0 0 -7.0609884234697518 -32.934794089730531 0 -32.934794089730531 -33.474077779219897 0 0 0 0 -23.617811399038359 -49.881553183819051 0 -49.881553183819051 -20.402875882555691 0 0 0 0 17.016316670931246 -36.12147605205481 0 -36.12147605205481 79.721488372713054 0 0 0 0 15.157385217219144 -11.790822390596091 0 -11.790822390596091 166.92095099305854 0 0 0 0 26.575887689526994 0.47018604307992629 0 0.47018604307992629 28.905205089312233 0 0 0 0 28.743767157870025 -22.576995074427813 0 -22.576995074427813 44.514573888587222 0 0 0 0 12.930757069152776 -17.595773507382653 0 -17.595773507382653 75.848420766072238 0 0 0 0 11.210949412505897 -8.5062908156666026 0 -8.5062908156666026 -3.1481623022973508 0 0 0 0 1.0201107149374451 -17.046590007808845 0 -17.046590007808845 0.5711912392891918 0 0 0 0 -1.326886046904292 -15.828276424978867 0 -15.828276424978867 -10.67182555558793 0 0 0 0 9.2525060266288666 -20.343512140777705 0 -20.343512140777705 -10.854455332386351 0 0 0 0 -4.1955067695401596 -25.490801810297853 0 -25.490801810297853 -13.407990430440805 0 0 0 0 -11.072376980146682 -19.993185982432806 0 -19.993185982432806 -8.10724286723962 0 0 0 0 3.644942516948432 -23.968329268399657 0 -23.968329268399657 -9.6448495588774676 0 0 0 0 -6.0455153135714319 -22.336005666956225 0 -22.336005666956225 -0.90441785935217922 0 0 0 0 -0.91867127696336581 -26.709296434699354 0 -26.709296434699354 -10.838364708009976 0 0 0 0 -11.727233635194567 -35.816400636729867 0 -35.816400636729867 -12.320779914598461 0 0 0 0 -12.741215582875085 -37.540568418618022 0 -37.540568418618022 -10.18308345652909 0 0 0 0 -33.643078667123952 -31.222791806163514 0 -31.222791806163514 -5.6085804287513383 0 0 0 0 -62.105504508997683 129.98248600381939 0 129.98248600381939 171.97090526155068 0 0 0 0 289.1700612116565 73.109603854829174 0 73.109603854829174 -120.14673821712915 0 0 0 0 -19.749911656435764 -17.112203053280155 0 -17.112203053280155 -14.68049333876661 0 0 0 0 -12.516998566117238 -25.976548537780445 0 -25.976548537780445 -7.2146633625070535 0 0 0 0 2.5825177811611852 -6.6700246517392445 0 -6.6700246517392445 11.073362249195212 0 0 0 0 -8.0736571321819781 -32.247099182782677 0 -32.247099182782677 -15.829096291652149 0 0 0 0 -4.3854563977750161 -22.420109468455394 0 -22.420109468455394 -21.948832986155594 0 0 0 0 -2.03497291923793 -26.815297704283694 0 -26.815297704283694 -14.332982958452476 0 0 0 0 2.2181364429681452 -16.580509215865959 0 -16.580509215865959 -7.7159199303714558 0 0 0 0 8.1091380199443392 -18.432261117292001 0 -18.432261117292001 -10.51847318252976 0 0 0 0 8.5978431704882041 18.529721204807856 0 18.529721204807856 35.302754482068664 0 0 0 0 -63.64245149518888 35.057642278359992 0 35.057642278359992 34.622342975754464 0 0 0 0 -21.32092887484913 42.196794492043324 0 42.196794492043324 26.923182162129478 0 0 0 0 13.369495444573204 25.079214116143021 0 25.079214116143021 13.1583489317062 0 0 0 0 41.964530413805846 28.064700587710149 0 28.064700587710149 16.735466326566211 0 0 0 0 13.357003530538805 24.71995230534435 0 24.71995230534435 27.841257749115357 0 0 0 0 42.942818592287949 -60.689796649128567 0 -60.689796649128567 62.844355342690307 0 0 0 0 31.858548015693259 -60.948603697333624 0 -60.948603697333624 91.53786544001926 0 0 0 0 -25.840768009856504 80.169000278579603 0 80.169000278579603 -11.392686158561105 0 0 0 0 27.84852586199554 -74.882520395567752 0 -74.882520395567752 127.56208597100762 0 0 0 0 0.79205765458247868 1.1078052690624021 0 1.1078052690624021 1.5615313629554812 0 0 0 0 -19.904577097946969 36.441911869810113 0 36.441911869810113 -29.343006190739516 0 0 0 0 -55.518116213153007 18.314378917290469 0 18.314378917290469 14.509217533728133 0 0 0 0 4.0531455202240068 8.3601526984040788 0 8.3601526984040788 64.059675477460416 0 0 0 0 1.8279322088055387 2.9852921763149034 0 2.9852921763149034 4.5297634394092468 0 0 0 0 -59.646902626848032 33.376894431758842 0 33.376894431758842 4.5474572023840665 0 0 0 0 0.83377602723891542 0.69804444062546711 0 0.69804444062546711 1.1669414048460167 0 0 0 0 141.49125337552255 -37.494965423887436 0 -37.494965423887436 20.879569765628503 0 0 0 0 49.694790560998001 -44.168145989031416 0 -44.168145989031416 94.440474682694742 0 0 0 0 1.1844012608607954 -16.847136637089761 0 -16.847136637089761 41.562405200875105 0 0 0 0 45.712718206989621 -16.734257190959319 0 -16.734257190959319 30.508088354349525 0 0 0 0 8.1210343508487881 6.5782030729176029 0 6.5782030729176029 73.148981257926835 0 0 0 0 37.597095476615209 -5.782266130893909 0 -5.782266130893909 40.845738651529388 0 0 0 0 93.118702869765343 -20.20031499135527 0 -20.20031499135527 43.273956577614868 0 0 0 0 47.035300101800431 15.386628703912329 0 15.386628703912329 87.833957314462168 0 0 0 0 31.15671244461214 -11.236310217504624 0 -11.236310217504624 49.416025407008519 0 0 0 0 46.188095628525502 9.5946577558198101 0 9.5946577558198101 21.970976618474907 0 0 0 0 18.439522367936689 7.9195176755450447 0 7.9195176755450447 25.80411428211869 0 0 0 0 20.178949552106133 14.838071089450622 0 14.838071089450622 50.558539557792194 0 0 0 0 8.092792266171557 16.966351809297333 0 16.966351809297333 28.568433532017984 0 0 0 0 23.470378004679105 5.7327776781912192 0 5.7327776781912192 22.814861761777138 0 0 0 0 13.091892854458706 12.921465246608278 0 12.921465246608278 15.094362648368246 0 0 0 0 26.810315406506703 12.151058890954168 0 12.151058890954168 14.423281209331662 0 0 0 0 24.550904369396449 12.18479273193806 0 12.18479273193806 15.341702909165491 0 0 0 0 28.548311155911506 6.1326064635273099 0 6.1326064635273099 3.301887261406705 0 0 0 0 19.056294727181125 1.5997010775618321 0 1.5997010775618321 29.900767961809208 0 0 0 0 -19.180760694011269 6.8260272793273842 0 6.8260272793273842 19.456150540436752 0 0 0 0 -21.132450495079354 10.041473039954834 0 10.041473039954834 17.365507793084618 0 0 0 0 -15.606563696994613 14.265491986426127 0 14.265491986426127 17.354572402608937 0 0 0 0 -7.6614420790636757 16.157751556402168 0 16.157751556402168 23.937559495787426 0 0 0 0 1.0287387662582432 15.885215226278589 0 15.885215226278589 18.07400687939969 0 0 0 0 1.8178657556557027 8.5801333899432688 0 8.5801333899432688 18.990837865153104 0 0 0 0 -5.6846514630099705 15.759031751265482 0 15.759031751265482 40.711501846607263 0 0 0 0 -18.692945611597167 1.4707296026664949 0 1.4707296026664949 29.27663199132019 0 0 0 0 -19.336373612072919 4.3780497776384379 0 4.3780497776384379 17.07732403511892 0 0 0 0 -29.409394829417622 2.9255902894072534 0 2.9255902894072534 24.506551272060022 0 0 0 0 -36.057430735007728 3.0546833530736137 0 3.0546833530736137 25.844602571954113 0 0 0 0 1.8766705782041981 -11.115268794369683 0 -11.115268794369683 29.88819966219836 0 0 0 0 1.3084454131876555 -33.9665536796889 0 -33.9665536796889 5.4947885219863792 0 0 0 0 -22.384026655656641 -5.1617806341893129 0 -5.1617806341893129 40.472037267611995 0 0 0 0 -35.707255785610499 -24.183119639225538 0 -24.183119639225538 11.018518647314067 0 0 0 0 -22.358100726183672 -18.249245685389752 0 -18.249245685389752 0.24993761505390921 0 0 0 0 -0.14662957403510291 -0.37118859429824624 0 -0.37118859429824624 6.0588579457082687 0 0 0 0 -0.20945620863386544 -0.95312563567721154 0 -0.95312563567721154 4.7297294464058197 0 0 0 0 -41.953128544937485 -7.7334396743203673 0 -7.7334396743203673 20.452078968238133 0 0 0 0 -0.35878081987908061 -0.37901291002680476 0 -0.37901291002680476 7.5283734948196406 0 0 0 0 -3.1964373690063326 0.061292866143617175 0 0.061292866143617175 5.5689343328052701 0 0 0 0 -18.26338645185259 8.6801164387054541 0 8.6801164387054541 7.404461750075825 0 0 0 0 -0.58835329512636947 -0.5651899322653664 0 -0.5651899322653664 6.0179754516014867 0 0 0 0 -1.6160455208365647 0.01424848262939804 0 0.01424848262939804 6.727994136806501 0 0 0 0 -0.92159151476266743 -0.82700185420458183 0 -0.82700185420458183 5.8229442916258449 0 0 0 0 -0.95739866514688532 0.42013095645505905 0 0.42013095645505905 5.7172811139304702 0 0 0 0 -1.3875019101828463 1.420681334824105 0 1.420681334824105 0.016793986162801033 0 0 0 0 -4.3762857697340998 8.0508902128412956 0 8.0508902128412956 3.8815465671675611 0 0 0 0 -9.1264557584375723 3.1362076195209738 0 3.1362076195209738 4.7021174530746066 0 0 0 0 -45.018418583603989 -13.93224423843094 0 -13.93224423843094 -3.6619747786062362 0 0 0 0 -47.737204715384905 -12.597089703754591 0 -12.597089703754591 9.3348390240025765 0 0 0 0 -32.22556789108171 -11.061801062799645 0 -11.061801062799645 17.800354596283796 0 0 0 0 -39.811516061731481 -0.18016819752301672 0 -0.18016819752301672 2.3730792051031813 0 0 0 0 6.4721610319006828 8.5994224330790985 0 8.5994224330790985 0.67891846928159794 0 0 0 0 -59.068008242078577 -44.446993409485685 0 -44.446993409485685 -11.648936766157021 0 0 0 0 -0.758772262633716 0.44657386248001529 0 0.44657386248001529 0.086110341191020012 0 0 0 0 -1.5890049262194594 2.5959632497242637 0 2.5959632497242637 1.9057706184493099 0 0 0 0 -4.8624129780774616 15.41356755121592 0 15.41356755121592 2.2423681472000681 0 0 0 0 13.336260328755827 6.5301206481512963 0 6.5301206481512963 1.0060028636316929 0 0 0 0 6.2372882962524301 4.7919122085378376 0 4.7919122085378376 1.3970840299052725 0 0 0 0 29.924746007447119 -8.4588051992204782 0 -8.4588051992204782 10.190580945428579 0 0 0 0 22.912648565559486 23.785888642144528 0 23.785888642144528 3.6233951006798861 0 0 0 0 5.9841748329394449 6.1290313989054539 0 6.1290313989054539 10.950225301412502 0 0 0 0 13.45871748746621 9.2070164971610211 0 9.2070164971610211 -0.92243880725891358 0 0 0 0 -1.0272507847296328 1.93520619018748 0 1.93520619018748 1.1837821837914948 0 0 0 0 -52.742846949554618 5.3712359186420144 0 5.3712359186420144 11.538636386839698 0 0 0 0 -18.776316276036837 29.631584268517713 0 29.631584268517713 0.10715652230919659 0 0 0 0 -15.157758104500346 28.068452631880518 0 28.068452631880518 7.2604923179387697 0 0 0 0 -1.0721099573409458 1.0026706248883799 0 1.0026706248883799 14.360411886965602 0 0 0 0 -31.928143335046599 8.0764850324583222 0 8.0764850324583222 17.456429143542834 0 0 0 0 -29.73475053126424 5.1896788573421873 0 5.1896788573421873 16.897564037177744 0 0 0 0 -28.554664901024239 1.8939064589785017 0 1.8939064589785017 9.4749418362293483 0 0 0 0 -10.156281295208714 9.8590984525911836 0 9.8590984525911836 6.4433206482117384 0 0 0 0 5.3180335102869662 14.098759265515355 0 14.098759265515355 48.419920359908929 0 0 0 0 15.928208392529598 -20.817566283755468 0 -20.817566283755468 19.833421002933846 0 0 0 0 16.066036663470666 -10.179097034242877 0 -10.179097034242877 -8.7884443150815059 0 0 0 0 0.20875521940264458 -0.28697939429645469 0 -0.28697939429645469 0.57242026895058196 0 0 0 0 -19.634448694764842 -8.2654370708696661 0 -8.2654370708696661 58.485056428393818 0 0 0 0 42.386861835067123 51.196910208420377 0 51.196910208420377 46.916890408696418 0 0 0 0 -7.055931591846786 0.49563223925065358 0 0.49563223925065358 28.952731316642257 0 0 0 0 -15.45201263572028 14.298450775120727 0 14.298450775120727 6.5117110417886579 0 0 0 0 -12.405818012260141 -8.3285475450993545 0 -8.3285475450993545 -16.391259241504031 0 0 0 0 -56.341831687837683 -13.472582751760712 0 -13.472582751760712 27.339342103807212 0 0 0 0 -0.34757887393413778 0.058988897533891027 0 0.058988897533891027 0.39253065583914193 0 0 0 0 -62.578316526031898 -55.091669736760423 0 -55.091669736760423 -11.534731035027107 0 0 0 0 7.7113674167214725 0.86393263768309225 0 0.86393263768309225 13.60620341939466 0 0 0 0 2.8681430685719818 7.8784817010493953 0 7.8784817010493953 14.60639712357704 0 0 0 0 -25.051691074578144 -49.58502721145237 0 -49.58502721145237 -21.109155639261417 0 0 0 0 -15.89296241028984 -3.668027821219539 0 -3.668027821219539 -6.7828280445337441 0 0 0 0 38.330964980267147 15.835220987013656 0 15.835220987013656 15.908981927690547 0 0 0 0 28.985896946220009 -26.05548725093945 0 -26.05548725093945 -2.7311841884843489 0 0 0 0 5.969554492494126 -18.079766503871951 0 -18.079766503871951 10.236334474631121 0 0 0 0 20.39164685418757 -4.7363586899271013 0 -4.7363586899271013 -3.626391550376411 0 0 0 0 6.9399939207667529 -11.469772735925574 0 -11.469772735925574 20.554450488560178 0 0 0 0 8.2630531310532547 -12.058007198857467 0 -12.058007198857467 19.066951895450075 0 0 0 0 11.488104217923606 -11.326795666274393 0 -11.326795666274393 18.287175481581471 0 0 0 0 1.3642048682219325 -12.989529483901492 0 -12.989529483901492 21.846501178324615 0 0 0 0 6.962313329656638 -9.4127515060765745 0 -9.4127515060765745 21.195783841418688 0 0 0 0 7.8425176886880763 -8.8758683982925959 0 -8.8758683982925959 21.204287135447885 0 0 0 0 4.182650426786779 -5.3675850870059776 0 -5.3675850870059776 26.75583966617296 0 0 0 0 -0.024156442521642729 -0.061639266399012183 0 -0.061639266399012183 0.15198079928334707 0 0 0 0 -0.22214290863604447 0.93052208128710845 0 0.93052208128710845 52.988240753632113 0 0 0 0 9.3397869033322394 23.339807581578498 0 23.339807581578498 49.77530383115618 0 0 0 0 -1.1582890350344286 9.6295390749303351 0 9.6295390749303351 26.83628662698311 0 0 0 0 7.7170866520072821 3.0345439992327101 0 3.0345439992327101 21.922840394284322 0 0 0 0 9.6684923645863705 0.38427402253455512 0 0.38427402253455512 20.958401899250475 0 0 0 0 3.904996338639009 -0.015260492918400814 0 -0.015260492918400814 26.480970065279962 0 0 0 0 3.0740492579819261 -0.14881829335990915 0 -0.14881829335990915 24.915853381251964 0 0 0 0 2.8690925011108632 0.68641094419297133 0 0.68641094419297133 21.51313224615933 0 0 0 0 7.5544110188105265 3.5414725506359446 0 3.5414725506359446 26.308725601109472 0 0 0 0 15.538336973122966 -0.9470934445197372 0 -0.9470934445197372 21.077350910848509 0 0 0 0 13.775064102193539 3.8077622817181691 0 3.8077622817181691 22.043943603075604 0 0 0 0 9.9707217532388199 -0.10446707043502101 0 -0.10446707043502101 25.803748779770615 0 0 0 0 11.661962928344565 -0.71969605698836858 0 -0.71969605698836858 21.331185431392896 0 0 0 0 11.162084978436951 -9.768652479806633 0 -9.768652479806633 19.841108533377337 0 0 0 0 15.200820226167636 -7.3678941469248684 0 -7.3678941469248684 20.058038806844252 0 0 0 0 34.392489828591465 -10.100687002193126 0 -10.100687002193126 12.688521710717851 0 0 0 0 24.765809588815387 7.8078323980500954 0 7.8078323980500954 29.304195588525999 0 0 0 0 -9.5726848539705998 14.527246439138253 0 14.527246439138253 16.541181164094098 0 0 0 0 1.9216142725029215 -15.016014316287112 0 -15.016014316287112 23.549109831209535 0 0 0 0 11.301275488859972 -11.234654825131429 0 -11.234654825131429 18.820758142662271 0 0 0 0 35.589401748410623 -73.22305008648766 0 -73.22305008648766 62.136855297136663 0 0 0 0 -0.12988823439242825 0.20795044410274421 0 0.20795044410274421 0.87770218503185227 0 0 0 0 21.593396822935034 10.212883711698396 0 10.212883711698396 10.304419635840873 0 0 0 0 -57.471428846996133 14.131366831703644 0 14.131366831703644 47.665040433603281 0 0 0 0 -0.8642528233572685 1.3490939524014653 0 1.3490939524014653 14.29300364421764 0 0 0 0 -29.497305416618389 15.287767502474409 0 15.287767502474409 13.818861037757813 0 0 0 0 -16.197754477939895 25.061758794165598 0 25.061758794165598 -4.7851680467329061 0 0 0 0 -26.378320193421366 -12.785417042398763 0 -12.785417042398763 86.695612153998354 0 0 0 0 -9.7031202686549989 6.4249231161156786 0 6.4249231161156786 50.207830516914775 0 0 0 0 5.0227539018077429 -5.0371740302712169 0 -5.0371740302712169 50.254707289627731 0 0 0 0 -16.544680699388557 21.955126775530061 0 21.955126775530061 24.090245148889153 0 0 0 0 -16.71651170859203 29.295585337141802 0 29.295585337141802 -2.8758531240632692 0 0 0 0 -10.69066025729029 0.47466972357301529 0 0.47466972357301529 -0.83311873646708534 0 0 0 0 -11.036967013074452 0.54119563922336056 0 0.54119563922336056 19.147859066658839 0 0 0 0 1.2883060836074947 4.4189663822799048 0 4.4189663822799048 18.995900176614668 0 0 0 0 -2.1799683965568875 -2.0364794086121947 0 -2.0364794086121947 15.17649300593348 0 0 0 0 -3.1220820889780043 -3.6014927632588751 0 -3.6014927632588751 22.171081245965638 0 0 0 0 -3.1824163920100226 -2.1915865288458463 0 -2.1915865288458463 14.762447559555767 0 0 0 0 -9.6668298401761206 -6.1131974388415529 0 -6.1131974388415529 20.373136620092964 0 0 0 0 -10.510993387604181 -4.3370792208409057 0 -4.3370792208409057 16.991802747332258 0 0 0 0 -9.240384675180465 -4.0901036927041332 0 -4.0901036927041332 11.198069117177283 0 0 0 0 -8.0428142848132609 -0.094127845118237019 0 -0.094127845118237019 11.209070067794073 0 0 0 0 -15.78170446164923 7.6938642061799953 0 7.6938642061799953 4.5481129101417537 0 0 0 0 -16.507664566652458 -1.5561088095244031 0 -1.5561088095244031 13.636172130789873 0 0 0 0 1.4517206703571333 -37.007579648154774 0 -37.007579648154774 32.816713797651403 0 0 0 0 0.25036727837608064 1.0914659879233426 0 1.0914659879233426 1.6971492625874944 0 0 0 0 -3.4917776874898436 -1.8486993806282044 0 -1.8486993806282044 8.6732307239294641 0 0 0 0 -2.0856186541873285 -3.1395682049201241 0 -3.1395682049201241 9.5915378142017289 0 0 0 0 -0.46603355333584062 -1.3153773128063335 0 -1.3153773128063335 13.646716657379329 0 0 0 0 -5.9348826124720517 -3.0843372571891905 0 -3.0843372571891905 14.72691033929641 0 0 0 0 -4.9450897520409285 -4.0018053781195704 0 -4.0018053781195704 12.948586487231495 0 0 0 0 -1.0532460905588152 -1.62013249195752 0 -1.62013249195752 13.124737984903419 0 0 0 0 -0.60292471427749739 -3.4445908462190382 0 -3.4445908462190382 7.443863436791875 0 0 0 0 -3.1827318030754554 -5.3650321196280402 0 -5.3650321196280402 7.3975357652207094 0 0 0 0 -7.6748178878107973 -6.5499767369382198 0 -6.5499767369382198 13.36904798201067 0 0 0 0 -5.674405349356153 -3.6270663340467308 0 -3.6270663340467308 15.34026446657117 0 0 0 0 -10.595185640393773 -3.6331463236895161 0 -3.6331463236895161 15.341812315831703 0 0 0 0 -7.3950505171287357 -7.759601499706605 0 -7.759601499706605 16.369405660053474 0 0 0 0 -8.093696060776395 -9.1813158508990682 0 -9.1813158508990682 13.637045708231199 0 0 0 0 -9.4680047945856529 -8.4803044892823891 0 -8.4803044892823891 20.08662808368058 0 0 0 0 -4.1120242846832866 -5.726347807107004 0 -5.726347807107004 18.245235068833153 0 0 0 0 -5.6929904154322628 -9.1117602636225001 0 -9.1117602636225001 15.391872368481017 0 0 0 0 -9.3105976866166458 -8.8676974203517602 0 -8.8676974203517602 15.761876870021752 0 0 0 0 -8.5805939706332026 -14.493745315228807 0 -14.493745315228807 4.9927751434643142 0 0 0 0 -5.633560948288209 -8.6105200357867488 0 -8.6105200357867488 13.434240425762255 0 0 0 0 -5.6239621282940844 -7.4477362334821464 0 -7.4477362334821464 12.830666796036439 0 0 0 0 -1.3621521196577824 -5.1315482580050684 0 -5.1315482580050684 5.7912380843431492 0 0 0 0 0.38433931084907158 -5.61352759374995 0 -5.61352759374995 3.7470017649180818 0 0 0 0 -19.873711326040109 -20.319264281699589 0 -20.319264281699589 4.5398366830272607 0 0 0 0 -2.3810060345333852 -12.998227082293397 0 -12.998227082293397 -15.701470630241602 0 0 0 0 -0.26826374965680144 -0.010862721025828748 0 -0.010862721025828748 0.063994667722786502 0 0 0 0 -3.2363451267495833 1.386813033741646 0 1.386813033741646 5.7199420882975573 0 0 0 0 -10.01743833736462 4.3848854771719061 0 4.3848854771719061 5.3779468246175384 0 0 0 0 -0.66659521913154285 -0.5003981974049605 0 -0.5003981974049605 2.2810552224217364 0 0 0 0 -3.8076978564310622 -2.4172684545526408 0 -2.4172684545526408 7.4989896794072592 0 0 0 0 1.0618837663776171 -0.85245295543792654 0 -0.85245295543792654 2.5267968860663377 0 0 0 0 1.9048762641765506 0.6615632992621272 0 0.6615632992621272 12.136336391532964 0 0 0 0 1.3386292509443933 2.824280934682406 0 2.824280934682406 25.97174311086394 0 0 0 0 2.6032062504871116 3.0024507078944751 0 3.0024507078944751 10.415050530331708 0 0 0 0 -3.2357066428467078 1.2959642684440951 0 1.2959642684440951 14.094537217751395 0 0 0 0 -2.3230462537801664 -0.6914966285907127 0 -0.6914966285907127 3.5230776505027412 0 0 0 0 -2.2399142437868704 -6.1643593499645704 0 -6.1643593499645704 17.224208255803774 0 0 0 0 2.4581170333997306 -1.4328358384240971 0 -1.4328358384240971 10.748056029918928 0 0 0 0 -0.17759975425359897 -3.5883860901092683 0 -3.5883860901092683 9.1231213363696853 0 0 0 0 2.2564397622927004 2.0979070113133123 0 2.0979070113133123 9.923617815176101 0 0 0 0 -0.89803955960015713 -4.0218284236713657 0 -4.0218284236713657 7.8586037756504084 0 0 0 0 -0.69335532833756841 -2.7367148664670817 0 -2.7367148664670817 7.7223296228562823 0 0 0 0 0.23685782093260324 0.31388834579327174 0 0.31388834579327174 0.4036148198991576 0 0 0 0 14.789703198194815 -1.5237875635789351 0 -1.5237875635789351 -4.2617778059841385 0 0 0 0 -1.2636031250238871 3.2792278075638945 0 3.2792278075638945 10.227895833401274 0 0 0 0 -10.732522354910575 -10.770278959530842 0 -10.770278959530842 70.14284251603658 0 0 0 0 14.579549566129458 -6.6832303367236818 0 -6.6832303367236818 42.018806979778219 0 0 0 0 20.82005630044921 -14.162989826229023 0 -14.162989826229023 37.909166925212958 0 0 0 0 -0.014596137164779921 0.84754429666996023 0 0.84754429666996023 0.28468782229243317 0 0 0 0 15.345760274316817 44.394898015830677 0 44.394898015830677 -9.7722838754280019 0 0 0 0 15.200696120092061 12.947865368749262 0 12.947865368749262 -14.617408351227596 0 0 0 0 33.960297305268853 -15.517185804459587 0 -15.517185804459587 17.534206954226192 0 0 0 0 -1.0288234843930026 2.4231225539941548 0 2.4231225539941548 11.394575572077462 0 0 0 0 29.362041516448016 -6.6466349153693045 0 -6.6466349153693045 4.6239319848455125 0 0 0 0 9.9883995572700144 0.36923983412361849 0 0.36923983412361849 11.939800496770658 0 0 0 0 21.384600714416536 -11.396902315123725 0 -11.396902315123725 20.14949511825489 0 0 0 0 7.5706576155698713 -4.7758817737758363 0 -4.7758817737758363 25.109320786805938 0 0 0 0 10.193452121077712 -0.23638777062797089 0 -0.23638777062797089 32.549514003655077 0 0 0 0 21.703007151021151 -9.1820415011007981 0 -9.1820415011007981 19.179181729712582 0 0 0 0 4.4349093336574015 -0.60224146008613388 0 -0.60224146008613388 20.695726993392782 0 0 0 0 -4.714631059608223 -4.9245002435013703 0 -4.9245002435013703 23.051969953255934 0 0 0 0 -6.9547282102288648 -4.2201675831829277 0 -4.2201675831829277 22.66837764475622 0 0 0 0 8.2486628763545582 -5.089290038907393 0 -5.089290038907393 13.646983603935041 0 0 0 0 6.3588778502304422 -10.592035621638615 0 -10.592035621638615 -15.635364218059749 0 0 0 0 -18.322761896829242 0.12591575757444673 0 0.12591575757444673 14.625246514292485 0 0 0 0 -23.308258585263786 -21.649496461017293 0 -21.649496461017293 9.4802103935817286 0 0 0 0 1.6902502248736369 -16.77194690108945 0 -16.77194690108945 7.6384017748036968 0 0 0 0 -1.3881403453995524 -20.621518309066062 0 -20.621518309066062 14.71392277218456 0 0 0 0 -0.41079638103914817 -23.152628433433165 0 -23.152628433433165 11.360459798707325 0 0 0 0 8.7910119229189831 -24.330783390096713 0 -24.330783390096713 5.8580871136960013 0 0 0 0 -0.74556287256746145 -13.143248184621825 0 -13.143248184621825 5.0420697230439941 0 0 0 0 22.989666300122622 -12.13726994454737 0 -12.13726994454737 5.0662010613752386 0 0 0 0 8.0320027999170378 -2.5005466344823049 0 -2.5005466344823049 22.119702862743452 0 0 0 0 31.260527364644247 -2.6443169415672401 0 -2.6443169415672401 5.0124174540840158 0 0 0 0 33.200030074420937 -9.3771601964199931 0 -9.3771601964199931 6.4764183141842295 0 0 0 0 11.73893379372214 6.4325927473370257 0 6.4325927473370257 23.427319148879178 0 0 0 0 -0.43247309185885885 -1.1397212881213079 0 -1.1397212881213079 2.229561462240353 0 0 0 0 -0.96902493434577075 0.72738337475590686 0 0.72738337475590686 13.776910614659464 0 0 0 0 -62.244531072750746 1.0936205849205862 0 1.0936205849205862 64.848845487230392 0 0 0 0 6.5587069558789182 -15.758847713043451 0 -15.758847713043451 6.5226522929058319 0 0 0 0 15.572756806637756 -5.0012582854114953 0 -5.0012582854114953 7.3353053036543656 0 0 0 0 11.567455936924759 1.6527260694097095 0 1.6527260694097095 39.530427795966716 0 0 0 0 8.5407434983463801 -18.24704122060075 0 -18.24704122060075 57.18396896795457 0 0 0 0 -3.6359518906712331 1.8638304997491844 0 1.8638304997491844 7.5766763927448633 0 0 0 0 5.3428680997401665 -6.7907891968229706 0 -6.7907891968229706 13.319959403493613 0 0 0 0 13.921042756752691 0.61622365679431823 0 0.61622365679431823 1.6555630344392966 0 0 0 0 -22.485571506832144 -4.4659105884784367 0 -4.4659105884784367 13.450831367546016 0 0 0 0 3.2104740290107303 -1.6882499201815335 0 -1.6882499201815335 14.363617532855642 0 0 0 0 -0.89305184731435361 -5.7575126293565972 0 -5.7575126293565972 11.695680165110389 0 0 0 0 -14.967205648510173 0.64656576443712765 0 0.64656576443712765 17.299696231744747 0 0 0 0 -0.58440657038031607 -0.26464322815199304 0 -0.26464322815199304 13.932697409989915 0 0 0 0 -34.648224440214619 5.9832780367044052 0 5.9832780367044052 29.760622857655335 0 0 0 0 -0.639548896638783 -0.2606691440184925 0 -0.2606691440184925 14.262162520743709 0 0 0 0 -9.2636486504466689 -21.69245231517732 0 -21.69245231517732 27.635115657613824 0 0 0 0 -16.850358023150221 -12.350662964464505 0 -12.350662964464505 18.969456180027009 0 0 0 0 1.4313266489855891 -21.407537361741788 0 -21.407537361741788 14.929925142272623 0 0 0 0 1.0645554697582433 -19.756179220931188 0 -19.756179220931188 18.809519781728341 0 0 0 0 11.65759259623735 -23.056914152306945 0 -23.056914152306945 11.43150592662596 0 0 0 0 14.821570900403941 -40.867065615861065 0 -40.867065615861065 41.270781629141766 0 0 0 0 -8.325714603499538 9.2645618903438276 0 9.2645618903438276 80.083387552606382 0 0 0 0 -8.0461547793245813 5.3751753977803673 0 5.3751753977803673 17.190146515602123 0 0 0 0 16.414209642304812 0.25540925696071781 0 0.25540925696071781 5.3468088331601393 0 0 0 0 -3.273108390780807 -2.8320274072929887 0 -2.8320274072929887 24.98423303340801 0 0 0 0 -7.6953897075005671 11.477514825168328 0 11.477514825168328 56.941048969116309 0 0 0 0 -13.599130236986014 13.916843835418376 0 13.916843835418376 16.09329683745591 0 0 0 0 -1.1477254831864556 2.7200798279579033 0 2.7200798279579033 10.985876244057184 0 0 0 0 -1.5079248224148012 0.48667589317978188 0 0.48667589317978188 12.907268664871101 0 0 0 0 -7.5827616226948749 -3.5583540773668574 0 -3.5583540773668574 19.425108636640289 0 0 0 0 4.7008302008902731 -4.2071270062137387 0 -4.2071270062137387 26.447855897926274 0 0 0 0 5.0143548327153553 1.0028350209995551 0 1.0028350209995551 9.1170723875848125 0 0 0 0 -1.5766531176642911 3.1619243207798036 0 3.1619243207798036 5.7327357082974206 0 0 0 0 2.5623632377079564 -10.511974152154551 0 -10.511974152154551 17.934986928896251 0 0 0 0 4.9228653296139555 -0.24004742768192955 0 -0.24004742768192955 13.721098450265345 0 0 0 0 -12.445843103859488 -4.4514707022572111 0 -4.4514707022572111 13.650064019946512 0 0 0 0 -7.9300846392554831 1.9446355738700731 0 1.9446355738700731 16.86392345942113 0 0 0 0 -16.267210098384794 0.50606230444282119 0 0.50606230444282119 18.365075601584977 0 0 0 0 8.6444748065732711 -8.7550679041150943 0 -8.7550679041150943 8.8017022450403601 0 0 0 0 2.4821340233213505 -10.186544615164848 0 -10.186544615164848 -9.238096683486674 0 0 0 0 0.65116005918252995 -4.1331802217066524 0 -4.1331802217066524 -20.378433871108427 0 0 0 0 5.5204204229276002 -16.712616674173205 0 -16.712616674173205 2.9524024818847465 0 0 0 0 -7.1454417264475296 -1.6909615352666378 0 -1.6909615352666378 10.841551321034785 0 0 0 0 -5.7225898650203817 1.3474282028796551 0 1.3474282028796551 -5.6280364365476316 0 0 0 0 -2.9054062040700046 -10.84252437325722 0 -10.84252437325722 -1.5839362493520639 0 0 0 0 -3.5782330570059457 -10.553529201523133 0 -10.553529201523133 0.70161423483295948 0 0 0 0 -2.7229963026163659 -9.9437179648753045 0 -9.9437179648753045 -2.5881587030617084 0 0 0 0 1.9050042510816638 -7.9089066629180707 0 -7.9089066629180707 -1.7553064870303388 0 0 0 0 -6.5333233133526392 -13.514046150042759 0 -13.514046150042759 -1.8443208641911042 0 0 0 0 -6.3211149875890271 -14.257794117410583 0 -14.257794117410583 -5.3014059251145227 0 0 0 0 -3.0830853073767344 -4.8930608915692062 0 -4.8930608915692062 17.250684955385651 0 0 0 0 -4.6304164143884918 -9.3729697523085633 0 -9.3729697523085633 -2.6078054790350507 0 0 0 0 -4.7650830256518901 -10.580537016056525 0 -10.580537016056525 -7.3353029017989684 0 0 0 0 -4.2594578120998108 22.57284276314931 0 22.57284276314931 35.047605136002858 0 0 0 0 39.195767093876185 9.7098820487956345 0 9.7098820487956345 2.0504951758175594 0 0 0 0 23.730552318873521 -16.18108835471844 0 -16.18108835471844 4.5730916240873967 0 0 0 0 1.6678733743752048 -0.37575929170861855 0 -0.37575929170861855 0.56816239346835573 0 0 0 0 21.46527150993461 63.134306543651292 0 63.134306543651292 87.46025429231031 0 0 0 0 0.45124840682866557 -0.41469787321509655 0 -0.41469787321509655 0.42500769218248902 0 0 0 0 78.936623073264059 7.3876654378220792 0 7.3876654378220792 -3.1374493971179618 0 0 0 0 -48.536384915145945 6.1714841325119778 0 6.1714841325119778 118.99104161073501 0 0 0 0 -11.89424739459082 -53.16778011953329 0 -53.16778011953329 15.033685081752537 0 0 0 0 -29.923825705214028 -43.941230189133421 0 -43.941230189133421 48.730441709430124 0 0 0 0 -2.7231327989113376 -6.1934740074236547 0 -6.1934740074236547 18.070605785967601 0 0 0 0 -4.7010258138476502 9.8379010978671886 0 9.8379010978671886 32.392842943336291 0 0 0 0 6.8486010694434611 -14.854755476198193 0 -14.854755476198193 -1.8370700068439874 0 0 0 0 -1.5991808918799404 -6.9125105626857293 0 -6.9125105626857293 17.14800937152145 0 0 0 0 -28.637804308044565 -11.848614667411084 0 -11.848614667411084 41.985465876605758 0 0 0 0 -3.4008382803542645 12.501873426394468 0 12.501873426394468 45.872338825158579 0 0 0 0 -9.3685926769157959 11.157913330926249 0 11.157913330926249 52.358161130634926 0 0 0 0 3.1820624469251015 6.0418205994774326 0 6.0418205994774326 58.934881561680641 0 0 0 0 -9.9812575372966421 10.152105772249115 0 10.152105772249115 64.836225729493208 0 0 0 0 -8.4213251532682989 -10.359097658500787 0 -10.359097658500787 115.61267958868348 0 0 0 0 17.066062924138805 -23.417532216983091 0 -23.417532216983091 77.724917926372655 0 0 0 0 0.38637091396906342 -0.037096180327513828 0 -0.037096180327513828 0.079684764935888414 0 0 0 0 3.3523507298800723 -0.14379137318746871 0 -0.14379137318746871 91.578108230565704 0 0 0 0 3.6411902545986941 -9.9951525033719619 0 -9.9951525033719619 81.470703877461347 0 0 0 0 0.86654587208295197 -2.6093235626467504 0 -2.6093235626467504 71.086728546758877 0 0 0 0 -4.2206561786772454 -11.285528583820565 0 -11.285528583820565 85.609213719320906 0 0 0 0 7.0258298306377185 -12.047699236339952 0 -12.047699236339952 81.979497327538411 0 0 0 0 -7.6767857791355709 -10.286116196401053 0 -10.286116196401053 87.844396318781037 0 0 0 0 -11.287692005216286 -12.658001848316417 0 -12.658001848316417 87.87065779704335 0 0 0 0 -12.95730879691132 -11.970846611652632 0 -11.970846611652632 111.18069462440917 0 0 0 0 -8.9092778505023489 -19.289651568130012 0 -19.289651568130012 86.968372003272634 0 0 0 0 -12.338303208300886 -9.2625308911042339 0 -9.2625308911042339 83.483192688362806 0 0 0 0 -2.7885758169904875 -15.125353065323907 0 -15.125353065323907 77.383140977461039 0 0 0 0 1.1223942911152962 -0.31852371594760243 0 -0.31852371594760243 -0.0091993501051410367 0 0 0 0 -6.7398324881028202 -12.198834732825162 0 -12.198834732825162 85.311226164729305 0 0 0 0 -11.026019134390793 -17.214747441981501 0 -17.214747441981501 84.824627316802435 0 0 0 0 -6.788377916519039 -12.986489552334206 0 -12.986489552334206 87.611555816810778 0 0 0 0 25.524627540565291 89.706591689302968 0 89.706591689302968 116.95518433394045 0 0 0 0 21.902919656402446 -47.402798959449683 0 -47.402798959449683 190.11908419078827 0 0 0 0 29.996178346287934 -56.714670870210512 0 -56.714670870210512 129.57462064947731 0 0 0 0 -9.0441689179034483 -24.238161914668581 0 -24.238161914668581 151.24852325495704 0 0 0 0 26.497420489303181 -17.84013449869235 0 -17.84013449869235 18.510050045391381 0 0 0 0 27.566597392398194 -43.455064089602729 0 -43.455064089602729 61.382410219904159 0 0 0 0 1.5741550023661706 -0.52373776344642931 0 -0.52373776344642931 0.7325062022728247 0 0 0 0 45.873779282939722 14.997047694609591 0 14.997047694609591 4.1007558873234302 0 0 0 0 0.33133626236139935 0.40702875378315628 0 0.40702875378315628 1.7732294443109513 0 0 0 0 75.676133453143052 44.142010904382005 0 44.142010904382005 31.683003605121485 0 0 0 0 -0.54535812659003113 -1.1199342735364102 0 -1.1199342735364102 0.84388594046197607 0 0 0 0 0.30805528159532969 -3.297950628536455 0 -3.297950628536455 1.6370277643181907 0 0 0 0 -1.4663686102459224 -1.0063251705050789 0 -1.0063251705050789 4.2872334253479494 0 0 0 0 -1.7746594866507621 -1.2701916115274798 0 -1.2701916115274798 5.1745907978147443 0 0 0 0 -0.98351723799623869 1.1458818855026038 0 1.1458818855026038 11.958549848255643 0 0 0 0 0.41159035526561638 2.9443492217260427 0 2.9443492217260427 6.3030090053607637 0 0 0 0 1.3064899178316409 -3.3716066814131409 0 -3.3716066814131409 1.7886105893965834 0 0 0 0 0.7798203455707835 -1.2346494078151409 0 -1.2346494078151409 4.6682350070359462 0 0 0 0 0.95140728266744645 0.67280579709677113 0 0.67280579709677113 12.44241599021916 0 0 0 0 -0.38503699585257989 -0.46015942456181591 0 -0.46015942456181591 3.5906007959343107 0 0 0 0 -0.073100099081158998 -0.14781257580351315 0 -0.14781257580351315 -0.040545299198075924 0 0 0 0 0.53316446155940866 3.417662762695727 0 3.417662762695727 8.0585271131258196 0 0 0 0 -0.9644325281537931 -6.298192298288086 0 -6.298192298288086 8.3838647500278967 0 0 0 0 -1.7933761730730566 -0.46964923666769209 0 -0.46964923666769209 3.5566441028058762 0 0 0 0 -1.4547221547798204 -0.73287309883125484 0 -0.73287309883125484 3.4853081456874087 0 0 0 0 15.426148703583749 -62.121537072048795 0 -62.121537072048795 -40.467617312333914 0 0 0 0 -1.5166232970304918 -0.22710577670568455 0 -0.22710577670568455 3.5049556066742298 0 0 0 0 -0.64416804595765065 -1.1011778471022815 0 -1.1011778471022815 2.6337111010634024 0 0 0 0 2.7993606402621936 -1.339230196925655 0 -1.339230196925655 -1.7187130520633218 0 0 0 0 -1.6507484112532893 -0.49615212757271365 0 -0.49615212757271365 2.9713392688281601 0 0 0 0 -0.68786550455704587 0.095706199430118488 0 0.095706199430118488 1.2947362212920499 0 0 0 0 -0.58494618262253328 -0.015229483027788149 0 -0.015229483027788149 2.3279509743603253 0 0 0 0 -0.72675952648728526 -0.060710674768415629 0 -0.060710674768415629 2.0576056867305397 0 0 0 0 -0.52599484128305063 0.31114668453462002 0 0.31114668453462002 1.8606263467305428 0 0 0 0 -1.111846325512829 -3.7657884093173379 0 -3.7657884093173379 4.7696033955744497 0 0 0 0 -0.56754410419534906 0.21500988732032056 0 0.21500988732032056 2.407196060707065 0 0 0 0 13.303280412420008 -4.4008090225488559 0 -4.4008090225488559 -11.625803872416274 0 0 0 0 -2.8241430293724079 -2.9933373133762871 0 -2.9933373133762871 24.705527964245903 0 0 0 0 2.8095452986922282 -3.6156716848927317 0 -3.6156716848927317 -13.170935316569967 0 0 0 0 0.23379977177538525 0.18815583819307236 0 0.18815583819307236 -0.095652192121382207 0 0 0 0 11.845854939268747 -15.822858450978629 0 -15.822858450978629 -0.040487275476152718 0 0 0 0 -2.1214764957819625 6.4099799092427929 0 6.4099799092427929 8.8692855895983485 0 0 0 0 -1.6413232646741562 -1.5040593111791623 0 -1.5040593111791623 10.441865555550976 0 0 0 0 -2.1469993487939973 -4.7839278036431097 0 -4.7839278036431097 6.402442926374988 0 0 0 0 0.85483392208811892 1.120700775753221 0 1.120700775753221 5.0420350994022556 0 0 0 0 -59.029374954514424 -20.99372768383364 0 -20.99372768383364 20.979384606278472 0 0 0 0 5.1949731381191668 -9.3708589288326039 0 -9.3708589288326039 3.6445751306293914 0 0 0 0 14.234546670479631 2.5942872929265377 0 2.5942872929265377 -25.479595312369156 0 0 0 0 -0.66056901848702676 0.027687664210569451 0 0.027687664210569451 -0.41654353820419132 0 0 0 0 0.45349488447899677 -0.21235538789931496 0 -0.21235538789931496 0.90748058461629189 0 0 0 0 -4.027429165538706 4.4913780150623097 0 4.4913780150623097 18.023458817635401 0 0 0 0 -1.9434644434600159 0.2371897057919341 0 0.2371897057919341 -9.6776718593014266 0 0 0 0 -2.1340278457782915 -3.3007712150711086 0 -3.3007712150711086 -6.823427018421981 0 0 0 0 8.8613988290808265 -10.118535476002421 0 -10.118535476002421 -7.0187594869530585 0 0 0 0 -5.2951491510066262 12.78278499975977 0 12.78278499975977 50.533948419762964 0 0 0 0 11.341998384018098 -23.057037936254801 0 -23.057037936254801 8.31752497211437 0 0 0 0 -7.2479501738603176 -8.6495693112015033 0 -8.6495693112015033 57.440380904111407 0 0 0 0 5.0434349722457341 -34.651769811132453 0 -34.651769811132453 33.117309414050396 0 0 0 0 -0.17525726534682917 -12.493315944407641 0 -12.493315944407641 2.1828153406868296 0 0 0 0 11.888130092010897 18.816818019281527 0 18.816818019281527 33.010375464271419 0 0 0 0 0.60443892321547743 -0.46336900959212124 0 -0.46336900959212124 -0.33758342871893277 0 0 0 0 -1.9078394047096481 -15.353566361009143 0 -15.353566361009143 23.734584966467082 0 0 0 0 -2.2065324121950312 -6.283076928295543 0 -6.283076928295543 4.131812865944994 0 0 0 0 -5.7020352198455839 1.1022166664615725 0 1.1022166664615725 -2.4143331418013076 0 0 0 0 -10.402639344091767 -2.4975579661389702 0 -2.4975579661389702 5.6004495008492086 0 0 0 0 -1.2770620512276309 -5.2162754353732907 0 -5.2162754353732907 5.207063437996112 0 0 0 0 0.87270202373690609 -1.1998280558689203 0 -1.1998280558689203 7.3006465462212873 0 0 0 0 -1.3733780160231501 -0.1154102955082239 0 -0.1154102955082239 5.9721628611285791 0 0 0 0 -7.3456385491867877 8.7231973884249783 0 8.7231973884249783 3.2042909720988746 0 0 0 0 -0.85262128093051182 0.11505865663896042 0 0.11505865663896042 1.3758762670051006 0 0 0 0 -6.986129302405061 -6.7982499377999375 0 -6.7982499377999375 5.0070254276215564 0 0 0 0 -0.70628397843694701 -1.1509487336926032 0 -1.1509487336926032 3.5165766764210478 0 0 0 0 -16.232123365099255 -0.88402372532129903 0 -0.88402372532129903 23.234272678818343 0 0 0 0 7.4502492381134289 4.3325502197312744 0 4.3325502197312744 0.79062784404072772 0 0 0 0 -13.646402224798749 -5.5088678176175563 0 -5.5088678176175563 22.787433906736624 0 0 0 0 -5.741138448192487 -6.3010198081044564 0 -6.3010198081044564 21.115618667352464 0 0 0 0 -3.0955376927745419 -1.3935145762829961 0 -1.3935145762829961 27.889291881060672 0 0 0 0 -10.020135501638833 -2.4810011640474841 0 -2.4810011640474841 17.951516003152392 0 0 0 0 -9.482222698896237 0.85004662509061291 0 0.85004662509061291 22.390603806490617 0 0 0 0 -0.73915406620540125 -4.3223632320855359 0 -4.3223632320855359 2.8656579669259372 0 0 0 0 -1.8116318380866687 1.4852491166921027 0 1.4852491166921027 2.0440228577954258 0 0 0 0 -1.7403695021980625 -0.28602524439257504 0 -0.28602524439257504 2.5112120377002007 0 0 0 0 -1.85084793847588 -0.31496626982186626 0 -0.31496626982186626 3.6832467083058873 0 0 0 0 -1.843049160809187 -0.37017804616971262 0 -0.37017804616971262 3.6362531982267683 0 0 0 0 -0.8629407364349464 -0.26582887431067803 0 -0.26582887431067803 2.4974588356697431 0 0 0 0 -0.16284648301906834 -0.22161274309451873 0 -0.22161274309451873 0.60508929611484064 0 0 0 0 -6.7175195221698232 2.9160414412535829 0 2.9160414412535829 3.0885048231152723 0 0 0 0 -1.7063228064707801 -1.4607078874723811 0 -1.4607078874723811 3.025132917211522 0 0 0 0 -13.205439740891507 -7.7257322975028728 0 -7.7257322975028728 8.6943406212321861 0 0 0 0 -0.64380308738873859 0.28898966582387597 0 0.28898966582387597 2.442767776108365 0 0 0 0 -0.63318480091562479 0.0045278955983545366 0 0.0045278955983545366 2.7210926129979285 0 0 0 0 -1.2434719504202576 0.35393455886014635 0 0.35393455886014635 2.9644635353415651 0 0 0 0 2.8001559497558901 1.6518062695120079 0 1.6518062695120079 0.79471371269391966 0 0 0 0 -0.73712708460085608 -0.31740272091517152 0 -0.31740272091517152 2.2312782108089202 0 0 0 0 -1.567006365617317 -1.5880200752399105 0 -1.5880200752399105 4.0042368704871478 0 0 0 0 -1.9546297588482275 -1.3883867789500073 0 -1.3883867789500073 1.5784796638617991 0 0 0 0 -1.4328091768090871 -0.54486706156330911 0 -0.54486706156330911 2.8835582020619768 0 0 0 0 -0.79657326217356328 -0.63894305810269358 0 -0.63894305810269358 2.0603765067593471 0 0 0 0 -7.5316587241995876 5.872561266460707 0 5.872561266460707 6.1508286046955618 0 0 0 0 -2.9352560132381313 -2.6757442719290339 0 -2.6757442719290339 4.3424434010521509 0 0 0 0 -2.2917663967332373 -2.1643993158459125 0 -2.1643993158459125 3.0465631302122347 0 0 0 0 -1.6472037861627769 -1.2786524969012589 0 -1.2786524969012589 3.5679373549664888 0 0 0 0 -2.1125974173650093 -1.6015214632018342 0 -1.6015214632018342 4.7845178967581887 0 0 0 0 -1.9667221924455589 -0.32067464698138792 0 -0.32067464698138792 7.1192577706242446 0 0 0 0 -2.8322711847540631 -2.3809890349557463 0 -2.3809890349557463 5.177864330387365 0 0 0 0 -2.8690565019304586 1.8757233272528993 0 1.8757233272528993 9.505218357803642 0 0 0 0 -20.087847889417191 -1.9761970593194746 0 -1.9761970593194746 19.550080769411124 0 0 0 0 -2.2738132648145286 0.14177576766712718 0 0.14177576766712718 2.7105585140024537 0 0 0 0 -1.8816171698335324 1.5538569143636778 0 1.5538569143636778 5.5555436055165046 0 0 0 0 3.5957142306279337 7.0339218367955709 0 7.0339218367955709 6.9656126535401199 0 0 0 0 -0.34733571532241059 -0.23804970662843239 0 -0.23804970662843239 0.13533738756848379 0 0 0 0 -0.0085372214343806263 1.1843728857093083 0 1.1843728857093083 3.8931226902132039 0 0 0 0 -1.3391510661265329 1.7682359425716641 0 1.7682359425716641 5.1028461149744544 0 0 0 0 -1.8370131731789234 -0.23904429750962564 0 -0.23904429750962564 0.70919177280571333 0 0 0 0 1.5229515001029768 19.57020528286921 0 19.57020528286921 8.3168281474499963 0 0 0 0 -4.3704667397636854 -3.0945969086396872 0 -3.0945969086396872 4.8681670754782829 0 0 0 0 -19.145269103745022 4.4580383203438032 0 4.4580383203438032 23.74855079644658 0 0 0 0 2.0870347113315404 1.3582071674877625 0 1.3582071674877625 6.7351069317910515 0 0 0 0 6.2414098568268344 19.480204510019576 0 19.480204510019576 -12.143817076065716 0 0 0 0 5.2096534525826428 0.1420456691655545 0 0.1420456691655545 -18.059906372370278 0 0 0 0 6.4481349310140104 11.587683120671954 0 11.587683120671954 15.450093439251759 0 0 0 0 8.8579710459043781 10.526983936624674 0 10.526983936624674 15.260511626496736 0 0 0 0 0.79129579513304393 -1.4539363221881669 0 -1.4539363221881669 3.3139661671475045 0 0 0 0 -7.9149623937567668 -4.1951459816923489 0 -4.1951459816923489 1.0667764778117999 0 0 0 0 9.2071626592392022 4.2028489140536465 0 4.2028489140536465 17.323370447902562 0 0 0 0 0.18545830586367296 -0.16815270226769652 0 -0.16815270226769652 7.9895536113929406 0 0 0 0 -1.6537023071792731 -0.51767702150776529 0 -0.51767702150776529 2.1215456048987047 0 0 0 0 -0.28263795992629515 -2.9522023292996398 0 -2.9522023292996398 9.3845241780126134 0 0 0 0 0.65177448793583892 2.8805459008356991 0 2.8805459008356991 16.602650421101771 0 0 0 0 0.98475500998824828 0.51012128486161146 0 0.51012128486161146 9.3934287344120548 0 0 0 0 -0.34990102679034862 0.21940107041575629 0 0.21940107041575629 10.715052935544804 0 0 0 0 -3.9941565811313922 1.6111199043771194 0 1.6111199043771194 11.893665364354092 0 0 0 0 -3.331451883544355 -3.8389374974264903 0 -3.8389374974264903 11.484577011541163 0 0 0 0 -1.3593441178243055 -1.7297764777721967 0 -1.7297764777721967 7.3507028540589827 0 0 0 0 1.9240620456198698 -1.4018671706210446 0 -1.4018671706210446 11.658710570813781 0 0 0 0 -5.1129466359989237 -2.6305689936658609 0 -2.6305689936658609 4.6886199182326322 0 0 0 0 -3.3179445131738703 -3.924337376622816 0 -3.924337376622816 5.0800911256555992 0 0 0 0 -0.7858620037232098 -1.8808211929362457 0 -1.8808211929362457 6.7711586693462316 0 0 0 0 -3.7258733888013467 -5.1528569605627581 0 -5.1528569605627581 6.61324120834513 0 0 0 0 -8.1505889421380857 -7.4030478245072118 0 -7.4030478245072118 4.2802644232792773 0 0 0 0 -1.3633199624052263 -0.66987619207937676 0 -0.66987619207937676 1.9591286609982737 0 0 0 0 -1.2770971030029341 -3.9035610719435052 0 -3.9035610719435052 2.8464955460762713 0 0 0 0 -22.080523144168581 -19.504921380344967 0 -19.504921380344967 2.8943106833658021 0 0 0 0 -10.818603297683786 -18.283215975601024 0 -18.283215975601024 -9.6930738203936926 0 0 0 0 -10.137988035645321 -28.126086689172553 0 -28.126086689172553 -0.079690782928992121 0 0 0 0 -10.62022194517192 -20.044330369361887 0 -20.044330369361887 -10.90876958699846 0 0 0 0 -2.8383595370229386 -14.907922160130511 0 -14.907922160130511 -38.251226714599397 0 0 0 0 -5.5525748746468935 -21.759371193763627 0 -21.759371193763627 -33.583114549024685 0 0 0 0 -7.0101994364493976 -23.105568027129266 0 -23.105568027129266 -15.113571462262371 0 0 0 0 -3.1474303267321204 -10.188369982471613 0 -10.188369982471613 -31.389630769555879 0 0 0 0 -4.0253874301945416 -7.6546201769333493 0 -7.6546201769333493 -5.8934573929641321 0 0 0 0 -2.5555964369994797 -6.8190119445405344 0 -6.8190119445405344 -12.471269789761209 0 0 0 0 -3.5902896208398403 -0.37639488352260742 0 -0.37639488352260742 2.2054102516643939 0 0 0 0 -5.439017476600128 -5.7467194049057753 0 -5.7467194049057753 3.9721333714296634 0 0 0 0 -1.764966773090926 -0.18170259080610141 0 -0.18170259080610141 2.3737001936767541 0 0 0 0 -7.3483096160701962 -0.31792084564176548 0 -0.31792084564176548 15.067241585287775 0 0 0 0 16.455490971156905 1.7408194400322827 0 1.7408194400322827 -8.640169653821431 0 0 0 0 5.4035319200281151 0.75496924393974041 0 0.75496924393974041 2.0023209983027801 0 0 0 0 -1.6813908394695911 -0.26181746701271891 0 -0.26181746701271891 1.0043782804016264 0 0 0 0 -8.6836218303828048 3.6883123463148877 0 3.6883123463148877 9.5521218549565674 0 0 0 0 -1.1883313072705106 -0.20321376000313318 0 -0.20321376000313318 3.3579573830603788 0 0 0 0 1.052987290488602 -8.4584916110916311 0 -8.4584916110916311 -1.6528542333871883 0 0 0 0 5.1160316497065423 7.5452993128060371 0 7.5452993128060371 0.49093823509247159 0 0 0 0 -2.2496916825309654 -2.7838051035209901 0 -2.7838051035209901 8.5003806795566561 0 0 0 0 -0.1656796821476767 -0.081748213237402112 0 -0.081748213237402112 0.10367145732698901 0 0 0 0 -0.62110569083711198 11.480315954419893 0 11.480315954419893 13.367515250508063 0 0 0 0 -18.934734515101468 -26.48246195774027 0 -26.48246195774027 -11.927240781508772 0 0 0 0 -15.873477840281055 -8.8469001168773502 0 -8.8469001168773502 -3.223721658674549 0 0 0 0 -24.203928964252214 -12.487125297163402 0 -12.487125297163402 4.1027649437073705 0 0 0 0 -21.013806009508357 -7.7643804062545314 0 -7.7643804062545314 11.090197456183887 0 0 0 0 -13.51307121424361 -5.2415211992520199 0 -5.2415211992520199 2.2832518380664624 0 0 0 0 0.1531217237299245 3.6378455260014562 0 3.6378455260014562 6.2344113173994629 0 0 0 0 -14.689790730729442 -1.3970080148274064 0 -1.3970080148274064 3.0173037147815194 0 0 0 0 -0.17490272353120639 0.047202918301292307 0 0.047202918301292307 0.64608132722863587 0 0 0 0 -2.6470557607201499 -1.0245951251454244 0 -1.0245951251454244 2.910723773993368 0 0 0 0 -23.918262143286825 5.8455186178930489 0 5.8455186178930489 5.1628547518207597 0 0 0 0 -33.574624964600048 -3.1086785187485475 0 -3.1086785187485475 11.925655862928807 0 0 0 0 -24.868852958078548 -11.016038017401115 0 -11.016038017401115 10.718691980995573 0 0 0 0 -17.697079963808278 -4.5708623711111613 0 -4.5708623711111613 13.088161932021649 0 0 0 0 -15.171289102466972 -21.258528203337391 0 -21.258528203337391 2.6967605530676337 0 0 0 0 -24.261618123025073 -14.329104047899023 0 -14.329104047899023 18.50093495272813 0 0 0 0 -15.366156057480566 -16.282135081301931 0 -16.282135081301931 14.924039670783714 0 0 0 0 -12.584640323544647 -23.834726191940263 0 -23.834726191940263 25.294362946291585 0 0 0 0 -9.7549377717737968 1.8432492110196108 0 1.8432492110196108 36.063294471867266 0 0 0 0 -18.146380297389271 -7.7964838889777184 0 -7.7964838889777184 29.993304726811402 0 0 0 0 -7.8401898119857663 22.805799760696573 0 22.805799760696573 50.362036796263965 0 0 0 0 0.91784350772792322 18.945699141547721 0 18.945699141547721 29.623508640327543 0 0 0 0 -15.434235517559713 5.7808688293787895 0 5.7808688293787895 28.596377173774272 0 0 0 0 -15.533242965494495 7.1274171058106504 0 7.1274171058106504 10.984445000864071 0 0 0 0 -9.193628531012024 31.022234393504277 0 31.022234393504277 39.393996424338184 0 0 0 0 -35.140314609806637 16.540189015960095 0 16.540189015960095 24.943639926873402 0 0 0 0 -16.779900502225246 13.754758645196262 0 13.754758645196262 13.603001038973161 0 0 0 0 -21.212774498690806 33.005950728559583 0 33.005950728559583 23.676987507880767 0 0 0 0 0.50945245193020128 21.199526665376652 0 21.199526665376652 29.528508904676528 0 0 0 0 10.558735518141702 35.425829652664106 0 35.425829652664106 24.044257095051762 0 0 0 0 19.302219835777805 32.765055751009641 0 32.765055751009641 48.860348923239144 0 0 0 0 -0.30640213657513549 -0.14833053850800226 0 -0.14833053850800226 0.633498848708971 0 0 0 0 -17.069943459296042 -7.4544865049674627 0 -7.4544865049674627 -0.27357187764732771 0 0 0 0 -4.0875588442966801 5.6320982835485438 0 5.6320982835485438 0.20584705152941751 0 0 0 0 -0.65786857308321967 0.72546069642880262 0 0.72546069642880262 1.4300126348089712 0 0 0 0 -35.035447026707516 10.91352166488241 0 10.91352166488241 10.792750733236971 0 0 0 0 -28.225694461575358 14.289250186021491 0 14.289250186021491 9.1165305065786697 0 0 0 0 -39.436259075654789 28.895934248293997 0 28.895934248293997 6.2215705989779053 0 0 0 0 -33.079418075449468 21.185006217987677 0 21.185006217987677 1.3625349310768797 0 0 0 0 -57.211625761698087 64.25640898715028 0 64.25640898715028 -58.593420764918847 0 0 0 0 -42.936930803711903 9.4360779068683769 0 9.4360779068683769 -1.4970920195228246 0 0 0 0 -0.58403715319205318 0.59575071712010796 0 0.59575071712010796 1.4661284961876113 0 0 0 0 -0.59554850473728038 -0.67316642889954892 0 -0.67316642889954892 3.7170436046162081 0 0 0 0 -1.0045294389666424 0.63568444566260496 0 0.63568444566260496 3.7750111087989353 0 0 0 0 -0.022801583621912869 -1.1931818576922524 0 -1.1931818576922524 4.0189273658947968 0 0 0 0 0.36827744780857019 -1.1689296868499639 0 -1.1689296868499639 0.12061021780913619 0 0 0 0 -25.158607976477583 47.080351505554972 0 47.080351505554972 81.943334419591338 0 0 0 0 -34.052878947792806 36.666141252278521 0 36.666141252278521 127.80995740961089 0 0 0 0 -12.408379921574124 17.52263637724127 0 17.52263637724127 86.007569525866529 0 0 0 0 -7.1891795421403231 -8.1053791333984009 0 -8.1053791333984009 165.35863566832631 0 0 0 0 0.081585662597420505 -0.17621053801545195 0 -0.17621053801545195 0.4187510941234045 0 0 0 0 -86.945075397989967 60.598234110242629 0 60.598234110242629 -40.428484098917075 0 0 0 0 -0.03299075110891847 -0.14848096341495243 0 -0.14848096341495243 0.19388102708419691 0 0 0 0 -5.2564485658092508 -5.2243411000217748 0 -5.2243411000217748 146.64772826130502 0 0 0 0 -5.1294244278608403 0.36835813463585509 0 0.36835813463585509 142.14282837236988 0 0 0 0 -0.26633313835304762 42.468044765360901 0 42.468044765360901 95.382693610354181 0 0 0 0 -31.686299448309569 22.390339109140768 0 22.390339109140768 151.30827034797676 0 0 0 0 -0.61928255607023397 0.04054466532102019 0 0.04054466532102019 0.23885196149027443 0 0 0 0 -1.0506722155130337 0.2558895773576193 0 0.2558895773576193 0.22337148234940152 0 0 0 0 -0.13472925828887128 29.087502368214928 0 29.087502368214928 91.33288302985784 0 0 0 0 -7.0010894707153284 67.966504824772528 0 67.966504824772528 115.47229601623121 0 0 0 0 -29.865825775359326 60.891114353788907 0 60.891114353788907 82.857891837622446 0 0 0 0 -31.904316318587462 99.92826379703547 0 99.92826379703547 -39.6155568507711 0 0 0 0 -10.204794738048122 0.23706007290275011 0 0.23706007290275011 145.58234299517608 0 0 0 0 30.646692707325883 39.529142284283807 0 39.529142284283807 86.399924081039899 0 0 0 0 15.196373066569095 22.641324067504684 0 22.641324067504684 91.313370624789059 0 0 0 0 -6.6100029348815497 27.656546161531878 0 27.656546161531878 124.63981352640803 0 0 0 0 0.11856348291507857 36.791258619071414 0 36.791258619071414 100.13544786498187 0 0 0 0 10.650939613824676 20.729476273179898 0 20.729476273179898 74.900015677812007 0 0 0 0 -0.61965063021159494 26.187021563656799 0 26.187021563656799 53.535871663693797 0 0 0 0 -6.0335874386241812 20.164004200220916 0 20.164004200220916 75.438007103342443 0 0 0 0 -2.159805234192163 24.058559737094583 0 24.058559737094583 78.086536342382715 0 0 0 0 -0.70207448317211174 32.810616911317993 0 32.810616911317993 85.757861491240874 0 0 0 0 3.7449851857826388 27.811432856200099 0 27.811432856200099 66.105623829543219 0 0 0 0 0.10928991501907603 18.08837208557452 0 18.08837208557452 46.300379485604935 0 0 0 0 -1.4105811241674928 10.269969016425421 0 10.269969016425421 60.328709003221775 0 0 0 0 -7.3743368073047577 15.468295721367667 0 15.468295721367667 30.124201361997621 0 0 0 0 -4.9653093993763378 5.6101163053681375 0 5.6101163053681375 46.285296062386124 0 0 0 0 -4.5826810126307294 -7.7868589759740416 0 -7.7868589759740416 13.690776217938037 0 0 0 0 -9.5896290606169714 -10.13922929928458 0 -10.13922929928458 19.231763920577123 0 0 0 0 -0.1842887062795171 3.5904441039340327 0 3.5904441039340327 27.758580006005104 0 0 0 0 -2.038513436404628 -1.5449107979666223 0 -1.5449107979666223 39.311106070858159 0 0 0 0 -2.0077052598521163 -0.66188283673022852 0 -0.66188283673022852 26.723217272886359 0 0 0 0 -13.157145375713753 -12.876918460294746 0 -12.876918460294746 26.01216120625304 0 0 0 0 -0.55529513868236791 -5.913613804104898 0 -5.913613804104898 24.724911574220982 0 0 0 0 -21.394586551939824 -29.411007840888487 0 -29.411007840888487 30.281575876547322 0 0 0 0 -6.2169693021753574 -15.507049712758317 0 -15.507049712758317 10.721614177820811 0 0 0 0 7.0147537423994208 4.6670931824769468 0 4.6670931824769468 37.703000185372275 0 0 0 0 13.808866040708608 0.66831398372005424 0 0.66831398372005424 24.043330734361462 0 0 0 0 -4.7637454194601787 6.8702649225947425 0 6.8702649225947425 21.982234535308862 0 0 0 0 0.44247844863355112 -6.6253970999280227 0 -6.6253970999280227 37.101976493616803 0 0 0 0 3.1525727911022727 8.2458548320088312 0 8.2458548320088312 40.793249263679172 0 0 0 0 30.516770658155451 0.020555330290335405 0 0.020555330290335405 38.61453100250219 0 0 0 0 18.683682431572606 -18.556155018162144 0 -18.556155018162144 110.71160086897089 0 0 0 0 2.7983964458462651 0.43893098327362168 0 0.43893098327362168 72.001719662531286 0 0 0 0 -2.0827801441691918 10.608930614309429 0 10.608930614309429 70.819037763726101 0 0 0 0 2.9424662828125747 0.04560794222243203 0 0.04560794222243203 53.588253832788723 0 0 0 0 -2.0506413169975986 11.115800673805097 0 11.115800673805097 77.765425436149599 0 0 0 0 1.4427440800236582 19.064027302697014 0 19.064027302697014 61.582861402032449 0 0 0 0 -16.520438096408839 35.940266513295001 0 35.940266513295001 92.878881392177391 0 0 0 0 -0.75394174496045707 31.775869146510104 0 31.775869146510104 88.737456618094711 0 0 0 0 -30.940528564845408 20.169225708786598 0 20.169225708786598 110.34144315185949 0 0 0 0 107.91902332408483 22.971519903386593 0 22.971519903386593 78.600780899558686 0 0 0 0 10.757965172226932 19.597223143256087 0 19.597223143256087 113.65624773626246 0 0 0 0 11.011253015960961 36.234958891863471 0 36.234958891863471 193.81428543861557 0 0 0 0 27.182280103143739 7.5620076298923777 0 7.5620076298923777 58.574423662967547 0 0 0 0 23.434264507044304 32.486669695916135 0 32.486669695916135 63.785203186713943 0 0 0 0 30.301378601458282 19.832675360420126 0 19.832675360420126 80.499147765429257 0 0 0 0 52.068937699677122 3.3117970392850111 0 3.3117970392850111 56.633210617302211 0 0 0 0 -10.689488474375594 4.0849773083969012 0 4.0849773083969012 87.575815946202198 0 0 0 0 -7.0559328780458372 1.827364070294152 0 1.827364070294152 85.802815520717559 0 0 0 0 3.0474643803635217 6.8936070592894794 0 6.8936070592894794 92.743354203510535 0 0 0 0 -3.9083511163978528 18.861429419050637 0 18.861429419050637 82.273885154921231 0 0 0 0 -3.092324243901885 10.632908395728464 0 10.632908395728464 103.72146489962756 0 0 0 0 -2.9980847330452889 14.031120753058076 0 14.031120753058076 97.363055733344481 0 0 0 0 -6.9889567599916518 23.49440927419073 0 23.49440927419073 63.965575866464945 0 0 0 0 -3.8526457538710019 11.135353649075796 0 11.135353649075796 63.29514980800468 0 0 0 0 -1.5475961824426463 26.829269286983219 0 26.829269286983219 28.468685135383566 0 0 0 0 -9.2265040429861074 26.944040503663018 0 26.944040503663018 39.64600308997592 0 0 0 0 -4.6335304575312648 18.849934194075558 0 18.849934194075558 41.470907904636078 0 0 0 0 -2.6711774840532598 18.994304578433457 0 18.994304578433457 37.571776357244744 0 0 0 0 7.3840272646639278 25.741114769268734 0 25.741114769268734 41.934729747757956 0 0 0 0 6.9087309495423632 14.272734956410055 0 14.272734956410055 44.694044776323608 0 0 0 0 6.2822179701130381 26.747629423206035 0 26.747629423206035 38.262483921922467 0 0 0 0 4.6966274131387991 19.847215677474651 0 19.847215677474651 20.434272677225636 0 0 0 0 -4.4749458890098595 27.824886183923354 0 27.824886183923354 30.832960265321162 0 0 0 0 -3.5232693705200973 26.11802208627455 0 26.11802208627455 17.967311933494784 0 0 0 0 -12.697533541877874 24.609741823321201 0 24.609741823321201 17.719397743244599 0 0 0 0 -10.216405883619473 29.229382780630203 0 29.229382780630203 29.194963159450708 0 0 0 0 21.284737476200462 4.2968962812242353 0 4.2968962812242353 56.666173027134221 0 0 0 0 32.44930371096217 18.014637972158198 0 18.014637972158198 35.472902640422944 0 0 0 0 16.814537445942278 19.252535995699418 0 19.252535995699418 16.186871604159023 0 0 0 0 11.137666992937625 11.80765891431929 0 11.80765891431929 34.013248558361624 0 0 0 0 24.083319461850749 5.8419772068530165 0 5.8419772068530165 13.964598102180389 0 0 0 0 6.0322270789019115 7.2063833177548418 0 7.2063833177548418 4.1108501358944523 0 0 0 0 0.064721007924276819 23.085274292787517 0 23.085274292787517 -2.3577291280635109 0 0 0 0 6.3411113845154432 11.691309811484643 0 11.691309811484643 12.085129665957083 0 0 0 0 -9.0546552645301404 33.271161335661304 0 33.271161335661304 8.8492721110687853 0 0 0 0 -0.84391693722395278 8.5509677913221775 0 8.5509677913221775 17.231792947535222 0 0 0 0 0.46293781038440684 7.1252467710502856 0 7.1252467710502856 17.538439696991912 0 0 0 0 -25.302809144637195 33.172518654897431 0 33.172518654897431 22.336551398098891 0 0 0 0 0.7297306346026744 11.167254511457031 0 11.167254511457031 12.128475586334162 0 0 0 0 -13.024555202753845 25.164199777276053 0 25.164199777276053 19.882494477789521 0 0 0 0 -2.249079045217627 0.93881949380948981 0 0.93881949380948981 26.402933655117408 0 0 0 0 0.47110823001980551 8.4229658807783245 0 8.4229658807783245 12.762281024943327 0 0 0 0 47.561137676289263 -25.244706976317957 0 -25.244706976317957 0.8162915974507996 0 0 0 0 5.4061410356856072 12.047946919421008 0 12.047946919421008 3.9609051018036325 0 0 0 0 22.326438704337875 21.078210543859996 0 21.078210543859996 1.5072019708841253 0 0 0 0 15.39261035801411 28.222286751578622 0 28.222286751578622 11.489903997203328 0 0 0 0 3.5778858391721542 7.940804158422111 0 7.940804158422111 16.318019819901792 0 0 0 0 -0.6059321436928653 6.641200760231122 0 6.641200760231122 21.322156850941198 0 0 0 0 -22.207392041807907 18.740026802606735 0 18.740026802606735 56.292847673040342 0 0 0 0 -11.747250190957629 20.797936159754499 0 20.797936159754499 10.342254569576198 0 0 0 0 12.423313527517962 64.368501803083063 0 64.368501803083063 85.515166436352956 0 0 0 0 1.7153646381226508 12.650874347386662 0 12.650874347386662 -1.2724461499783501 0 0 0 0 -0.50680221559691674 7.2360513205292536 0 7.2360513205292536 14.609995572424708 0 0 0 0 -0.19077106888903472 2.8665072676930095 0 2.8665072676930095 26.739982988318616 0 0 0 0 -0.24319963481283047 5.5872478658756108 0 5.5872478658756108 24.274999163957965 0 0 0 0 0.14738049269789144 3.6222986861274507 0 3.6222986861274507 24.898721040598048 0 0 0 0 0.99071530793503371 1.7890758686834261 0 1.7890758686834261 25.671733177736996 0 0 0 0 1.0127448860625918 2.5146899998363779 0 2.5146899998363779 24.638180212859908 0 0 0 0 -1.702204184006419 -3.407786112008524 0 -3.407786112008524 17.616300585426455 0 0 0 0 -29.772792083243985 11.483382506915632 0 11.483382506915632 8.9912296247004662 0 0 0 0 3.8800427364899406 4.4314705966132806 0 4.4314705966132806 1.5776287741991837 0 0 0 0 -15.225404550177245 -12.266842411447897 0 -12.266842411447897 8.1895295577864999 0 0 0 0 -1.4158129422673795 1.4868140741064506 0 1.4868140741064506 1.1880938581394194 0 0 0 0 -13.551927659856858 -1.963641483130516 0 -1.963641483130516 11.57351234883663 0 0 0 0 34.469195804206038 -6.0857528741557871 0 -6.0857528741557871 11.532035440217783 0 0 0 0 -2.4057124421805156 4.2067156921898459 0 4.2067156921898459 20.100601191558553 0 0 0 0 20.440431588013325 25.531973325629224 0 25.531973325629224 35.480973470205072 0 0 0 0 7.9286939455043921 18.861693050844451 0 18.861693050844451 6.0750672465865136 0 0 0 0 7.1583591806271443 16.545926344851523 0 16.545926344851523 18.859528161408889 0 0 0 0 12.902716379709659 13.931513397201343 0 13.931513397201343 3.0022472821385691 0 0 0 0 14.113934251358273 4.452217213143058 0 4.452217213143058 -4.6494139721025931 0 0 0 0 -20.976946231591342 -15.216532681443823 0 -15.216532681443823 -9.2458754635025002 0 0 0 0 17.292414486323878 22.706987648918584 0 22.706987648918584 -8.7755250738841823 0 0 0 0 -10.312097818844492 22.181158528009462 0 22.181158528009462 1.3255522890776774 0 0 0 0 23.905128035900134 4.0498080929401112 0 4.0498080929401112 -7.5841893439869636 0 0 0 0 -25.893300860819579 -14.821413133855771 0 -14.821413133855771 44.073871601603059 0 0 0 0 -30.033167490785132 12.393476578742138 0 12.393476578742138 13.535550270114072 0 0 0 0 13.333924466376175 2.8839918292137554 0 2.8839918292137554 3.9550592226378285 0 0 0 0 2.0116043292275094 5.4316836162157074 0 5.4316836162157074 4.180945831983081 0 0 0 0 3.954708666520105 0.073161987850426158 0 0.073161987850426158 -0.85985947110975758 0 0 0 0 -0.49319167057484758 0.12088661104190024 0 0.12088661104190024 -0.35846113011471736 0 0 0 0 52.842090993433317 52.840001323364504 0 52.840001323364504 42.708007022765742 0 0 0 0 56.155238143697034 30.763798242628582 0 30.763798242628582 35.471666191817349 0 0 0 0 -0.84218243958736205 -0.15453305932158656 0 -0.15453305932158656 2.3620361231109648 0 0 0 0 31.041132001724691 40.000029786949653 0 40.000029786949653 35.324292784224326 0 0 0 0 29.077479964402869 48.567318702148668 0 48.567318702148668 40.827478336268541 0 0 0 0 -0.63052873110282204 -0.49827099680472919 0 -0.49827099680472919 1.0280431619937893 0 0 0 0 -0.26820233261582871 0.57967880027263163 0 0.57967880027263163 4.4470322998854499 0 0 0 0 -13.24211490179232 -2.6269860045567839 0 -2.6269860045567839 16.892399626465703 0 0 0 0 -4.6610955907596008 1.7451788562516413 0 1.7451788562516413 8.5696225253723242 0 0 0 0 -4.9403821570613147 4.0635794208306777 0 4.0635794208306777 17.625335577316946 0 0 0 0 4.0712983008867241 5.560421476708143 0 5.560421476708143 8.3692655222575922 0 0 0 0 0.44276340516199042 5.6936340198587914 0 5.6936340198587914 8.4126227820906934 0 0 0 0 -3.8059157784200579 14.622636190940284 0 14.622636190940284 34.086548419640849 0 0 0 0 -2.8889676705712191 28.718722945225636 0 28.718722945225636 32.117277768961685 0 0 0 0 4.0895325299755374 7.0200912965161635 0 7.0200912965161635 22.998840324878984 0 0 0 0 -1.601778759496961 2.2787984269448813 0 2.2787984269448813 5.9445044887233145 0 0 0 0 -0.011024294094909237 2.4887790631069038 0 2.4887790631069038 58.280632363736459 0 0 0 0 -1.1535626931899086 16.548985868885069 0 16.548985868885069 33.505978478530437 0 0 0 0 15.458390269527854 55.317087689590608 0 55.317087689590608 -24.77874426969538 0 0 0 0 -0.39223351216957536 4.756506557535106 0 4.756506557535106 -1.7534255601848052 0 0 0 0 0.19139936059400497 -34.008453251845822 0 -34.008453251845822 11.828335002295717 0 0 0 0 -3.4802947842471923 22.611033901693844 0 22.611033901693844 106.62883938316554 0 0 0 0 -12.129089070746431 69.032526237892853 0 69.032526237892853 90.04763686860133 0 0 0 0 -2.0604356710235834 61.47730477398818 0 61.47730477398818 35.53630599709868 0 0 0 0 16.694619402494254 40.812723517672566 0 40.812723517672566 58.303921265439385 0 0 0 0 15.034762842892178 41.680648139995355 0 41.680648139995355 49.317511727011151 0 0 0 0 15.349775234604977 40.402140359467921 0 40.402140359467921 20.959857781836035 0 0 0 0 -31.470811741235707 -1.7122042767578023 0 -1.7122042767578023 -24.908288617636799 0 0 0 0 -12.372953205232193 79.288961258434938 0 79.288961258434938 9.8569358969134555 0 0 0 0 -21.073154580891298 -49.007902723527991 0 -49.007902723527991 73.541051571022763 0 0 0 0 0.15539539974621652 0.53804069470722737 0 0.53804069470722737 1.1026617899405551 0 0 0 0 -37.967222675157387 -15.858726743631223 0 -15.858726743631223 90.395966784729353 0 0 0 0 -13.914460308297976 109.46716089302754 0 109.46716089302754 101.81993689894517 0 0 0 0 -0.65420879906018126 18.082791832819019 0 18.082791832819019 30.026790947938128 0 0 0 0 -3.9360974430144609 11.471871138166307 0 11.471871138166307 51.340028568193247 0 0 0 0 -6.0064505328301721 14.683817106615322 0 14.683817106615322 40.21189250607631 0 0 0 0 -7.9763431155538456 18.617015980914175 0 18.617015980914175 47.093659117228981 0 0 0 0 -12.964666759880743 19.150370833398711 0 19.150370833398711 58.25371247692874 0 0 0 0 -1.3989279286201963 9.2822350583071511 0 9.2822350583071511 57.793985533684463 0 0 0 0 -10.157682881671064 16.655605296499857 0 16.655605296499857 70.57149608176951 0 0 0 0 -9.5596345037447463 5.2419958454174775 0 5.2419958454174775 74.031158324614466 0 0 0 0 -4.6307271655913382 2.3049033172858344 0 2.3049033172858344 72.226066279115003 0 0 0 0 -12.525720685497845 25.861196852436933 0 25.861196852436933 48.283735599227839 0 0 0 0 -5.4045365570809736 11.950595046330818 0 11.950595046330818 52.300709507778151 0 0 0 0 -10.807669009823485 18.685126227046339 0 18.685126227046339 32.4754232097157 0 0 0 0 -5.4206606764535081 23.409476653014735 0 23.409476653014735 24.825223033902148 0 0 0 0 -7.1148799951051842 29.659936339677188 0 29.659936339677188 13.689613942456162 0 0 0 0 -12.685519286094177 30.740326776217216 0 30.740326776217216 30.764909906403091 0 0 0 0 -1.2424096770147512 17.669118471587982 0 17.669118471587982 30.349129115677187 0 0 0 0 -8.1144342709708326 36.967697391649381 0 36.967697391649381 11.510504599178603 0 0 0 0 -15.487633308712248 38.458762153451971 0 38.458762153451971 11.502204364995123 0 0 0 0 -0.84000909132245649 17.027241393991645 0 17.027241393991645 30.36275335029508 0 0 0 0 -14.099051442118707 41.333386460976726 0 41.333386460976726 15.190026450022742 0 0 0 0 -20.735592828162225 32.084603634568339 0 32.084603634568339 21.870316511355668 0 0 0 0 -18.121199439354314 33.593124354812062 0 33.593124354812062 20.265707258524344 0 0 0 0 -12.826218291706482 34.456164438771793 0 34.456164438771793 23.384514713803583 0 0 0 0 -7.5690709193117982 30.826003839385521 0 30.826003839385521 20.360296189646306 0 0 0 0 -26.216660945778472 44.213464485566874 0 44.213464485566874 19.145578465919243 0 0 0 0 4.4932952790829477 3.5688232782914593 0 3.5688232782914593 -6.8629723405599172 0 0 0 0 13.860797411261274 -33.784362471568556 0 -33.784362471568556 41.391076892722594 0 0 0 0 0.54183561589854534 1.2275290832532075 0 1.2275290832532075 2.1841491913782463 0 0 0 0 -49.796854472150471 47.893507044280341 0 47.893507044280341 -2.0720666921538395 0 0 0 0 21.613951297636504 29.023203579353776 0 29.023203579353776 -19.197066503245424 0 0 0 0 9.873670724724775 3.0942481835900253 0 3.0942481835900253 -24.238755566047985 0 0 0 0 -7.8936629547103507 13.979838489432836 0 13.979838489432836 141.70662199589424 0 0 0 0 14.057778610377454 -29.566122844484653 0 -29.566122844484653 54.356269122095 0 0 0 0 35.038783740023064 47.843943693663277 0 47.843943693663277 -13.314216950991067 0 0 0 0 0.27540237796376044 0.51478145659253194 0 0.51478145659253194 0.90499668407947809 0 0 0 0 -0.4652130340397207 -2.3583267355575117 0 -2.3583267355575117 23.35499669292949 0 0 0 0 -40.683080923280045 4.9950862737532589 0 4.9950862737532589 27.475912775181314 0 0 0 0 -29.093105969389057 -14.317037898735407 0 -14.317037898735407 81.031713900557406 0 0 0 0 -17.728203480226739 -15.567853512050533 0 -15.567853512050533 41.294751486884593 0 0 0 0 -23.386945391797113 -15.541563083913729 0 -15.541563083913729 27.067416667545331 0 0 0 0 -18.94226365967063 13.411210972918525 0 13.411210972918525 -6.2617261372297435 0 0 0 0 0.44460701865376095 1.2534665939314547 0 1.2534665939314547 2.3696137931759544 0 0 0 0 -42.725104642087445 53.33619527406745 0 53.33619527406745 21.751707326765882 0 0 0 0 -61.472325622122298 41.779610471200613 0 41.779610471200613 8.9635704311949667 0 0 0 0 -5.5117484708071061 31.585993510420849 0 31.585993510420849 13.196088228131885 0 0 0 0 -3.928098955872656 23.895202082909691 0 23.895202082909691 49.548390495368949 0 0 0 0 1.8061035702727395 20.042404139595646 0 20.042404139595646 84.074082312661631 0 0 0 0 5.1026578709670503 20.117879738734246 0 20.117879738734246 35.852240023685226 0 0 0 0 -11.516764587021953 -5.1934198363328505 0 -5.1934198363328505 62.564237680533097 0 0 0 0 -11.530848714572926 -3.1917079085069417 0 -3.1917079085069417 39.647902319235072 0 0 0 0 2.6122281075205365 -42.742662982598631 0 -42.742662982598631 114.91098748646436 0 0 0 0 -10.365386040234682 -5.4048143918848837 0 -5.4048143918848837 37.597377658408732 0 0 0 0 0.025165976157048409 0.13550926783282513 0 0.13550926783282513 0.28266213280920738 0 0 0 0 4.4168413434945251 -25.560148267145905 0 -25.560148267145905 92.647350850999828 0 0 0 0 6.6431174051781454 -16.774318530936853 0 -16.774318530936853 44.041258251213549 0 0 0 0 7.7523819409965995 -12.19060859377737 0 -12.19060859377737 62.981372967316929 0 0 0 0 0.22061868552051989 0.35000578365595381 0 0.35000578365595381 0.49527016496706544 0 0 0 0 15.34376838033279 -13.925907739705281 0 -13.925907739705281 94.397148225369165 0 0 0 0 15.911509349999733 -17.60374308655264 0 -17.60374308655264 72.448237955910372 0 0 0 0 45.687916247633439 -61.717517879960724 0 -61.717517879960724 74.791241038488579 0 0 0 0 0.19660737169850995 0.1823357543703672 0 0.1823357543703672 0.33475767209138318 0 0 0 0 64.324010329094364 -7.196670248457167 0 -7.196670248457167 43.600892543187001 0 0 0 0 18.364841483761211 4.3462349669916875 0 4.3462349669916875 202.85381247608893 0 0 0 0 5.9703483481897592 -33.117604889050199 0 -33.117604889050199 96.475913496770772 0 0 0 0 11.213594517333604 40.278546447877488 0 40.278546447877488 120.3820834705939 0 0 0 0 31.65448641169246 45.057702805099211 0 45.057702805099211 71.585830327390795 0 0 0 0 31.021374106470489 48.937641302968132 0 48.937641302968132 49.63814495063707 0 0 0 0 43.71081759360095 55.121332473228904 0 55.121332473228904 78.69477025931792 0 0 0 0 43.971146906025751 63.466801442451469 0 63.466801442451469 170.38577974697091 0 0 0 0 24.826711338410746 4.516063261533418 0 4.516063261533418 6.33563819765277 0 0 0 0 3.9615829799415678 -0.73348431666909164 0 -0.73348431666909164 5.3540215846028332 0 0 0 0 10.669902183948807 -9.5225449482686599 0 -9.5225449482686599 2.0594006692153926 0 0 0 0 17.369788073162603 -14.299885441715276 0 -14.299885441715276 2.6830293796283513 0 0 0 0 16.793612001525389 -6.1940355841798009 0 -6.1940355841798009 3.7365427297017959 0 0 0 0 22.356645931597654 -13.265896647161753 0 -13.265896647161753 9.8922285092694437 0 0 0 0 16.838600997463232 -9.0328406133776298 0 -9.0328406133776298 18.360277239977222 0 0 0 0 22.68947849280778 -6.7130601855656096 0 -6.7130601855656096 24.898704833974989 0 0 0 0 39.729851023538117 4.0388695519031899 0 4.0388695519031899 9.7758792586809022 0 0 0 0 81.716754491751658 -43.719279947640416 0 -43.719279947640416 32.608956064615995 0 0 0 0 17.182967064142645 -45.585701158853226 0 -45.585701158853226 110.2362042322261 0 0 0 0 14.11627804981083 -34.00969241153939 0 -34.00969241153939 77.616647219098013 0 0 0 0 39.034849651056732 -20.222292774554944 0 -20.222292774554944 20.521131896691259 0 0 0 0 10.978754508950942 -17.524005471423607 0 -17.524005471423607 60.388311007320681 0 0 0 0 12.46416936408923 -20.998065357191535 0 -20.998065357191535 45.391608748265753 0 0 0 0 -9.1494222901824287 -17.109205470038887 0 -17.109205470038887 95.595832132171381 0 0 0 0 -8.3287543261600945 -11.91193478710079 0 -11.91193478710079 62.707797099667005 0 0 0 0 -12.257541777836877 -12.037681411477934 0 -12.037681411477934 62.802902240649018 0 0 0 0 7.9321343827951978 -11.596739875320509 0 -11.596739875320509 21.002146108239685 0 0 0 0 4.3108703326477098 -13.967720605884097 0 -13.967720605884097 23.20938104439665 0 0 0 0 6.5827445018166486 -11.287888948671934 0 -11.287888948671934 36.132155807061281 0 0 0 0 24.730130194000139 -12.211425773652081 0 -12.211425773652081 10.733967898719129 0 0 0 0 22.191126658182839 -20.017276933420362 0 -20.017276933420362 15.291878695978085 0 0 0 0 14.957224773699636 -16.859022958857167 0 -16.859022958857167 14.199370242439727 0 0 0 0 13.949925462961119 -11.210341254524792 0 -11.210341254524792 -0.1635086588375998 0 0 0 0 16.991592475663538 -8.8505112348339026 0 -8.8505112348339026 9.5173902905844443 0 0 0 0 14.142167557231005 -12.435835676227725 0 -12.435835676227725 1.6365639729583563 0 0 0 0 16.376890910810971 -17.859173005113917 0 -17.859173005113917 -1.5718256574073166 0 0 0 0 15.0798066974005 -19.281590830054483 0 -19.281590830054483 -1.7053011040188721 0 0 0 0 11.378442107438559 -16.892271617756705 0 -16.892271617756705 2.2582854051161121 0 0 0 0 11.246566209320463 -15.083801818464053 0 -15.083801818464053 -5.9542806191002455 0 0 0 0 -1.4468300079652181 -11.28391484291933 0 -11.28391484291933 -15.149153512775229 0 0 0 0 4.0501358076176075 -20.428119294609132 0 -20.428119294609132 0.052936689939087955 0 0 0 0 1.3595825768927625 -4.5901018812164693 0 -4.5901018812164693 -0.35580459628727112 0 0 0 0 -33.413940373999822 -3.6461525183467529 0 -3.6461525183467529 -2.1879786005592905 0 0 0 0 -28.508732554414337 -9.8856389275515539 0 -9.8856389275515539 2.6750252000265391 0 0 0 0 -17.804004152654898 -3.9821828054873549 0 -3.9821828054873549 -22.040750908296104 0 0 0 0 -4.9250000084703061 -18.144608520233305 0 -18.144608520233305 -7.6205487270271988 0 0 0 0 16.70703624864322 -4.4833879612060628 0 -4.4833879612060628 -16.436328075698839 0 0 0 0 -38.239086085766758 -27.189972625526025 0 -27.189972625526025 14.696633264291449 0 0 0 0 1.083383201870102 -1.2932249249889871 0 -1.2932249249889871 1.7647446385470325 0 0 0 0 2.3477421418722315 -18.922288289330936 0 -18.922288289330936 -11.144710207317189 0 0 0 0 13.737644589051797 4.3108125972121343 0 4.3108125972121343 -3.7858568397155068 0 0 0 0 -11.542417550080586 -0.23709107848480926 0 -0.23709107848480926 30.654115076743437 0 0 0 0 -12.885858342399501 -15.678574932296669 0 -15.678574932296669 -2.1171707199141565 0 0 0 0 -4.2761807277251478 -20.454645772302911 0 -20.454645772302911 5.4342432933117379 0 0 0 0 -24.324623538314768 -24.349110325679248 0 -24.349110325679248 84.510517912438445 0 0 0 0 -21.797600059171657 -33.866018313750601 0 -33.866018313750601 111.67333733965097 0 0 0 0 -22.398088383697086 22.027440815305908 0 22.027440815305908 85.09613504281424 0 0 0 0 0.41774656772596841 -0.49043617526702832 0 -0.49043617526702832 0.59072306081696979 0 0 0 0 65.201038885737489 7.9481643314484245 0 7.9481643314484245 -3.3330334116308222 0 0 0 0 33.619632666227062 -43.861958632734058 0 -43.861958632734058 60.497025507927901 0 0 0 0 8.3480402775674065 33.770195237178086 0 33.770195237178086 114.75997548720989 0 0 0 0 16.416454707495348 3.6621910975684386 0 3.6621910975684386 -14.244123823082191 0 0 0 0 13.562128812159244 -59.885393928999292 0 -59.885393928999292 -46.154787014547765 0 0 0 0 2.4343221419260113 -10.653275727201805 0 -10.653275727201805 13.988330184769634 0 0 0 0 0.16383230945120886 -3.5418561503729507 0 -3.5418561503729507 4.3543414318514806 0 0 0 0 -7.9031025076492369 -33.177255656170018 0 -33.177255656170018 -10.25652298157911 0 0 0 0 3.6328883286319638 -6.1273782070304605 0 -6.1273782070304605 21.364542865687667 0 0 0 0 3.1959385396676074 -11.445158959038551 0 -11.445158959038551 8.421197263615948 0 0 0 0 0.51365974501465828 -0.48460441144638589 0 -0.48460441144638589 3.6959635709627325 0 0 0 0 4.8821546690689956 -7.7829064959357765 0 -7.7829064959357765 18.192764246926799 0 0 0 0 1.5586833546702792 -11.025978548961348 0 -11.025978548961348 15.77179840716326 0 0 0 0 13.198188519639501 -15.370757539810029 0 -15.370757539810029 17.389751358685203 0 0 0 0 2.4373630711960033 -7.5457209047586105 0 -7.5457209047586105 20.385319716050617 0 0 0 0 -2.1377720915978671 -16.873756088140794 0 -16.873756088140794 28.053968442391124 0 0 0 0 -15.460855422639156 -3.8516686321885345 0 -3.8516686321885345 21.787813548530266 0 0 0 0 -10.322828230055421 -16.125042035502076 0 -16.125042035502076 98.141220962815169 0 0 0 0 0.47604970700930532 0.74358857104199716 0 0.74358857104199716 2.4029350669359246 0 0 0 0 159.06225370268348 179.38225144119178 0 179.38225144119178 57.390550043106259 0 0 0 0 106.12477952103299 -275.48983301699673 0 -275.48983301699673 499.34976149486027 0 0 0 0 6.0307415022224262 -104.08913211028312 0 -104.08913211028312 222.45133788443081 0 0 0 0 -28.225477040527608 20.892873174746228 0 20.892873174746228 21.608463782847622 0 0 0 0 1.0192312980852216 2.5711131276731134 0 2.5711131276731134 5.006870006062119 0 0 0 0 -4.7463615934066894 -55.154067400684653 0 -55.154067400684653 223.56695540829287 0 0 0 0 19.773925575162636 -14.009446006682765 0 -14.009446006682765 46.082342677847009 0 0 0 0 -72.805400292694387 -86.391598493486072 0 -86.391598493486072 499.93549318750456 0 0 0 0 -68.943598301898334 7.6845330534026743 0 7.6845330534026743 275.83605305555739 0 0 0 0 -7.4232293515523793 -32.252565502624293 0 -32.252565502624293 276.39881544449651 0 0 0 0 8.6310979453091221 49.897684657732043 0 49.897684657732043 57.160379877650485 0 0 0 0 18.59427866103842 -36.871073025912892 0 -36.871073025912892 60.120938622023459 0 0 0 0 2.9497299561145849 -5.8429686182990306 0 -5.8429686182990306 9.417144541147394 0 0 0 0 -11.108424545103162 -29.078644654873642 0 -29.078644654873642 25.772234146531446 0 0 0 0 -37.076269724734175 -38.652480789638503 0 -38.652480789638503 134.23610473699773 0 0 0 0 -10.702027041955198 22.318790462182278 0 22.318790462182278 52.12189854364243 0 0 0 0 1.5426979530801976 1.5104859354405127 0 1.5104859354405127 8.9771076183958272 0 0 0 0 1.3442115520561044 -7.4921337273218871 0 -7.4921337273218871 14.750047920458972 0 0 0 0 -0.28159087909307345 -8.7321499880545161 0 -8.7321499880545161 8.1665158752316529 0 0 0 0 0.025872080837494149 -2.9708353236291174 0 -2.9708353236291174 5.380195844595395 0 0 0 0 0.068658828455689935 -0.4142921010125491 0 -0.4142921010125491 0.63965333380063782 0 0 0 0 3.9325204045480859 -37.856604464429438 0 -37.856604464429438 -9.3554847653158504 0 0 0 0 -5.0186960506612195 5.6397471215659607 0 5.6397471215659607 0.53341263039328624 0 0 0 0 4.3402352238052799 15.269876200877206 0 15.269876200877206 36.793344220906874 0 0 0 0 -5.0186960506598552 5.6397471215677797 0 5.6397471215677797 0.53341263041147613 0 0 0 0 -5.0186960506598552 5.6397471215605037 0 5.6397471215605037 0.53341263043694198 0 0 0 0 -0.52879799330746335 -0.97138506162404781 0 -0.97138506162404781 1.7863177143929221 0 0 0 0 -49.720825827870158 -16.064570585540423 0 -16.064570585540423 -16.12928458526585 0 0 0 0 -5.0255873511264326 -19.398025705080727 0 -19.398025705080727 -26.776656756756438 0 0 0 0 9.0189819607765003 8.6848761571600335 0 8.6848761571600335 0.30532461184338899 0 0 0 0 8.388527347804029 -28.918271837377688 0 -28.918271837377688 10.097336599004848 0 0 0 0 3.3837078061733337 -26.617045467524804 0 -26.617045467524804 9.9940904429726061 0 0 0 0 3.2254871736104178 -36.979952386426703 0 -36.979952386426703 11.95354710689935 0 0 0 0 -3.7221179559533084 -24.757663585440241 0 -24.757663585440241 -6.7150817086994721 0 0 0 0 11.602772685300579 -31.637633090873805 0 -31.637633090873805 -8.1267224767216248 0 0 0 0 10.856972954019625 -29.004906392478915 0 -29.004906392478915 -11.942478739583748 0 0 0 0 6.6190408221823418 -19.374760091283974 0 -19.374760091283974 -13.773434227943653 0 0 0 0 6.9159838014989816 -22.620643009495325 0 -22.620643009495325 -4.2507596604118589 0 0 0 0 11.35669079978652 -23.854771831263861 0 -23.854771831263861 -8.3798801628954607 0 0 0 0 8.5265738337350285 -25.727531725899098 0 -25.727531725899098 -1.9265142565927817 0 0 0 0 11.985302311503347 -21.452699316789221 0 -21.452699316789221 -1.3121810493576049 0 0 0 0 7.2291303764573058 -18.945255800610539 0 -18.945255800610539 0.71088414945370459 0 0 0 0 11.37837717582579 -20.961856024759982 0 -20.961856024759982 -1.1045366983585154 0 0 0 0 13.690729089380739 -18.378985959145211 0 -18.378985959145211 0.65438293755869381 0 0 0 0 10.860583467233937 -15.068536830750872 0 -15.068536830750872 1.6805438647934352 0 0 0 0 9.5605791270893405 -14.082827565756816 0 -14.082827565756816 1.1024000315519515 0 0 0 0 2.9034549731931065 -12.17266983083573 0 -12.17266983083573 2.1489033115121856 0 0 0 0 9.3352629321616405 -22.55237253614996 0 -22.55237253614996 6.5592094693929539 0 0 0 0 4.9881325772335003 -15.46498532309306 0 -15.46498532309306 7.2306537516851677 0 0 0 0 1.3681327369745304 -18.640414594472531 0 -18.640414594472531 7.3881467412834354 0 0 0 0 0.76687411604279987 -8.1330891145371424 0 -8.1330891145371424 8.0621739224087605 0 0 0 0 0.3865324383305051 -3.4488807025491042 0 -3.4488807025491042 -5.0476270248218498 0 0 0 0 3.1447658866754864 -4.9803107685111172 0 -4.9803107685111172 -3.5978442434097815 0 0 0 0 1.4983984320185755 -4.1189584365893097 0 -4.1189584365893097 -2.4524263258444989 0 0 0 0 -0.21000692373706897 -5.8270646729433793 0 -5.8270646729433793 -3.7991234623659693 0 0 0 0 -1.7670668995206142 -4.306745406428945 0 -4.306745406428945 25.171775130915194 0 0 0 0 0.0076396913232201769 5.8148944824697537 0 5.8148944824697537 -4.9583009750199381 0 0 0 0 2.7047172396969472 -24.903936023571077 0 -24.903936023571077 22.745903290124261 0 0 0 0 -0.9868893892739834 -34.923604912161863 0 -34.923604912161863 48.602611980844813 0 0 0 0 0.20739470325531073 12.29517887343107 0 12.29517887343107 69.25378702447415 0 0 0 0 45.527188685357487 61.697854742455092 0 61.697854742455092 -46.514705955851241 0 0 0 0 5.5010434643755817 25.91640515370608 0 25.91640515370608 225.74460948568776 0 0 0 0 18.010905842864304 -17.842370671022763 0 -17.842370671022763 -37.428857130263282 0 0 0 0 2.8409622592327701 -6.2965111374555907 0 -6.2965111374555907 7.7611632368898054 0 0 0 0 74.80401198101373 62.463916361957672 0 62.463916361957672 75.293925952541031 0 0 0 0 -67.988666451944965 28.403892170300196 0 28.403892170300196 399.79755372640739 0 0 0 0 37.805915016067019 102.99493126015932 0 102.99493126015932 228.47836861208543 0 0 0 0 -65.612239896933943 117.44029049312121 0 117.44029049312121 499.88031764047128 0 0 0 0 36.127851828544912 156.03744666140358 0 156.03744666140358 368.90907532133042 0 0 0 0 32.831903474659022 140.60890624909462 0 140.60890624909462 357.89099850808998 0 0 0 0 21.92597292267984 151.00866651263641 0 151.00866651263641 361.69139721318652 0 0 0 0 69.5866711650756 175.40291972827063 0 175.40291972827063 364.32083657795738 0 0 0 0 3.3884784328006723 -3.6230845719103 0 -3.6230845719103 2.9675311415373731 0 0 0 0 -3.9906621659629309 -9.8912680777148125 0 -9.8912680777148125 -3.6999509709906988 0 0 0 0 -3.1806358328178703 -4.9177761308001209 0 -4.9177761308001209 -3.4383834258669594 0 0 0 0 0.14071346266553064 -14.233152355635866 0 -14.233152355635866 -12.433380056818123 0 0 0 0 69.531451118093287 112.18438353903093 0 112.18438353903093 318.35089082538252 0 0 0 0 0.20272190237150722 -0.64526486162687213 0 -0.64526486162687213 1.8357125305674344 0 0 0 0 -18.66914642146196 12.993631828067009 0 12.993631828067009 14.911379460148964 0 0 0 0 0.037415076190687291 -2.0406767039297176 0 -2.0406767039297176 0.69183363906563677 0 0 0 0 -0.44299455989812486 -3.1926166854559597 0 -3.1926166854559597 -4.9153082059947337 0 0 0 0 -5.6138538584125399 -34.909655988878512 0 -34.909655988878512 25.398457956336642 0 0 0 0 -20.839412209413595 -194.119672229136 0 -194.119672229136 143.65850043375394 0 0 0 0 129.68790145049542 280.49067955046667 0 280.49067955046667 499.70710815670418 0 0 0 0 251.31488512533264 47.177407216355732 0 47.177407216355732 -29.399445449615087 0 0 0 0 1.6315640458209437 -0.89793817959562006 0 -0.89793817959562006 1.4845546705728552 0 0 0 0 73.725528350310569 -300.25473244964087 0 -300.25473244964087 499.07597314918758 0 0 0 0 376.5362923160024 -235.36057401594599 0 -235.36057401594599 -9.0797014427062095 0 0 0 0 194.89945823485016 -327.71426058992984 0 -327.71426058992984 -63.342999204600687 0 0 0 0 0.88314058926287919 -0.97919639723428631 0 -0.97919639723428631 0.82226999506341869 0 0 0 0 124.29477950873633 -174.26496151624542 0 -174.26496151624542 -19.164887854975404 0 0 0 0 1.1769476663963874 -0.42534745421438203 0 -0.42534745421438203 -0.80499276363864247 0 0 0 0 5.6216686676762038 4.1175608602588909 0 4.1175608602588909 -14.563160131838231 0 0 0 0 -20.819701641262867 -130.27126825357459 0 -130.27126825357459 270.80181279406315 0 0 0 0 290.24458998664988 -70.095318248213516 0 -70.095318248213516 61.218018724115609 0 0 0 0 6.5168303429300067 -2.2581991056304105 0 -2.2581991056304105 -12.869733476248257 0 0 0 0 -0.41710816583133692 0.37342433730100311 0 0.37342433730100311 -5.5435103412874014 0 0 0 0 2.9318322659396472 -3.3906528915467788 0 -3.3906528915467788 -4.9059695330352042 0 0 0 0 3.5997451642324449 -3.7376393404574628 0 -3.7376393404574628 -4.7303735130062705 0 0 0 0 0.67822574770355004 -3.3785735491724154 0 -3.3785735491724154 -3.9568413950000831 0 0 0 0 2.816660374604453 -4.5288840479861392 0 -4.5288840479861392 -3.3425538836800115 0 0 0 0 7.9390206444577416 -9.9756884337984957 0 -9.9756884337984957 0.3531962988572559 0 0 0 0 9.2735052585906033 -4.5955740086910737 0 -4.5955740086910737 -6.8667651870230202 0 0 0 0 4.4322969761037712 -6.0081810647188831 0 -6.0081810647188831 -1.5711137314192456 0 0 0 0 13.41808957822127 -8.779773210251733 0 -8.779773210251733 -2.165099701129293 0 0 0 0 3.1372863833687461 -2.7908444638396759 0 -2.7908444638396759 -2.5402645986214338 0 0 0 0 3.9206129288802174 -3.9575789835646447 0 -3.9575789835646447 -7.5675878791153082 0 0 0 0 14.154654508148184 -0.74649278150536702 0 -0.74649278150536702 -2.3043118374789628 0 0 0 0 6.2012170727225566 0.60908567343494724 0 0.60908567343494724 -6.8048876171305892 0 0 0 0 -10.418853650646156 16.348161056732124 0 16.348161056732124 3.1518891103187343 0 0 0 0 -48.567139224790935 7.0918742919770921 0 7.0918742919770921 13.703330921803172 0 0 0 0 -32.728544019585286 -1.3436067500715012 0 -1.3436067500715012 38.255577692516454 0 0 0 0 -29.341991424355001 -9.8789995677561819 0 -9.8789995677561819 22.32485152403251 0 0 0 0 -38.081818580561844 14.428659562638813 0 14.428659562638813 16.851986412761107 0 0 0 0 -37.687268422845136 10.862570163879809 0 10.862570163879809 10.738803703148733 0 0 0 0 -53.705308615373269 3.7654540759385782 0 3.7654540759385782 7.6399207978893173 0 0 0 0 -46.471240745083378 33.080419814864854 0 33.080419814864854 -36.525643971615409 0 0 0 0 -39.489632917016706 34.356515681980227 0 34.356515681980227 83.419768485440045 0 0 0 0 0.52553032005331479 1.1069427919966861 0 1.1069427919966861 1.7179014977121216 0 0 0 0 -78.455834064350938 60.718720972317897 0 60.718720972317897 -11.771052035518096 0 0 0 0 1.9588430832763493 -20.204357703795779 0 -20.204357703795779 -42.985187807820012 0 0 0 0 1.9449182281201149 4.944641892802526 0 4.944641892802526 12.280799069679535 0 0 0 0 2.6926580069034571 35.29021063062828 0 35.29021063062828 -43.500108215712544 0 0 0 0 -62.467080179336904 1.0597938706680452 0 1.0597938706680452 15.49341688244931 0 0 0 0 -85.111487062646347 44.232279007498619 0 44.232279007498619 1.3246285414035128 0 0 0 0 8.4261849854317461 58.427986526632367 0 58.427986526632367 38.259573210611961 0 0 0 0 45.911576577265805 49.017936808126933 0 49.017936808126933 16.826144310417476 0 0 0 0 44.038034988053255 46.911322609274066 0 46.911322609274066 54.738291882447015 0 0 0 0 12.055762831927328 4.4690798440335726 0 4.4690798440335726 146.75982525371637 0 0 0 0 76.404970456391538 76.499309137741875 0 76.499309137741875 75.480543123113421 0 0 0 0 11.255927776478302 -14.194706576208773 0 -14.194706576208773 36.093165868704318 0 0 0 0 -10.464170771325598 11.530553617472833 0 11.530553617472833 72.78768395690804 0 0 0 0 11.998255716717722 -30.342679539067831 0 -30.342679539067831 45.900345392765303 0 0 0 0 -4.7938044212991144 -10.283331032290334 0 -10.283331032290334 46.006851972519144 0 0 0 0 86.878272509397206 -39.064494285978526 0 -39.064494285978526 39.289224847913374 0 0 0 0 -3.1114364777211208 5.6911851028069691 0 5.6911851028069691 17.034505644372075 0 0 0 0 0.1423992528605571 -0.24813531424418755 0 -0.24813531424418755 0.17927745327152866 0 0 0 0 22.57154995369666 -45.537556482035257 0 -45.537556482035257 0.50810715698025888 0 0 0 0 -14.780407349934421 -19.38184507206438 0 -19.38184507206438 52.654584884279302 0 0 0 0 -9.4564438128320489 -4.5095873375710198 0 -4.5095873375710198 47.58192153053335 0 0 0 0 -18.406108331517999 -12.849324532053743 0 -12.849324532053743 41.759988196873564 0 0 0 0 -32.020101676453578 -4.7064756619865875 0 -4.7064756619865875 44.054152523940047 0 0 0 0 -17.870699879682661 -0.017715969973210122 0 -0.017715969973210122 28.22956428030011 0 0 0 0 -10.9643769317438 -19.634219601534824 0 -19.634219601534824 32.462096900602432 0 0 0 0 -44.206495884777723 5.6351467741187662 0 5.6351467741187662 28.07430877419938 0 0 0 0 -46.977397864985278 4.4323383298440149 0 4.4323383298440149 30.341791148742232 0 0 0 0 -25.81066796771438 -6.297345410557682 0 -6.297345410557682 28.410150185753423 0 0 0 0 -37.116793710615411 8.6476727135468536 0 8.6476727135468536 29.227999175389414 0 0 0 0 -26.309708030557548 11.085048161367332 0 11.085048161367332 27.984683359452902 0 0 0 0 -26.166150112058858 -7.2987221512516953 0 -7.2987221512516953 37.238962156755633 0 0 0 0 -0.38620834693575112 -0.37326048305899828 0 -0.37326048305899828 1.5589829145312777 0 0 0 0 -12.740991403223006 -26.507970963909656 0 -26.507970963909656 67.888622394647882 0 0 0 0 -28.567638199112707 1.611055943460201 0 1.611055943460201 51.630940236590504 0 0 0 0 2.3916353555863452 -5.2762011084065534 0 -5.2762011084065534 40.145616713890377 0 0 0 0 -1.9922847157844217 2.2995436436751788 0 2.2995436436751788 36.897687454791594 0 0 0 0 3.2092641252579228 5.2483853000187679 0 5.2483853000187679 19.1470430730784 0 0 0 0 -22.101545812871336 -1.3561216062007588 0 -1.3561216062007588 49.362031137309259 0 0 0 0 -7.2306830585807802 8.4530976721518982 0 8.4530976721518982 31.167279373029487 0 0 0 0 -6.7514741293621228 5.9827143047095888 0 5.9827143047095888 38.425798620894398 0 0 0 0 8.4321047376471796 -3.1092595050329805 0 -3.1092595050329805 21.908829678568964 0 0 0 0 9.291681028633576 -5.3479013639233699 0 -5.3479013639233699 19.089165706014228 0 0 0 0 1.0392269250951358 8.311287248005101 0 8.311287248005101 30.418729423574405 0 0 0 0 -33.407485686242126 26.193960895501505 0 26.193960895501505 4.051467319935 0 0 0 0 -39.482698470207652 -0.39545178509251855 0 -0.39545178509251855 35.246309940803258 0 0 0 0 -16.729717501215418 2.3572618337184394 0 2.3572618337184394 7.6239551863254746 0 0 0 0 2.4884959283276413 2.5878986852452135 0 2.5878986852452135 -2.8007179572621173 0 0 0 0 41.381172057791474 -26.339312450994726 0 -26.339312450994726 16.49539855756575 0 0 0 0 -36.481178041781277 -8.9419408724929781 0 -8.9419408724929781 103.44795808584945 0 0 0 0 -38.712080010770023 -23.785274349079373 0 -23.785274349079373 39.733221377686505 0 0 0 0 3.1551580878460119 -9.4244684477158529 0 -9.4244684477158529 18.965125222319411 0 0 0 0 -36.355248493320346 -76.563346546360663 0 -76.563346546360663 14.324673791791611 0 0 0 0 3.0740930746334989 -11.004548266331108 0 -11.004548266331108 14.847323985649197 0 0 0 0 7.3102846557954706 -6.530786057406317 0 -6.530786057406317 18.551366290930559 0 0 0 0 7.1571808561181172 -8.9467699694679368 0 -8.9467699694679368 17.858776162464665 0 0 0 0 7.5238105874139638 -5.7291853607514795 0 -5.7291853607514795 19.401441333709954 0 0 0 0 11.369927339229235 -8.1072532430548563 0 -8.1072532430548563 17.259759397394191 0 0 0 0 9.0520836575460066 -9.0043722859170998 0 -9.0043722859170998 17.942756849188072 0 0 0 0 4.96047116617763 -8.2063438019590791 0 -8.2063438019590791 18.442292479476464 0 0 0 0 2.8067516710323313 5.9832839179720025 0 5.9832839179720025 11.300574933656584 0 0 0 0 -15.712733763379617 17.335424573826231 0 17.335424573826231 28.94495918837174 0 0 0 0 -55.074027146930661 26.200949682678868 0 26.200949682678868 13.738730384489827 0 0 0 0 0.018144811181171061 1.0264593983824053 0 1.0264593983824053 4.3326147120945784 0 0 0 0 17.876984591918742 0.28131183151322148 0 0.28131183151322148 15.653603078566903 0 0 0 0 16.176851432463224 -3.5832860694476949 0 -3.5832860694476949 11.830757462971746 0 0 0 0 16.282561941276271 -6.2773265135432439 0 -6.2773265135432439 17.099858541976459 0 0 0 0 29.964660041945862 -6.1321145510154338 0 -6.1321145510154338 12.301932458161787 0 0 0 0 13.651301189669994 -12.460249854836547 0 -12.460249854836547 18.437020275123359 0 0 0 0 10.462312149636958 -8.7035989856001379 0 -8.7035989856001379 18.288392872745369 0 0 0 0 21.691352058232848 -21.147503714836489 0 -21.147503714836489 30.472521650457566 0 0 0 0 6.5525319155089505 -6.6498984449450518 0 -6.6498984449450518 16.764795083401623 0 0 0 0 0.71254819068291098 1.0438087777795282 0 1.0438087777795282 0.66930449978372764 0 0 0 0 6.2379306441780784 -9.2315077554618483 0 -9.2315077554618483 18.032828192438274 0 0 0 0 0.78517052456595504 1.0630011566408859 0 1.0630011566408859 1.1727491245573636 0 0 0 0 14.523527308982246 54.061271077039919 0 54.061271077039919 126.328548052001 0 0 0 0 10.913150172378195 -8.0587169365024351 0 -8.0587169365024351 14.843885754707571 0 0 0 0 9.3290224645006674 -5.3452026731019089 0 -5.3452026731019089 16.611958329006029 0 0 0 0 51.2780577891318 -27.654879613919775 0 -27.654879613919775 26.200308907622343 0 0 0 0 -21.18805969784966 -45.369425908167614 0 -45.369425908167614 232.38180998990174 0 0 0 0 -60.376602137946023 100.54595311558126 0 100.54595311558126 321.84822933287342 0 0 0 0 -51.797061157090724 152.92190182481647 0 152.92190182481647 498.78513089668695 0 0 0 0 68.538462043127396 4.569047451274173 0 4.569047451274173 15.38676157946793 0 0 0 0 -25.750056718114003 -23.170005053840214 0 -23.170005053840214 397.98976106425778 0 0 0 0 0.36190986280169635 0.45130736078304556 0 0.45130736078304556 0.70541724382766269 0 0 0 0 -77.620149779711511 26.843704452380393 0 26.843704452380393 500.19528478404368 0 0 0 0 -29.460084515417602 -1.270785890367506 0 -1.270785890367506 384.12867032308532 0 0 0 0 -8.3252170830055992 -50.837447423257515 0 -50.837447423257515 500.01137984004527 0 0 0 0 37.895619056136233 -137.19200372120935 0 -137.19200372120935 227.62170622791177 0 0 0 0 21.220459621407038 54.993341378380364 0 54.993341378380364 173.01631078045682 0 0 0 0 68.817666603612523 -241.65698983155781 0 -241.65698983155781 498.9963527187324 0 0 0 0 1.6239263756115405 1.8851452527866774 0 1.8851452527866774 3.9995920352067333 0 0 0 0 -4.7778816080421933 -26.371554655905811 0 -26.371554655905811 95.838164677267173 0 0 0 0 -54.186202208268071 108.12425427781582 0 108.12425427781582 116.43850405438411 0 0 0 0 6.2778941111588438 -35.749558761672517 0 -35.749558761672517 26.289848228622304 0 0 0 0 2.1483713375761799 4.6126764374010643 0 4.6126764374010643 9.8557996722310115 0 0 0 0 -8.9100566593808708 99.038561713017316 0 99.038561713017316 -6.3691740334111273 0 0 0 0 0.38343145384332722 0.41981054502126547 0 0.41981054502126547 0.3902131948644687 0 0 0 0 27.707468404437122 -121.13202945743819 0 -121.13202945743819 -61.307177759268598 0 0 0 0 13.87603259101682 8.2250934042417612 0 8.2250934042417612 5.5369637995240737 0 0 0 0 69.036118498704838 2.4509689067905356 0 2.4509689067905356 2.8053088444919467 0 0 0 0 74.800640157690566 102.1089886173969 0 102.1089886173969 49.264824726474899 0 0 0 0 78.602319673656325 100.52827019484198 0 100.52827019484198 45.475467715333764 0 0 0 0 4.1968785429335185 69.060175564880637 0 69.060175564880637 42.594032798151829 0 0 0 0 65.480189140231005 66.155796925317361 0 66.155796925317361 5.8500332024336785 0 0 0 0 109.15290850837127 80.923924321104835 0 80.923924321104835 -11.191950845253587 0 0 0 0 119.17595874117615 56.873769669674971 0 56.873769669674971 41.315050149171441 0 0 0 0 54.85006332407356 175.17046553970374 0 175.17046553970374 94.638260686376213 0 0 0 0 136.3102484019995 150.34188526046702 0 150.34188526046702 52.411057467505998 0 0 0 0 150.12601210240587 208.00875938176867 0 208.00875938176867 103.56615983483709 0 0 0 0 168.54252738788097 243.99836453213024 0 243.99836453213024 166.63580705733295 0 0 0 0 341.78777365853347 182.23182328244101 0 182.23182328244101 19.790682648660493 0 0 0 0 255.3894312941141 -35.800412947601671 0 -35.800412947601671 -94.650366017572452 0 0 0 0 556.01894575476285 150.84546314877974 0 150.84546314877974 20.43626780104205 0 0 0 0 449.8217136386636 380.9247521785357 0 380.9247521785357 186.36611103524655 0 0 0 0 81.009890857605654 328.54872648263711 0 328.54872648263711 498.97492143996863 0 0 0 0 23.736294169486143 194.88951589095637 0 194.88951589095637 238.43375058624258 0 0 0 0 -231.12486654512415 114.82891316394932 0 114.82891316394932 500.03656942366911 0 0 0 0 -50.694455243229513 86.368877433275998 0 86.368877433275998 374.05734543782046 0 0 0 0 -203.92013289986642 128.51500309521313 0 128.51500309521313 403.86719107130727 0 0 0 0 -77.014787192704034 -14.330435630398824 0 -14.330435630398824 30.661940896028455 0 0 0 0 -1.6477574296747366 0.042416855248537333 0 0.042416855248537333 0.54561969885220241 0 0 0 0 -146.59081576421988 121.80897582653643 0 121.80897582653643 174.78324629953977 0 0 0 0 -14.185511502777729 226.04196984909009 0 226.04196984909009 242.76851732426059 0 0 0 0 -82.994045167116838 -123.09026322151362 0 -123.09026322151362 499.00139156349462 0 0 0 0 -110.88705078797891 28.284295148384899 0 28.284295148384899 500.03586356471999 0 0 0 0 -92.250359730752592 -63.795759655836605 0 -63.795759655836605 335.67552916992395 0 0 0 0 -34.507851534221416 42.693629265727168 0 42.693629265727168 291.15003399732547 0 0 0 0 21.500695270484584 3.8710233347374015 0 3.8710233347374015 13.883487107200949 0 0 0 0 -4.6450777542386055 0.54044303052436993 0 0.54044303052436993 0.22762725492038527 0 0 0 0 33.431786262080593 -67.031237193750144 0 -67.031237193750144 162.60198068184081 0 0 0 0 -10.271015834418677 9.6234429213960766 0 9.6234429213960766 32.912396652159032 0 0 0 0 -7.0767392663195068 49.276526177854208 0 49.276526177854208 86.871376905459329 0 0 0 0 27.484010473826629 52.062972886755915 0 52.062972886755915 195.24362107231241 0 0 0 0 53.604033811772346 125.71705725144942 0 125.71705725144942 141.264063762153 0 0 0 0 0.88558055024935367 -0.28615144047032182 0 -0.28615144047032182 0.21536529026843843 0 0 0 0 7.6980392687842141 2.0023942186305703 0 2.0023942186305703 -28.001367174316101 0 0 0 0 50.72855945786587 47.039875348430982 0 47.039875348430982 10.50722979463194 0 0 0 0 53.754940642723618 152.76455126185306 0 152.76455126185306 111.39417878818858 0 0 0 0 0.8203510393538509 132.35098048354087 0 132.35098048354087 113.68662408809337 0 0 0 0 27.019833544660855 70.178732854053806 0 70.178732854053806 71.89086561358522 0 0 0 0 62.855205805453622 99.847678267682227 0 99.847678267682227 82.546218073893215 0 0 0 0 58.098574590462221 95.118771972774766 0 95.118771972774766 127.93948550192647 0 0 0 0 102.23476160797344 39.868980628349391 0 39.868980628349391 92.356076909422171 0 0 0 0 60.523437668313022 9.3202059177052661 0 9.3202059177052661 155.61079355265883 0 0 0 0 0.83978694204985427 -0.64497234600955533 0 -0.64497234600955533 0.64974085069983989 0 0 0 0 -9.5541016614882892 44.906252652162948 0 44.906252652162948 160.84562573992866 0 0 0 0 16.236663020515721 8.9341966550484813 0 8.9341966550484813 160.62294955672883 0 0 0 0 21.161289241587156 28.384105610177357 0 28.384105610177357 168.7518985442789 0 0 0 0 29.760252679067605 33.635728442069194 0 33.635728442069194 169.00734275033983 0 0 0 0 18.639352972065581 79.496825952626068 0 79.496825952626068 143.90904162714742 0 0 0 0 85.49450270843306 68.340108946703367 0 68.340108946703367 169.01323674127116 0 0 0 0 1.6586469339981704 108.42653186386974 0 108.42653186386974 308.33818575431042 0 0 0 0 5.1715638632751961 148.28634919972365 0 148.28634919972365 386.74752900287649 0 0 0 0 63.593312792752386 159.06337059322755 0 159.06337059322755 293.84090610798421 0 0 0 0 14.029260134860579 50.587214817147924 0 50.587214817147924 150.83732740399773 0 0 0 0 -10.483100182774024 57.950635159290869 0 57.950635159290869 217.5617031449965 0 0 0 0 54.883504647209747 112.11607832289519 0 112.11607832289519 210.52312660174357 0 0 0 0 27.23309282310629 59.42093876106469 0 59.42093876106469 142.88509308007906 0 0 0 0 3.386043961599853 61.149625707562791 0 61.149625707562791 203.70240598320834 0 0 0 0 7.215543036207464 16.152457121622774 0 16.152457121622774 163.50188591352526 0 0 0 0 18.081036361444262 55.889569158587165 0 55.889569158587165 92.437028643400481 0 0 0 0 2.7740952449936551 -1.3657127073151685 0 -1.3657127073151685 0.8427005239438099 0 0 0 0 64.523698505430275 26.996094339736374 0 26.996094339736374 93.956868420706087 0 0 0 0 90.920375441841045 71.231235636518704 0 71.231235636518704 60.637288129752051 0 0 0 0 13.392597833101661 -14.627283458184138 0 -14.627283458184138 51.562256702186914 0 0 0 0 -16.428422798241741 60.531672891113658 0 60.531672891113658 147.59795699445749 0 0 0 0 -41.327546015766302 10.391545060816043 0 10.391545060816043 139.48631626012411 0 0 0 0 7.7595235345367648 38.517354667863628 0 38.517354667863628 47.911538319671536 0 0 0 0 16.892444053297531 14.437509821337244 0 14.437509821337244 20.255328959685585 0 0 0 0 3.7539040229942184 -1.5925485158392556 0 -1.5925485158392556 0.69810736170146281 0 0 0 0 131.37915496314406 46.818341749931903 0 46.818341749931903 15.278578752431713 0 0 0 0 61.945532511903266 33.867407617399408 0 33.867407617399408 13.236430458666291 0 0 0 0 0.083779072142156491 0.37205715592745259 0 0.37205715592745259 0.27486318828010781 0 0 0 0 68.367454106472906 -2.7076582853210311 0 -2.7076582853210311 -3.3705702685629149 0 0 0 0 1.5616020816262051 9.2856587466571909 0 9.2856587466571909 9.5629528098655783 0 0 0 0 -59.195141809546364 14.495780040835115 0 14.495780040835115 54.993713397020656 0 0 0 0 2.2203334244109385 12.91971978288143 0 12.91971978288143 -19.972719954138483 0 0 0 0 38.362829770025598 27.855206038337656 0 27.855206038337656 14.181928451685963 0 0 0 0 16.009772678229112 65.364802345788121 0 65.364802345788121 108.21954199390439 0 0 0 0 58.234461972576412 57.593956125643331 0 57.593956125643331 58.540635143937834 0 0 0 0 -7.9388476363148186 55.504113845562188 0 55.504113845562188 87.560002733216606 0 0 0 0 -21.632084980616 29.266885363606889 0 29.266885363606889 84.425964174308774 0 0 0 0 53.540040887482519 221.95015348789002 0 221.95015348789002 422.62503151668716 0 0 0 0 -0.068561967466272744 0.0061485347027279147 0 0.0061485347027279147 0.64293712988276219 0 0 0 0 85.035768489300153 45.923091676165313 0 45.923091676165313 80.845695684888142 0 0 0 0 116.59676343245064 120.67770960291091 0 120.67770960291091 58.764177388101416 0 0 0 0 62.141377235849177 87.041263169115155 0 87.041263169115155 136.76738390045921 0 0 0 0 134.09738897435 213.76545835828529 0 213.76545835828529 299.230820040244 0 0 0 0 2.0246917830461371 5.8561871393776528 0 5.8561871393776528 -3.7423263091275203 0 0 0 0 29.163368964230813 65.970822027439681 0 65.970822027439681 161.71537844585373 0 0 0 0 16.809180243534684 86.235213904326883 0 86.235213904326883 269.0037655898559 0 0 0 0 120.64180989766928 122.0274594799248 0 122.0274594799248 189.61966919230144 0 0 0 0 20.201001507256564 71.891520515938737 0 71.891520515938737 213.331319134757 0 0 0 0 9.8941238242243799 66.530242269030168 0 66.530242269030168 210.66573475238602 0 0 0 0 57.867529642202499 69.458065743300722 0 69.458065743300722 158.95685866597614 0 0 0 0 69.726712014884242 121.45349655292011 0 121.45349655292011 82.554381612242651 0 0 0 0 0.79049098516488314 0.26241390747310955 0 0.26241390747310955 0.22260125625451899 0 0 0 0 -0.22297178110830362 -0.43123038074430653 0 -0.43123038074430653 1.1475452997895843 0 0 0 0 116.69393490375614 120.67783898923517 0 120.67783898923517 82.495930234962543 0 0 0 0 160.73605643399287 131.52560462270594 0 131.52560462270594 82.902531093479411 0 0 0 0 97.433144094310364 155.34353743245356 0 155.34353743245356 130.33588730874362 0 0 0 0 32.580015871642445 129.24074534284136 0 129.24074534284136 121.88466393316412 0 0 0 0 30.315867296451714 89.57395031219832 0 89.57395031219832 70.854166059144518 0 0 0 0 20.264874804351848 95.438201944356479 0 95.438201944356479 67.548392394222901 0 0 0 0 81.000520529706591 120.67300957390989 0 120.67300957390989 75.228909232245314 0 0 0 0 66.377689971470772 73.894082961652657 0 73.894082961652657 52.273335243591646 0 0 0 0 75.334212991532695 51.675965499759513 0 51.675965499759513 94.420366640561042 0 0 0 0 -19.778421235926999 30.954488534113807 0 30.954488534113807 57.302597442893557 0 0 0 0 78.950934943096854 43.912142518724522 0 43.912142518724522 -20.398581926160887 0 0 0 0 3.2875474925795372 -1.1209708923825046 0 -1.1209708923825046 0.25102031698459459 0 0 0 0 40.00626598564395 -33.597022101662787 0 -33.597022101662787 -44.595019305192636 0 0 0 0 33.017398098134208 52.588896807104447 0 52.588896807104447 107.00731059200825 0 0 0 0 -19.697491127835747 2.9920055874530362 0 2.9920055874530362 147.66763660867855 0 0 0 0 20.944252905771236 -44.178569537248904 0 -44.178569537248904 6.9388283789817251 0 0 0 0 58.417450557960819 -23.099103643512535 0 -23.099103643512535 156.26518988237376 0 0 0 0 22.189734558532109 70.735588951256318 0 70.735588951256318 76.541439104813435 0 0 0 0 63.087045411204222 57.051402926430114 0 57.051402926430114 100.61356125822022 0 0 0 0 97.386256524348028 -3.9630264313709631 0 -3.9630264313709631 129.36817137043954 0 0 0 0 72.405374155456684 46.318301624566629 0 46.318301624566629 196.84827258191945 0 0 0 0 88.748068054278974 21.335010273861371 0 21.335010273861371 188.02810018769742 0 0 0 0 88.311278297079753 84.938361485151745 0 84.938361485151745 125.23030841504897 0 0 0 0 243.82332771343022 282.60266172227875 0 282.60266172227875 623.85345290845544 0 0 0 0 474.12087680390187 59.092056649813912 0 59.092056649813912 325.26398561830501 0 0 0 0 104.80100658527954 80.661994383006459 0 80.661994383006459 324.10616303690767 0 0 0 0 146.06198970320918 -42.591147088668777 0 -42.591147088668777 271.90399270821399 0 0 0 0 144.7229508492087 -41.923090656444401 0 -41.923090656444401 478.66714078991936 0 0 0 0 49.12857379713023 64.210030493124577 0 64.210030493124577 375.92975878377365 0 0 0 0 35.70047349048491 121.69799518725995 0 121.69799518725995 506.00847050897858 0 0 0 0 -6.5432242590313763 -0.11585127760918112 0 -0.11585127760918112 484.48897591538116 0 0 0 0 -10.14230259021565 63.567644108054992 0 63.567644108054992 300.01937205548529 0 0 0 0 24.41973444728967 15.319754951910454 0 15.319754951910454 351.17592967247583 0 0 0 0 8.8293138058902514 75.583706522440934 0 75.583706522440934 255.62912362321958 0 0 0 0 41.278088254275644 145.28029847600055 0 145.28029847600055 356.06593579617243 0 0 0 0 19.237147615246158 99.27667349502326 0 99.27667349502326 260.34167028185448 0 0 0 0 3.7098960985513258 119.66697710526614 0 119.66697710526614 274.26988836612531 0 0 0 0 113.22123194107974 118.18061802690409 0 118.18061802690409 123.35224744770949 0 0 0 0 3.0206602549329515 1.0559607381575251 0 1.0559607381575251 1.3956214274289007 0 0 0 0 177.69361860492813 226.45127610256691 0 226.45127610256691 303.33121815592131 0 0 0 0 -22.73244399973737 -84.275569883754997 0 -84.275569883754997 170.82477860508152 0 0 0 0 -0.35565528747660791 0.14342966835115334 0 0.14342966835115334 3.3558989907339338 0 0 0 0 89.147679602717972 -63.419125177447086 0 -63.419125177447086 -38.130466923946187 0 0 0 0 -5.5631563625548601 2.1518431545982573 0 2.1518431545982573 1.4670044481863691 0 0 0 0 3.863625345530636 67.787114253155778 0 67.787114253155778 99.682342701160451 0 0 0 0 45.796046194038809 -34.165687150830308 0 -34.165687150830308 150.52786462122276 0 0 0 0 1.1374936434236815 -74.912027385857755 0 -74.912027385857755 378.31959796622323 0 0 0 0 -7.9584874870342901 121.33628857219628 0 121.33628857219628 469.46988629369889 0 0 0 0 -38.192965965459734 49.155696403505772 0 49.155696403505772 369.39303413207381 0 0 0 0 35.341195192409486 147.55882553381571 0 147.55882553381571 378.31416275533411 0 0 0 0 5.1618594387582561 119.19752792548934 0 119.19752792548934 356.19007302137788 0 0 0 0 -17.767403066538463 40.959608141167337 0 40.959608141167337 371.64601954355567 0 0 0 0 1.5355510067593059 139.87763206916497 0 139.87763206916497 489.48889376838179 0 0 0 0 82.207991430441098 85.864899602436253 0 85.864899602436253 460.92111112404928 0 0 0 0 -29.814358839232568 17.644624341716735 0 17.644624341716735 239.70174750634305 0 0 0 0 47.533569369873476 67.426506633230929 0 67.426506633230929 252.63094322748293 0 0 0 0 -6.1834356329329694 59.88214862489076 0 59.88214862489076 285.44929490978575 0 0 0 0 -6.5981013662155306 -11.520341916766824 0 -11.520341916766824 221.43724131831095 0 0 0 0 -2.5277283294200288 -25.325762930961218 0 -25.325762930961218 121.77610356056357 0 0 0 0 -3.6157641544189749 0.65481813882560758 0 0.65481813882560758 -0.095414287149924615 0 0 0 0 15.628782374661981 51.015142338311989 0 51.015142338311989 78.851090471193857 0 0 0 0 -82.464935313912463 -14.268421080399548 0 -14.268421080399548 229.95312870756788 0 0 0 0 10.646317381824062 7.9366691430604988 0 7.9366691430604988 -8.0180297883111962 0 0 0 0 39.684267274454974 116.69403831983209 0 116.69403831983209 224.15570107915505 0 0 0 0 -0.15245615919265149 0.11248738676324166 0 0.11248738676324166 -0.063403986166894022 0 0 0 0 2.0891015416274854 13.979476815272619 0 13.979476815272619 18.316016738462167 0 0 0 0 45.794445121770835 138.71444813531843 0 138.71444813531843 259.73244225586495 0 0 0 0 51.647706924052073 136.41561017320146 0 136.41561017320146 235.92769782892492 0 0 0 0 9.2449143918506707 14.775296100269316 0 14.775296100269316 -2.9987964950726678 0 0 0 0 -1.9313679212884836 11.135019087023977 0 11.135019087023977 14.321480811206129 0 0 0 0 -3.6460618253984953 5.0457255374593863 0 5.0457255374593863 8.2751387540506212 0 0 0 0 -0.71802866721765213 8.6900146285547635 0 8.6900146285547635 9.6964634130058585 0 0 0 0 77.031557177162028 96.508970989413683 0 96.508970989413683 125.43737248608659 0 0 0 0 0.23297275050575394 1.8125829425548403 0 1.8125829425548403 1.5947243059543963 0 0 0 0 -7.2454761103831586 3.0193253058815754 0 3.0193253058815754 2.1380580110242886 0 0 0 0 -6.9434733312264143 9.0652150164244176 0 9.0652150164244176 13.481180325927426 0 0 0 0 2.652342975369141 31.388758334967903 0 31.388758334967903 55.652464255614632 0 0 0 0 -12.155735109770205 3.1245247830037215 0 3.1245247830037215 24.694655956483416 0 0 0 0 -1.3235283807548639 0.15495915057889498 0 0.15495915057889498 7.8168106627867866 0 0 0 0 142.64812611433001 182.58934227095403 0 182.58934227095403 226.35650051388347 0 0 0 0 75.33546144531384 176.11967399989965 0 176.11967399989965 238.41442123306217 0 0 0 0 330.87768705935605 442.21612222097644 0 442.21612222097644 498.96382931195058 0 0 0 0 127.90695349290127 -214.74468072001241 0 -214.74468072001241 197.5464788530312 0 0 0 0 0.43724172718483534 0.053233371483406344 0 0.053233371483406344 3.0435293878352265 0 0 0 0 85.275568516977728 201.59019031151399 0 201.59019031151399 272.7824835378172 0 0 0 0 -7.2077101694149484 215.45804561550779 0 215.45804561550779 500.2005364666486 0 0 0 0 1.3169074020796572 145.59620577264775 0 145.59620577264775 331.04269325841278 0 0 0 0 -50.251098684060636 129.61374107283405 0 129.61374107283405 336.14355734396713 0 0 0 0 -101.27291882687928 63.723961856913093 0 63.723961856913093 348.29312277078589 0 0 0 0 -79.627663169762812 128.19507100673036 0 128.19507100673036 499.78573237045566 0 0 0 0 -101.78519873935039 61.705209469336069 0 61.705209469336069 390.81600870269449 0 0 0 0 -139.84164183823211 12.634180344831748 0 12.634180344831748 500.03253387267767 0 0 0 0 -107.40334980192983 4.7708910681958514 0 4.7708910681958514 366.38372850122391 0 0 0 0 -63.986667181152612 35.594868531653674 0 35.594868531653674 258.8849561743441 0 0 0 0 -43.046500311138516 -1.8806315854499189 0 -1.8806315854499189 149.41058292732123 0 0 0 0 -34.795817531732155 28.111801865162761 0 28.111801865162761 251.49459267438465 0 0 0 0 4.0398546610196178 42.527842919129398 0 42.527842919129398 178.07454878121735 0 0 0 0 6.828523940901448 58.6880344333415 0 58.6880344333415 205.51310562907281 0 0 0 0 3.2711445660024268 39.15784495712478 0 39.15784495712478 140.75397055060955 0 0 0 0 45.96745857978938 124.69111443932388 0 124.69111443932388 167.70206994683031 0 0 0 0 -6.9773590432411225 96.110532630803164 0 96.110532630803164 264.71738261573773 0 0 0 0 -7.2474149040193367 92.907044257271536 0 92.907044257271536 227.19662238946057 0 0 0 0 -54.935206357877433 68.429797915586732 0 68.429797915586732 348.67182534539518 0 0 0 0 61.31951719157685 -173.0465555564092 0 -173.0465555564092 367.15690479684599 0 0 0 0 -12.67957273928041 -110.55901825487035 0 -110.55901825487035 406.37514239061966 0 0 0 0 -66.112305870531998 -119.51241495155659 0 -119.51241495155659 500.28977051050924 0 0 0 0 -109.85414551921482 -38.880791115370585 0 -38.880791115370585 353.56736614840747 0 0 0 0 -141.32332713338553 -5.7465270759815894 0 -5.7465270759815894 377.63119450266913 0 0 0 0 -144.79818305727633 -38.926265882024609 0 -38.926265882024609 499.80144727396953 0 0 0 0 -104.74587921003668 12.157326251874565 0 12.157326251874565 362.24915618652449 0 0 0 0 -76.468369866561488 -57.389970530423852 0 -57.389970530423852 273.08122624856833 0 0 0 0 -82.933625897309042 35.142434508495171 0 35.142434508495171 191.28150748415737 0 0 0 0 -67.504359946700845 -20.303487987504923 0 -20.303487987504923 95.556508781779939 0 0 0 0 -91.671401611547878 29.805105687644755 0 29.805105687644755 140.95195076023128 0 0 0 0 0.92202073890900627 2.473674924018253 0 2.473674924018253 3.343234860491382 0 0 0 0 -58.457629692218461 -6.2964938414738185 0 -6.2964938414738185 150.22193999314914 0 0 0 0 -29.363773669157453 -99.454058187358214 0 -99.454058187358214 333.09249251572231 0 0 0 0 -16.475854279088743 -63.685722285038082 0 -63.685722285038082 233.47815065744999 0 0 0 0 32.099239184903411 -96.067915342094011 0 -96.067915342094011 102.06811452290822 0 0 0 0 -11.061135276418725 -5.7548428340674036 0 -5.7548428340674036 66.141018924745367 0 0 0 0 0.62259342405010343 1.9500216884543242 0 1.9500216884543242 2.9588988593231544 0 0 0 0 -50.88619306164469 -34.740563863133957 0 -34.740563863133957 263.5015811470339 0 0 0 0 -35.658171038419255 -38.243038306482504 0 -38.243038306482504 193.91010901133882 0 0 0 0 -12.236888997650198 -47.688893476568865 0 -47.688893476568865 197.21737141257927 0 0 0 0 14.440377477331211 -126.31070435667675 0 -126.31070435667675 410.8478366889367 0 0 0 0 201.36188905179947 74.052201651918949 0 74.052201651918949 384.84571488172151 0 0 0 0 -20.661956330467689 -71.442936520373223 0 -71.442936520373223 636.18270534997919 0 0 0 0 45.167221265066715 12.254678307224765 0 12.254678307224765 97.524659343221174 0 0 0 0 64.567578047163025 -126.00274074162689 0 -126.00274074162689 168.4197957079632 0 0 0 0 -117.30909412206279 226.24430146490886 0 226.24430146490886 43.641018279384298 0 0 0 0 0.38353972093342337 1.2433604503807114 0 1.2433604503807114 1.8081713688174315 0 0 0 0 -32.096487779456311 105.97788113110573 0 105.97788113110573 -60.300229010480052 0 0 0 0 38.220554248963595 -4.7848642515140227 0 -4.7848642515140227 482.77028052589412 0 0 0 0 -21.776885273771313 -38.516582121101692 0 -38.516582121101692 546.0135333495964 0 0 0 0 -30.280926335657611 -32.499767204308228 0 -32.499767204308228 417.53906016555356 0 0 0 0 -37.071664487874386 13.088365067930681 0 13.088365067930681 479.67434562785365 0 0 0 0 -16.334143562977232 -8.6780978832066467 0 -8.6780978832066467 394.50552074260486 0 0 0 0 -28.749958570319848 -16.257773371091389 0 -16.257773371091389 445.26995674854152 0 0 0 0 -8.0243464608147406 35.103339063305611 0 35.103339063305611 396.43680326286812 0 0 0 0 0.65547939919588316 -21.121699047893344 0 -21.121699047893344 265.94288780677743 0 0 0 0 -12.54561492509589 -52.545917471596795 0 -52.545917471596795 269.62442430994997 0 0 0 0 10.529418603082377 -2.1997569499217207 0 -2.1997569499217207 294.71304218276782 0 0 0 0 -24.500379630166407 -25.268746297688267 0 -25.268746297688267 352.36470396363438 0 0 0 0 -19.802843678524766 -43.8333270157691 0 -43.8333270157691 326.99180307186907 0 0 0 0 -19.029043915066481 1.706828528099777 0 1.706828528099777 389.50237515263507 0 0 0 0 23.610560889138682 -144.93329076069176 0 -144.93329076069176 404.13221728727513 0 0 0 0 -11.827312304407101 -17.518680188308281 0 -17.518680188308281 347.27208150497245 0 0 0 0 3.032881035261596 -96.573687795909791 0 -96.573687795909791 293.78706470065845 0 0 0 0 -1.2697065972121209 -38.969910433641417 0 -38.969910433641417 182.75115440430818 0 0 0 0 16.958794223033742 -91.312924973668032 0 -91.312924973668032 172.97457794549337 0 0 0 0 32.430873674438374 -67.986579937973147 0 -67.986579937973147 167.57733180946093 0 0 0 0 113.87473219348786 -42.199119627080108 0 -42.199119627080108 -37.923004937814767 0 0 0 0 36.243015578248333 -75.702960455148059 0 -75.702960455148059 134.99780011306666 0 0 0 0 -7.4828914542315488 -77.403469483411186 0 -77.403469483411186 229.88086108745119 0 0 0 0 -1.5141200339860461 -67.414413153743908 0 -67.414413153743908 184.63883850229467 0 0 0 0 6.3203714423143538 -40.039859676039669 0 -40.039859676039669 149.32608776664711 0 0 0 0 14.093683415190981 -19.930229217495935 0 -19.930229217495935 27.037535277178904 0 0 0 0 -6.9394264703842055 -77.89982030905594 0 -77.89982030905594 120.79217988008622 0 0 0 0 -20.921104004201112 -21.028407071866241 0 -21.028407071866241 40.114762117439568 0 0 0 0 5.4885862132028933 -7.1623355714145873 0 -7.1623355714145873 6.1176938236858405 0 0 0 0 0.228860862900613 1.2725030665677801 0 1.2725030665677801 0.59876343707042423 0 0 0 0 0.49342560565359883 2.494857392246149 0 2.494857392246149 6.2802903977384403 0 0 0 0 -2.8001224759585455 -26.243716385130483 0 -26.243716385130483 26.086643389571691 0 0 0 0 5.5981130791661826 30.671920081983217 0 30.671920081983217 3.236756441736361 0 0 0 0 -10.23613553438863 -1.1125928522455695 0 -1.1125928522455695 50.493688864880824 0 0 0 0 -79.55113073296161 -34.673325883046346 0 -34.673325883046346 46.034757953202643 0 0 0 0 -0.066592120437509436 0.41683264394229869 0 0.41683264394229869 0.042162290499824451 0 0 0 0 -46.941342088475324 -13.257370162529241 0 -13.257370162529241 35.549551955511561 0 0 0 0 1.6419450745734139 -1.9851221330459339 0 -1.9851221330459339 1.2250791723145085 0 0 0 0 -30.787692966705322 8.2299905686681996 0 8.2299905686681996 29.624179890068262 0 0 0 0 6.5793916422222765 -10.027643156714475 0 -10.027643156714475 15.995726601458955 0 0 0 0 12.59455353595277 -0.72801310909744643 0 -0.72801310909744643 26.40663875192331 0 0 0 0 -0.53104177687282572 -49.330746461894705 0 -49.330746461894705 -1.5293715883053665 0 0 0 0 65.056651678226444 -22.825816033775482 0 -22.825816033775482 -28.477581534074488 0 0 0 0 78.032015776338994 23.250940486316949 0 23.250940486316949 -5.5614069247276348 0 0 0 0 119.24307992746584 82.176114477409698 0 82.176114477409698 6.9558786415436771 0 0 0 0 120.60557709944263 168.43300988586276 0 168.43300988586276 121.33057296440165 0 0 0 0 56.158658888005448 -20.767152330434328 0 -20.767152330434328 -23.63167849835736 0 0 0 0 127.70043650994043 -150.58268288245017 0 -150.58268288245017 136.87908936287567 0 0 0 0 134.10077059070625 -221.90883785981077 0 -221.90883785981077 386.43419952294789 0 0 0 0 -26.380476595142426 -29.307140995737427 0 -29.307140995737427 412.69580656901599 0 0 0 0 0.46094746427770894 0.87069451994929814 0 0.87069451994929814 2.5195343654181848 0 0 0 0 -2.1770824127007131 136.24511446357428 0 136.24511446357428 398.25544124468678 0 0 0 0 -16.952794492986229 45.494527913881029 0 45.494527913881029 143.68626673563358 0 0 0 0 38.103228971473605 72.225940940706792 0 72.225940940706792 110.78614133965493 0 0 0 0 36.177783135890706 14.249795451687987 0 14.249795451687987 30.460341356334538 0 0 0 0 32.325917649108533 33.482066864824446 0 33.482066864824446 86.39452083849983 0 0 0 0 31.038242489342224 22.691781378312044 0 22.691781378312044 16.737255158132029 0 0 0 0 5.468863613115019 9.934310216488484 0 9.934310216488484 40.295499549229135 0 0 0 0 15.585102018403703 27.125974233302713 0 27.125974233302713 40.115369328013912 0 0 0 0 -6.3286443926876856 35.212200118552573 0 35.212200118552573 105.38030434019311 0 0 0 0 -31.459572088202641 46.467040222708647 0 46.467040222708647 236.24655776047257 0 0 0 0 -30.318133108480779 26.192472579065907 0 26.192472579065907 139.04206354596954 0 0 0 0 -20.305427374103402 18.665841071045634 0 18.665841071045634 196.01174666892439 0 0 0 0 -17.560657109836598 16.126731860836571 0 16.126731860836571 191.07259859519922 0 0 0 0 -15.604552334548316 12.532564178620305 0 12.532564178620305 196.19031010000799 0 0 0 0 -18.723755040609376 16.373740243487646 0 16.373740243487646 194.42278256022337 0 0 0 0 -2.310874070853874 0.70565716248428068 0 0.70565716248428068 0.2416594091020916 0 0 0 0 17.970207289507343 64.725034207726139 0 64.725034207726139 167.73646580460399 0 0 0 0 -41.495772799344024 59.511663935789556 0 59.511663935789556 251.35768687532936 0 0 0 0 -0.87957477344530322 0.31935931124414019 0 0.31935931124414019 0.22990730152070249 0 0 0 0 -67.305491689787857 109.07111226466577 0 109.07111226466577 160.79766948658522 0 0 0 0 -172.27422546192139 193.20061045799321 0 193.20061045799321 393.76620358473338 0 0 0 0 -23.81505020739678 -23.146912302575402 0 -23.146912302575402 368.75303351654895 0 0 0 0 -82.818831196923654 42.758548603858117 0 42.758548603858117 295.59184751542125 0 0 0 0 34.019836594266621 64.751394037773935 0 64.751394037773935 368.34160410656477 0 0 0 0 -43.351868480953726 59.606963168815128 0 59.606963168815128 525.58630222235251 0 0 0 0 23.141298132245538 -6.2315771591565863 0 -6.2315771591565863 306.50805855558792 0 0 0 0 -25.314238320730055 129.11765178650603 0 129.11765178650603 93.57925872728606 0 0 0 0 -33.204144504073383 57.08432872571484 0 57.08432872571484 185.69074995543724 0 0 0 0 -11.494223891111488 38.260056565470904 0 38.260056565470904 191.5984950648326 0 0 0 0 -66.96377972554933 19.929725743217205 0 19.929725743217205 251.14652807759512 0 0 0 0 -85.280696718457222 75.213913663150407 0 75.213913663150407 222.45333636020223 0 0 0 0 -47.5161048364821 30.543777062728623 0 30.543777062728623 190.09298034647918 0 0 0 0 -32.25146134167494 24.383733619709346 0 24.383733619709346 191.42591569343313 0 0 0 0 -51.480800051231881 26.320323603449197 0 26.320323603449197 211.04863095239307 0 0 0 0 -40.6064594270415 -8.8060058070659579 0 -8.8060058070659579 215.42038512162173 0 0 0 0 -23.610810530623894 -25.495869810267322 0 -25.495869810267322 166.1894783632049 0 0 0 0 -30.681522684484776 -15.901202581709185 0 -15.901202581709185 165.23899653053195 0 0 0 0 -39.836282334683688 3.3752173208927161 0 3.3752173208927161 162.24060749579257 0 0 0 0 -27.973487258767364 6.7052662890741885 0 6.7052662890741885 158.66420964395002 0 0 0 0 -18.344538979918298 -32.095857105393407 0 -32.095857105393407 315.24865392290121 0 0 0 0 -6.0889457821494943 -9.811858177546128 0 -9.811858177546128 259.33811920230255 0 0 0 0 -6.2808938366113125 -59.116191259943662 0 -59.116191259943662 230.88329414485361 0 0 0 0 -7.3177100389041243 -40.232205751540278 0 -40.232205751540278 233.3593464235837 0 0 0 0 -73.881924765851409 -5.7584531754109776 0 -5.7584531754109776 312.01305520237565 0 0 0 0 0.48330809217713977 -25.578846254779819 0 -25.578846254779819 169.60894035607998 0 0 0 0 -29.139835464454109 -31.66736305545146 0 -31.66736305545146 230.40029475617666 0 0 0 0 -4.421337529486209 -52.842289944513141 0 -52.842289944513141 157.07825881811414 0 0 0 0 16.731341169030998 -36.011882496624821 0 -36.011882496624821 108.96310911548971 0 0 0 0 0.039231294492992674 -27.689045493448248 0 -27.689045493448248 219.41736149708595 0 0 0 0 9.6930020343948939 -46.544406634522261 0 -46.544406634522261 102.09574295274797 0 0 0 0 16.920660116738304 -17.826720164785002 0 -17.826720164785002 50.037269387742526 0 0 0 0 3.8336360063152597 -29.557947857756517 0 -29.557947857756517 89.381972271639825 0 0 0 0 -3.8925966662802693 -28.355686228665036 0 -28.355686228665036 112.3568474014146 0 0 0 0 -0.24805794362919187 -23.542628395426618 0 -23.542628395426618 114.30947139863201 0 0 0 0 -0.42511756955947533 -34.439939033609448 0 -34.439939033609448 134.22422920380995 0 0 0 0 8.6754355813667416 -13.359533022759024 0 -13.359533022759024 49.1002638829641 0 0 0 0 -8.9983033547762261 -1.1302588120752262 0 -1.1302588120752262 68.518480195300072 0 0 0 0 8.6925438609238199 7.0141774042140241 0 7.0141774042140241 20.971266767101952 0 0 0 0 2.7633339511531858 -18.139572858360225 0 -18.139572858360225 50.717425966807241 0 0 0 0 -12.494691762341063 0.41071771513907152 0 0.41071771513907152 106.6253014679769 0 0 0 0 -19.49028720705337 -13.002696447864764 0 -13.002696447864764 142.56886714199754 0 0 0 0 -17.374484083682546 -14.239299118921735 0 -14.239299118921735 114.8377186243406 0 0 0 0 -5.4944741927038194 -9.9471570682535457 0 -9.9471570682535457 103.96789681019618 0 0 0 0 0.62750721112018937 -18.264527515866803 0 -18.264527515866803 67.596870917743217 0 0 0 0 -9.8198171953330302 -4.7133100975813704 0 -4.7133100975813704 86.287965651932609 0 0 0 0 -9.8556938848996651 32.644359182323569 0 32.644359182323569 93.130331264917913 0 0 0 0 3.6926377341969783 24.036497048128695 0 24.036497048128695 53.630828819123053 0 0 0 0 -9.3059694301351783 24.615157302570736 0 24.615157302570736 104.65923486778047 0 0 0 0 -13.995827782484866 22.471656420746513 0 22.471656420746513 132.27745306367433 0 0 0 0 -4.9075132277885132 24.003586597581489 0 24.003586597581489 104.74189566423047 0 0 0 0 -17.989153085291719 17.21554513016963 0 17.21554513016963 122.19453676265221 0 0 0 0 -12.325522642234773 12.671281575228022 0 12.671281575228022 100.14982080088794 0 0 0 0 -26.819681193167298 18.521589321699594 0 18.521589321699594 166.41047774700019 0 0 0 0 -24.333163701658805 6.6810781310432503 0 6.6810781310432503 127.87214922711973 0 0 0 0 -14.365408480449332 22.422824296831095 0 22.422824296831095 132.28758687503387 0 0 0 0 -27.130470938518101 23.735000831588877 0 23.735000831588877 187.7125268840532 0 0 0 0 -25.823922724165755 15.369663455163163 0 15.369663455163163 167.15868752335609 0 0 0 0 -13.944961053044608 38.391594994318439 0 38.391594994318439 192.21120653056187 0 0 0 0 -20.933131066205078 18.707189522047884 0 18.707189522047884 198.90887289826787 0 0 0 0 -20.359551191795276 17.702923480526806 0 17.702923480526806 180.96037394404448 0 0 0 0 -14.808644743548996 22.662100123128766 0 22.662100123128766 152.6120203117498 0 0 0 0 -13.786795634132432 36.143238728770484 0 36.143238728770484 164.73330475349803 0 0 0 0 -1.2971877443368385 42.920267888493299 0 42.920267888493299 161.76459965426602 0 0 0 0 23.248089808227633 73.076438900051471 0 73.076438900051471 159.17060333425428 0 0 0 0 0.25322641356958497 -0.32862221365220812 0 -0.32862221365220812 0.5347553502301885 0 0 0 0 3.3942870784903789 2.0949565283699485 0 2.0949565283699485 -1.7374324833226638 0 0 0 0 7.2997918348910389 21.274605512745438 0 21.274605512745438 91.222786531582642 0 0 0 0 49.478517814159659 -32.887283947876767 0 -32.887283947876767 64.164601220309123 0 0 0 0 0.14155290821428546 -0.51139945768990813 0 -0.51139945768990813 0.99530947890327415 0 0 0 0 -0.10215340420745633 40.056055973590446 0 40.056055973590446 136.69448975324303 0 0 0 0 13.53913012537123 40.879815235201932 0 40.879815235201932 93.913830522296848 0 0 0 0 -26.252604609935702 -30.429996696650505 0 -30.429996696650505 186.41747286625923 0 0 0 0 55.497041805792151 54.713136748678608 0 54.713136748678608 102.36199943410156 0 0 0 0 112.46690717857359 122.93170662103466 0 122.93170662103466 184.02951974072948 0 0 0 0 65.219736642531416 47.315624402733192 0 47.315624402733192 10.585291350738771 0 0 0 0 62.165907824217584 52.665806839115248 0 52.665806839115248 2.6901546999615675 0 0 0 0 98.772541184243721 78.761671027209786 0 78.761671027209786 48.16187386378806 0 0 0 0 37.715034403007394 53.978560123881834 0 53.978560123881834 75.083711603221673 0 0 0 0 114.77628843682692 120.99489266602404 0 120.99489266602404 63.711267996869537 0 0 0 0 143.55805686304751 91.869827455042014 0 91.869827455042014 60.926102228047057 0 0 0 0 0.41008193871859233 0.14972939971733101 0 0.14972939971733101 0.55608474957949916 0 0 0 0 61.863555916626069 54.545173988519764 0 54.545173988519764 28.990542156560878 0 0 0 0 44.943912250759013 48.61252630144736 0 48.61252630144736 50.29220452605432 0 0 0 0 29.183510309325811 46.257551320935818 0 46.257551320935818 42.361719924656427 0 0 0 0 33.510862117819897 53.551902132384839 0 53.551902132384839 51.635722235564572 0 0 0 0 28.60435040106222 44.324883787770887 0 44.324883787770887 49.756607448533941 0 0 0 0 -2.9503445126860584 -0.32543431707335913 0 -0.32543431707335913 4.8231037219829886 0 0 0 0 10.430555309949511 33.458010887215551 0 33.458010887215551 48.430559710754096 0 0 0 0 0.030182416796849409 -0.40574989123036787 0 -0.40574989123036787 0.65798350478575784 0 0 0 0 -5.5978590455811172 61.103856914414337 0 61.103856914414337 74.155392747246879 0 0 0 0 24.595982058608683 80.924315326851229 0 80.924315326851229 20.167427882646734 0 0 0 0 -0.98688690812042079 -0.31580372941731305 0 -0.31580372941731305 0.34028813913016265 0 0 0 0 1.5075677594377339 -0.12225325619010619 0 -0.12225325619010619 -1.7416246732168474 0 0 0 0 4.5395382019113413 -10.246348697645772 0 -10.246348697645772 38.994989817199212 0 0 0 0 -16.878430518302594 0.60603918324522965 0 0.60603918324522965 60.685954403442338 0 0 0 0 -3.4106321614572153 -2.135899710189733 0 -2.135899710189733 2.9405944138261475 0 0 0 0 -2.4014109152204828 0.45777698293678704 0 0.45777698293678704 0.95192012784598212 0 0 0 0 10.778005885021514 -4.3060732618114343 0 -4.3060732618114343 -9.1157335470716134 0 0 0 0 -5.9772516523587456 -3.4603473089036925 0 -3.4603473089036925 14.448989397365949 0 0 0 0 -3.8680732055919407 -1.0346861211112355 0 -1.0346861211112355 0.58619923649257544 0 0 0 0 -2.542181673724599 17.712239782849565 0 17.712239782849565 13.400968086554712 0 0 0 0 0.74112985282192767 1.6666978119067153 0 1.6666978119067153 1.7407853875947694 0 0 0 0 -0.4767388140253308 0.48053237939632876 0 0.48053237939632876 1.2553853156320862 0 0 0 0 -11.523527465066309 -0.07689357566914623 0 -0.07689357566914623 1.0657827692102728 0 0 0 0 7.3517478387079791 -4.1951120745206936 0 -4.1951120745206936 -3.5944262360280845 0 0 0 0 -25.325966782170838 -2.8641305143036107 0 -2.8641305143036107 8.1784512213853304 0 0 0 0 -18.000790724214767 -56.882641548529136 0 -56.882641548529136 3.5558099128902541 0 0 0 0 -0.084509086379120912 -0.15392086314419551 0 -0.15392086314419551 0.33527984073935535 0 0 0 0 33.667506452362431 28.321742309386536 0 28.321742309386536 22.681417888213218 0 0 0 0 27.442133434882749 41.933860856774572 0 41.933860856774572 45.648566673663481 0 0 0 0 11.743631596505281 29.795228775296891 0 29.795228775296891 41.589056997967418 0 0 0 0 65.77733385237434 48.241174264814617 0 48.241174264814617 27.143386598206234 0 0 0 0 20.176734475935291 49.907583895208518 0 49.907583895208518 74.140039165235976 0 0 0 0 36.688515133072087 69.112478604241005 0 69.112478604241005 94.388066488410914 0 0 0 0 -43.279681973300058 14.020182256106182 0 14.020182256106182 49.443368796191862 0 0 0 0 47.202086722218155 12.43349795377253 0 12.43349795377253 25.829361884100763 0 0 0 0 -24.910246912649427 -14.593135852369869 0 -14.593135852369869 15.871293559353944 0 0 0 0 0.35124064673102051 0.42488458379018867 0 0.42488458379018867 0.21716420430590944 0 0 0 0 53.077049054717463 23.809879818843001 0 23.809879818843001 -5.2920503652221669 0 0 0 0 75.346599155806416 61.144316408722261 0 61.144316408722261 41.350183698532419 0 0 0 0 -28.249252986654028 19.140367763168797 0 19.140367763168797 47.924531288832441 0 0 0 0 -40.752925783341311 97.383345343868768 0 97.383345343868768 94.96273335859496 0 0 0 0 0.50673541009952161 0.62768021137415797 0 0.62768021137415797 0.36627265497818939 0 0 0 0 85.845132759387695 16.830625318292618 0 16.830625318292618 -12.704465233066912 0 0 0 0 11.51901688088401 -19.741393928772482 0 -19.741393928772482 -8.1728984225264867 0 0 0 0 -36.369707988346477 -12.358848490593573 0 -12.358848490593573 82.56051438415551 0 0 0 0 32.452567453892016 -1.0415688366442737 0 -1.0415688366442737 17.638315345598016 0 0 0 0 25.759057987048664 9.9048387041611932 0 9.9048387041611932 53.54690046601263 0 0 0 0 49.571676121246504 8.3019078638299106 0 8.3019078638299106 18.850726376005696 0 0 0 0 48.65034394268352 -1.0729980513471844 0 -1.0729980513471844 -20.046084409442301 0 0 0 0 62.135540440516941 39.248353817663968 0 39.248353817663968 -13.192679715013583 0 0 0 0 44.502667920382805 34.025765946841602 0 34.025765946841602 6.940445718499177 0 0 0 0 30.213467412791942 39.762989373345135 0 39.762989373345135 46.96726111370981 0 0 0 0 30.808152259511189 39.703970647522056 0 39.703970647522056 40.878114609694308 0 0 0 0 0.96627804838367681 1.2395882110753451 0 1.2395882110753451 -1.0828606038602349 0 0 0 0 3.0061435062014992 -13.13755609519194 0 -13.13755609519194 -11.549030527804007 0 0 0 0 1.2355831002810387 6.2005090285308881 0 6.2005090285308881 11.196591572488614 0 0 0 0 12.362258143410571 15.868885317316654 0 15.868885317316654 0.18827475668513216 0 0 0 0 -9.8631994254282915 23.186274704115931 0 23.186274704115931 40.239896893481074 0 0 0 0 16.650400829441281 -9.6117609455002366 0 -9.6117609455002366 -21.362374173834723 0 0 0 0 0.58517122056800486 1.3734748264698329 0 1.3734748264698329 -0.54275462312979705 0 0 0 0 -14.269140524425723 9.8607422728173333 0 9.8607422728173333 43.330916641394197 0 0 0 0 -1.0547381212930742 1.2747722568278697 0 1.2747722568278697 1.3286247434310674 0 0 0 0 0.9040238232908564 3.2181308846165848 0 3.2181308846165848 9.2288824689289868 0 0 0 0 -1.121755054921945 0.97629063899238333 0 0.97629063899238333 3.9704305444638983 0 0 0 0 -0.30974748904350236 3.5015100860337043 0 3.5015100860337043 9.4841260566417986 0 0 0 0 -0.87162628351521854 0.74257567407475822 0 0.74257567407475822 3.3324700107675582 0 0 0 0 -13.290946755256186 16.73888892791183 0 16.73888892791183 19.421437642881301 0 0 0 0 -2.0134541007468165 0.6375522107906022 0 0.6375522107906022 2.1608410414646642 0 0 0 0 -1.1872602535824157 1.1698404231052688 0 1.1698404231052688 3.6907693815402283 0 0 0 0 -2.5760963006820461 1.0046766282587214 0 1.0046766282587214 4.7719549609446403 0 0 0 0 -1.7097628948627843 2.7904881430872592 0 2.7904881430872592 7.4471182469351334 0 0 0 0 -1.2059037797371412 1.0678572264903439 0 1.0678572264903439 4.7122442111216465 0 0 0 0 -9.530206181892936 15.272043282383947 0 15.272043282383947 5.8796002426381193 0 0 0 0 -4.6628175075661602 -0.77822262479821802 0 -0.77822262479821802 3.7649012858273636 0 0 0 0 -0.76063530409207292 3.0722992651099621 0 3.0722992651099621 5.1592328405842238 0 0 0 0 -2.603264329586648 -0.27640191905396705 0 -0.27640191905396705 5.4094490931413493 0 0 0 0 6.9247491892701873 -11.700288223222742 0 -11.700288223222742 -18.880434796038571 0 0 0 0 7.994723210518714 0.2116003168757743 0 0.2116003168757743 -12.070393923996107 0 0 0 0 -14.521518526380305 18.713117502210025 0 18.713117502210025 -17.362192351396516 0 0 0 0 38.779656245275419 1.4588515719497082 0 1.4588515719497082 -24.909646298634016 0 0 0 0 41.333782876171426 -54.116276987384481 0 -54.116276987384481 76.302420458763663 0 0 0 0 1.0128615197222643 -0.43770591072461684 0 -0.43770591072461684 40.670787280041623 0 0 0 0 0.20708085376466556 -10.659922653153046 0 -10.659922653153046 25.805539101625982 0 0 0 0 7.5692099545708516 40.265983746118764 0 40.265983746118764 133.853095868119 0 0 0 0 59.163414843775399 26.183596889705314 0 26.183596889705314 -10.592829927662024 0 0 0 0 81.505285198747998 51.297620554711045 0 51.297620554711045 15.251090015468435 0 0 0 0 53.360641487930025 29.598114336620256 0 29.598114336620256 -7.8962508004919982 0 0 0 0 -0.10000955064303164 -0.0017148572605645285 0 -0.0017148572605645285 0.43005058594436107 0 0 0 0 42.661007301344725 16.862182452964134 0 16.862182452964134 -16.544678794382889 0 0 0 0 -13.510360622398013 18.407157267629088 0 18.407157267629088 18.277214224002819 0 0 0 0 0.059435578124353572 1.0790686002812713 0 1.0790686002812713 1.9031655836372998 0 0 0 0 -32.827011047562905 4.1843137853770713 0 4.1843137853770713 57.882693661984376 0 0 0 0 -3.427931718918579 5.8083613175851951 0 5.8083613175851951 11.136144197564136 0 0 0 0 -0.52411118337714058 2.375767651442537 0 2.375767651442537 11.273048053239336 0 0 0 0 3.20443405821986 7.7291028234078567 0 7.7291028234078567 -1.5851831462332484 0 0 0 0 -3.6616524746361847 -1.4285293906332299 0 -1.4285293906332299 2.6789006365133901 0 0 0 0 -10.854764089887226 9.5575538694147326 0 9.5575538694147326 -1.1482686031313278 0 0 0 0 -16.922468841794085 0.46219474024928786 0 0.46219474024928786 3.2141800796121061 0 0 0 0 -7.0787124866336839 14.61309811889771 0 14.61309811889771 -2.0421386965317652 0 0 0 0 6.7043484841382224 14.024682838100489 0 14.024682838100489 -3.523783761283994 0 0 0 0 -0.75119494989169167 0.32513295080073412 0 0.32513295080073412 -0.39296899715251143 0 0 0 0 2.4696625974380026 4.7682352517149411 0 4.7682352517149411 10.135793120915878 0 0 0 0 0.97344951612946318 11.477685604594853 0 11.477685604594853 -4.6383052708306423 0 0 0 0 -6.3974053124426717 25.644947243739807 0 25.644947243739807 -0.37740546735403768 0 0 0 0 11.629220601798821 -0.2972241909837976 0 -0.2972241909837976 11.106799253268036 0 0 0 0 -6.4751953479526883 11.294555421086102 0 11.294555421086102 -0.83206856791912287 0 0 0 0 -0.076811765987460215 0.11213785435489676 0 0.11213785435489676 0.15974314194293271 0 0 0 0 -51.589063523680196 -0.84004832639129745 0 -0.84004832639129745 10.777403446319113 0 0 0 0 1.417684790374679 27.553052852259498 0 27.553052852259498 -1.6008332191481713 0 0 0 0 -21.440849836025741 6.2950551441153948 0 6.2950551441153948 10.354917606388881 0 0 0 0 0.20634418244796071 2.31076245105475 0 2.31076245105475 8.9670949775497846 0 0 0 0 51.628955505481777 32.171276583717599 0 32.171276583717599 -9.5550040679681842 0 0 0 0 0.37605281976722371 2.9305992705475883 0 2.9305992705475883 10.432124226471455 0 0 0 0 -38.810168655410642 23.674779928026055 0 23.674779928026055 29.840930206907615 0 0 0 0 43.322543779757481 24.299975012754004 0 24.299975012754004 -5.02304982124042 0 0 0 0 66.817135466601854 -6.5628838331371355 0 -6.5628838331371355 -6.2928187964935205 0 0 0 0 34.76728402029039 12.699017560256834 0 12.699017560256834 10.983091064941163 0 0 0 0 37.767430610162705 -2.1593688407424452 0 -2.1593688407424452 15.192075116284286 0 0 0 0 67.243361946194227 5.6303976262975084 0 5.6303976262975084 16.865262108763091 0 0 0 0 0.091536420230572679 1.6799958818243517 0 1.6799958818243517 7.095022504652416 0 0 0 0 -13.162997924385568 10.016365219180898 0 10.016365219180898 -14.992372856200973 0 0 0 0 -152.15615180164977 65.764713200880578 0 65.764713200880578 39.169375333355674 0 0 0 0 -61.94084139806354 39.566801637098649 0 39.566801637098649 -3.1938956489066186 0 0 0 0 -9.7453201551220054 24.915816443443987 0 24.915816443443987 -7.1605912020004325 0 0 0 0 34.64511549697329 18.705256590087174 0 18.705256590087174 -18.599209538876039 0 0 0 0 57.443589867573877 11.189701591453598 0 11.189701591453598 -18.214066962331344 0 0 0 0 55.964938259416726 6.8089206792710684 0 6.8089206792710684 -21.610808916488622 0 0 0 0 57.371865922754068 10.353797322450646 0 10.353797322450646 -23.15103145584203 0 0 0 0 0.21574890727696466 0.48086138779739729 0 0.48086138779739729 0.53590981742505406 0 0 0 0 79.882567096992801 20.659783499850619 0 20.659783499850619 -19.660405970948887 0 0 0 0 26.515914695061781 13.910524153919823 0 13.910524153919823 -2.1665832361322828 0 0 0 0 56.286888903316708 35.345403907475884 0 35.345403907475884 8.5113496718773831 0 0 0 0 17.697284895674102 35.470000550297073 0 35.470000550297073 -33.946115624539971 0 0 0 0 19.136597504885003 -7.7204361440276443 0 -7.7204361440276443 -6.3844779529490552 0 0 0 0 57.072601102626813 2.9551341677694438 0 2.9551341677694438 -18.909140685894272 0 0 0 0 -14.446279007059132 34.384796037437013 0 34.384796037437013 -5.0422436429307709 0 0 0 0 0.88307224338589574 1.0960946218215599 0 1.0960946218215599 0.7156772683757886 0 0 0 0 -39.90433951611638 18.974685038711641 0 18.974685038711641 42.907351380938053 0 0 0 0 41.971815813811986 7.130737134697938 0 7.130737134697938 -21.194906023221392 0 0 0 0 58.087547507333738 51.625979022265255 0 51.625979022265255 52.929401508743467 0 0 0 0 56.223782510780438 7.8792487081768741 0 7.8792487081768741 -17.360081636888481 0 0 0 0 0.52682745230078987 0.53369038654058842 0 0.53369038654058842 0.24064544766093832 0 0 0 0 136.13186196159296 18.743808745226715 0 18.743808745226715 -24.111333308578651 0 0 0 0 -32.900388577440992 55.114165874681476 0 55.114165874681476 12.029862834485357 0 0 0 0 16.575733032771495 -33.083605135130256 0 -33.083605135130256 1.0343455735758198 0 0 0 0 37.976644588570828 42.138800919290702 0 42.138800919290702 -26.698411183045209 0 0 0 0 40.94419713283736 58.491007445704327 0 58.491007445704327 60.818789616974755 0 0 0 0 16.940397075009059 -25.985193963582333 0 -25.985193963582333 76.202150973291623 0 0 0 0 97.670243012313222 58.592636243645757 0 58.592636243645757 -18.857339465766017 0 0 0 0 81.418625483382385 54.672681350155926 0 54.672681350155926 37.46875521245056 0 0 0 0 92.854890409254722 69.265370103586974 0 69.265370103586974 53.508094892905092 0 0 0 0 65.674601227252168 44.835909418009578 0 44.835909418009578 33.515830444524909 0 0 0 0 0.14240280358651719 0.39739762451417904 0 0.39739762451417904 0.35010911303503534 0 0 0 0 103.45546018169745 27.679676776010183 0 27.679676776010183 4.7103533989420612 0 0 0 0 -74.842863118976709 -0.76860587869759911 0 -0.76860587869759911 10.968973401902986 0 0 0 0 -36.299776258460156 -10.688337724134271 0 -10.688337724134271 -5.8476860969476547 0 0 0 0 0.24130173953822293 0.91316827829630665 0 0.91316827829630665 1.675390795789145 0 0 0 0 -55.981632986968748 -22.151890657373315 0 -22.151890657373315 1.5113983777685007 0 0 0 0 -52.227379510278752 10.727883900263805 0 10.727883900263805 4.8087007381927833 0 0 0 0 -56.02165780700517 7.8498304092986473 0 7.8498304092986473 4.2792704395149599 0 0 0 0 30.58965463224763 5.1517325646445897 0 5.1517325646445897 5.9900558077010828 0 0 0 0 62.83342265639709 6.5733402941177701 0 6.5733402941177701 0.4705372797234304 0 0 0 0 38.094666987366537 13.2223530266117 0 13.2223530266117 1.6958483372254705 0 0 0 0 28.038504948405659 8.2260622023979977 0 8.2260622023979977 3.6861049441122304 0 0 0 0 0.17669607219225972 0.77994296596806878 0 0.77994296596806878 1.1370687366472794 0 0 0 0 -33.332008913884025 -11.850801070598777 0 -11.850801070598777 3.0802503475315461 0 0 0 0 18.72873804131369 24.788490313347438 0 24.788490313347438 25.420239500024763 0 0 0 0 19.151470870245632 25.578150691284918 0 25.578150691284918 20.064464526786651 0 0 0 0 30.579294120749068 21.55203714127083 0 21.55203714127083 10.235231403020038 0 0 0 0 30.013527432373593 20.773957613960647 0 20.773957613960647 9.7159441287940354 0 0 0 0 54.138235709780943 35.565196644530715 0 35.565196644530715 17.809782746253404 0 0 0 0 29.771146727978845 35.757540624295643 0 35.757540624295643 24.425601081446075 0 0 0 0 45.519875211164219 25.93619107665927 0 25.93619107665927 8.6597875854797621 0 0 0 0 24.452591740294167 30.010090056923218 0 30.010090056923218 21.068959335429895 0 0 0 0 19.7173831715759 35.560637430700808 0 35.560637430700808 27.912513934028539 0 0 0 0 8.6797455849656231 33.82947508572488 0 33.82947508572488 32.577573001373821 0 0 0 0 21.096711011258321 34.548803305531237 0 34.548803305531237 35.564463296216672 0 0 0 0 20.420430610705623 36.893222885878345 0 36.893222885878345 28.651085144054377 0 0 0 0 59.631010031901383 35.773747812629608 0 35.773747812629608 26.341892843429832 0 0 0 0 41.392862734656774 32.57828458503036 0 32.57828458503036 27.02500197088375 0 0 0 0 43.743595206970269 37.386144656135002 0 37.386144656135002 24.380190183287141 0 0 0 0 35.619112285814879 48.29808618708239 0 48.29808618708239 73.114349654776561 0 0 0 0 35.545978977165078 48.757371197002158 0 48.757371197002158 78.83995939471879 0 0 0 0 43.733462525217959 48.527744911751142 0 48.527744911751142 43.476772107148463 0 0 0 0 19.143951410072134 28.381181387024299 0 28.381181387024299 55.126299623872228 0 0 0 0 4.7402859383745151 23.187302913914209 0 23.187302913914209 40.526681414169616 0 0 0 0 19.1648567941115 29.734467958078767 0 29.734467958078767 38.340097551636973 0 0 0 0 -19.573651459726108 -31.721137931287103 0 -31.721137931287103 6.1913625887544868 0 0 0 0 4.8859961654663699 28.343725790986809 0 28.343725790986809 14.729673422388714 0 0 0 0 -0.58734811617338778 27.629159963205893 0 27.629159963205893 0.68984523037818235 0 0 0 0 -0.20418903336487104 0.035750429668536476 0 0.035750429668536476 0.58150402229424714 0 0 0 0 -11.853159959344481 -11.204393077518944 0 -11.204393077518944 -10.650724484356488 0 0 0 0 11.727552158696483 16.961405887457659 0 16.961405887457659 16.097935063010482 0 0 0 0 -17.04825532751812 -7.6269937360393669 0 -7.6269937360393669 -13.076805719465483 0 0 0 0 -3.4446748197818451 14.382851810365281 0 14.382851810365281 22.584802923853204 0 0 0 0 -0.37825245287382769 -0.032296518722925605 0 -0.032296518722925605 0.77324353333070839 0 0 0 0 0.91179602820690775 27.01813595937324 0 27.01813595937324 30.425585236345796 0 0 0 0 8.6125481661826377 28.276836570999876 0 28.276836570999876 27.085787096775675 0 0 0 0 -2.9651187859894179 19.853515895811597 0 19.853515895811597 28.704714449842868 0 0 0 0 5.8423068695122993 31.504738374157114 0 31.504738374157114 23.340675529028886 0 0 0 0 -6.335156328039119 9.9085087297360133 0 9.9085087297360133 58.067945925686217 0 0 0 0 -14.549215134714814 28.828855586299596 0 28.828855586299596 79.365714666841541 0 0 0 0 7.6385719307761555 44.176925336013085 0 44.176925336013085 85.168515209823454 0 0 0 0 6.1780529867103269 36.075392291676053 0 36.075392291676053 42.736680954048097 0 0 0 0 -11.027387063479978 14.763555779655235 0 14.763555779655235 82.962804227615379 0 0 0 0 -21.374809274880704 -20.600861148558408 0 -20.600861148558408 7.4668310547358487 0 0 0 0 -4.5151222684399954 -2.3144574509497033 0 -2.3144574509497033 1.4451016557745788 0 0 0 0 -35.110613985027953 -15.872169635562841 0 -15.872169635562841 17.392272369282637 0 0 0 0 -0.24668539927999389 -0.11414562998816979 0 -0.11414562998816979 0.94028508162557856 0 0 0 0 -11.171720466611873 -1.7438929196528079 0 -1.7438929196528079 19.318923277316117 0 0 0 0 -9.8498312902657972 22.0135858214976 0 22.0135858214976 43.822906833987872 0 0 0 0 -26.753967321838672 11.049680549612276 0 11.049680549612276 9.1903397548794601 0 0 0 0 -7.5548264374872076 -12.245372939590652 0 -12.245372939590652 -22.928647251509574 0 0 0 0 4.2966507658072715 -2.0588585276418598 0 -2.0588585276418598 -36.979410321304385 0 0 0 0 32.727439139794591 37.851142708791627 0 37.851142708791627 44.897021552742444 0 0 0 0 -0.28447246655949288 0.067896341925105297 0 0.067896341925105297 0.43317604897811002 0 0 0 0 12.195565557155419 19.287667148920718 0 19.287667148920718 60.386267700855797 0 0 0 0 24.815795258603956 23.996237384952792 0 23.996237384952792 61.740037047049555 0 0 0 0 -11.880048608560401 22.601118501834208 0 22.601118501834208 88.686633356308448 0 0 0 0 -22.822186759161085 -38.495070516633689 0 -38.495070516633689 2.0743327605041486 0 0 0 0 -0.16498575290782846 -0.034006338048762963 0 -0.034006338048762963 0.5324531831738426 0 0 0 0 9.1463283286228858 25.816231089775101 0 25.816231089775101 36.961274291546033 0 0 0 0 12.701644772243762 31.204333665077684 0 31.204333665077684 29.206316191610767 0 0 0 0 9.7858918329685878 26.510809401863753 0 26.510809401863753 27.591989738582924 0 0 0 0 5.8238336674988602 26.169597378434673 0 26.169597378434673 29.708183664470198 0 0 0 0 7.2300074283627023 31.806257646086692 0 31.806257646086692 30.754566592271658 0 0 0 0 31.627282133458195 30.253955582168942 0 30.253955582168942 22.310866698286191 0 0 0 0 11.688040156405179 27.456510498224816 0 27.456510498224816 38.277330104067005 0 0 0 0 11.210855563371069 30.098335001361193 0 30.098335001361193 32.336039870540844 0 0 0 0 9.8282181406084952 20.82528004330743 0 20.82528004330743 32.16099350487184 0 0 0 0 11.857943692361232 26.536666758556294 0 26.536666758556294 45.920246472575855 0 0 0 0 24.849201209181174 25.26049672633178 0 25.26049672633178 37.333488008605855 0 0 0 0 11.786351463627724 17.72880755252072 0 17.72880755252072 35.719291466912182 0 0 0 0 11.916923420424894 15.314992555755452 0 15.314992555755452 18.00072380370375 0 0 0 0 17.140795687763408 7.3246670607836677 0 7.3246670607836677 4.2027452284328319 0 0 0 0 20.630504085999561 14.916764432312448 0 14.916764432312448 16.696758102355489 0 0 0 0 7.5200687447069754 4.706419752824786 0 4.706419752824786 20.132225167503293 0 0 0 0 7.9567282100368288 10.891148590975718 0 10.891148590975718 40.906584375046691 0 0 0 0 -2.629126547764713 -7.1677088126109538 0 -7.1677088126109538 13.672457032347211 0 0 0 0 20.693108263800497 13.591142115797538 0 13.591142115797538 -0.58201602344115599 0 0 0 0 22.564138294500648 9.4591394990619921 0 9.4591394990619921 -5.5300918391403684 0 0 0 0 25.005105592571848 12.708444380633864 0 12.708444380633864 -0.012898365706178083 0 0 0 0 22.826497012582436 12.445260671433971 0 12.445260671433971 2.2558055798372152 0 0 0 0 23.040250412506495 11.438185224115841 0 11.438185224115841 4.5343935187838724 0 0 0 0 22.561422968457592 9.9056591371898612 0 9.9056591371898612 1.5917092226582099 0 0 0 0 13.866973692566319 22.467307173197469 0 22.467307173197469 58.623470514939072 0 0 0 0 19.441265216038232 -4.6054100267820104 0 -4.6054100267820104 40.234765676758798 0 0 0 0 31.833421013339574 24.501105082892764 0 24.501105082892764 28.020233800234109 0 0 0 0 0.038191459963729191 0.26587184752516602 0 0.26587184752516602 0.18440472931537855 0 0 0 0 13.411915402394129 -1.9891546288927202 0 -1.9891546288927202 -1.9897226002474326 0 0 0 0 29.468795354259896 3.9067065549565996 0 3.9067065549565996 -3.9620969747143135 0 0 0 0 19.902139151506958 10.293135558336417 0 10.293135558336417 -3.7312535334972381 0 0 0 0 25.133751936166703 16.459148168344768 0 16.459148168344768 10.309180246977121 0 0 0 0 22.438509413388374 6.4489357274278518 0 6.4489357274278518 -0.19120139146161819 0 0 0 0 6.6980194978964391 7.3900067084600778 0 7.3900067084600778 4.6957180080089529 0 0 0 0 13.152703472705852 13.006739446883813 0 13.006739446883813 0.62354268855415285 0 0 0 0 0.19096085765317147 0.37611791635988623 0 0.37611791635988623 0.32406382135516587 0 0 0 0 9.9219552169902272 3.8970410883307522 0 3.8970410883307522 1.8464177850594297 0 0 0 0 4.295749695981641 2.79220748837065 0 2.79220748837065 2.221582035766005 0 0 0 0 1.6235046544168199 8.0794861467652481 0 8.0794861467652481 -23.847612246273457 0 0 0 0 -11.239911717093459 14.565607579274825 0 14.565607579274825 -13.855206658926363 0 0 0 0 0.74516564838989929 -0.050593316243503494 0 -0.050593316243503494 0.089425966953404767 0 0 0 0 26.792177140528679 -23.740123745626988 0 -23.740123745626988 -39.427884635862483 0 0 0 0 0.59823747064575405 -0.23492561990363114 0 -0.23492561990363114 0.066575057104190982 0 0 0 0 13.592389866416738 17.559993343860469 0 17.559993343860469 -17.186580167353441 0 0 0 0 21.33703281738147 13.874944677854728 0 13.874944677854728 3.9357430907220987 0 0 0 0 25.014778304861707 17.076896395082258 0 17.076896395082258 6.7233677051635823 0 0 0 0 29.106815847007837 10.965923528004623 0 10.965923528004623 2.2002567557487964 0 0 0 0 24.842791221857375 13.80180746933641 0 13.80180746933641 3.0751548692287543 0 0 0 0 4.5763694299864142 -1.5224708299437566 0 -1.5224708299437566 1.453318659220713 0 0 0 0 21.372624223202479 11.942817860163359 0 11.942817860163359 2.3404992586783919 0 0 0 0 0.031266293573407156 0.032282261147351221 0 0.032282261147351221 0.25392917044405827 0 0 0 0 0.20167455554397226 0.70783357287796689 0 0.70783357287796689 0.65428465019228277 0 0 0 0 39.592145290371228 15.335422194468833 0 15.335422194468833 2.8911449969609748 0 0 0 0 32.490711872023383 10.823423552514782 0 10.823423552514782 6.9387584246896949 0 0 0 0 39.497038227834196 12.875749914965581 0 12.875749914965581 2.932948844800876 0 0 0 0 28.823062072690171 17.769844707878292 0 17.769844707878292 5.4233821485245244 0 0 0 0 28.316503506140648 16.618640558446657 0 16.618640558446657 6.7567591317147162 0 0 0 0 11.173889774344502 9.9946455909853285 0 9.9946455909853285 10.699159763678381 0 0 0 0 10.587055127027014 7.8421680237565852 0 7.8421680237565852 9.1766383748272347 0 0 0 0 15.168209306184508 16.54339907297117 0 16.54339907297117 21.820304812927134 0 0 0 0 21.38038326025881 13.402731468810089 0 13.402731468810089 4.4781155862833657 0 0 0 0 11.728022908300915 7.1919098439693698 0 7.1919098439693698 6.5141444887490252 0 0 0 0 12.021017774022368 9.153537588896711 0 9.153537588896711 7.7307455256582216 0 0 0 0 6.5642330905208155 1.9533888247297 0 1.9533888247297 1.1080712272139408 0 0 0 0 1.4975295024410467 0.13311972604621936 0 0.13311972604621936 0.20098614080037613 0 0 0 0 29.575726625828906 4.1216869283030064 0 4.1216869283030064 5.340494897174267 0 0 0 0 0.18233019588171312 0.38163536451029989 0 0.38163536451029989 1.0339561554668393 0 0 0 0 -38.708744437543146 21.268341454160691 0 21.268341454160691 172.42332817890269 0 0 0 0 193.71908830865618 119.7453612764607 0 119.7453612764607 71.617509774033351 0 0 0 0 -4.91634322489233 7.3546353397719031 0 7.3546353397719031 -4.2846527102590244 0 0 0 0 1.3739591307326009 2.9668641678108543 0 2.9668641678108543 5.0808172216648018 0 0 0 0 0.42520853947918857 1.2055533367101869 0 1.2055533367101869 1.4267083909943512 0 0 0 0 5.7156364211305686 2.5395432490795429 0 2.5395432490795429 4.1317884512100136 0 0 0 0 15.815784317441341 8.6717658569866671 0 8.6717658569866671 3.7217781378671475 0 0 0 0 9.8454195689280368 0.35204837046421744 0 0.35204837046421744 0.10066870654554805 0 0 0 0 0.20999917280563624 1.0542766830823598 0 1.0542766830823598 1.6126426372407217 0 0 0 0 -46.922217343896733 37.677276261129009 0 37.677276261129009 27.68593222467689 0 0 0 0 21.656111320712228 10.019406547180097 0 10.019406547180097 5.0485434186380189 0 0 0 0 25.496392717761978 1.2386285229863461 0 1.2386285229863461 -2.2268965172568187 0 0 0 0 9.7307850250805288 4.9333460104862183 0 4.9333460104862183 3.992874644703079 0 0 0 0 21.637999173751098 14.959417822739397 0 14.959417822739397 9.785413376140184 0 0 0 0 22.274712698089616 10.460099302497838 0 10.460099302497838 1.4548093659591359 0 0 0 0 25.943573405413105 14.434537839177892 0 14.434537839177892 4.1435484054863991 0 0 0 0 22.531412081586332 14.282073988524871 0 14.282073988524871 6.6420300377176318 0 0 0 0 22.160727550792274 14.570170399610106 0 14.570170399610106 6.4783363031724548 0 0 0 0 19.44985569902741 12.819662598990362 0 12.819662598990362 4.3256325210022624 0 0 0 0 22.505739571789206 11.907646071107024 0 11.907646071107024 3.8267603577978662 0 0 0 0 16.051214054947366 8.3959845750641762 0 8.3959845750641762 3.7857332935082013 0 0 0 0 -11.574816237162782 -3.057496421464748 0 -3.057496421464748 10.302928772414816 0 0 0 0 -5.7146908614002427 -1.6179129150887093 0 -1.6179129150887093 6.5353361686356948 0 0 0 0 -0.0015421616965852385 -6.3230278610926689 0 -6.3230278610926689 5.5211564458513749 0 0 0 0 -5.535058293679521 -9.8386498186739573 0 -9.8386498186739573 4.275679854750706 0 0 0 0 -3.4392378322493862 -6.1280542826298188 0 -6.1280542826298188 6.1194471319849981 0 0 0 0 -1.3437877906365223 -6.1500509654761117 0 -6.1500509654761117 6.081982091496684 0 0 0 0 -5.2617598383509741 -1.9545642372313523 0 -1.9545642372313523 9.6405592014320973 0 0 0 0 -3.3773090079503945 -2.8354582746087544 0 -2.8354582746087544 7.4823719796877413 0 0 0 0 -5.9743143479994796 -3.2648469403729905 0 -3.2648469403729905 7.5352762661423185 0 0 0 0 -1.3790120436580793 -23.260034950145325 0 -23.260034950145325 -1.0797620176508644 0 0 0 0 -5.0587878203457848 0.20846164121758193 0 0.20846164121758193 11.401025558714139 0 0 0 0 -1.3278391172951882 -1.3309190357806511 0 -1.3309190357806511 7.8521492588219814 0 0 0 0 -1.753009268975251 0.63736575488764657 0 0.63736575488764657 7.0761789093226639 0 0 0 0 -5.8547295156150767 16.238089960839716 0 16.238089960839716 28.33737784878258 0 0 0 0 2.6912183193138617 12.567201649818344 0 12.567201649818344 -24.297900826157274 0 0 0 0 -3.9721736272150139 -12.245227707878257 0 -12.245227707878257 12.576897536464458 0 0 0 0 -8.8175724423891779 -18.053476497026168 0 -18.053476497026168 12.204369445925295 0 0 0 0 0.48434580200417765 -5.5006958611403292 0 -5.5006958611403292 13.642013438348805 0 0 0 0 -4.2373808468072376 -4.4086209373635938 0 -4.4086209373635938 11.595451964042809 0 0 0 0 -0.68819942537271661 -1.8522384899561679 0 -1.8522384899561679 3.3340426585763225 0 0 0 0 2.5811295772014446 -11.48635473916238 0 -11.48635473916238 10.814131516615817 0 0 0 0 7.2696669434387697 -18.209933889454987 0 -18.209933889454987 7.8345100828482828 0 0 0 0 0.38530315085227962 -0.073797452703281863 0 -0.073797452703281863 -0.35118466104759705 0 0 0 0 2.1664063844150405 -10.205924517664243 0 -10.205924517664243 -13.812581958034571 0 0 0 0 -9.9183984763561455 -13.214204364164289 0 -13.214204364164289 16.28885155885655 0 0 0 0 -4.8217984765194615 -12.11124651204409 0 -12.11124651204409 10.977421346644405 0 0 0 0 -0.33834785546432045 -16.873629560569498 0 -16.873629560569498 15.70551778601839 0 0 0 0 -2.2685749782778828 -20.237658087759883 0 -20.237658087759883 9.8994830141255079 0 0 0 0 -10.966756120405542 -6.8440785840075478 0 -6.8440785840075478 17.468491013905805 0 0 0 0 -12.650132996733586 -11.481134485087523 0 -11.481134485087523 3.9174832210319437 0 0 0 0 -20.453825376985979 1.4276128152723686 0 1.4276128152723686 5.9569451693068913 0 0 0 0 2.0712402963034222 -8.1102130601029785 0 -8.1102130601029785 0.99925983917364647 0 0 0 0 -0.0023816597931651286 -10.899328344662536 0 -10.899328344662536 11.788567423553104 0 0 0 0 -0.44864964254738382 -3.1600283663956361 0 -3.1600283663956361 20.298931495730358 0 0 0 0 0.0051688662462229954 -11.155383838329726 0 -11.155383838329726 30.308596519959792 0 0 0 0 -1.6094813292707748 -13.539079833867163 0 -13.539079833867163 21.932005594393559 0 0 0 0 3.9418159825739743 -8.2612034184976437 0 -8.2612034184976437 25.121536641187049 0 0 0 0 42.947474380423657 57.551307856247149 0 57.551307856247149 86.565910846644783 0 0 0 0 -3.4105353920601913 -7.1142416462616893 0 -7.1142416462616893 47.129435262884726 0 0 0 0 0.029636728754569252 -0.010462519935700243 0 -0.010462519935700243 0.10667369532160897 0 0 0 0 0.15054253552576988 11.137825762351895 0 11.137825762351895 172.08926022195465 0 0 0 0 41.121917555926998 -24.86364077977376 0 -24.86364077977376 14.380638282545988 0 0 0 0 39.196509018771934 124.52810184671284 0 124.52810184671284 9.7470317746028741 0 0 0 0 -21.776383983184306 160.62468500926502 0 160.62468500926502 498.10077505386653 0 0 0 0 88.572971715069016 -198.18988161318202 0 -198.18988161318202 287.59540219774135 0 0 0 0 165.35727850077458 -327.68368839089453 0 -327.68368839089453 499.40405410351235 0 0 0 0 0.23027796470534478 0.75704372662742081 0 0.75704372662742081 2.7561115253185946 0 0 0 0 -3.7423877030407198 -39.99352161988827 0 -39.99352161988827 22.15665160190099 0 0 0 0 0.18687887852029256 2.5220520328570828 0 2.5220520328570828 5.8406912480118649 0 0 0 0 20.735690715013725 -73.882643208752597 0 -73.882643208752597 239.78474589269649 0 0 0 0 -0.12848121345801289 -0.069603084548855776 0 -0.069603084548855776 0.016266332946754503 0 0 0 0 -51.422154127759953 48.077428427760424 0 48.077428427760424 10.458142399009375 0 0 0 0 -26.175425405832641 7.6413221391485422 0 7.6413221391485422 22.913601386937444 0 0 0 0 -0.093050402743714428 -0.088452656240860961 0 -0.088452656240860961 0.04883969402228594 0 0 0 0 -9.4225300529723768 -15.408108672889284 0 -15.408108672889284 28.316051996587703 0 0 0 0 -41.300990270826674 -30.998942742451618 0 -30.998942742451618 39.996273197955816 0 0 0 0 -2.4846078476634617 -10.574761647325431 0 -10.574761647325431 39.128717639280239 0 0 0 0 6.6474991970004425 -11.909110220578441 0 -11.909110220578441 15.219843242415664 0 0 0 0 -5.244378517133697 -14.469289800255865 0 -14.469289800255865 18.190701021449968 0 0 0 0 -7.4489032627435989 -20.643301215452993 0 -20.643301215452993 19.245732095794665 0 0 0 0 -5.1894501048316499 -14.705528794263955 0 -14.705528794263955 16.704344883060912 0 0 0 0 -25.880950591786899 -17.339596167971649 0 -17.339596167971649 21.538808198134575 0 0 0 0 -31.40258084465367 2.437441110600048 0 2.437441110600048 17.681819264389333 0 0 0 0 0.70415424509477831 2.3415213629798259 0 2.3415213629798259 7.7905560872008053 0 0 0 0 3.8358463737036317 -5.2747464755548208 0 -5.2747464755548208 68.557698417688698 0 0 0 0 -34.461219090190525 -6.3852383456251118 0 -6.3852383456251118 3.4456229712668573 0 0 0 0 1.4319778395669434 -1.8223830773147913 0 -1.8223830773147913 6.5675174771463816 0 0 0 0 -110.64315280710264 -129.8733596807815 0 -129.8733596807815 -9.5328087301918458 0 0 0 0 -51.042668755336578 29.749141771491395 0 29.749141771491395 550.10985389337839 0 0 0 0 51.987769821325237 -13.979018973900565 0 -13.979018973900565 65.600977843226246 0 0 0 0 30.327477682554932 -153.19360635756175 0 -153.19360635756175 345.8255078440252 0 0 0 0 33.646599631840395 -240.37680976945637 0 -240.37680976945637 473.21531825932198 0 0 0 0 15.512582505132823 -223.5598315650891 0 -223.5598315650891 500.18903485625287 0 0 0 0 10.16487101552794 -141.8559072259668 0 -141.8559072259668 361.54589039958182 0 0 0 0 -46.979562702750023 -83.140927120829929 0 -83.140927120829929 499.94505133294115 0 0 0 0 162.34223434745789 -141.82861938021597 0 -141.82861938021597 499.74516109887259 0 0 0 0 109.18671898043476 -23.512382398838213 0 -23.512382398838213 384.45691029258705 0 0 0 0 38.728826959245318 -168.45378054654293 0 -168.45378054654293 248.46604029677928 0 0 0 0 48.206541776444858 -248.02109524160142 0 -248.02109524160142 446.9643240573514 0 0 0 0 247.97418640028766 -301.81878971817332 0 -301.81878971817332 44.013332943785827 0 0 0 0 1.1096523900404722 -1.5144985472628942 0 -1.5144985472628942 1.8377391227993982 0 0 0 0 -136.83767894085366 -71.11230052866938 0 -71.11230052866938 150.4293251805102 0 0 0 0 125.53086311644449 -49.176271377682497 0 -49.176271377682497 -5.3845476765341118 0 0 0 0 72.982657589360542 -179.57788895118142 0 -179.57788895118142 234.16824582310801 0 0 0 0 140.81147856944796 -100.94766372423828 0 -100.94766372423828 124.71812315577881 0 0 0 0 42.736247462580067 -85.439190455024004 0 -85.439190455024004 23.623738221602252 0 0 0 0 -64.228796313264013 -94.847991117475885 0 -94.847991117475885 142.20022897342483 0 0 0 0 -17.725693061303389 36.21912944921587 0 36.21912944921587 32.600763664561441 0 0 0 0 -114.00114957453476 -26.673738702348146 0 -26.673738702348146 33.58006836363802 0 0 0 0 4.2080410509145167 18.321173834699493 0 18.321173834699493 17.136920015968826 0 0 0 0 -0.13264185460092007 0.12221269842255733 0 0.12221269842255733 2.8361668555491129 0 0 0 0 -10.199454839738792 26.214636710128616 0 26.214636710128616 12.97318055046162 0 0 0 0 88.328887885639034 53.422329497291685 0 53.422329497291685 17.696972506748352 0 0 0 0 0.015985292965252668 -0.16792340206181433 0 -0.16792340206181433 1.1780246262679768 0 0 0 0 -31.239802450471871 69.467098770130178 0 69.467098770130178 97.885679411928777 0 0 0 0 -66.155703525232354 0.90640167226592894 0 0.90640167226592894 38.26340993624035 0 0 0 0 -48.988735137644881 -4.150631240151597 0 -4.150631240151597 -1.8392004480792821 0 0 0 0 -49.931798593522672 13.291436900955887 0 13.291436900955887 -35.586670468704142 0 0 0 0 -80.277873553476638 19.032976340313326 0 19.032976340313326 -4.0770502236046013 0 0 0 0 -63.735000237851864 2.5282573217546087 0 2.5282573217546087 3.7546811474530841 0 0 0 0 -80.231299290982861 2.1028563579766342 0 2.1028563579766342 33.50553178100381 0 0 0 0 -67.102188700961506 12.291473732075701 0 12.291473732075701 46.71618307960307 0 0 0 0 -30.467603394866501 20.424217990908801 0 20.424217990908801 41.935101752132141 0 0 0 0 -52.765574962286792 -2.2374274603043887 0 -2.2374274603043887 34.191293150215643 0 0 0 0 -65.606669737356242 -24.272402312481063 0 -24.272402312481063 30.238700915440859 0 0 0 0 1.044650165680868 -5.527310410228246 0 -5.527310410228246 13.108739271618887 0 0 0 0 -9.5411392272337494 -1.8912045696630457 0 -1.8912045696630457 18.15085075595016 0 0 0 0 -80.636771126373233 6.2229141217954975 0 6.2229141217954975 11.206862840015674 0 0 0 0 -77.599633040402978 -5.9507015137241979 0 -5.9507015137241979 30.457287466808339 0 0 0 0 -67.697073242394481 -15.610790824126525 0 -15.610790824126525 38.680761777570297 0 0 0 0 -48.95796923492253 -9.3510571735059784 0 -9.3510571735059784 38.867441674689189 0 0 0 0 -40.525684613216981 -12.713034350697853 0 -12.713034350697853 45.577564284428263 0 0 0 0 2.0912893851572107 -26.745656997170954 0 -26.745656997170954 41.113837725593612 0 0 0 0 -19.505770827090601 -7.573875961745216 0 -7.573875961745216 10.298991668221788 0 0 0 0 -41.945639338926412 -27.521845699768164 0 -27.521845699768164 21.718085406075261 0 0 0 0 -44.400119393024397 -8.2444614793075743 0 -8.2444614793075743 42.675808093157684 0 0 0 0 -56.281182748952688 -15.444468991208851 0 -15.444468991208851 36.646359393838793 0 0 0 0 -40.744609898865747 -17.978027458419092 0 -17.978027458419092 35.367027653275727 0 0 0 0 -46.509093938118724 -2.4452350812562145 0 -2.4452350812562145 37.08575266212938 0 0 0 0 -4.5803117439558036 10.701085348886409 0 10.701085348886409 24.076828764531456 0 0 0 0 -16.718478967060832 18.827401216286034 0 18.827401216286034 28.234868642022775 0 0 0 0 -14.863989730446974 -6.4850098492916004 0 -6.4850098492916004 36.024212717511546 0 0 0 0 -16.034876506404999 12.944812519857805 0 12.944812519857805 24.462562224232897 0 0 0 0 -56.426198544497311 -3.8656231633613061 0 -3.8656231633613061 37.249839966956642 0 0 0 0 3.1256845486314475 0.79320841771561845 0 0.79320841771561845 7.6908217008731299 0 0 0 0 -18.915147665205154 62.616549709855462 0 62.616549709855462 -18.470347636221959 0 0 0 0 -0.19927509170437463 -0.027973141634854315 0 -0.027973141634854315 0.03303466503531638 0 0 0 0 -7.7997780619441386 -0.77794136249519852 0 -0.77794136249519852 -6.5478925980169151 0 0 0 0 -0.032149425495402006 0.039515849123901603 0 0.039515849123901603 0.71358024092598527 0 0 0 0 34.237131756542567 -41.245423929087337 0 -41.245423929087337 9.0507146994996219 0 0 0 0 -19.649294531067085 -33.332471695255663 0 -33.332471695255663 34.09593450570992 0 0 0 0 22.067424440103991 2.7907242039082121 0 2.7907242039082121 1.9509911941713654 0 0 0 0 -4.254029484133298 -3.9754283008733182 0 -3.9754283008733182 9.9029415607028568 0 0 0 0 -54.442400542125768 -0.51741622499230289 0 -0.51741622499230289 32.655311878190332 0 0 0 0 -1.0353100145194505 -0.60772775191893302 0 -0.60772775191893302 0.61320366752509869 0 0 0 0 -48.217223300566658 35.867900547863826 0 35.867900547863826 2.6777523601576831 0 0 0 0 -0.40334141340829655 0.3513704877918713 0 0.3513704877918713 3.2390354366644871 0 0 0 0 -96.715808682856789 24.69585794816885 0 24.69585794816885 26.002860331820557 0 0 0 0 9.6565299846606649 24.373972512901673 0 24.373972512901673 -7.2425764709169016 0 0 0 0 9.8866260623406319 27.993786231287459 0 27.993786231287459 22.356859706222167 0 0 0 0 8.5868197444946475 33.554718544230127 0 33.554718544230127 -14.576528284650067 0 0 0 0 -46.698414119454327 10.8357944490931 0 10.8357944490931 -2.6993554554828734 0 0 0 0 -46.385636791614559 47.9064202498339 0 47.9064202498339 21.846502759588475 0 0 0 0 5.3517928423390515 52.1308088777987 0 52.1308088777987 87.866986934743181 0 0 0 0 38.557414059169759 -4.7689933957235553 0 -4.7689933957235553 -2.6658398560025489 0 0 0 0 0.29489920579906759 0.22295086175461876 0 0.22295086175461876 0.20966822948316732 0 0 0 0 87.259325430536933 62.554892866351111 0 62.554892866351111 33.409474218354717 0 0 0 0 123.32502951553455 -21.65145956308902 0 -21.65145956308902 1.9164498992467998 0 0 0 0 37.17120053004632 -9.5330245379764165 0 -9.5330245379764165 3.1665305989596391 0 0 0 0 64.543548140699443 31.11580862339315 0 31.11580862339315 -11.271063507437248 0 0 0 0 0.82530821339133809 -1.1634510067051451 0 -1.1634510067051451 1.218033649030076 0 0 0 0 31.693529585267399 -3.0645522174231701 0 -3.0645522174231701 1.1956119502483489 0 0 0 0 0.58738194496488516 0.38895227860700565 0 0.38895227860700565 0.90580254907956714 0 0 0 0 0.49256385186401985 5.9711187269431321 0 5.9711187269431321 -3.0839676315440556 0 0 0 0 -43.216112264981973 -4.54111088658874 0 -4.54111088658874 23.806946905113364 0 0 0 0 0.35607858640275819 -0.44521925523501604 0 -0.44521925523501604 2.0450340142487491 0 0 0 0 -2.3233579536052673 7.1720617286755441 0 7.1720617286755441 22.58832899403842 0 0 0 0 22.943552082990152 -5.435503553107992 0 -5.435503553107992 4.6185630388335994 0 0 0 0 25.828112904784962 19.299143874543688 0 19.299143874543688 -14.857137186349064 0 0 0 0 68.630801716208239 -52.542766317560563 0 -52.542766317560563 40.740275893871512 0 0 0 0 86.806087970167084 -99.90017934381558 0 -99.90017934381558 59.086729751488292 0 0 0 0 21.075839542486008 -65.043214704692673 0 -65.043214704692673 286.14888206383694 0 0 0 0 0.18234010655327637 -0.38317053991293992 0 -0.38317053991293992 0.92274869621413913 0 0 0 0 6.9840502916353131 63.56455645772121 0 63.56455645772121 198.86367878392957 0 0 0 0 38.31173350917517 -97.307306328514642 0 -97.307306328514642 253.59803264465882 0 0 0 0 158.43223520623582 -5.9525270621916206 0 -5.9525270621916206 273.77038982457339 0 0 0 0 129.31403588867929 6.039268737245493 0 6.039268737245493 326.72104012329874 0 0 0 0 4.2935221660260936 -75.218701181946017 0 -75.218701181946017 386.05699955991759 0 0 0 0 -1.1746085829205697 -122.4666642030279 0 -122.4666642030279 277.27343411429672 0 0 0 0 -5.2346227320926459 -40.270748633581206 0 -40.270748633581206 280.21539351108925 0 0 0 0 26.647720369058604 -112.73060724617881 0 -112.73060724617881 207.03861919946485 0 0 0 0 24.060754115313472 -22.649285643336952 0 -22.649285643336952 130.59825533947696 0 0 0 0 56.895227319004455 -7.7428302088910641 0 -7.7428302088910641 137.13497132299653 0 0 0 0 57.289103005512196 -6.0777116682802443 0 -6.0777116682802443 101.766318801343 0 0 0 0 28.985567622399397 -38.929233134716014 0 -38.929233134716014 67.872910466818212 0 0 0 0 58.833851496067666 -77.183817710737458 0 -77.183817710737458 90.439641227281754 0 0 0 0 30.317775605308771 -95.09828874539312 0 -95.09828874539312 195.87263169052312 0 0 0 0 47.362928627398674 -79.577474090666328 0 -79.577474090666328 232.41167075838348 0 0 0 0 53.325769009100412 -197.11565165505385 0 -197.11565165505385 346.76479834650308 0 0 0 0 75.156228027876736 -145.55734086287066 0 -145.55734086287066 151.8272264269599 0 0 0 0 -39.366113283868899 -76.300959446485194 0 -76.300959446485194 508.54709725793055 0 0 0 0 -39.461804556542972 -46.959116759310064 0 -46.959116759310064 317.12504255177009 0 0 0 0 20.966040985460516 -145.03467866659395 0 -145.03467866659395 300.27706002970262 0 0 0 0 0.3549652978208917 -0.6476741998543325 0 -0.6476741998543325 0.65896278070156811 0 0 0 0 31.671593495994628 -215.52190864294653 0 -215.52190864294653 -58.998591995571132 0 0 0 0 -108.28917663653209 5.8211296845292964 0 5.8211296845292964 300.046551018022 0 0 0 0 -156.31132895814639 41.485046035037158 0 41.485046035037158 500.0485158367801 0 0 0 0 -78.402997025038616 -4.1846447805301068 0 -4.1846447805301068 303.20326431891181 0 0 0 0 190.09371275106312 241.09874071211652 0 241.09874071211652 241.94602010763856 0 0 0 0 -70.85371444255712 169.52764866921711 0 169.52764866921711 499.20476076923205 0 0 0 0 -113.83256110356392 70.60441118242943 0 70.60441118242943 293.80945011021322 0 0 0 0 -88.855394290045723 -81.545534321166031 0 -81.545534321166031 52.339144548384866 0 0 0 0 -55.757043061021065 88.047491279337009 0 88.047491279337009 284.4239454124704 0 0 0 0 -12.264440572125615 7.5658362649485298 0 7.5658362649485298 78.261202079864233 0 0 0 0 -1.7126528517947492 -0.15279870585449729 0 -0.15279870585449729 2.2569164710001068 0 0 0 0 -17.280161842006237 10.415229624100903 0 10.415229624100903 -0.091206831456020154 0 0 0 0 -0.26533061608843855 -1.6467723571275137 0 -1.6467723571275137 6.0410366676580125 0 0 0 0 21.997551712653717 40.024015769351536 0 40.024015769351536 21.174810109318059 0 0 0 0 0.11748101766236174 -1.1438980482415637 0 -1.1438980482415637 1.066898815890843 0 0 0 0 22.458875819487673 -58.209525369807125 0 -58.209525369807125 71.73827610794342 0 0 0 0 27.608702296391144 -137.73067682519059 0 -137.73067682519059 324.2901681316016 0 0 0 0 28.72152009104903 -50.859974314315878 0 -50.859974314315878 75.959881882557511 0 0 0 0 -12.16157082425968 121.05786896832421 0 121.05786896832421 171.12495175334698 0 0 0 0 0.18205203058186392 -0.42539762010457416 0 -0.42539762010457416 2.5594705288290776 0 0 0 0 121.82551771323197 -117.2981384523888 0 -117.2981384523888 65.627625798224472 0 0 0 0 -34.26792242648898 33.698847735463119 0 33.698847735463119 96.384512700579762 0 0 0 0 -48.97619874558653 20.473634552766271 0 20.473634552766271 165.83069108600967 0 0 0 0 -56.965062289111948 28.270431298216863 0 28.270431298216863 171.07020819595164 0 0 0 0 -28.179789117216082 20.703211092494712 0 20.703211092494712 30.057214747451326 0 0 0 0 -38.513861910074617 51.188095590662215 0 51.188095590662215 109.41455557290556 0 0 0 0 -18.077451410063865 -9.2547982436663006 0 -9.2547982436663006 -12.372154492049049 0 0 0 0 -103.41301300715854 -33.120686895629774 0 -33.120686895629774 58.092676254513208 0 0 0 0 -67.940856003750227 -84.721416994995252 0 -84.721416994995252 -66.792042597706313 0 0 0 0 -97.641449721248875 -68.302516090499921 0 -68.302516090499921 145.29302340057075 0 0 0 0 29.821213839752787 -111.64582623333013 0 -111.64582623333013 -224.59031503747883 0 0 0 0 0.30109747386642394 -0.90192753522158142 0 -0.90192753522158142 0.97380736994222339 0 0 0 0 -67.140835541001493 107.30065889440277 0 107.30065889440277 500.07938066508086 0 0 0 0 -0.1999031047389021 -0.23032885589054608 0 -0.23032885589054608 1.9692670740241418 0 0 0 0 -0.15934614191219038 -1.6320723808727902 0 -1.6320723808727902 3.0633491555168391 0 0 0 0 -67.270558483410156 107.80818469310043 0 107.80818469310043 498.77736397402077 0 0 0 0 66.43965938622695 -109.83593940482842 0 -109.83593940482842 177.12699309041272 0 0 0 0 87.055254238525379 -194.37739094241772 0 -194.37739094241772 426.73162521525046 0 0 0 0 25.244525938720223 -172.4096598757078 0 -172.4096598757078 498.58548930414628 0 0 0 0 73.936140249817953 -250.9403619073064 0 -250.9403619073064 184.80203607460498 0 0 0 0 8.0190206145200591 73.565416328217452 0 73.565416328217452 107.98779585065347 0 0 0 0 0.19004314382494791 0.65836970953186835 0 0.65836970953186835 1.3965163831851584 0 0 0 0 50.373810890843686 -184.56623981621124 0 -184.56623981621124 424.33905684536876 0 0 0 0 -0.99158719889879876 -30.908590977322092 0 -30.908590977322092 55.403150390286783 0 0 0 0 16.766551855373073 40.888341319451683 0 40.888341319451683 22.160466254321818 0 0 0 0 -43.558840472704944 31.820797725701595 0 31.820797725701595 96.391766753571574 0 0 0 0 -26.373180438813549 5.0410486969653903 0 5.0410486969653903 146.88547531358108 0 0 0 0 -26.856773144101496 0.15296883968773045 0 0.15296883968773045 121.58573593966321 0 0 0 0 -39.993113356469699 -50.406441184984033 0 -50.406441184984033 181.9732147332661 0 0 0 0 -38.965832317879205 -24.956007163949835 0 -24.956007163949835 125.55451183313085 0 0 0 0 -51.973904577825323 -24.007334250728491 0 -24.007334250728491 192.57452491377262 0 0 0 0 -57.382511484477774 -30.86855865540474 0 -30.86855865540474 194.57192714612756 0 0 0 0 -54.788332087272977 -27.266127896690705 0 -27.266127896690705 197.91522587736063 0 0 0 0 -57.505223796216086 -34.182354707357945 0 -34.182354707357945 182.59993343604856 0 0 0 0 -57.002558761647762 -31.249418345513732 0 -31.249418345513732 193.66630582082414 0 0 0 0 -53.476124325984927 4.7789003594707538 0 4.7789003594707538 147.16086885654852 0 0 0 0 -42.183163433572581 -20.037401930736451 0 -20.037401930736451 193.12968256725981 0 0 0 0 -63.272379312664427 3.3863472769905911 0 3.3863472769905911 239.52661118287415 0 0 0 0 70.722571093657734 -124.44488893422727 0 -124.44488893422727 275.37391843422211 0 0 0 0 -73.609200534397758 1.4146779342268019 0 1.4146779342268019 392.5406466660761 0 0 0 0 -20.787539139942737 -84.614190252203116 0 -84.614190252203116 259.68418563291743 0 0 0 0 69.422791072405005 -103.3283034763715 0 -103.3283034763715 111.69239688445941 0 0 0 0 -24.844230833044946 -65.510407470743758 0 -65.510407470743758 177.81543685751694 0 0 0 0 -49.116460059984803 -57.227311093988646 0 -57.227311093988646 239.42690354767115 0 0 0 0 -28.053680298150329 -43.5785618202666 0 -43.5785618202666 157.9237171150653 0 0 0 0 -29.027274905520379 -46.556012124576114 0 -46.556012124576114 171.25302182498854 0 0 0 0 14.715278683955347 -65.755107510285598 0 -65.755107510285598 117.93884756638363 0 0 0 0 22.370906421480925 -57.436830961269152 0 -57.436830961269152 103.3387926859848 0 0 0 0 19.675790585513425 -40.581705070437238 0 -40.581705070437238 67.997739672373427 0 0 0 0 40.869006072539236 -46.630407405973301 0 -46.630407405973301 57.027596217496466 0 0 0 0 23.684257843419516 -33.400746711339707 0 -33.400746711339707 50.96192738181162 0 0 0 0 14.396202764074275 -7.8004853088859818 0 -7.8004853088859818 28.86364293189672 0 0 0 0 -2.9545820495817736 -24.44965866428538 0 -24.44965866428538 81.315902306581847 0 0 0 0 -1.0014737291359594 -27.622937221148277 0 -27.622937221148277 78.499375460469309 0 0 0 0 -5.7297181743359147 -6.4924547989130588 0 -6.4924547989130588 66.011670566421344 0 0 0 0 -2.3712126202680111 -14.842493330458638 0 -14.842493330458638 63.193159757736794 0 0 0 0 -20.202703410509045 -2.2862007180583532 0 -2.2862007180583532 78.916997551137683 0 0 0 0 -18.103308077380724 -24.006248029417293 0 -24.006248029417293 132.29447543113747 0 0 0 0 -23.371326198557455 5.9454881987035151 0 5.9454881987035151 131.92482663883493 0 0 0 0 -22.90710698883305 11.341636488378754 0 11.341636488378754 129.55172191342353 0 0 0 0 -18.875895923357312 5.0246605073671162 0 5.0246605073671162 93.541791109544647 0 0 0 0 -3.2555618484689006 26.263546277074965 0 26.263546277074965 63.580434974415311 0 0 0 0 -49.837299763074775 -9.4753405642811259 0 -9.4753405642811259 173.23311576139531 0 0 0 0 -49.62610268123624 -4.4381638444092459 0 -4.4381638444092459 218.93477158491896 0 0 0 0 -34.046042528522435 -21.43491045927567 0 -21.43491045927567 133.86129550440091 0 0 0 0 -34.059272903125546 -21.371983488483238 0 -21.371983488483238 137.88362911602599 0 0 0 0 0.95809795248109364 1.3767048657301615 0 1.3767048657301615 -1.1416481271077838 0 0 0 0 10.03491430919324 -8.9981274214605946 0 -8.9981274214605946 -14.570864162570615 0 0 0 0 -8.4785652006531453 13.617918483296307 0 13.617918483296307 17.035572787632191 0 0 0 0 5.5782862479760205 5.4247304749796967 0 5.4247304749796967 19.456678596175152 0 0 0 0 -12.371713910049493 3.575717040876043 0 3.575717040876043 56.451692397450415 0 0 0 0 -4.6610859661812611 -3.196585532618883 0 -3.196585532618883 57.836797713003762 0 0 0 0 4.326488412105391 4.8991779312461858 0 4.8991779312461858 20.506410725856767 0 0 0 0 8.0389763391825113 -17.739559146710235 0 -17.739559146710235 44.340876367162309 0 0 0 0 3.5355396852475778 -5.183212908908672 0 -5.183212908908672 35.435608368230533 0 0 0 0 6.6246445491257333 6.6845605635787706 0 6.6845605635787706 9.727098248727998 0 0 0 0 16.713451588592562 -9.898424103295838 0 -9.898424103295838 15.434022664427175 0 0 0 0 1.2088839156587312 2.1694697993143564 0 2.1694697993143564 13.186855378307882 0 0 0 0 -3.8745787837329431 7.5951849495127135 0 7.5951849495127135 -19.511565378248633 0 0 0 0 8.1217243608403464 3.819139156640631 0 3.819139156640631 -5.2701053280325141 0 0 0 0 5.4662183490164296 3.1835958071005734 0 3.1835958071005734 -16.945433919670904 0 0 0 0 3.9073329231417517 4.4040702537286052 0 4.4040702537286052 -2.1897831391324871 0 0 0 0 -7.053826323367133 8.8224129293207625 0 8.8224129293207625 -4.9877825055318681 0 0 0 0 5.9022851287740252 -7.6380603629095276 0 -7.6380603629095276 12.803363271298622 0 0 0 0 -2.1770055879963337 3.8718312006367341 0 3.8718312006367341 3.5807597654647907 0 0 0 0 9.1853300042984927 3.8950565918858047 0 3.8950565918858047 -2.3877309415256605 0 0 0 0 7.8075157320831465 5.8507696180740822 0 5.8507696180740822 -13.484129464717626 0 0 0 0 4.1237151354748676 4.4424661951870803 0 4.4424661951870803 -13.912613603129103 0 0 0 0 -0.11553627298002311 7.8810231257612031 0 7.8810231257612031 5.9050754363661326 0 0 0 0 0.70955578113601359 1.6242529349995287 0 1.6242529349995287 -0.98691423926272037 0 0 0 0 3.6288201227892625 7.453941953028334 0 7.453941953028334 2.1613086850993568 0 0 0 0 -6.8102373933171378 8.5973452171137978 0 8.5973452171137978 -1.1351866029108351 0 0 0 0 0.035910035016724573 0.57410012192021576 0 0.57410012192021576 0.7674829374880936 0 0 0 0 -4.194056366036115 13.428176730063797 0 13.428176730063797 -14.613318126534068 0 0 0 0 -3.4122692848901011 5.9668531299994356 0 5.9668531299994356 -7.876846670102168 0 0 0 0 7.5139173736825313 2.1943435507391769 0 2.1943435507391769 3.0916031756314624 0 0 0 0 0.38801565547453976 0.19081952015974935 0 0.19081952015974935 -0.52771043952599683 0 0 0 0 -1.9300699829047261 2.5489419532868851 0 2.5489419532868851 2.0767991602297116 0 0 0 0 -0.52868928537579052 -2.2126277755141928 0 -2.2126277755141928 4.2642018618353177 0 0 0 0 0.28337066254143584 1.7837065248305262 0 1.7837065248305262 1.3144677137290515 0 0 0 0 1.4446515336845078 0.49956222809210971 0 0.49956222809210971 -0.0032151833037552535 0 0 0 0 4.8812194907265054 4.6316573085716612 0 4.6316573085716612 -1.003284810567493 0 0 0 0 7.2343991932723064 3.0037199727976258 0 3.0037199727976258 -1.2855365408722719 0 0 0 0 1.8864501732687131 4.0701979718069197 0 4.0701979718069197 3.5193467720673652 0 0 0 0 4.9723042489620495 2.4922828964378994 0 2.4922828964378994 -6.8712217095853703 0 0 0 0 8.5256671810898297 1.7855574045806861 0 1.7855574045806861 -26.178386177623906 0 0 0 0 0.95848419454525602 0.22077046443584969 0 0.22077046443584969 0.030673403399328336 0 0 0 0 -4.6446030345518921 -3.9866073433395286 0 -3.9866073433395286 -1.7579238439079745 0 0 0 0 1.9329532084350394 13.757392746026795 0 13.757392746026795 -0.77618505138161709 0 0 0 0 3.8802695236357465 8.077701277583401 0 8.077701277583401 -1.0929625108328764 0 0 0 0 2.7745411934172921 4.4114958205664152 0 4.4114958205664152 -13.139127639578874 0 0 0 0 -12.403713112404091 -13.222863878961107 0 -13.222863878961107 -11.632520816619149 0 0 0 0 -0.22736573697985019 0.11106076152343114 0 0.11106076152343114 -0.029616517027429623 0 0 0 0 6.7225183917894356 17.275231689248358 0 17.275231689248358 -20.352430513570653 0 0 0 0 15.20284015869899 -11.127012268691033 0 -11.127012268691033 -35.635100026636792 0 0 0 0 2.4312070764123064 5.5627632927280501 0 5.5627632927280501 13.020444716498787 0 0 0 0 2.9045859843791924 3.7570682998966731 0 3.7570682998966731 11.454648760021882 0 0 0 0 1.649150236229497 9.7990470053573233 0 9.7990470053573233 7.5931832351652702 0 0 0 0 2.3726971082590467 7.3213423741181032 0 7.3213423741181032 12.617921869712518 0 0 0 0 2.6084050223545319 6.0047666564050814 0 6.0047666564050814 11.734989163418504 0 0 0 0 -2.8226154656121309 -2.3101500302377644 0 -2.3101500302377644 -13.106498762097544 0 0 0 0 13.685075421245386 29.213733641196086 0 29.213733641196086 6.3988718351902207 0 0 0 0 32.03840973003048 4.4219189486766481 0 4.4219189486766481 -13.330728080103228 0 0 0 0 9.8290899185160328 -7.5218445956361393 0 -7.5218445956361393 1.9314953115354001 0 0 0 0 -5.7893193177306443 5.0888033576466114 0 5.0888033576466114 6.1489149881017511 0 0 0 0 6.418294775017273 16.582957845798774 0 16.582957845798774 9.7836220959011371 0 0 0 0 0.27924611862274629 0.11523071392787898 0 0.11523071392787898 0.045117153180280312 0 0 0 0 4.8766642119821313 10.174182954072876 0 10.174182954072876 8.1156153026604443 0 0 0 0 15.11751068942516 5.4183521895506601 0 5.4183521895506601 6.518835521440451 0 0 0 0 16.617809152657117 6.1702308700278081 0 6.1702308700278081 -3.5575794865585522 0 0 0 0 27.882731896721538 11.862735991247973 0 11.862735991247973 -1.081701223494747 0 0 0 0 24.139476911589583 0.33985692227952313 0 0.33985692227952313 0.89741477276402293 0 0 0 0 7.6962996199007421 1.3228667581406626 0 1.3228667581406626 4.3446188747739143 0 0 0 0 10.601365239703682 -7.725064406462252 0 -7.725064406462252 12.555966722325138 0 0 0 0 18.003911720086933 -3.8997115245433633 0 -3.8997115245433633 6.4580613463110694 0 0 0 0 18.017265651916716 -2.889721297034157 0 -2.889721297034157 -0.73442360824856223 0 0 0 0 2.25741559801736 -8.6809694707403651 0 -8.6809694707403651 -21.337356781549261 0 0 0 0 6.3046781643737972 -3.2478112857206725 0 -3.2478112857206725 6.7236811492521156 0 0 0 0 0.26500206781295432 -0.34039604217995567 0 -0.34039604217995567 0.280121073647706 0 0 0 0 2.8178084754319621 0.98920979620239535 0 0.98920979620239535 0.45892735166646403 0 0 0 0 1.2905639940122455 -6.9124277062146575 0 -6.9124277062146575 -16.165439017495373 0 0 0 0 4.5351595960624991 -3.3965087362703343 0 -3.3965087362703343 12.042010394839963 0 0 0 0 1.4402870545195583 -2.9680380905256243 0 -2.9680380905256243 12.152156151321833 0 0 0 0 7.6799241225463248 0.86877189592394188 0 0.86877189592394188 13.295730998121144 0 0 0 0 2.5165510611655719 -7.42008106400408 0 -7.42008106400408 20.155660906691992 0 0 0 0 9.670969516305604 -6.9354159760423499 0 -6.9354159760423499 7.9400167207527375 0 0 0 0 2.6481625447785859 -5.4902225372225075 0 -5.4902225372225075 17.039694163453532 0 0 0 0 2.4993229397466621 -7.4965814209608652 0 -7.4965814209608652 19.859754992288799 0 0 0 0 7.8348460712899168 -6.5807191893400159 0 -6.5807191893400159 8.1108995544454956 0 0 0 0 16.818842208879232 -13.701158084024428 0 -13.701158084024428 4.1441633764879953 0 0 0 0 10.775008832264234 -12.187162643846705 0 -12.187162643846705 15.879109557608899 0 0 0 0 10.744442749791688 -11.926000283630856 0 -11.926000283630856 13.650877902357024 0 0 0 0 5.6613605711321497 -12.816078393602766 0 -12.816078393602766 28.426927551758126 0 0 0 0 12.450149126107817 -16.554694238286174 0 -16.554694238286174 22.128364650558069 0 0 0 0 11.200491378221841 -13.218487393716714 0 -13.218487393716714 15.950720119741163 0 0 0 0 -1.3598594404813866 -2.6913638581072519 0 -2.6913638581072519 36.077731205958116 0 0 0 0 3.0235583873202927 -10.689443004326677 0 -10.689443004326677 51.688836923225608 0 0 0 0 5.0521192460018938 0.095927829011998256 0 0.095927829011998256 32.229461566390455 0 0 0 0 2.2941323819178763 -6.0436331791875091 0 -6.0436331791875091 25.398849053228332 0 0 0 0 -1.6929922061260818 1.3202202335558013 0 1.3202202335558013 20.037490164735573 0 0 0 0 -3.6269950142946072 0.40732851283155469 0 0.40732851283155469 20.015512548596234 0 0 0 0 3.3191809616454293 8.5777739164022933 0 8.5777739164022933 17.639261958056522 0 0 0 0 3.1730924897069315 8.6224126203248943 0 8.6224126203248943 42.068629908837465 0 0 0 0 -3.9961865052277972 3.6847293878463461 0 3.6847293878463461 13.374509464424676 0 0 0 0 -2.1347707990842082 3.395400140296033 0 3.395400140296033 8.7451252797454799 0 0 0 0 2.5162193361168192 14.429216865053604 0 14.429216865053604 -19.531055941250088 0 0 0 0 -0.27909388526035173 2.4021769460546238 0 2.4021769460546238 -10.330639712628908 0 0 0 0 -3.5540617185823749 8.9956290946502122 0 8.9956290946502122 8.3828023988969562 0 0 0 0 -0.13302272614521371 6.6032303820229572 0 6.6032303820229572 16.550943750475199 0 0 0 0 11.616778018206901 11.119798930019897 0 11.119798930019897 -3.0332479113822046 0 0 0 0 -0.5751048092253086 11.662578370776828 0 11.662578370776828 9.1272339083689076 0 0 0 0 -0.73423134403861923 5.8007925435094876 0 5.8007925435094876 -2.8355480182999599 0 0 0 0 -5.5875333430375349 13.72833899086163 0 13.72833899086163 -4.6882576494881505 0 0 0 0 -2.2836375682465189 1.4975560261352712 0 1.4975560261352712 -13.966150969659793 0 0 0 0 1.3343912109714893 8.6528538191869302 0 8.6528538191869302 -3.2522466167392849 0 0 0 0 7.9546957760289843 2.6621400500052914 0 2.6621400500052914 -10.573075518637779 0 0 0 0 14.056124324848497 10.733002229428166 0 10.733002229428166 -19.847844331699889 0 0 0 0 18.424547037505135 -4.1922553568110743 0 -4.1922553568110743 -25.088142665619671 0 0 0 0 17.28922274411002 0.13252327702366529 0 0.13252327702366529 -9.662524617750023 0 0 0 0 17.797066748759335 -2.5421394385393796 0 -2.5421394385393796 -5.2402034710758016 0 0 0 0 9.3667452844806576 12.852779091615957 0 12.852779091615957 12.880916568885368 0 0 0 0 29.467212919689132 5.2052123810135527 0 5.2052123810135527 -12.011311201022181 0 0 0 0 -5.9116489449227174 -29.791105778770543 0 -29.791105778770543 -25.045950172017001 0 0 0 0 23.896473098828224 -23.188615779042948 0 -23.188615779042948 -36.043509608696695 0 0 0 0 25.533513062640097 -12.906495643549079 0 -12.906495643549079 -9.5556060063227051 0 0 0 0 -38.254369149080837 -41.029552218555523 0 -41.029552218555523 12.621430183132361 0 0 0 0 20.922530744523328 -25.00035206445591 0 -25.00035206445591 46.318462406503386 0 0 0 0 -10.869226458032472 12.968110695711403 0 12.968110695711403 0.98007587624579173 0 0 0 0 17.589536446400984 31.492297801451969 0 31.492297801451969 37.475042888342159 0 0 0 0 11.486627006942626 -20.581412994546554 0 -20.581412994546554 54.781428017998223 0 0 0 0 16.042609417513631 12.871758123908876 0 12.871758123908876 12.811688719808899 0 0 0 0 15.209286653755271 10.319320102789789 0 10.319320102789789 40.34519091509901 0 0 0 0 18.18828964718864 23.316571076102264 0 23.316571076102264 46.972908520441706 0 0 0 0 59.543589417205794 29.596328656707556 0 29.596328656707556 21.606937474283768 0 0 0 0 43.276606005297481 7.6364325286649546 0 7.6364325286649546 -4.3825716238845871 0 0 0 0 16.875600664227477 20.510806407597556 0 20.510806407597556 88.695417434024421 0 0 0 0 12.620410735006544 -22.611319953226484 0 -22.611319953226484 47.061143121967689 0 0 0 0 4.7628797518757438 3.9606260268083133 0 3.9606260268083133 68.020914325195918 0 0 0 0 0.3207552481609971 0.069632010490035867 0 0.069632010490035867 0.46088123301814932 0 0 0 0 0.57408491425301511 -0.13737759619817247 0 -0.13737759619817247 0.19283821354936848 0 0 0 0 27.258527836086728 -17.645787839392142 0 -17.645787839392142 15.342861599081516 0 0 0 0 23.497680863036976 22.145052981999925 0 22.145052981999925 25.562535997381929 0 0 0 0 0.34343060443490525 0.052205690838501129 0 0.052205690838501129 0.042838901746986124 0 0 0 0 13.483858855682342 15.312068463344076 0 15.312068463344076 28.692944549116874 0 0 0 0 14.229966630873946 -2.409348904194303 0 -2.409348904194303 -2.4719859921460738 0 0 0 0 3.4762864194410668 -2.8733093328792165 0 -2.8733093328792165 5.2777065685561411 0 0 0 0 -5.7828459186011969 9.5743635849103157 0 9.5743635849103157 -1.7820686403317723 0 0 0 0 0.84006898745411851 0.061644590356860318 0 0.061644590356860318 0.56950309911470143 0 0 0 0 1.03332530522772 0.07766034329665672 0 0.07766034329665672 0.10831094261084218 0 0 0 0 1.3727589345109892 0.45701000173182837 0 0.45701000173182837 0.46410378446344325 0 0 0 0 1.1828036213974498 -0.95694149969802922 0 -0.95694149969802922 1.1060192650048091 0 0 0 0 -5.3226547524822294 -11.228246625347481 0 -11.228246625347481 -8.5002087449975079 0 0 0 0 15.50640289417106 -6.4568400654097786 0 -6.4568400654097786 4.1728245395388512 0 0 0 0 2.0917628040314753 18.456772052553788 0 18.456772052553788 28.049297205383482 0 0 0 0 31.04021113275121 5.4735423089905453 0 5.4735423089905453 -2.3023266445052286 0 0 0 0 15.290624183249861 0.41856611291404988 0 0.41856611291404988 -0.25315990574017633 0 0 0 0 9.9669737657994233 7.1980309325399503 0 7.1980309325399503 0.46246974212408531 0 0 0 0 9.8971720235790599 6.1703885515707952 0 6.1703885515707952 -1.7813190468932589 0 0 0 0 4.2613095922803268 6.8987777674460631 0 6.8987777674460631 0.9540922298328951 0 0 0 0 6.0945958744746349 1.1593055076054952 0 1.1593055076054952 -0.25925943173206178 0 0 0 0 8.1262822618958808 3.121499386999858 0 3.121499386999858 -0.38843634498334723 0 0 0 0 1.1464163860495091 -0.74705575478401443 0 -0.74705575478401443 2.5449307518429123 0 0 0 0 6.8987846057223123 0.42539189940907818 0 0.42539189940907818 -0.14148752837138545 0 0 0 0 0.1328986781126883 0.060230559019542884 0 0.060230559019542884 1.2223932931363279 0 0 0 0 2.9159508681404986 -3.0893636490309291 0 -3.0893636490309291 3.657739216057962 0 0 0 0 1.6697269209937531 -0.1475132263631167 0 -0.1475132263631167 1.1887722431806651 0 0 0 0 1.9515263457138872 -3.6035454675362644 0 -3.6035454675362644 1.4588331299710262 0 0 0 0 6.4948127316868067 -4.776679110904297 0 -4.776679110904297 3.9260489253565538 0 0 0 0 -9.4346583647915736 3.3416572271717087 0 3.3416572271717087 6.1472775510101201 0 0 0 0 -1.9177901953727865 4.0244533564137139 0 4.0244533564137139 7.5289635311998815 0 0 0 0 -2.6663436908467588 1.3703776763413771 0 1.3703776763413771 1.6003395599309442 0 0 0 0 -7.3494397876453093 3.2639870580842398 0 3.2639870580842398 5.4790610519667098 0 0 0 0 -0.57454252431511643 1.1164165894916458 0 1.1164165894916458 3.8821731221895561 0 0 0 0 0.00082507790709618334 -0.32260085216300105 0 -0.32260085216300105 2.3144341595309257 0 0 0 0 -7.1129106711040464 4.8512194716759041 0 4.8512194716759041 2.5936589347202244 0 0 0 0 -1.5050172725476614 9.201531349141078 0 9.201531349141078 5.2150116370776232 0 0 0 0 0.88626712470892244 6.0469994091417902 0 6.0469994091417902 1.6413405633084039 0 0 0 0 2.8476076383334714 17.277296090386244 0 17.277296090386244 9.7189333995702327 0 0 0 0 -11.742119742299792 7.7491116026794771 0 7.7491116026794771 5.8136458910116744 0 0 0 0 -25.836445656751266 -5.7042808743253772 0 -5.7042808743253772 8.6782918110582159 0 0 0 0 -25.587044251689065 9.8913809780779047 0 9.8913809780779047 17.372853404238867 0 0 0 0 -0.91623451802848876 30.585983014297653 0 30.585983014297653 26.474717520133709 0 0 0 0 -1.8191880351482723 0.85832130075368696 0 0.85832130075368696 3.9077017516956403 0 0 0 0 -0.43152388484736875 -0.38335635421972825 0 -0.38335635421972825 3.3886325291456814 0 0 0 0 0.34627791120273343 1.6170687234812249 0 1.6170687234812249 5.353721041920835 0 0 0 0 -0.03865639114622936 0.71066136504601118 0 0.71066136504601118 4.0463374350139318 0 0 0 0 -0.1007268391222027 1.1366871396880924 0 1.1366871396880924 5.4237412138036234 0 0 0 0 -0.28756271256190746 0.34112009004721422 0 0.34112009004721422 2.4682603059122776 0 0 0 0 -0.75443188688313612 0.68171512469640128 0 0.68171512469640128 1.2568966275932567 0 0 0 0 23.186623756978463 22.121132074109482 0 22.121132074109482 6.1730645772227035 0 0 0 0 3.2425643760537337 2.0298836679999113 0 2.0298836679999113 2.0630275332332531 0 0 0 0 2.8849965363932029 4.3684933864697086 0 4.3684933864697086 3.8302918155241059 0 0 0 0 -0.53564380440975978 -0.62406665041832809 0 -0.62406665041832809 2.1658173433872427 0 0 0 0 -0.2546490888304902 -0.15966823479811865 0 -0.15966823479811865 2.7409710151989657 0 0 0 0 10.347772088414786 8.65797202127942 0 8.65797202127942 6.6242017446784303 0 0 0 0 -0.84827563889490776 0.47781864823744691 0 0.47781864823744691 0.98983905581411236 0 0 0 0 -0.3281723132556067 2.3796706308266948 0 2.3796706308266948 5.0021004583481954 0 0 0 0 3.2265564581409478 4.1217460614227548 0 4.1217460614227548 4.1279467830208887 0 0 0 0 -0.50519027398359517 0.65722930074191588 0 0.65722930074191588 1.4103928179158096 0 0 0 0 11.021999742962521 4.963762431343639 0 4.963762431343639 16.573276460612306 0 0 0 0 0.078044092190225456 1.4292696060895196 0 1.4292696060895196 5.3199010934486068 0 0 0 0 1.5752423400516022 8.2671001896987946 0 8.2671001896987946 15.560691088339809 0 0 0 0 -0.20056236471040934 1.2980923878507298 0 1.2980923878507298 0.93137036875017998 0 0 0 0 1.7952560034980394 2.248739964158176 0 2.248739964158176 1.5144018275714188 0 0 0 0 0.0011060838506067316 0.79796510712845237 0 0.79796510712845237 0.31799859262218177 0 0 0 0 5.5094686793954608 6.7716833592182866 0 6.7716833592182866 5.0035766817236436 0 0 0 0 1.969756052315033 0.8559891330841598 0 0.8559891330841598 -1.1897180335895996 0 0 0 0 10.837669030755492 8.4461444692321948 0 8.4461444692321948 5.4372950041160948 0 0 0 0 -0.25962277990451688 0.20948002370824081 0 0.20948002370824081 0.52055125143931846 0 0 0 0 -0.34590912525179363 -0.27111756761041761 0 -0.27111756761041761 4.1457564208931217 0 0 0 0 7.9138090107645667 -0.48984652943818219 0 -0.48984652943818219 1.359150609973085 0 0 0 0 5.3764855359717103 7.9322394789542159 0 7.9322394789542159 2.8152197688496017 0 0 0 0 8.8837359889710399 -0.56339036488043348 0 -0.56339036488043348 3.9485756480462442 0 0 0 0 0.10769567637909594 -0.12460394845654754 0 -0.12460394845654754 -0.10204217913888414 0 0 0 0 2.4313684426186342 4.5107372874836074 0 4.5107372874836074 -0.69135852685394639 0 0 0 0 5.8781983187135438 4.2843367449440848 0 4.2843367449440848 -1.7063672594158561 0 0 0 0 0.55027040806117955 0.47708825244032838 0 0.47708825244032838 -0.0040363019039659775 0 0 0 0 4.6784851205129883 4.0877410355478787 0 4.0877410355478787 4.2745830179337645 0 0 0 0 0.34636208588541217 0.6129069970547647 0 0.6129069970547647 0.67566360813802362 0 0 0 0 1.9573962830078151 0.64565712599727121 0 0.64565712599727121 -0.55133249021067776 0 0 0 0 -0.41146585348044273 0.25075743090457436 0 0.25075743090457436 1.3838724518983128 0 0 0 0 0.64810786500279871 0.3107271315073632 0 0.3107271315073632 0.060615724490173051 0 0 0 0 0.6015251027611157 0.6943799141472482 0 0.6943799141472482 0.80792790963732841 0 0 0 0 4.0589722217901567 1.8694086930231606 0 1.8694086930231606 0.80177917231412721 0 0 0 0 1.8274070956249489 3.1050966860766493 0 3.1050966860766493 3.1648274253093405 0 0 0 0 0.64973005108361448 0.37480879424654745 0 0.37480879424654745 -0.12118557122314222 0 0 0 0 3.9719251644969784 2.9563465223764069 0 2.9563465223764069 -2.8976256943351473 0 0 0 0 3.7722339705857166 6.5164646887978961 0 6.5164646887978961 -28.548922647933523 0 0 0 0 -12.372263170001474 -4.3752346948795093 0 -4.3752346948795093 -20.013476878280926 0 0 0 0 1.3688923318265465 1.2909670990068687 0 1.2909670990068687 0.032628449363024004 0 0 0 0 0.45102784188929945 0.83608212762192125 0 0.83608212762192125 0.53538643771753414 0 0 0 0 0.68902746019170991 1.3897462274253485 0 1.3897462274253485 0.46546682505686476 0 0 0 0 0.54702614317667186 1.0602212960392876 0 1.0602212960392876 0.37253661360314005 0 0 0 0 0.3871722850386411 1.5116312066853048 0 1.5116312066853048 0.57027472863316575 0 0 0 0 2.0625414609347921 1.9420242359010444 0 1.9420242359010444 -1.1130366046199924 0 0 0 0 -2.3721554398719249 -0.11652430598041974 0 -0.11652430598041974 -1.555307360340521 0 0 0 0 -0.19583709460987109 0.63693875174814707 0 0.63693875174814707 0.13496690917600063 0 0 0 0 -0.14081247343256204 1.0924487186564313 0 1.0924487186564313 1.158115145559151 0 0 0 0 -0.089174111006848078 1.091151919726709 0 1.091151919726709 0.37053178792454666 0 0 0 0 0.62625131748853846 1.6795449135534 0 1.6795449135534 1.2563924806290743 0 0 0 0 -0.21133382937189182 0.95072313329046665 0 0.95072313329046665 0.48275052256940398 0 0 0 0 0.83807226995794082 0.48786716119127504 0 0.48786716119127504 0.3207388396767783 0 0 0 0 0.34630682196325324 0.84681391790036287 0 0.84681391790036287 0.075417575728351949 0 0 0 0 0.26205055966835289 0.67799717452635377 0 0.67799717452635377 0.3778570726790349 0 0 0 0 0.10522614827510779 0.91252819746932801 0 0.91252819746932801 0.022481550200836864 0 0 0 0 0.14801140379694289 0.97426210013600212 0 0.97426210013600212 0.10429262537400064 0 0 0 0 -0.05451064068727357 0.060495056941835657 0 0.060495056941835657 0.2207187538418367 0 0 0 0 0.12810570350768558 0.84107114374637604 0 0.84107114374637604 0.20294031232697307 0 0 0 0 0.25042622761685607 0.60584760578512942 0 0.60584760578512942 0.42549361242072337 0 0 0 0 4.6136987338370119 6.0954619436787425 0 6.0954619436787425 5.2132274323757883 0 0 0 0 3.9833687228484109 4.3683175765554552 0 4.3683175765554552 7.7662309786701371 0 0 0 0 0.45572027720686492 0.37233783886586025 0 0.37233783886586025 0.52038622970394499 0 0 0 0 0.86249560886056997 3.1126387718281876 0 3.1126387718281876 8.4908344848154229 0 0 0 0 -1.1831216710842227 -4.0423390285923233 0 -4.0423390285923233 0.19391207918306463 0 0 0 0 0.93543985122638618 1.5803072144042947 0 1.5803072144042947 1.9836289691246805 0 0 0 0 0.33478230262039688 6.1268526493895479 0 6.1268526493895479 7.7647268850523687 0 0 0 0 -3.8608253613637089 16.499702525376051 0 16.499702525376051 -9.7621634433380677 0 0 0 0 4.3133124717119529 5.9122521697527191 0 5.9122521697527191 -13.9167137614686 0 0 0 0 -0.55482369053557079 5.2068022440125787 0 5.2068022440125787 10.10981034318138 0 0 0 0 15.351826579259864 -14.963936873707098 0 -14.963936873707098 21.129560545247841 0 0 0 0 1.624504026795762 1.8644892606455414 0 1.8644892606455414 -1.4263359068827413 0 0 0 0 0.69083934524369173 0.91772531810544677 0 0.91772531810544677 1.8435485528578823 0 0 0 0 -18.785799386013778 18.529879675696066 0 18.529879675696066 4.7738897992894636 0 0 0 0 0.65465615762729357 -0.15420226320293295 0 -0.15420226320293295 0.010271858551277546 0 0 0 0 0.080865257938426749 0.30177461372849823 0 0.30177461372849823 1.1001399712601341 0 0 0 0 22.006644581934324 4.5625354145836354 0 4.5625354145836354 -1.2486216799782142 0 0 0 0 16.624765035726739 22.687858108961336 0 22.687858108961336 -6.1954881957562975 0 0 0 0 2.8863505175709179 20.920804650965692 0 20.920804650965692 -3.042684365439527 0 0 0 0 25.043056312952871 7.9456898975106469 0 7.9456898975106469 1.5812054906873527 0 0 0 0 4.8170350309829644 15.151964285423219 0 15.151964285423219 7.9255221011826507 0 0 0 0 15.533486642661614 12.340721612973311 0 12.340721612973311 0.98335724385106005 0 0 0 0 3.0369752622833843 1.5201472023377391 0 1.5201472023377391 -0.30571235254319618 0 0 0 0 10.856329832642132 25.33910335117298 0 25.33910335117298 31.551469207757691 0 0 0 0 1.0054905170361508 16.900635975610385 0 16.900635975610385 24.69677462409345 0 0 0 0 -0.0015137323417186432 -0.15799875192502255 0 -0.15799875192502255 0.73605563281834563 0 0 0 0 -8.4478716336309958 14.289103303688535 0 14.289103303688535 56.145345063767309 0 0 0 0 2.4333206620877661 16.604039391413608 0 16.604039391413608 24.722416661923489 0 0 0 0 2.3039639631559794 14.443283967169918 0 14.443283967169918 7.7950812299842482 0 0 0 0 -19.745367657725382 41.392952097490706 0 41.392952097490706 -5.5100889536765862 0 0 0 0 -0.028203817554015131 -6.2846872151649222 0 -6.2846872151649222 13.91483054649143 0 0 0 0 -47.453879565585339 -0.87289658362681166 0 -0.87289658362681166 11.038555514900509 0 0 0 0 -0.31573909894886953 -0.20007179386829699 0 -0.20007179386829699 2.0582935445203461 0 0 0 0 -0.26328743766830509 -0.14690061610067673 0 -0.14690061610067673 0.51691178305483021 0 0 0 0 -22.308669806924854 -1.7844674962843783 0 -1.7844674962843783 -7.446361322946359 0 0 0 0 -0.065691523504090021 1.2790207873240789 0 1.2790207873240789 1.256182700306244 0 0 0 0 0.90370754579384993 -19.298175078442 0 -19.298175078442 5.9615445497861401 0 0 0 0 -19.300266601224791 7.8521489049512638 0 7.8521489049512638 22.421275558006528 0 0 0 0 -9.147672533113905 4.074823137396379 0 4.074823137396379 -10.238653428373254 0 0 0 0 -21.495197064735038 38.242912682272618 0 38.242912682272618 26.764619674182541 0 0 0 0 -38.68958324231361 5.273077439865574 0 5.273077439865574 89.101320725421829 0 0 0 0 -1.719753147224321 1.3472877497004738 0 1.3472877497004738 6.7813529319202956 0 0 0 0 -8.4116645039547393 9.8160292818520247 0 9.8160292818520247 -1.4775214332516953 0 0 0 0 0.43132594518574441 0.43638966607803908 0 0.43638966607803908 0.55393379818726629 0 0 0 0 23.619695926055396 -46.07126659239691 0 -46.07126659239691 48.435784830497141 0 0 0 0 31.954636231264999 -11.646523820150833 0 -11.646523820150833 -8.643292377027592 0 0 0 0 -51.874363176550673 -4.7808857539512246 0 -4.7808857539512246 16.609479797408312 0 0 0 0 -100.91295731065907 26.406714031680167 0 26.406714031680167 113.71448668258381 0 0 0 0 -0.98441125466532065 -1.263326537769661 0 -1.263326537769661 1.9333028920864521 0 0 0 0 9.4270935523450134 -18.929467750732329 0 -18.929467750732329 16.869491887193362 0 0 0 0 -1.0210094709241642 2.4664434838827241 0 2.4664434838827241 10.159266013933703 0 0 0 0 -12.098346614303111 -12.590892137788103 0 -12.590892137788103 27.147822174425528 0 0 0 0 -22.829358247099378 12.838325901593635 0 12.838325901593635 19.193094531619863 0 0 0 0 -11.950515080855174 3.3236854219475944 0 3.3236854219475944 18.13451302247995 0 0 0 0 0.97146646757488164 1.3643867855580698 0 1.3643867855580698 2.0086308390465746 0 0 0 0 -1.8851212451883135 1.9125004394430221 0 1.9125004394430221 0.30658429138566134 0 0 0 0 -1.9367614430252047 3.5794794005303032 0 3.5794794005303032 1.3025803095406445 0 0 0 0 -0.086872753271656222 3.1494975269952192 0 3.1494975269952192 0.99107109102806135 0 0 0 0 -0.91678076108058804 3.5818561891828722 0 3.5818561891828722 1.2114924514316954 0 0 0 0 -1.2972933569601146 3.3804994972470013 0 3.3804994972470013 1.7092528894063435 0 0 0 0 -3.5555133156618837 4.444458391471926 0 4.444458391471926 2.19576613902791 0 0 0 0 13.831621381464096 -1.4613035936133656 0 -1.4613035936133656 4.814667209648178 0 0 0 0 -0.22550378608281108 2.8975187365776947 0 2.8975187365776947 1.6797143875246547 0 0 0 0 -0.57488265765706714 2.0645324359387702 0 2.0645324359387702 9.5835508735356214 0 0 0 0 0.37306809065788116 6.9642814686944803 0 6.9642814686944803 -2.9331471274281284 0 0 0 0 3.0490491143837204 -2.6300874413386737 0 -2.6300874413386737 11.252875901881453 0 0 0 0 -6.1022976840748129 13.68334382259718 0 13.68334382259718 3.6541101219877419 0 0 0 0 -22.019761866271551 13.287067824832775 0 13.287067824832775 7.0941815004316595 0 0 0 0 -1.9067594250548083 16.753585502596252 0 16.753585502596252 37.006238948677492 0 0 0 0 18.578482992844442 7.3730143159191357 0 7.3730143159191357 -3.4690134665579535 0 0 0 0 67.196741400718111 -121.1617718053094 0 -121.1617718053094 54.827800265331462 0 0 0 0 -0.70208825076602466 9.441425386584342 0 9.441425386584342 11.48371874755027 0 0 0 0 -2.6287739487475914 6.5424963257909212 0 6.5424963257909212 11.494242996446701 0 0 0 0 5.0786015384518066 5.7675265597667931 0 5.7675265597667931 2.7182590672309743 0 0 0 0 2.8889726345863807 7.9501854898353486 0 7.9501854898353486 5.9800497652158811 0 0 0 0 -2.7403614596059072 6.2706523791907784 0 6.2706523791907784 4.6278470709694375 0 0 0 0 -0.60655591221085126 1.969336189320499 0 1.969336189320499 0.67284509617942412 0 0 0 0 3.7972486419330096 -0.2018723935871094 0 -0.2018723935871094 8.9688995979304309 0 0 0 0 1.3072466199223576 1.1943736674984642 0 1.1943736674984642 6.8015825243267614 0 0 0 0 -1.0480215821857541 3.7386097982762294 0 3.7386097982762294 8.7123948566822946 0 0 0 0 -1.1476854726317267 7.4877999268085489 0 7.4877999268085489 1.4963142203650932 0 0 0 0 0.69188348430163693 2.5962111635339049 0 2.5962111635339049 5.677439902144215 0 0 0 0 0.4918047911521487 1.5656587220564617 0 1.5656587220564617 3.9834540500894562 0 0 0 0 -0.59554713035058171 2.054137580204042 0 2.054137580204042 5.0513639520577271 0 0 0 0 -0.45161427025585255 2.366837577728802 0 2.366837577728802 5.4982850141100243 0 0 0 0 0.41135860194818541 2.127919504109741 0 2.127919504109741 3.8834527886517662 0 0 0 0 -2.0416431131363879 1.3199142399753327 0 1.3199142399753327 5.1721329061911092 0 0 0 0 -0.4492690148965014 0.32129666149900338 0 0.32129666149900338 4.0346206149202146 0 0 0 0 0.29160083003534498 3.5292532449891727 0 3.5292532449891727 5.4802251851080328 0 0 0 0 -9.1675838793800555 7.04701307481605 0 7.04701307481605 14.058920024895997 0 0 0 0 -9.7221504540509613 1.9181835225081159 0 1.9181835225081159 8.4374376446423867 0 0 0 0 0.056055473601013261 0.24422939711530489 0 0.24422939711530489 5.6509053837196461 0 0 0 0 -0.7142266834402804 -0.93748277471877373 0 -0.93748277471877373 5.4012211204790219 0 0 0 0 -1.0476672381846586 -0.45934931533951229 0 -0.45934931533951229 5.3944294404979232 0 0 0 0 -0.8602114772615721 -0.44074734773039381 0 -0.44074734773039381 5.8570628890774969 0 0 0 0 -4.1579432923849424 -16.576320702821249 0 -16.576320702821249 118.20105024050827 0 0 0 0 30.101148046918983 35.804319389445482 0 35.804319389445482 30.867847624464048 0 0 0 0 -4.4390719856348539 -11.107993306801291 0 -11.107993306801291 14.356684752314322 0 0 0 0 -18.784147473269542 7.1634305213583502 0 7.1634305213583502 54.227303393683542 0 0 0 0 -15.921486159789652 0.51361826635456964 0 0.51361826635456964 7.8338199775607791 0 0 0 0 -3.1045033050741893 10.89659194662454 0 10.89659194662454 8.1910298805914863 0 0 0 0 -2.6606431627665188 13.299639852824839 0 13.299639852824839 -1.1081868846895304 0 0 0 0 -0.22811324536304767 32.47604924920779 0 32.47604924920779 19.336022986004537 0 0 0 0 3.1853909006513703 12.201111780332894 0 12.201111780332894 15.264114388119197 0 0 0 0 -11.506335477459253 25.958999343281903 0 25.958999343281903 5.6406477343425649 0 0 0 0 5.1483359632091066 18.861860148524102 0 18.861860148524102 -37.285084276563794 0 0 0 0 -10.414223023812696 2.4756141374655272 0 2.4756141374655272 11.22667995066513 0 0 0 0 -0.45301390224137322 -0.074125147027885419 0 -0.074125147027885419 0.033965169911013504 0 0 0 0 -17.270394876673279 9.888606446036647 0 9.888606446036647 7.8718769279221306 0 0 0 0 -0.81594102244196476 0.72864233235813813 0 0.72864233235813813 1.5894295392672007 0 0 0 0 -0.69289365679026105 2.9158487410095404 0 2.9158487410095404 5.2450763641027152 0 0 0 0 1.6221766329514433 2.4111620613463938 0 2.4111620613463938 3.5618579234860874 0 0 0 0 1.5355395476198055 5.4588781327565812 0 5.4588781327565812 6.6049997413156234 0 0 0 0 -5.5303179071219262 5.8529177132868426 0 5.8529177132868426 7.933595811631676 0 0 0 0 -0.21640929064897563 0.20517150574892185 0 0.20517150574892185 6.9019341550665558 0 0 0 0 -6.661146892139115 3.7137110877956729 0 3.7137110877956729 5.2663626571811619 0 0 0 0 -1.5322006526684149 2.3220470951646348 0 2.3220470951646348 4.3425363225578621 0 0 0 0 -6.4564993514279081 8.0928820649896807 0 8.0928820649896807 3.7699408513708477 0 0 0 0 -2.2422228201772612 5.8762450969015845 0 5.8762450969015845 1.9264696954269311 0 0 0 0 0.41631627948049754 10.373625371067646 0 10.373625371067646 -0.40260145651518542 0 0 0 0 -4.0605615348565607 12.107349886214706 0 12.107349886214706 1.3517140012991149 0 0 0 0 -1.4132121320798774 4.5061229206230564 0 4.5061229206230564 -6.1189603825441736 0 0 0 0 -0.34737162617376283 0.091326180241249943 0 0.091326180241249943 0.854151551938795 0 0 0 0 10.951198459971977 1.2354649872804657 0 1.2354649872804657 3.5914939983704244 0 0 0 0 0.64112256079006258 1.3271692540683571 0 1.3271692540683571 2.3587529676048788 0 0 0 0 8.9789494492335074 -4.252698316498936 0 -4.252698316498936 -5.5296468229607854 0 0 0 0 2.7566039947039656 0.3446725653991507 0 0.3446725653991507 0.36524979381465528 0 0 0 0 0.054857156452030154 22.112643492217103 0 22.112643492217103 -21.677835263373709 0 0 0 0 12.514453524562043 6.5872984041234304 0 6.5872984041234304 -5.4321269774409302 0 0 0 0 -3.5455990766663987 -19.646549173258904 0 -19.646549173258904 5.3369215907168837 0 0 0 0 0.27573110867602968 0.40426484084239078 0 0.40426484084239078 0.802553427767144 0 0 0 0 43.411561963403877 -6.7135124195538083 0 -6.7135124195538083 2.3788251224177657 0 0 0 0 15.274302487767311 -16.375934537461944 0 -16.375934537461944 40.158769796673369 0 0 0 0 -3.4036428128109169 -2.7430173647653646 0 -2.7430173647653646 33.910606514091342 0 0 0 0 24.336619370689693 -23.134544031285259 0 -23.134544031285259 5.0814124931239348 0 0 0 0 2.4500296712186476 -24.650407131770407 0 -24.650407131770407 65.095183108705896 0 0 0 0 -8.4612895417953737 18.010158894296183 0 18.010158894296183 61.661359042553613 0 0 0 0 10.287256811739592 6.9979150841718365 0 6.9979150841718365 82.142902707344547 0 0 0 0 15.050590798604858 -1.1245047551151401 0 -1.1245047551151401 73.371746855453239 0 0 0 0 -0.012308582408806761 4.482189821398606 0 4.482189821398606 22.872801274939775 0 0 0 0 -3.1767013324992659 7.2662689518751904 0 7.2662689518751904 21.27768884431498 0 0 0 0 -5.6628430014145952 7.9529496165960154 0 7.9529496165960154 37.570170005566069 0 0 0 0 -3.189902336872688 12.843469996798376 0 12.843469996798376 27.326597632045377 0 0 0 0 -0.013816666165222884 0.009670409921341161 0 0.009670409921341161 0.082554077069048049 0 0 0 0 -4.7490783459680141 3.0216431818407727 0 3.0216431818407727 10.27227032438168 0 0 0 0 -1.1758670064042027 -6.2697383532786262 0 -6.2697383532786262 31.549483800499274 0 0 0 0 -1.148118266913799 -5.6756176655137551 0 -5.6756176655137551 9.9947788100289472 0 0 0 0 3.6407944396192971 -8.8451576353572818 0 -8.8451576353572818 11.543589216933469 0 0 0 0 0.0038097802287563594 3.7967530066316613 0 3.7967530066316613 -0.38813109650072875 0 0 0 0 -0.0094088496095263881 0.010509249913436491 0 0.010509249913436491 0.079058741051113657 0 0 0 0 2.5939717584546482 -5.7458707625828538 0 -5.7458707625828538 2.7793617076877126 0 0 0 0 6.9748993956683885 -8.0168090232527902 0 -8.0168090232527902 3.9529720380851359 0 0 0 0 0.63899864374849968 1.2946762848362532 0 1.2946762848362532 1.7117484166206332 0 0 0 0 3.7845715822636579 -2.4649326423182174 0 -2.4649326423182174 7.8404146279972338 0 0 0 0 -0.12148172531262968 1.22118148867321 0 1.22118148867321 5.3025080459174205 0 0 0 0 -0.93946497595326051 -1.9597043034063972 0 -1.9597043034063972 13.650805822144321 0 0 0 0 0.031298554828984186 3.6690468813687431 0 3.6690468813687431 4.0913372833783797 0 0 0 0 0.5563865161409467 1.1266866955993464 0 1.1266866955993464 1.8840489406206871 0 0 0 0 0.84833605621227171 1.3505540225521209 0 1.3505540225521209 1.0178075463232119 0 0 0 0 -0.001524397829652557 -0.61572467341284209 0 -0.61572467341284209 2.2029162619946874 0 0 0 0 0.44468041401199798 0.71116892961435951 0 0.71116892961435951 1.982243692360953 0 0 0 0 -0.46670499672656574 -0.41901076272219306 0 -0.41901076272219306 1.9524516680994637 0 0 0 0 0.29285039413484171 1.3118528779643777 0 1.3118528779643777 3.645265137695219 0 0 0 0 0.42795470839629246 0.71559089650077112 0 0.71559089650077112 2.5162076256001455 0 0 0 0 -0.29839635310787571 0.58758410334667133 0 0.58758410334667133 2.6103346151821825 0 0 0 0 0.50143170365583956 1.2685386533976271 0 1.2685386533976271 2.4345346834188604 0 0 0 0 0.61770535002224847 1.6079300619744572 0 1.6079300619744572 1.1929529960198124 0 0 0 0 -1.8152430785125375 11.252047933457106 0 11.252047933457106 -3.4646158798204851 0 0 0 0 0.83506856369915683 1.268664435600539 0 1.268664435600539 1.5725923856403767 0 0 0 0 -9.0600252838567599 10.641990361083117 0 10.641990361083117 -0.19638792915066006 0 0 0 0 -2.0421209107273626 6.8728017523544622 0 6.8728017523544622 -1.5438175160979881 0 0 0 0 -0.52000636781039589 6.2074675324829514 0 6.2074675324829514 0.81683539270670735 0 0 0 0 -0.10731870102790708 7.4672285049673519 0 7.4672285049673519 -3.6075883232042543 0 0 0 0 0.18701073197592422 4.6348633823581622 0 4.6348633823581622 -2.3516395792448748 0 0 0 0 1.563793358005185 0.63850878222365282 0 0.63850878222365282 -0.31733142101529666 0 0 0 0 6.1240906016221288 9.6373184626041848 0 9.6373184626041848 -2.8048756814496301 0 0 0 0 5.4860980344876698 2.2143352443492859 0 2.2143352443492859 -1.6567384953777946 0 0 0 0 -4.2674531182933606 8.984971873842369 0 8.984971873842369 8.0258144437557348 0 0 0 0 -5.7496767462814091 4.5326879950825969 0 4.5326879950825969 -0.089275460653880145 0 0 0 0 10.02146009003539 22.907337218416615 0 22.907337218416615 21.113563495357084 0 0 0 0 16.171660976642158 5.3646992324411258 0 5.3646992324411258 0.77203879605895054 0 0 0 0 -3.9922527706136179 -22.009805815057916 0 -22.009805815057916 68.536521265663396 0 0 0 0 60.167153340901677 -12.361297169540194 0 -12.361297169540194 -19.401923252131382 0 0 0 0 -11.730602348295918 0.20053137863169468 0 0.20053137863169468 8.4225389286330028 0 0 0 0 -2.6824056203938333 -6.3352632627374987 0 -6.3352632627374987 8.5193951400106016 0 0 0 0 -1.3291284953711318 -0.9682664578345328 0 -0.9682664578345328 6.3272278510299174 0 0 0 0 -19.604249544772074 -10.557348285950411 0 -10.557348285950411 11.145269341484891 0 0 0 0 -3.936677988287105 -0.54924963643679803 0 -0.54924963643679803 4.3038622898911854 0 0 0 0 -0.63386307526103092 -0.80862054228202851 0 -0.80862054228202851 0.8356122791499061 0 0 0 0 -0.0045118275757591898 -4.5998899903652273 0 -4.5998899903652273 7.8759511900370853 0 0 0 0 -1.291609031014483 -1.0621615604350154 0 -1.0621615604350154 4.1614711148831702 0 0 0 0 -0.41909906256494606 0.15372171283486935 0 0.15372171283486935 2.7146551285246829 0 0 0 0 -15.958740212862836 11.23000631739751 0 11.23000631739751 12.876899746595882 0 0 0 0 0.034569952575407847 -0.42777247395033413 0 -0.42777247395033413 1.2084709525393365 0 0 0 0 3.2150434283124456 20.035202671985644 0 20.035202671985644 40.878435847000219 0 0 0 0 -1.8300379594808336 3.5230146714065995 0 3.5230146714065995 7.5479811473378504 0 0 0 0 0.024264650078696045 -5.1750698393752828 0 -5.1750698393752828 20.876926978651227 0 0 0 0 -86.694887344008492 6.007814772569418 0 6.007814772569418 85.714084802448269 0 0 0 0 -0.18544265466397861 -0.40889688703143534 0 -0.40889688703143534 2.3799231339932376 0 0 0 0 -37.758790970831953 107.33278940335185 0 107.33278940335185 137.38387170932674 0 0 0 0 146.79932543270996 106.06601737839628 0 106.06601737839628 89.349771503983902 0 0 0 0 121.61762773933248 -5.7625053537976783 0 -5.7625053537976783 157.13074180601507 0 0 0 0 78.547254976574663 -123.27989283568877 0 -123.27989283568877 54.903375388303175 0 0 0 0 0.10969024362473678 0.092242614086773089 0 0.092242614086773089 2.4276047618858811 0 0 0 0 74.340301050746731 89.700289776332966 0 89.700289776332966 126.11992196460051 0 0 0 0 14.202244597824333 10.463739787151098 0 10.463739787151098 338.35032390597735 0 0 0 0 15.359749622286529 -19.366333007983485 0 -19.366333007983485 -52.156616504550584 0 0 0 0 -64.996001989562785 -157.75958104327492 0 -157.75958104327492 97.001277278215639 0 0 0 0 2.1203947433024553 -71.525064647464205 0 -71.525064647464205 54.257992259033927 0 0 0 0 -56.870867323792964 37.533573955077372 0 37.533573955077372 85.700463966347797 0 0 0 0 27.318318567809982 -11.074728539717398 0 -11.074728539717398 -34.147705410830895 0 0 0 0 -17.824122840974951 -3.723769606795031 0 -3.723769606795031 21.265746104252685 0 0 0 0 -47.130888858663212 23.787523589458942 0 23.787523589458942 0.13000935051240958 0 0 0 0 -0.15141665431140963 0.15593188651745971 0 0.15593188651745971 6.3809438919277994 0 0 0 0 -71.778654362768094 -11.732640016772393 0 -11.732640016772393 4.8659214135986986 0 0 0 0 -0.44840549009851671 1.1141514472606637 0 1.1141514472606637 1.3967210158315879 0 0 0 0 -2.4938677228773258 -6.5929403022437327 0 -6.5929403022437327 -3.0490931124004419 0 0 0 0 75.980924473012251 -30.344450486465576 0 -30.344450486465576 -16.863363231779658 0 0 0 0 -72.87972794936438 16.400718969060335 0 16.400718969060335 7.3142171217186842 0 0 0 0 -6.827861981555543 33.540853410619093 0 33.540853410619093 -22.535346711924831 0 0 0 0 6.3077107292001635 -22.331856750753104 0 -22.331856750753104 39.361944504564235 0 0 0 0 21.967782725551594 -78.351310039894543 0 -78.351310039894543 115.94874695971339 0 0 0 0 39.146264548135171 -16.731379207243663 0 -16.731379207243663 -6.2636728809629858 0 0 0 0 4.384302308299084 33.490488454292517 0 33.490488454292517 148.17927168712959 0 0 0 0 -0.0418699734558165 -2.9916047380838791 0 -2.9916047380838791 87.830192023264317 0 0 0 0 8.2398054151166296 -29.176732243723563 0 -29.176732243723563 50.036887517741889 0 0 0 0 0.030151597923048931 1.544430510305574 0 1.544430510305574 23.698066811357876 0 0 0 0 -2.0510476944352476 12.706751149282354 0 12.706751149282354 1.0806787632027408 0 0 0 0 -6.9777478817200169 3.4519605600125942 0 3.4519605600125942 5.458329455551393 0 0 0 0 9.1991434138503827 4.2402208288322072 0 4.2402208288322072 -1.795308563116123 0 0 0 0 6.5534376873705131 -1.9856945676183386 0 -1.9856945676183386 12.218628797312704 0 0 0 0 0.89365732009007759 8.2406752264107581 0 8.2406752264107581 13.109146378916193 0 0 0 0 0.004404753698398543 5.6414152888819444 0 5.6414152888819444 7.7066878591958812 0 0 0 0 1.9246115649783473 8.9281550853170302 0 8.9281550853170302 1.3868505618775089 0 0 0 0 -2.7916730698978469 19.516665190725689 0 19.516665190725689 27.842066100103125 0 0 0 0 -0.93261319802264175 10.467186285845401 0 10.467186285845401 12.568785698233114 0 0 0 0 0.19398680519138406 13.500755847464006 0 13.500755847464006 16.549626863419689 0 0 0 0 0.0083872730804986969 -0.0084411815802991619 0 -0.0084411815802991619 0.22323708199213854 0 0 0 0 38.571307118199115 11.673700237326557 0 11.673700237326557 5.4689883993232797 0 0 0 0 -32.389907871268775 -1.3252296210575878 0 -1.3252296210575878 19.518282378964614 0 0 0 0 -4.4352765784437906 -49.922874765039978 0 -49.922874765039978 -8.6955085349254659 0 0 0 0 6.4277299125471208 27.432902652337646 0 27.432902652337646 26.918120982547407 0 0 0 0 7.1299297255178899 13.378085517842919 0 13.378085517842919 0.1887684070134128 0 0 0 0 -7.6358330485679922 -1.3122144254884915 0 -1.3122144254884915 -2.0746350926760897 0 0 0 0 -24.33312088657382 3.7669626011893342 0 3.7669626011893342 6.4517982499946811 0 0 0 0 -1.2607396532997441 13.444106232362174 0 13.444106232362174 10.16513697782284 0 0 0 0 0.0042305343207602033 0.018664394908499249 0 0.018664394908499249 0.6731253865623259 0 0 0 0 28.725536071049671 -11.2323910827281 0 -11.2323910827281 -57.430813943274188 0 0 0 0 4.0591890894702907 3.5127733303052082 0 3.5127733303052082 9.3331644050886098 0 0 0 0 2.6500846530613344 -6.2647668358522424 0 -6.2647668358522424 0.61875226509437198 0 0 0 0 0.89013622252567082 -6.0634394678199897 0 -6.0634394678199897 18.566882261197861 0 0 0 0 -28.029017966735768 0.36951909293202334 0 0.36951909293202334 8.3687555009928474 0 0 0 0 2.2229550520899792 -8.0559926149899184 0 -8.0559926149899184 5.4813681382111099 0 0 0 0 -0.76398336836023262 -10.539149881930143 0 -10.539149881930143 7.4149943764095951 0 0 0 0 -0.099316381212527019 -0.71409099047385483 0 -0.71409099047385483 1.2656481211751327 0 0 0 0 -17.369264763023544 -2.3241240435509098 0 -2.3241240435509098 -4.6383572273116442 0 0 0 0 -10.491709854024343 8.882565279197479 0 8.882565279197479 3.9315319159250066 0 0 0 0 -14.6206451427812 2.5276402244744531 0 2.5276402244744531 1.7118092951805011 0 0 0 0 -28.039089108972973 9.5057098639081232 0 9.5057098639081232 5.4105057299311738 0 0 0 0 -27.867711171030521 4.736108947032335 0 4.736108947032335 1.36933261800732 0 0 0 0 -35.778614893210786 19.818292116007797 0 19.818292116007797 7.5798616295796819 0 0 0 0 -63.821187743863455 2.0998986090262406 0 2.0998986090262406 8.5164803198495065 0 0 0 0 -59.717714597481518 -5.9540243844694487 0 -5.9540243844694487 14.400348620940349 0 0 0 0 -11.050727371178169 18.760070946487758 0 18.760070946487758 -4.6567202640871983 0 0 0 0 -6.2667911757510382 4.6555845697748737 0 4.6555845697748737 8.0133830866016069 0 0 0 0 -0.56951778279051601 -2.2507924849310257 0 -2.2507924849310257 7.2473148394148694 0 0 0 0 -5.6523067864302625 3.2188093120057601 0 3.2188093120057601 -2.3631920653861016 0 0 0 0 -37.224077175833159 -8.6609868604109579 0 -8.6609868604109579 3.5490190382697619 0 0 0 0 -2.2017225524559763 0.58539620698866202 0 0.58539620698866202 3.1387887034543382 0 0 0 0 -1.5796730831295762 -0.096354413788985571 0 -0.096354413788985571 4.1696594083891654 0 0 0 0 -1.7444048869047424 -1.6872085752034245 0 -1.6872085752034245 8.5162977224528937 0 0 0 0 -41.93572898590611 9.8189838434918784 0 9.8189838434918784 5.7635776110255392 0 0 0 0 -0.17199775006312487 0.041807745838518429 0 0.041807745838518429 1.2479303832374722 0 0 0 0 10.286902577428577 0.81937150860903785 0 0.81937150860903785 -1.9400351243675686 0 0 0 0 -40.132972334341218 -8.9317258709852467 0 -8.9317258709852467 0.53173363205860369 0 0 0 0 0.03451636104565492 1.1598994178695179 0 1.1598994178695179 5.9269133213747693 0 0 0 0 1.4616114637415762 -1.2868174171662758 0 -1.2868174171662758 11.643773951318508 0 0 0 0 1.5275740055956817 -0.32013079822081636 0 -0.32013079822081636 10.982950563593477 0 0 0 0 0.55562975628862987 1.0450233748489097 0 1.0450233748489097 2.3660774838906402 0 0 0 0 1.922316295419364 -1.0601111425612544 0 -1.0601111425612544 10.076707853821517 0 0 0 0 0.34088261507704942 0.55639698634240631 0 0.55639698634240631 9.625047538203944 0 0 0 0 -0.089199774827761757 -0.46506326159988021 0 -0.46506326159988021 9.3354668874990239 0 0 0 0 1.6723326956599749 0.18345257976670837 0 0.18345257976670837 9.4021208686817772 0 0 0 0 -0.32389332621683609 -3.0569242818910478 0 -3.0569242818910478 7.2415538870663596 0 0 0 0 -6.1180552780714805 -0.98296514213825503 0 -0.98296514213825503 14.675155481883849 0 0 0 0 -1.0353158015262949 -2.6044958975830923 0 -2.6044958975830923 14.911681790057628 0 0 0 0 -0.64320396586922679 0.089083746869047076 0 0.089083746869047076 1.7571863022676046 0 0 0 0 -0.48492097606614948 -1.9126264446508685 0 -1.9126264446508685 9.9283697840110108 0 0 0 0 -1.1273263416573751 -1.6057198167582083 0 -1.6057198167582083 4.5442229470710487 0 0 0 0 -27.110328097546585 -18.123752500483533 0 -18.123752500483533 11.717173260127993 0 0 0 0 -20.227212586986191 3.088107727700617 0 3.088107727700617 1.6372251502034487 0 0 0 0 27.976451868005014 -36.73330213049303 0 -36.73330213049303 -55.837752905559228 0 0 0 0 45.529252261452882 -32.131983607546658 0 -32.131983607546658 -13.209134642478602 0 0 0 0 -0.36652598986030649 -0.79017519945296399 0 -0.79017519945296399 3.2717078238347952 0 0 0 0 0.0081453150153549814 -0.039523530602920687 0 -0.039523530602920687 0.55404754280720869 0 0 0 0 0.23367540215686233 -0.30539265240349778 0 -0.30539265240349778 4.9626712868753202 0 0 0 0 1.4504107055415147 0.29244408979684522 0 0.29244408979684522 9.3066376019241943 0 0 0 0 -0.29873899814685245 -0.32941767195507055 0 -0.32941767195507055 6.6166344064331497 0 0 0 0 -0.27897797344280395 -1.7183791119200365 0 -1.7183791119200365 2.2932721298840626 0 0 0 0 0.81969516619278693 -5.3667852102553297 0 -5.3667852102553297 9.9976211917833098 0 0 0 0 -0.1551856932092619 -1.1517947632219148 0 -1.1517947632219148 11.317896923392254 0 0 0 0 2.3204829404184082 -2.2104431753090239 0 -2.2104431753090239 10.514557061767846 0 0 0 0 1.7888003460828372 -2.1083124533379305 0 -2.1083124533379305 10.511682002023008 0 0 0 0 2.5682570038519046 -3.5659620589308361 0 -3.5659620589308361 11.112304846170446 0 0 0 0 1.217246341130874 -3.6340162745509588 0 -3.6340162745509588 9.5785965635805042 0 0 0 0 0.56068624295897962 -2.9550326157586824 0 -2.9550326157586824 10.961950647182675 0 0 0 0 0.89240915704982626 -0.41032447418729134 0 -0.41032447418729134 8.9593999233493378 0 0 0 0 -0.22780868078441685 0.11877577158008989 0 0.11877577158008989 11.123413160898053 0 0 0 0 -0.35118206360965587 -0.042444899157999316 0 -0.042444899157999316 19.745965063197218 0 0 0 0 0.29283557717569642 -0.29017331611146346 0 -0.29017331611146346 -0.57030304234892526 0 0 0 0 0.81363489128870015 -3.103522531060662 0 -3.103522531060662 11.431759204861237 0 0 0 0 0.96891799845286641 -2.6043462476391142 0 -2.6043462476391142 9.3012153506424511 0 0 0 0 1.5109736249345112 -4.1356769512943856 0 -4.1356769512943856 7.9992875508760335 0 0 0 0 1.4775901903200861 -3.9578347647984629 0 -3.9578347647984629 9.7053243421883053 0 0 0 0 -5.4712637559965742 -4.4324987356012571 0 -4.4324987356012571 10.404626813933646 0 0 0 0 0.62423618512258372 -4.1849851157621742 0 -4.1849851157621742 10.281886439497612 0 0 0 0 3.59366000212529 -4.5316131363924796 0 -4.5316131363924796 7.2741451316042003 0 0 0 0 -0.3792940979743662 -0.65176781152331387 0 -0.65176781152331387 10.381548900548296 0 0 0 0 -1.9870304933915577 -2.185984177986029 0 -2.185984177986029 10.596545238051021 0 0 0 0 -9.784817119578463 -0.052526561144077277 0 -0.052526561144077277 10.311064252789947 0 0 0 0 -3.4303977235364869 -0.52479701221636788 0 -0.52479701221636788 10.44464695698889 0 0 0 0 -1.8999120908818838 -2.1189251097066517 0 -2.1189251097066517 10.802335706124722 0 0 0 0 5.4964291478847258 -6.7067698489963732 0 -6.7067698489963732 4.7770799722275115 0 0 0 0 2.3043382087180078 -10.320398062459844 0 -10.320398062459844 12.033906018477865 0 0 0 0 -13.371226238655396 -9.2366962014584715 0 -9.2366962014584715 12.284490388065933 0 0 0 0 3.5417294157274739 -23.411443498777317 0 -23.411443498777317 18.168816542278364 0 0 0 0 12.313627257251596 -9.1656309891964156 0 -9.1656309891964156 1.8737480532763584 0 0 0 0 1.9778484933316867 1.5444197025044843 0 1.5444197025044843 0.82858346717540954 0 0 0 0 20.763863584572988 -72.66994575370245 0 -72.66994575370245 75.235256218787981 0 0 0 0 -27.526921885097011 40.402075792858341 0 40.402075792858341 -20.46161873075107 0 0 0 0 8.7162984838143984 16.972578734047602 0 16.972578734047602 93.932495194272633 0 0 0 0 -10.129926869384121 -19.899786667971512 0 -19.899786667971512 17.305529843462864 0 0 0 0 -94.510417695944454 35.138297563546075 0 35.138297563546075 88.677426941232625 0 0 0 0 -103.87246869164929 -22.321810893523434 0 -22.321810893523434 187.62580725313455 0 0 0 0 -8.510500940401073 35.819329246202869 0 35.819329246202869 199.12315076513005 0 0 0 0 -12.294733349628871 -38.481232448119044 0 -38.481232448119044 254.98636314413307 0 0 0 0 2.4365027460408442 -23.739257349313448 0 -23.739257349313448 131.47703092961456 0 0 0 0 -7.2805915126680247 38.930254894479731 0 38.930254894479731 192.77519801948984 0 0 0 0 17.814818341141859 62.673742834542281 0 62.673742834542281 226.20828192960107 0 0 0 0 -13.030487568612813 15.479944514294402 0 15.479944514294402 138.32602696420327 0 0 0 0 -7.5724989922600798 22.680491867142337 0 22.680491867142337 135.02548093167798 0 0 0 0 -3.7015924699067 -1.2338304675913605 0 -1.2338304675913605 7.5314551266910712 0 0 0 0 7.3064161526028784 8.6221414957954039 0 8.6221414957954039 21.409733919463633 0 0 0 0 1.4835618566884063 1.4975205814049346 0 1.4975205814049346 0.61390861841783106 0 0 0 0 -3.4188109514411025 -0.16321908940710728 0 -0.16321908940710728 10.528488943604316 0 0 0 0 7.1344155903621029 -4.7102012188152003 0 -4.7102012188152003 -0.7428162741525739 0 0 0 0 7.3365705284141889 0.55595400966831221 0 0.55595400966831221 -6.8109684613773425 0 0 0 0 30.575076911454062 49.835880927535072 0 49.835880927535072 94.025555204756529 0 0 0 0 6.6607202029453259 38.216036035007662 0 38.216036035007662 102.31568878940379 0 0 0 0 -9.3856520295918244 26.182652030815916 0 26.182652030815916 104.12045732782451 0 0 0 0 1.1983866932442666 64.180107291485001 0 64.180107291485001 168.12692935527593 0 0 0 0 9.6037113058866233 38.863949221138228 0 38.863949221138228 114.37142757334732 0 0 0 0 13.534892969479046 94.88337574545767 0 94.88337574545767 231.47061344933604 0 0 0 0 20.6674112677563 2.8215435823904045 0 2.8215435823904045 250.40188596826601 0 0 0 0 10.137105476788424 42.209749923878462 0 42.209749923878462 173.47172019512436 0 0 0 0 -2.4345908549418311 38.185186435270225 0 38.185186435270225 176.29429063759017 0 0 0 0 1.6363563450914569 46.267308564208179 0 46.267308564208179 174.4114402905841 0 0 0 0 -15.160816531549983 51.060401241380532 0 51.060401241380532 175.83994778923443 0 0 0 0 -3.2003683352244821 61.936127631151976 0 61.936127631151976 183.10149237207406 0 0 0 0 28.496336517488032 48.489724785690669 0 48.489724785690669 174.44401211195873 0 0 0 0 14.808855531283484 66.355430831528793 0 66.355430831528793 172.26193743454951 0 0 0 0 1.5213776449866145 57.185446618203059 0 57.185446618203059 182.89335730059975 0 0 0 0 0.85385735608866753 67.492975740289694 0 67.492975740289694 202.62709671517405 0 0 0 0 39.340181025528068 63.888251211747956 0 63.888251211747956 182.8522532222687 0 0 0 0 -9.1604217671620063 45.840296665581263 0 45.840296665581263 177.54760572296709 0 0 0 0 -10.758818161431011 51.668029460212125 0 51.668029460212125 171.47014698258135 0 0 0 0 86.610341849867837 66.218057493625565 0 66.218057493625565 151.65921956598686 0 0 0 0 39.996889352408871 51.885490143328241 0 51.885490143328241 189.83758081376618 0 0 0 0 118.50164979850172 112.23557968542082 0 112.23557968542082 229.32615516831356 0 0 0 0 51.737808154578829 63.898099015072148 0 63.898099015072148 179.65463233194987 0 0 0 0 100.50038534807891 13.715255857889588 0 13.715255857889588 134.63196778840393 0 0 0 0 98.23023972775303 20.557793796921032 0 20.557793796921032 176.22037028814157 0 0 0 0 154.57940427284609 -32.274026422373026 0 -32.274026422373026 173.26592394646286 0 0 0 0 166.31361000510685 36.805314778005595 0 36.805314778005595 52.148533909849448 0 0 0 0 36.873821887833969 109.76803806655698 0 109.76803806655698 120.59921231995622 0 0 0 0 87.379355878400503 68.144256997333059 0 68.144256997333059 153.70596709756137 0 0 0 0 45.104147186614284 121.74554629476688 0 121.74554629476688 157.54862686666638 0 0 0 0 32.623108992907646 127.13972650543201 0 127.13972650543201 167.95768198511132 0 0 0 0 43.087330629166274 99.570772244928548 0 99.570772244928548 145.93444493977586 0 0 0 0 34.357977226033597 127.89046321361479 0 127.89046321361479 166.36699343700457 0 0 0 0 19.812525711406124 123.71559733590129 0 123.71559733590129 170.33090989105949 0 0 0 0 73.729888672060042 152.38810681943505 0 152.38810681943505 180.10929194980054 0 0 0 0 31.929271442538493 111.22712243134038 0 111.22712243134038 149.82922499033884 0 0 0 0 -2.0580159924475083 83.468836140396888 0 83.468836140396888 167.68167939422256 0 0 0 0 12.389307866279523 71.285822672032737 0 71.285822672032737 105.80203344824554 0 0 0 0 98.19506057179683 121.84919978187008 0 121.84919978187008 94.368370695628528 0 0 0 0 35.816996795750399 99.998179971911895 0 99.998179971911895 249.16425060873007 0 0 0 0 132.78204209497989 30.830701875616796 0 30.830701875616796 178.27470928473849 0 0 0 0 13.528719141856755 57.703658471087692 0 57.703658471087692 336.37382391117171 0 0 0 0 1.2051064253603263 0.52137526318587391 0 0.52137526318587391 0.39244508567501768 0 0 0 0 -3.7172905466463817 -3.5030294570478873 0 -3.5030294570478873 353.12225187932563 0 0 0 0 87.308073920969449 57.696055159146226 0 57.696055159146226 38.004408903321746 0 0 0 0 23.859743717296382 -6.3747217495192672 0 -6.3747217495192672 -5.231181248476787 0 0 0 0 0.60017945667569594 -0.71500322406189376 0 -0.71500322406189376 0.81261173164779166 0 0 0 0 125.38660659066733 -33.634163356244244 0 -33.634163356244244 -93.251206450877362 0 0 0 0 41.49151209003719 14.414130734772698 0 14.414130734772698 48.963920779714044 0 0 0 0 43.449418893442243 -28.000191658582025 0 -28.000191658582025 8.09152032836937 0 0 0 0 11.041496877262318 -6.7468271579818975 0 -6.7468271579818975 -2.6906296730376198 0 0 0 0 3.1487838413228815 11.152603229970737 0 11.152603229970737 -10.163266519404715 0 0 0 0 4.9553588594645817 1.817890023408836 0 1.817890023408836 -1.632398948348964 0 0 0 0 15.831423789713426 -2.2090149302994178 0 -2.2090149302994178 -0.20201719410033547 0 0 0 0 6.3435508493092243 -6.5104391295153619 0 -6.5104391295153619 1.3415079097494527 0 0 0 0 8.7768040047118063 -3.6702887761639431 0 -3.6702887761639431 4.1790785779230646 0 0 0 0 47.549209240799655 72.058808914518522 0 72.058808914518522 55.309798953825521 0 0 0 0 -18.001505447901479 8.9408421478728997 0 8.9408421478728997 7.3285510730402166 0 0 0 0 -14.937508341842516 -7.3591280054200752 0 -7.3591280054200752 18.090075073279877 0 0 0 0 0.079679748465425151 0.083465383611748933 0 0.083465383611748933 0.26425224497922528 0 0 0 0 9.3982080373267305 -15.16750982136503 0 -15.16750982136503 10.216441401425982 0 0 0 0 -2.2506947136552542 -14.98032097428586 0 -14.98032097428586 18.969652769603272 0 0 0 0 -2.4394308410975043 -1.456225039813944 0 -1.456225039813944 14.160242780073531 0 0 0 0 -3.9409493638072206 -3.7821224969084142 0 -3.7821224969084142 11.028906816689414 0 0 0 0 0.00097458829102947675 -6.5470035131002078 0 -6.5470035131002078 12.897430264350987 0 0 0 0 2.8961824236340306 -1.8011712823245034 0 -1.8011712823245034 3.5939172377848081 0 0 0 0 0.56516759355031354 -2.2721002635098557 0 -2.2721002635098557 10.073697099485798 0 0 0 0 -3.9212230469231457 2.0806302004693862 0 2.0806302004693862 6.8616323501810257 0 0 0 0 0.32190228640183705 -3.0258971942785138 0 -3.0258971942785138 9.0857591548738128 0 0 0 0 0.42713766975825251 -1.8081268023856865 0 -1.8081268023856865 8.5198191169802158 0 0 0 0 1.4084971733126679 -2.7369845997964148 0 -2.7369845997964148 8.5879477743544612 0 0 0 0 1.1017010362650126 -2.563482416241186 0 -2.563482416241186 8.6544344796711812 0 0 0 0 1.8600868892435187 -0.84547060139720998 0 -0.84547060139720998 8.7338784915627912 0 0 0 0 2.4131787024434175 -1.4085477043354331 0 -1.4085477043354331 6.9581044153474068 0 0 0 0 2.7501977886333293 -1.4809605167974951 0 -1.4809605167974951 5.8119943193742074 0 0 0 0 1.2821587247294524 -3.3809027415588844 0 -3.3809027415588844 9.0936862149792432 0 0 0 0 3.2488842953510471 -4.311060752852427 0 -4.311060752852427 6.3160506783460733 0 0 0 0 -13.926983132998778 -8.5017889134182951 0 -8.5017889134182951 6.4552570531209312 0 0 0 0 3.2564389428582672 -4.6003470370833384 0 -4.6003470370833384 5.9959611387057521 0 0 0 0 9.3274756308058784 -6.0114747030447688 0 -6.0114747030447688 4.4151553007541224 0 0 0 0 7.2898576872180456 -7.7677993199031334 0 -7.7677993199031334 8.4687909016101912 0 0 0 0 8.0738802234331501 -4.2642124398407759 0 -4.2642124398407759 2.2928382784339192 0 0 0 0 -5.5961612746046612 1.7838303512477296 0 1.7838303512477296 1.2416980967245763 0 0 0 0 -1.4878180411922131 1.2002593836987216 0 1.2002593836987216 -0.84569662257854361 0 0 0 0 4.8827148730746899 -0.28635274809948896 0 -0.28635274809948896 0.40009593035210855 0 0 0 0 2.3419603992690838 14.380490314090366 0 14.380490314090366 -13.812022267612519 0 0 0 0 0.23768646516785452 2.8779000897793594 0 2.8779000897793594 5.54737559795376 0 0 0 0 -5.1764792038670375 6.0399746165624606 0 6.0399746165624606 2.9140129497827729 0 0 0 0 -0.47530777757311643 0.60547420440122224 0 0.60547420440122224 3.4760155070412857 0 0 0 0 0.23547755374964346 0.7925565294397714 0 0.7925565294397714 0.38408862948188016 0 0 0 0 -2.2324631135759319 3.7636473811198812 0 3.7636473811198812 1.5079418549357797 0 0 0 0 -1.7791634236731397 4.1847262737119308 0 4.1847262737119308 1.6377518584995414 0 0 0 0 -2.1819267129770878 5.0633524431723345 0 5.0633524431723345 1.5590437959035626 0 0 0 0 -3.6902210769204657 4.5449401868609129 0 4.5449401868609129 2.2005225735847489 0 0 0 0 -3.2152361502072919 6.8105958928488235 0 6.8105958928488235 3.0945442786305648 0 0 0 0 0.89950595331254135 0.1869465084237163 0 0.1869465084237163 -0.98912267529885867 0 0 0 0 0.19822192013468509 -0.72028744489443852 0 -0.72028744489443852 2.8376243797702045 0 0 0 0 -0.17490607501208899 0.871697034826866 0 0.871697034826866 9.4570225582720013 0 0 0 0 1.9542131173275834 1.2569114690923016 0 1.2569114690923016 6.3188431092439714 0 0 0 0 2.9717011324205487 0.3292571565725666 0 0.3292571565725666 -0.16101643880756455 0 0 0 0 3.0227929155113316 0.72355669293483516 0 0.72355669293483516 -0.005728542288125027 0 0 0 0 4.0913927308265556 -0.52362535807878885 0 -0.52362535807878885 0.36281263565615518 0 0 0 0 3.3200214983025944 -0.083769622639010777 0 -0.083769622639010777 0.30162169232789893 0 0 0 0 4.2913288441227166 0.27633082458601166 0 0.27633082458601166 -0.030874060248606838 0 0 0 0 4.1476817339118952 0.42901664884266211 0 0.42901664884266211 -0.13664531194331175 0 0 0 0 5.1439294515715801 1.3946949307310206 0 1.3946949307310206 -0.34051984472898766 0 0 0 0 3.5509253677271317 3.1807797435903922 0 3.1807797435903922 -0.37469183464190792 0 0 0 0 2.2845202293153761 1.430945835340026 0 1.430945835340026 -0.22472263163308526 0 0 0 0 1.496433931847605 5.8367345370825205 0 5.8367345370825205 1.7135081297492434 0 0 0 0 2.445934937637162 2.8618048345178977 0 2.8618048345178977 0.14296892414131435 0 0 0 0 2.5913590179748098 2.9191284465614444 0 2.9191284465614444 0.12685151608729939 0 0 0 0 0.26547242639912838 4.9428644520212401 0 4.9428644520212401 1.175234152466146 0 0 0 0 1.0782292700882863 2.3402323788166086 0 2.3402323788166086 0.15616703572595725 0 0 0 0 0.98233057909760646 2.5247554518427933 0 2.5247554518427933 0.11788094140047178 0 0 0 0 -0.84209478430523177 1.6297527531969536 0 1.6297527531969536 -0.14067772691123537 0 0 0 0 3.448764111662058 0.97789832186481362 0 0.97789832186481362 -0.3559185541998886 0 0 0 0 1.9660372256332721 1.1691768738055544 0 1.1691768738055544 -0.22674656646086078 0 0 0 0 2.0988160901933952 1.2344739132458926 0 1.2344739132458926 -0.50181843774043955 0 0 0 0 -0.51837943789485053 2.7947576695478347 0 2.7947576695478347 0.14276954664273944 0 0 0 0 -0.33735689112973344 0.40141233667947418 0 0.40141233667947418 2.8004748847101588 0 0 0 0 0.85353993161857034 1.822630959617527 0 1.822630959617527 -0.17104921653663041 0 0 0 0 1.458532139661088 1.0807544089111616 0 1.0807544089111616 0.32955813256194233 0 0 0 0 1.2158259453105984 1.4699956257154554 0 1.4699956257154554 0.12907148384692846 0 0 0 0 -1.4588334613508778 1.7981445930672635 0 1.7981445930672635 -0.33460620488767745 0 0 0 0 0.91997113585944135 1.8581518590663109 0 1.8581518590663109 -0.57640779000939801 0 0 0 0 -0.20091098633497495 2.4395039274568262 0 2.4395039274568262 -0.33361021089513088 0 0 0 0 -0.034781761667545652 2.1352213098325592 0 2.1352213098325592 -0.088858040093327872 0 0 0 0 -1.0248648770889304 1.6957880578993354 0 1.6957880578993354 -0.93751022607830237 0 0 0 0 -0.11936479903249619 2.3540314531883269 0 2.3540314531883269 -0.57662248696578899 0 0 0 0 -0.34224866564682088 2.2487221206756658 0 2.2487221206756658 -0.68349088807190128 0 0 0 0 -0.048870779324488467 2.6537711611144914 0 2.6537711611144914 -0.15253547009001522 0 0 0 0 0.18508887920381767 1.7866710675771174 0 1.7866710675771174 0.84960697779024485 0 0 0 0 0.44675650571775805 2.0827223133674124 0 2.0827223133674124 0.4218961829028558 0 0 0 0 0.16298918616166702 2.3492690724488057 0 2.3492690724488057 0.33292964239899447 0 0 0 0 -0.14142995270867686 2.0652912996592931 0 2.0652912996592931 0.77606338817258802 0 0 0 0 -2.4506766854528905 1.3173999383448063 0 1.3173999383448063 1.4808868155087112 0 0 0 0 3.0973891032392658 0.1064002909483861 0 0.1064002909483861 0.025345041278342251 0 0 0 0 2.0180608047426176 0.14413382042039302 0 0.14413382042039302 1.3111143920577888 0 0 0 0 0.1557765448882279 0.13743119054750497 0 0.13743119054750497 1.016704038950877 0 0 0 0 0.89764757081547941 1.0175277407324756 0 1.0175277407324756 1.5072648861305424 0 0 0 0 1.340172497874164 0.64246746421849821 0 0.64246746421849821 0.94561776300542988 0 0 0 0 2.4579039953732718 1.1044769162290322 0 1.1044769162290322 -0.40922826789756073 0 0 0 0 2.7830445162474007 0.24259407362433194 0 0.24259407362433194 0.095778777766099665 0 0 0 0 2.5448297037298744 0.43624145002286241 0 0.43624145002286241 -0.037639835551090073 0 0 0 0 2.7396786727205722 -0.082769017321425054 0 -0.082769017321425054 0.66456940468560788 0 0 0 0 -0.32677414255197235 0.033148695119463056 0 0.033148695119463056 0.77752367342927187 0 0 0 0 27.753017774532523 33.830482501714073 0 33.830482501714073 136.41995616817803 0 0 0 0 24.109744445925116 -27.552343580206525 0 -27.552343580206525 36.426494874505806 0 0 0 0 0.44528281216584675 0.18867049495215582 0 0.18867049495215582 0.18325861259636866 0 0 0 0 -0.057057939509149946 1.7307858868371113 0 1.7307858868371113 1.1686153961227319 0 0 0 0 0.047943223594598267 0.35539862562546221 0 0.35539862562546221 1.3235295981664379 0 0 0 0 20.051373992560798 -13.645354405817216 0 -13.645354405817216 -8.0036282682649471 0 0 0 0 -35.913284118351839 27.923896117754339 0 27.923896117754339 21.236554563163736 0 0 0 0 10.485660836616816 23.505004582661059 0 23.505004582661059 -23.282759708632511 0 0 0 0 -0.67226636994485034 2.6378656261294964 0 2.6378656261294964 0.81622060138670349 0 0 0 0 0.61791084478872937 -0.53832921888433916 0 -0.53832921888433916 0.034289319103255167 0 0 0 0 1.6263572785124278 -1.8130688485870188 0 -1.8130688485870188 1.9404336871427894 0 0 0 0 29.033298572324213 -25.946815501163655 0 -25.946815501163655 12.388495007297024 0 0 0 0 12.261230481314442 8.8611943972955487 0 8.8611943972955487 57.758046650431424 0 0 0 0 0.90629442601283472 31.583281326510814 0 31.583281326510814 110.02093278388929 0 0 0 0 -25.879521524733264 36.729055254018022 0 36.729055254018022 110.97534931201699 0 0 0 0 -12.175565527763069 -25.842264087417789 0 -25.842264087417789 143.00284385256782 0 0 0 0 -30.403305439784205 113.65993822019112 0 113.65993822019112 283.04536958751487 0 0 0 0 53.865880595097451 140.24963031922016 0 140.24963031922016 225.95586991400251 0 0 0 0 75.481471309798053 191.3783931699536 0 191.3783931699536 307.08486019120664 0 0 0 0 0.073144473518823361 109.39285507754266 0 109.39285507754266 338.95348256553189 0 0 0 0 -23.652668646179563 63.482657221435147 0 63.482657221435147 277.41368743896783 0 0 0 0 125.76593451936151 95.739652286291857 0 95.739652286291857 61.654168867961744 0 0 0 0 187.82890226572215 168.97959621066775 0 168.97959621066775 111.56589212313884 0 0 0 0 40.795684971474657 369.87608226017528 0 369.87608226017528 202.67313254391775 0 0 0 0 -48.836990261293977 217.03902549309691 0 217.03902549309691 281.01544974980425 0 0 0 0 152.14229912056749 128.54736152695841 0 128.54736152695841 -56.863690553616834 0 0 0 0 179.65824209746916 31.910182448468731 0 31.910182448468731 189.61490652508655 0 0 0 0 -38.740091604625832 161.45739368110117 0 161.45739368110117 584.80427623280775 0 0 0 0 0.16742658906572183 0.59665561829045988 0 0.59665561829045988 1.1163491297975128 0 0 0 0 -14.687830374991563 -8.7574877209117403 0 -8.7574877209117403 193.23518801194314 0 0 0 0 46.426163634906288 -3.7376306854130235 0 -3.7376306854130235 -81.593368008710968 0 0 0 0 46.240065010824367 17.265846616342891 0 17.265846616342891 -69.483767993442598 0 0 0 0 -0.095350143457745729 0.35065800418171289 0 0.35065800418171289 1.7786573819023452 0 0 0 0 16.316401990081431 -34.457214443567864 0 -34.457214443567864 -98.917374686255243 0 0 0 0 18.594255285767986 -5.1027001560102008 0 -5.1027001560102008 -60.593846706044133 0 0 0 0 -97.844639757561708 -31.741150188066968 0 -31.741150188066968 10.305572228062374 0 0 0 0 -1.9469627306282291 10.188823199568105 0 10.188823199568105 -22.185245429712268 0 0 0 0 6.3488742836818801 -107.7654377520812 0 -107.7654377520812 -37.535983492146954 0 0 0 0 113.14140023624793 7.3586243898075736 0 7.3586243898075736 -27.068426639065365 0 0 0 0 -11.72565177197049 -24.045945496134891 0 -24.045945496134891 -33.098262934157901 0 0 0 0 -12.709931882511 -23.459343370275747 0 -23.459343370275747 -10.656804337555968 0 0 0 0 -1.4534094510215709 2.7498894909458613 0 2.7498894909458613 2.9108060039689008 0 0 0 0 -9.82537382535088 -15.126019398668177 0 -15.126019398668177 7.752230445483292 0 0 0 0 74.743284078219858 44.320700184964153 0 44.320700184964153 -79.92017540784127 0 0 0 0 2.8234635399315477 1.3269947226230148 0 1.3269947226230148 0.55244788323004812 0 0 0 0 54.923874850544394 15.532776488786112 0 15.532776488786112 171.35263806337753 0 0 0 0 72.861640929425221 -25.844167812889282 0 -25.844167812889282 -20.867125894308174 0 0 0 0 -32.408126207000322 89.062889963250655 0 89.062889963250655 327.08213647885441 0 0 0 0 40.953940638160191 6.9007032767608507 0 6.9007032767608507 280.28130317422074 0 0 0 0 200.41323703251493 243.71474416303428 0 243.71474416303428 251.92486296430434 0 0 0 0 -39.829033122112833 49.295137402099044 0 49.295137402099044 751.3376098227518 0 0 0 0 75.922248441866373 299.80336247169953 0 299.80336247169953 -234.01762130789302 0 0 0 0 54.999194993351693 110.30000829757091 0 110.30000829757091 -205.67459557412076 0 0 0 0 2.1772247364924535 2.1269113606151713 0 2.1269113606151713 1.4435270161808216 0 0 0 0 69.910605122080369 185.10570682713023 0 185.10570682713023 -72.716411332439748 0 0 0 0 -196.63209410263198 -30.823485461736709 0 -30.823485461736709 41.171031431585106 0 0 0 0 -29.283355176491114 103.83858091719731 0 103.83858091719731 -129.23763917155156 0 0 0 0 -0.45753980195339317 0.025268178280622777 0 0.025268178280622777 -0.066634173280368358 0 0 0 0 -45.931066267592996 11.188709217470205 0 11.188709217470205 16.500152561970935 0 0 0 0 -23.18283602643578 10.822927641267597 0 10.822927641267597 15.247489013441736 0 0 0 0 -51.914941504675653 -17.530486606111253 0 -17.530486606111253 34.880887816842005 0 0 0 0 -28.227068859918973 -55.229268756290367 0 -55.229268756290367 94.401203306686028 0 0 0 0 -72.912869756254167 114.44790102354773 0 114.44790102354773 98.959318315770361 0 0 0 0 61.350512665336737 -17.298751055042885 0 -17.298751055042885 5.7404358722069446 0 0 0 0 75.726468475729007 52.986036265252551 0 52.986036265252551 103.01061529782208 0 0 0 0 78.969598034620731 36.016202291570607 0 36.016202291570607 158.43768569084205 0 0 0 0 72.861256290035499 121.83849052359528 0 121.83849052359528 162.54303858074127 0 0 0 0 93.252116599870192 80.798348133657328 0 80.798348133657328 145.69863890390479 0 0 0 0 83.227641329141932 106.62086320485275 0 106.62086320485275 175.68672659875301 0 0 0 0 46.061357833808415 116.50218010020808 0 116.50218010020808 114.50586811302946 0 0 0 0 24.058865065632062 95.995614339893109 0 95.995614339893109 143.30824390102453 0 0 0 0 -0.080326054782624112 -0.37775029222540457 0 -0.37775029222540457 1.669769124922766 0 0 0 0 26.154267939768033 70.07984634407876 0 70.07984634407876 164.53806485762789 0 0 0 0 -23.188624595182546 -56.381394347956757 0 -56.381394347956757 13.298232320297757 0 0 0 0 32.994181300092677 47.130265272631505 0 47.130265272631505 39.909097138639481 0 0 0 0 -117.5161417107081 -11.00056808838508 0 -11.00056808838508 96.304253335616977 0 0 0 0 0.14014284239716623 -1.2035339268555578 0 -1.2035339268555578 3.3233908899931421 0 0 0 0 -46.492130129409759 -25.506008891132979 0 -25.506008891132979 16.362944121325199 0 0 0 0 -12.019724072152258 3.3463867526234026 0 3.3463867526234026 -18.17519988137974 0 0 0 0 -11.828117704733245 -10.263058692161394 0 -10.263058692161394 48.416903860156708 0 0 0 0 -21.670610211706446 12.083910410205362 0 12.083910410205362 88.825962140041156 0 0 0 0 -2.6032495517035841 -9.2380290669418628 0 -9.2380290669418628 28.867151493399433 0 0 0 0 12.707349568720701 19.89682342476317 0 19.89682342476317 50.409263496439962 0 0 0 0 10.771240536851337 36.692964477565511 0 36.692964477565511 49.682957518875455 0 0 0 0 -5.0672456932941259 -4.4161228254015441 0 -4.4161228254015441 4.096421936454135 0 0 0 0 0.12331714267067095 -1.142369629833313 0 -1.142369629833313 1.6737558383163993 0 0 0 0 5.4662862980095497 19.330306058285259 0 19.330306058285259 50.110689623914368 0 0 0 0 41.873078893145703 64.128896036785363 0 64.128896036785363 82.365484702108915 0 0 0 0 -10.377867438371595 30.613162576686591 0 30.613162576686591 46.090685739009132 0 0 0 0 7.7501787038911516 22.851889780889451 0 22.851889780889451 23.387298147748879 0 0 0 0 -14.363659123200478 8.6485100701029296 0 8.6485100701029296 52.182765233685132 0 0 0 0 1.2743822020574953 25.573463192847157 0 25.573463192847157 -5.4075004699825513 0 0 0 0 -31.442207142094617 5.3110932630215757 0 5.3110932630215757 100.85514494973722 0 0 0 0 -5.9881269525794778 52.086662166878341 0 52.086662166878341 84.961311724984625 0 0 0 0 -131.10452015675628 17.240370515424729 0 17.240370515424729 225.17606691013498 0 0 0 0 -2.206384014034029 16.477142107382406 0 16.477142107382406 59.900386631443325 0 0 0 0 6.7351609437023399 12.569295022549341 0 12.569295022549341 52.550418074149206 0 0 0 0 -3.0263392847323587 -11.060577192697565 0 -11.060577192697565 9.7566312679446128 0 0 0 0 -2.9537955322423697 -0.32514636349634429 0 -0.32514636349634429 1.0022385833399663 0 0 0 0 2.5155143694100843 -1.1353329152861988 0 -1.1353329152861988 18.607345430753412 0 0 0 0 8.1190070468037447 -48.697682196258029 0 -48.697682196258029 67.025025763556982 0 0 0 0 -1.02999228693223 0.13322416620304267 0 0.13322416620304267 0.07547737967518664 0 0 0 0 -50.180270240294703 -106.48096379451817 0 -106.48096379451817 40.108589748724626 0 0 0 0 20.679778032021204 -19.844695372448768 0 -19.844695372448768 32.390002271476988 0 0 0 0 83.630545399284074 -51.901398503139717 0 -51.901398503139717 11.294834834784524 0 0 0 0 65.654424439841478 -126.78183944765806 0 -126.78183944765806 42.044885840638017 0 0 0 0 89.017236275946516 -122.48316599582756 0 -122.48316599582756 5.5729011195871863 0 0 0 0 49.010827953861735 -22.180212149366525 0 -22.180212149366525 -13.38326251629951 0 0 0 0 179.98571806493851 -47.088959648138371 0 -47.088959648138371 -8.7871187531059149 0 0 0 0 57.14958531798311 -105.21351915127889 0 -105.21351915127889 27.890163652769843 0 0 0 0 83.487903810363832 -131.69171119163002 0 -131.69171119163002 54.211779775723699 0 0 0 0 -37.86421293480754 -53.843535339976484 0 -53.843535339976484 151.5961547622519 0 0 0 0 1.0023672893659126 -0.88523701242702302 0 -0.88523701242702302 0.83384310463093314 0 0 0 0 -49.13229893874427 4.2541058061060539 0 4.2541058061060539 59.021379507201345 0 0 0 0 -7.2426602740088057 -60.300740990523252 0 -60.300740990523252 135.39296387825379 0 0 0 0 23.924881417203324 -10.362745009699211 0 -10.362745009699211 -48.039701316591163 0 0 0 0 -8.3764727509628756 -7.3306010282994976 0 -7.3306010282994976 30.289462384365606 0 0 0 0 39.386138602985739 -63.722570230185738 0 -63.722570230185738 94.80713510291389 0 0 0 0 26.716298122617445 -46.015944663469782 0 -46.015944663469782 29.190090475586572 0 0 0 0 -14.580873664816863 -54.090503785888359 0 -54.090503785888359 -33.02056768005059 0 0 0 0 1.75382591853139 -2.4928700042911487 0 -2.4928700042911487 2.1429226895699891 0 0 0 0 -2.9474836886330422 25.624207455474789 0 25.624207455474789 -2.8586400846234028 0 0 0 0 12.930360981402941 5.8381622675185554 0 5.8381622675185554 -51.919826125413238 0 0 0 0 -0.66966670477285728 -0.45860807144070748 0 -0.45860807144070748 0.74178795708397616 0 0 0 0 20.365121910506332 -13.093719740384586 0 -13.093719740384586 -29.028101895728469 0 0 0 0 27.963489783938204 19.056238992576354 0 19.056238992576354 -9.9332537608806888 0 0 0 0 47.636557701671791 -7.6547796709828617 0 -7.6547796709828617 12.628417738453209 0 0 0 0 67.068839130155538 19.406053772692758 0 19.406053772692758 33.105792211574226 0 0 0 0 37.26107754317286 53.301536669373036 0 53.301536669373036 38.457090217263612 0 0 0 0 20.326972640963731 58.106849830350257 0 58.106849830350257 116.95502696204858 0 0 0 0 -4.8773325413783368 21.954745932854166 0 21.954745932854166 65.35417871174468 0 0 0 0 168.15164439824366 -16.281082344654351 0 -16.281082344654351 45.608421560591523 0 0 0 0 273.377635376321 -77.212298097507301 0 -77.212298097507301 64.843358918762533 0 0 0 0 150.42537509273882 96.795164306123297 0 96.795164306123297 122.72883545349941 0 0 0 0 37.070176953367081 -62.531170773871054 0 -62.531170773871054 94.690680080542734 0 0 0 0 -11.409067977132509 -55.132552276472779 0 -55.132552276472779 125.88045018508637 0 0 0 0 82.710193216567859 -96.425194478357298 0 -96.425194478357298 119.21739795999747 0 0 0 0 111.44845746296505 -20.510008238463342 0 -20.510008238463342 48.860783392290614 0 0 0 0 87.122679485681147 -126.06693565891146 0 -126.06693565891146 168.63012605854965 0 0 0 0 35.449069246724321 -61.055481178467744 0 -61.055481178467744 125.61665915184585 0 0 0 0 23.35160116930183 -69.070097169858855 0 -69.070097169858855 126.1179574432208 0 0 0 0 -4.3675154153088442 -62.061276494780031 0 -62.061276494780031 128.90800234197559 0 0 0 0 -27.02187253042041 7.4963015783287119 0 7.4963015783287119 -4.9182568662108679 0 0 0 0 0.9854130284865481 -1.0014146531901256 0 -1.0014146531901256 1.1250443748745091 0 0 0 0 9.5938763615870357 -73.068973066870967 0 -73.068973066870967 151.96459920269831 0 0 0 0 -11.151440680450833 -36.312606554807644 0 -36.312606554807644 109.73586009755309 0 0 0 0 -0.25389235782392472 -0.059273707331957581 0 -0.059273707331957581 0.35506815622617438 0 0 0 0 77.185332653902833 -94.172829052159614 0 -94.172829052159614 142.50992775657136 0 0 0 0 180.16811004468809 29.728047108066221 0 29.728047108066221 -3.0913893575689144 0 0 0 0 56.850741498287789 -13.746543106140052 0 -13.746543106140052 -11.079334918438235 0 0 0 0 64.059145954919927 2.5330281105657377 0 2.5330281105657377 4.277340376360371 0 0 0 0 42.610425168337315 -9.0742113496021375 0 -9.0742113496021375 6.3624844534873546 0 0 0 0 46.961466457537426 -15.259638754504977 0 -15.259638754504977 -0.66690449549332698 0 0 0 0 44.02219705716243 -13.251474147830777 0 -13.251474147830777 3.2636441380327597 0 0 0 0 46.101079410499253 -34.213085945286707 0 -34.213085945286707 -4.513701852369195 0 0 0 0 -19.456818916904695 -15.214427029010949 0 -15.214427029010949 5.6728105582923263 0 0 0 0 -1.0350625849519228 0.66054218468873671 0 0.66054218468873671 0.37088784450452295 0 0 0 0 1.3488704885588638 -2.7636012779694736 0 -2.7636012779694736 3.9126680388753456 0 0 0 0 -2.3257183088123838 -12.950515238951994 0 -12.950515238951994 -18.626435296208001 0 0 0 0 0.35102030682307417 -0.62925698340539071 0 -0.62925698340539071 0.3038111344296226 0 0 0 0 44.503267824178693 -41.114455234612251 0 -41.114455234612251 -4.7152744555369281 0 0 0 0 17.724445834310245 -11.287653915931514 0 -11.287653915931514 -39.544532912281284 0 0 0 0 6.5820211814009326 0.35300653911326663 0 0.35300653911326663 -22.507651967254787 0 0 0 0 -30.929296758468809 0.09891962797701126 0 0.09891962797701126 7.1199543313184677 0 0 0 0 -33.057001041108379 17.633325973758474 0 17.633325973758474 -21.35999836679548 0 0 0 0 -0.23583546235738639 0.021392926399508738 0 0.021392926399508738 0.13707978121434294 0 0 0 0 28.034111355035748 17.08875095097028 0 17.08875095097028 -19.065515218398559 0 0 0 0 12.882916878653305 20.244923330443271 0 20.244923330443271 -6.4880187148119148 0 0 0 0 36.606035231212445 8.9913475019984617 0 8.9913475019984617 -53.72531826913837 0 0 0 0 23.139102409622865 8.8132547302739113 0 8.8132547302739113 -19.307582029570767 0 0 0 0 37.321210624749256 24.368351184231869 0 24.368351184231869 -19.904322816243848 0 0 0 0 32.972902165878622 11.501073529459063 0 11.501073529459063 16.849680288662057 0 0 0 0 43.764121108945801 26.371584400490974 0 26.371584400490974 -5.3278860609971161 0 0 0 0 2.075453021748217 38.647202468317118 0 38.647202468317118 -19.655117165610136 0 0 0 0 68.402381916267132 -17.850967933165521 0 -17.850967933165521 26.215252005065281 0 0 0 0 19.062632768931962 5.9266950860273937 0 5.9266950860273937 27.865606036026293 0 0 0 0 -1.5894235186833612 -52.656723067771964 0 -52.656723067771964 99.93053068615518 0 0 0 0 -27.394793960026846 -8.7470435633481429 0 -8.7470435633481429 67.587962246914685 0 0 0 0 -14.053161079686788 -65.634983863453726 0 -65.634983863453726 125.53314547252739 0 0 0 0 -12.136806318896561 -54.491474215281414 0 -54.491474215281414 122.72405868226997 0 0 0 0 7.4675525472823665 -62.725092757387756 0 -62.725092757387756 107.72462195278422 0 0 0 0 -7.9774674412424247 -69.263449720776407 0 -69.263449720776407 107.56339077686246 0 0 0 0 51.3699836765702 -125.59852592840252 0 -125.59852592840252 151.78047060896279 0 0 0 0 -9.2650883989490467 -70.742309525623568 0 -70.742309525623568 130.89305359730497 0 0 0 0 21.241189713581662 29.227565301333925 0 29.227565301333925 176.22335362378908 0 0 0 0 40.799997122080413 15.066706456668271 0 15.066706456668271 18.031140246399445 0 0 0 0 161.41746165292261 -28.948455776237097 0 -28.948455776237097 30.548614889697092 0 0 0 0 -122.25021733687754 -35.879675402431531 0 -35.879675402431531 32.751856370898608 0 0 0 0 8.0487302137373717 -18.569429578267773 0 -18.569429578267773 11.18489427365148 0 0 0 0 -33.495909645463144 -1.1590538068812748 0 -1.1590538068812748 26.303755331264256 0 0 0 0 -52.881588055723569 14.423833984046723 0 14.423833984046723 33.04600490862147 0 0 0 0 -24.426257510144751 20.168583317841694 0 20.168583317841694 64.111331919815711 0 0 0 0 -119.18352151138379 -59.054941982581113 0 -59.054941982581113 20.951001114975043 0 0 0 0 -5.0324960888277701 -21.680635468983382 0 -21.680635468983382 -10.210464825195231 0 0 0 0 6.4547389403212492 7.3058115888434259 0 7.3058115888434259 -8.0250869256801707 0 0 0 0 -0.037109351434015836 0.051158695391075426 0 0.051158695391075426 -0.086606263640248926 0 0 0 0 0.38935063055733865 -1.2202058951079202 0 -1.2202058951079202 2.6119166430748066 0 0 0 0 -62.063175752023199 -30.137968485991223 0 -30.137968485991223 -34.216774797212565 0 0 0 0 0.075676762500626715 -0.72159599129103302 0 -0.72159599129103302 2.5990733082205963 0 0 0 0 -58.819324172361007 -12.998352193999608 0 -12.998352193999608 6.8535922220835346 0 0 0 0 -1.663016936469603 -8.0670506081323765 0 -8.0670506081323765 1.3844007575680735 0 0 0 0 -61.062546490810973 2.8402723278886697 0 2.8402723278886697 9.5703476037597284 0 0 0 0 -53.611188747165215 12.565546064898172 0 12.565546064898172 4.6305981626283028 0 0 0 0 -36.162724119220456 10.366414349557544 0 10.366414349557544 1.1298695747427701 0 0 0 0 -46.853595732520262 -3.4704750396249437 0 -3.4704750396249437 3.3469256096723257 0 0 0 0 18.43250328908789 51.337226535666559 0 51.337226535666559 30.225600818714156 0 0 0 0 -15.668735134581766 34.863673909223508 0 34.863673909223508 9.9532885000871829 0 0 0 0 -37.436122283766053 10.759495835370217 0 10.759495835370217 5.7546369867231988 0 0 0 0 -3.4903304378001394 20.49194302349315 0 20.49194302349315 2.4147341731077177 0 0 0 0 15.758468442852063 27.058062346335646 0 27.058062346335646 -6.9535646535459819 0 0 0 0 8.9521789739662836 7.922048597475623 0 7.922048597475623 -5.3190975051875284 0 0 0 0 -3.3410170088495761 17.075340010262153 0 17.075340010262153 -12.041607011849919 0 0 0 0 -3.0683966164592675 7.2121879473652371 0 7.2121879473652371 5.9333351220138866 0 0 0 0 -6.5173283119634107 12.779499338441383 0 12.779499338441383 -2.710225122005113 0 0 0 0 -7.4997908306220324 10.24957490196357 0 10.24957490196357 -3.0387624199975107 0 0 0 0 -17.142177691837787 17.415300823338839 0 17.415300823338839 2.3053307251943806 0 0 0 0 -28.789357523640774 1.2506200931711646 0 1.2506200931711646 0.43390078239826835 0 0 0 0 -33.701714337792055 2.7845884422076779 0 2.7845884422076779 5.0964919399780229 0 0 0 0 -39.386845122653654 -13.669829841331875 0 -13.669829841331875 -3.5054350299906218 0 0 0 0 -22.596565618386791 -5.7380833363030206 0 -5.7380833363030206 -2.1705067505026818 0 0 0 0 -20.904589528559427 6.8034064955973008 0 6.8034064955973008 2.3175636616015254 0 0 0 0 -14.578956320701536 2.560460807315394 0 2.560460807315394 1.4158513036782097 0 0 0 0 -12.106974527960119 -4.0118490475433646 0 -4.0118490475433646 -0.81789011616092466 0 0 0 0 -9.6353149002242162 -8.130944722995082 0 -8.130944722995082 3.1492368184044608 0 0 0 0 2.8085806741175929 7.7451486846994158 0 7.7451486846994158 0.64317914256730546 0 0 0 0 -0.34983213441188088 0.1986697501162773 0 0.1986697501162773 -0.022851656723076985 0 0 0 0 -1.130149906157385 15.327737034847814 0 15.327737034847814 6.2225947239624873 0 0 0 0 -16.360874891805906 -9.4939175519084529 0 -9.4939175519084529 3.9667274519470084 0 0 0 0 -8.4793437352008709 -12.866367527665489 0 -12.866367527665489 -0.57198862551013008 0 0 0 0 -12.778840748782159 -13.328919661847976 0 -13.328919661847976 -0.062770295948212151 0 0 0 0 -8.9695666154116225 -14.597247584593788 0 -14.597247584593788 -0.6213795139647118 0 0 0 0 -28.04411570973231 -0.99271932397260798 0 -0.99271932397260798 3.6819995438709157 0 0 0 0 -12.999067681895895 -8.0333998317182704 0 -8.0333998317182704 -0.57576241796050454 0 0 0 0 0.014416826553086071 -0.52283440616456467 0 -0.52283440616456467 2.2123413267928385 0 0 0 0 -25.714600638843422 -4.7181062834179102 0 -4.7181062834179102 4.436224300559843 0 0 0 0 -28.295783638700414 -9.2244235697353361 0 -9.2244235697353361 3.3138692756710952 0 0 0 0 -17.07850225742186 -11.946003751315402 0 -11.946003751315402 -2.2977965756854246 0 0 0 0 -29.463011718082726 -2.2181247888702273 0 -2.2181247888702273 3.4343591953802388 0 0 0 0 -0.33233069743843258 0.33356818575810099 0 0.33356818575810099 0.35571890983047183 0 0 0 0 -37.126886679794666 -16.706745457310717 0 -16.706745457310717 -6.1026070885673107 0 0 0 0 -17.436191044713269 -11.266733037817176 0 -11.266733037817176 3.8492627800036132 0 0 0 0 -13.781062581220823 -1.046380792221953 0 -1.046380792221953 15.588694417137958 0 0 0 0 -11.866050279297156 -15.607475463020819 0 -15.607475463020819 12.268437691587678 0 0 0 0 2.8641481228646626 5.5162139632871003 0 5.5162139632871003 4.3154453289935191 0 0 0 0 -7.1188276324623985 -10.012984986548418 0 -10.012984986548418 3.8310227781985304 0 0 0 0 -23.75641413479525 -6.2886140234004415 0 -6.2886140234004415 9.9983623597945552 0 0 0 0 0.056622155529104101 -0.32960255583844034 0 -0.32960255583844034 0.048242334580024249 0 0 0 0 -38.668718968509438 -5.5007353994888035 0 -5.5007353994888035 7.6504448954719919 0 0 0 0 -26.430667245013865 0.60162481645602384 0 0.60162481645602384 4.0190318626081307 0 0 0 0 -28.801830283776837 -10.573478185805016 0 -10.573478185805016 3.7205091768355487 0 0 0 0 -23.123051229031944 -6.4227966001435561 0 -6.4227966001435561 4.3401755881059216 0 0 0 0 -24.027757852315062 -3.5589283838344272 0 -3.5589283838344272 -4.0827500387495093 0 0 0 0 -30.865519052074092 1.2516811774871712 0 1.2516811774871712 3.0995271653537202 0 0 0 0 -28.369619234547827 2.4703108689809596 0 2.4703108689809596 -0.93567247812825372 0 0 0 0 -26.088865203631258 -0.25278882476050057 0 -0.25278882476050057 2.0721490023606748 0 0 0 0 -24.217065606302185 0.70870297984583885 0 0.70870297984583885 1.0059950319209747 0 0 0 0 -28.571186319843946 1.1866371385749517 0 1.1866371385749517 1.6197560157997941 0 0 0 0 -23.937565278288162 -1.7699325729922748 0 -1.7699325729922748 0.65550593725129147 0 0 0 0 -24.78501973305174 -1.7715559881689842 0 -1.7715559881689842 0.78557524420830305 0 0 0 0 -29.480790469909152 -0.21581820715528011 0 -0.21581820715528011 4.5008611584562459 0 0 0 0 -18.743672393671659 1.6412070064543514 0 1.6412070064543514 -0.040088583631586516 0 0 0 0 -79.422783630328695 -49.74785228768269 0 -49.74785228768269 21.96849700311941 0 0 0 0 0.69176697825545608 -1.9696555526452446 0 -1.9696555526452446 4.5313489576604624 0 0 0 0 -23.463544670227293 -1.789118882305047 0 -1.789118882305047 9.0264710402329911 0 0 0 0 -22.625145529530982 1.7693319050194987 0 1.7693319050194987 4.5937723642964556 0 0 0 0 0.63140987760591671 -0.55624174198447207 0 -0.55624174198447207 0.57046098372454779 0 0 0 0 -12.927316675868596 108.30881400397578 0 108.30881400397578 -198.02025097508522 0 0 0 0 11.701661876458957 25.526923552219159 0 25.526923552219159 62.918522459226324 0 0 0 0 -5.5138594238067071 16.924033000876079 0 16.924033000876079 64.69610737637413 0 0 0 0 -29.18416126494094 8.1192745738917438 0 8.1192745738917438 61.78392377479031 0 0 0 0 17.240052350632368 18.226885343308822 0 18.226885343308822 54.543600768192846 0 0 0 0 16.596697336524016 19.128345878989421 0 19.128345878989421 57.817252525244839 0 0 0 0 24.327616855412543 25.183327426868345 0 25.183327426868345 54.220190892483515 0 0 0 0 18.394062343434143 19.116508633846934 0 19.116508633846934 52.021996712668624 0 0 0 0 0.66426008350026677 12.795546815086709 0 12.795546815086709 53.505778504055343 0 0 0 0 19.545367802926648 18.38293770819655 0 18.38293770819655 50.78188671465432 0 0 0 0 -21.661729184590513 -7.1346776627942745 0 -7.1346776627942745 56.072558554231364 0 0 0 0 -1.9018658230115761 13.702572076825163 0 13.702572076825163 57.021445585749461 0 0 0 0 13.954294721199147 -7.1946177173183514 0 -7.1946177173183514 16.225617530370073 0 0 0 0 11.832442601333469 13.825577924761092 0 13.825577924761092 48.64148850748461 0 0 0 0 28.292796847663567 32.908275977622907 0 32.908275977622907 49.872019051508687 0 0 0 0 27.520390096407709 23.106716611589945 0 23.106716611589945 33.347414327454317 0 0 0 0 32.151200521802593 34.142751813726136 0 34.142751813726136 50.600737079272221 0 0 0 0 24.151069759132554 30.46681610103451 0 30.46681610103451 57.380630955816741 0 0 0 0 0.50731090267426926 -1.8876207605510764 0 -1.8876207605510764 4.9356356726658248 0 0 0 0 -92.78684603281107 -26.617968145886813 0 -26.617968145886813 23.864083160806331 0 0 0 0 -40.395477087430891 -55.904825604806319 0 -55.904825604806319 111.00558993341838 0 0 0 0 40.8827738339196 -12.696628091767707 0 -12.696628091767707 -53.589794959400024 0 0 0 0 -2.8865386375766775 -40.772711681616784 0 -40.772711681616784 -0.29077662101917667 0 0 0 0 46.998854966898989 25.203221535373814 0 25.203221535373814 25.363716981271864 0 0 0 0 -3.7584896888829462 -13.093551336673045 0 -13.093551336673045 52.86391628736601 0 0 0 0 -30.201458594329324 -19.606114140511636 0 -19.606114140511636 -13.501164328408777 0 0 0 0 -37.27459475053729 -14.322997905316697 0 -14.322997905316697 3.4427166571804264 0 0 0 0 -39.777870464940406 -98.990069533498172 0 -98.990069533498172 565.59181848628214 0 0 0 0 -45.38114674883991 -9.0638632692098327 0 -9.0638632692098327 64.806564397025795 0 0 0 0 -18.874346903169013 -3.4447422391804707 0 -3.4447422391804707 -6.707248938138946 0 0 0 0 -22.562122621480285 -6.9581527856662433 0 -6.9581527856662433 -9.8498567649294273 0 0 0 0 -31.879934565970871 -7.1409502767401136 0 -7.1409502767401136 -3.276615816015692 0 0 0 0 -32.90718394474635 -3.0019548436359855 0 -3.0019548436359855 7.500514470924827 0 0 0 0 -0.018170539707106803 0.042070785891239471 0 0.042070785891239471 -0.10631464531418544 0 0 0 0 0.16662968857281157 19.703971328246553 0 19.703971328246553 -2.2623024525601068 0 0 0 0 17.804909123105517 39.110705919696557 0 39.110705919696557 -46.669280139463808 0 0 0 0 -65.613333735043852 42.130421269487215 0 42.130421269487215 41.438530373123285 0 0 0 0 57.058070844704162 -67.624110391030626 0 -67.624110391030626 -60.642746032082869 0 0 0 0 70.10352115230171 -116.68704663275639 0 -116.68704663275639 -17.564385948466224 0 0 0 0 91.689512357717376 -134.81199522273164 0 -134.81199522273164 -4.4705546622390102 0 0 0 0 -26.057296062856949 -33.286657023170847 0 -33.286657023170847 97.485954774241691 0 0 0 0 0.32016757783936711 -0.70024067522332345 0 -0.70024067522332345 1.2065563079410708 0 0 0 0 156.96911175988498 -171.64163903283043 0 -171.64163903283043 200.64563511024471 0 0 0 0 68.044209091350695 -268.45910173598168 0 -268.45910173598168 140.58908621224691 0 0 0 0 -28.585961146345653 41.551204292373768 0 41.551204292373768 26.298462550483237 0 0 0 0 -93.521355165058495 44.464224820410756 0 44.464224820410756 44.796873663428414 0 0 0 0 14.188974091067394 -100.33027103410859 0 -100.33027103410859 173.04160999689157 0 0 0 0 3.1423625928723595 65.141717895967759 0 65.141717895967759 43.484626141795161 0 0 0 0 -7.446986535413771 -9.6370939065263883 0 -9.6370939065263883 -72.339226001393399 0 0 0 0 0.2699705726358077 -0.76953286129823262 0 -0.76953286129823262 2.2584251588547701 0 0 0 0 59.053352834168209 -118.43302832781319 0 -118.43302832781319 27.132176474520747 0 0 0 0 52.398547561278633 90.836234769057228 0 90.836234769057228 148.3070150769563 0 0 0 0 17.888089195801967 -11.490121394922426 0 -11.490121394922426 155.94081303170969 0 0 0 0 16.252657611249106 -171.29225446674536 0 -171.29225446674536 60.014132363017779 0 0 0 0 0.20157588848043684 -0.75976150485840854 0 -0.75976150485840854 1.7361305986244417 0 0 0 0 25.985223834143085 121.93258388965887 0 121.93258388965887 51.815459554116387 0 0 0 0 66.323860953093117 -190.82220498743754 0 -190.82220498743754 61.89672654253809 0 0 0 0 35.935040445548566 45.252209167045294 0 45.252209167045294 233.97237633773602 0 0 0 0 51.595307763051096 -14.300765251144185 0 -14.300765251144185 250.88250646922825 0 0 0 0 34.47094968287729 43.057345216997419 0 43.057345216997419 173.63586507703621 0 0 0 0 21.600777205531585 55.887102786795367 0 55.887102786795367 184.1090714993079 0 0 0 0 63.281798143168331 27.101049062538095 0 27.101049062538095 174.78752304084264 0 0 0 0 43.63788488412456 46.060174037343131 0 46.060174037343131 155.79307624809371 0 0 0 0 24.615832430405078 66.900277209641899 0 66.900277209641899 160.37977546596449 0 0 0 0 17.219116147238083 63.076413933789809 0 63.076413933789809 149.33236663192383 0 0 0 0 32.01285581578702 60.67536388913868 0 60.67536388913868 110.86695774418695 0 0 0 0 26.034817102663283 73.536832900302215 0 73.536832900302215 124.31089546294606 0 0 0 0 26.407152363149237 62.001456883587707 0 62.001456883587707 98.224153712842963 0 0 0 0 39.632523587116282 56.864760507872234 0 56.864760507872234 68.07778573421092 0 0 0 0 28.019683629607471 85.236860176293703 0 85.236860176293703 95.733957913227641 0 0 0 0 34.092253346102268 43.147818807517979 0 43.147818807517979 39.872485799445712 0 0 0 0 60.834663854342125 95.042770740939886 0 95.042770740939886 -18.94841545692816 0 0 0 0 33.998499345895638 82.69596167466932 0 82.69596167466932 118.87132981230388 0 0 0 0 26.37268198063316 62.034763713223583 0 62.034763713223583 115.00783983049769 0 0 0 0 10.415278170783012 43.505125662351929 0 43.505125662351929 145.73743568098507 0 0 0 0 16.248032637257552 54.047105838324569 0 54.047105838324569 119.38772530146707 0 0 0 0 20.07972030866938 44.245406519008611 0 44.245406519008611 102.8265643504601 0 0 0 0 22.483501919608841 48.156458511802157 0 48.156458511802157 94.078887491097703 0 0 0 0 12.551916865811904 46.480783584933306 0 46.480783584933306 118.69031000775544 0 0 0 0 18.58603912897911 44.773865321243647 0 44.773865321243647 101.16236124653642 0 0 0 0 24.643476185700138 43.531563451781039 0 43.531563451781039 79.069305740031268 0 0 0 0 20.227119495870966 51.744933782872977 0 51.744933782872977 106.5240905306473 0 0 0 0 24.993964485027163 59.819362489417472 0 59.819362489417472 107.6865828132768 0 0 0 0 12.172821063660137 54.155036301814107 0 54.155036301814107 136.1026124216587 0 0 0 0 15.702295169995409 64.710280006093853 0 64.710280006093853 138.72208629155648 0 0 0 0 16.975650824766376 52.635754165177786 0 52.635754165177786 145.61662368424913 0 0 0 0 5.7371176744683225 54.85598058310552 0 54.85598058310552 160.5420949133113 0 0 0 0 5.632317227329021 57.012303940002937 0 57.012303940002937 154.0551704210684 0 0 0 0 0.44201327730431217 40.203442021035698 0 40.203442021035698 176.79329447957207 0 0 0 0 41.259495850813835 28.059183903549638 0 28.059183903549638 146.45171153129922 0 0 0 0 40.84692614658573 47.104291186334279 0 47.104291186334279 123.34936610901059 0 0 0 0 44.575861380044344 51.169027431110408 0 51.169027431110408 126.47485825517288 0 0 0 0 31.307899171666705 58.242133691700019 0 58.242133691700019 123.83676231287609 0 0 0 0 33.823536729277947 46.802434566194961 0 46.802434566194961 118.96754398066696 0 0 0 0 18.592508083279313 46.657026665832745 0 46.657026665832745 119.48602536661792 0 0 0 0 24.677868928619908 52.398901545042463 0 52.398901545042463 119.87371867081674 0 0 0 0 19.654290376347134 46.489584285583533 0 46.489584285583533 124.10058244680658 0 0 0 0 17.231780313762613 44.951531415290447 0 44.951531415290447 138.35615491586941 0 0 0 0 12.1900519551657 46.190649523456159 0 46.190649523456159 124.21173509346954 0 0 0 0 11.547920591202455 40.061452899602955 0 40.061452899602955 106.8928026911442 0 0 0 0 19.924269403529365 40.866869693834815 0 40.866869693834815 106.7546150819544 0 0 0 0 15.048702499516878 47.093609973884213 0 47.093609973884213 106.33882367036131 0 0 0 0 11.944779434343445 31.741894514656451 0 31.741894514656451 83.439204089019768 0 0 0 0 16.979053281332938 42.140478844692552 0 42.140478844692552 92.613729427350336 0 0 0 0 13.07616645209967 35.026345817798756 0 35.026345817798756 91.846013356742333 0 0 0 0 15.197305106119231 45.128174085384671 0 45.128174085384671 106.71409645118911 0 0 0 0 23.95931213344582 55.186687243131018 0 55.186687243131018 114.48771285881594 0 0 0 0 21.951065191601842 47.04595842751587 0 47.04595842751587 105.66485381718303 0 0 0 0 12.092231696326877 37.429215439286054 0 37.429215439286054 97.510574358015219 0 0 0 0 16.194323973728615 47.049166300558682 0 47.049166300558682 100.27200630775042 0 0 0 0 9.9187856527822689 43.444082344898561 0 43.444082344898561 105.18507885033978 0 0 0 0 20.094465613268845 53.005134673173416 0 53.005134673173416 108.77557958785837 0 0 0 0 7.2331976470637471 34.842033282349803 0 34.842033282349803 90.898303219965783 0 0 0 0 16.539204431200105 40.211841060632651 0 40.211841060632651 89.495908015487657 0 0 0 0 14.173452762868898 35.440866465602994 0 35.440866465602994 72.010028776119725 0 0 0 0 14.124224049104811 36.738842890500564 0 36.738842890500564 78.681795547843649 0 0 0 0 10.593234183872028 34.400104000549618 0 34.400104000549618 81.779675525346647 0 0 0 0 10.235185816527007 36.267934573575985 0 36.267934573575985 85.221204632118315 0 0 0 0 18.16039113645104 39.718371416660375 0 39.718371416660375 84.737187770733726 0 0 0 0 7.9083930788910948 31.01225508942116 0 31.01225508942116 71.695760967142633 0 0 0 0 10.693789581858638 28.018107747403974 0 28.018107747403974 73.089110893404722 0 0 0 0 11.707222316648625 30.3159960592684 0 30.3159960592684 67.155095609086857 0 0 0 0 8.584428758112665 23.429282450195387 0 23.429282450195387 64.732749437160237 0 0 0 0 8.5034631749199434 28.145567106486851 0 28.145567106486851 65.566669750807705 0 0 0 0 12.450969069842813 22.444580261355441 0 22.444580261355441 52.685851143236505 0 0 0 0 15.474304311590231 22.33686171064528 0 22.33686171064528 46.753948229179514 0 0 0 0 10.356052129664135 24.97435455246341 0 24.97435455246341 61.771277068470226 0 0 0 0 15.630027282349261 33.631109003859819 0 33.631109003859819 74.534732071657345 0 0 0 0 14.612750158450694 26.098098279628175 0 26.098098279628175 61.198255894486465 0 0 0 0 12.326880441028834 27.263331449795487 0 27.263331449795487 65.643754647804599 0 0 0 0 10.93787929528412 31.312954357412309 0 31.312954357412309 78.566427996654966 0 0 0 0 17.267020121615019 37.163300455466015 0 37.163300455466015 79.458223240037569 0 0 0 0 13.078688577801813 31.181425762700201 0 31.181425762700201 80.210455925804126 0 0 0 0 15.723162771057275 37.334342503163498 0 37.334342503163498 92.351833130098385 0 0 0 0 19.902892933992803 40.798528584815358 0 40.798528584815358 85.137630381217605 0 0 0 0 11.418016009363441 42.7607104024828 0 42.7607104024828 103.25766055818713 0 0 0 0 25.389024695169709 48.862623176067927 0 48.862623176067927 84.645796694123419 0 0 0 0 25.934693673440393 33.000672377052979 0 33.000672377052979 61.837746624234569 0 0 0 0 29.312516338481259 45.231678666145854 0 45.231678666145854 75.073596421505499 0 0 0 0 20.595103557132006 36.675855909565144 0 36.675855909565144 81.286943483774849 0 0 0 0 15.262593423573776 30.87051106209401 0 30.87051106209401 74.831864319416127 0 0 0 0 23.186341627365607 36.910272518034617 0 36.910272518034617 73.492522524775268 0 0 0 0 20.456150851004622 28.746705584164374 0 28.746705584164374 66.783720931181961 0 0 0 0 21.54308591308893 25.559067781210615 0 25.559067781210615 59.34515065249434 0 0 0 0 18.617287886362305 19.571338773354 0 19.571338773354 56.800905846124806 0 0 0 0 15.191404524932523 24.184066144562166 0 24.184066144562166 60.805787715775296 0 0 0 0 15.635221674340091 25.107643601315289 0 25.107643601315289 63.393602655371069 0 0 0 0 15.937368238745478 20.453286244573974 0 20.453286244573974 52.78338277835428 0 0 0 0 12.460397654021222 27.427771967128137 0 27.427771967128137 61.802407442432013 0 0 0 0 15.671418500431514 28.96868946259201 0 28.96868946259201 44.188799957611991 0 0 0 0 14.596814355698257 24.539936945897352 0 24.539936945897352 53.636147429049743 0 0 0 0 11.552496610855542 4.8110714705580904 0 4.8110714705580904 25.103310706168941 0 0 0 0 2.0616002088293177 -1.9939284372246391 0 -1.9939284372246391 1.7669834603645214 0 0 0 0 15.839268839446731 -11.724070005355316 0 -11.724070005355316 -49.515076797622896 0 0 0 0 19.944457328444173 17.472116532528162 0 17.472116532528162 21.678260089438481 0 0 0 0 9.7550209551727676 9.2567433835283737 0 9.2567433835283737 19.965324003365822 0 0 0 0 7.5395066753942501 20.338698858829957 0 20.338698858829957 55.091361778886494 0 0 0 0 3.2875510786306563 15.88379072686439 0 15.88379072686439 45.6105785662985 0 0 0 0 10.508722416050546 22.700473604030776 0 22.700473604030776 45.950898824965407 0 0 0 0 5.8568294444177127 19.683440639255423 0 19.683440639255423 53.731298735334349 0 0 0 0 11.036076249260191 18.390450598881216 0 18.390450598881216 48.501252238091183 0 0 0 0 12.503380863626944 18.62975235630438 0 18.62975235630438 39.950437611976668 0 0 0 0 3.3753250917036439 12.655493327412842 0 12.655493327412842 30.707214544614544 0 0 0 0 5.4716873917927842 9.497931655983848 0 9.497931655983848 36.627111868325301 0 0 0 0 2.1582171238101182 11.309738296953583 0 11.309738296953583 35.641033558451454 0 0 0 0 8.2103320929173833 16.188049609922928 0 16.188049609922928 33.070329350339307 0 0 0 0 0.30353672296132572 14.530680558764288 0 14.530680558764288 34.386746522061003 0 0 0 0 4.6200715713337104 10.870816888098489 0 10.870816888098489 27.795311142021092 0 0 0 0 5.9445926484463598 14.894440669944743 0 14.894440669944743 10.360863756361141 0 0 0 0 4.981358308647259 10.625044350372264 0 10.625044350372264 18.830431048874743 0 0 0 0 3.222517831881305 16.033486930187792 0 16.033486930187792 20.586763974213682 0 0 0 0 4.5082962829173425 8.422765157943104 0 8.422765157943104 7.363544811392785 0 0 0 0 -9.9463045330483055 3.8452754065292538 0 3.8452754065292538 9.2787866566213779 0 0 0 0 0.30444019239348563 10.83414903380617 0 10.83414903380617 12.205118329506149 0 0 0 0 0.60926951027344201 -0.82056465633398323 0 -0.82056465633398323 -0.30516699010694026 0 0 0 0 0.59896509167585599 -1.3389259634169139 0 -1.3389259634169139 2.6921588217437602 0 0 0 0 -36.487300364098587 -42.029914189562078 0 -42.029914189562078 -11.105070245994284 0 0 0 0 -2.9487681224063635 10.99194042349518 0 10.99194042349518 8.0881058323684556 0 0 0 0 -21.047447319462208 -24.280411140442084 0 -24.280411140442084 2.2121728598904156 0 0 0 0 -31.676906190027239 -15.584658878916343 0 -15.584658878916343 -1.5530398057653656 0 0 0 0 -15.789298921001546 -11.109301434117697 0 -11.109301434117697 -16.051225150727987 0 0 0 0 1.0040162855359229 -2.4358213946294454 0 -2.4358213946294454 4.7018656101472729 0 0 0 0 -4.085794994847447 -16.253111371919658 0 -16.253111371919658 -16.089612291787489 0 0 0 0 -7.8773447180965377 -23.013359231335016 0 -23.013359231335016 -9.3152567771267059 0 0 0 0 -5.5967124082557689 -0.73119623548859636 0 -0.73119623548859636 7.1197757100235322 0 0 0 0 -8.6089598404373646 -13.824651786148934 0 -13.824651786148934 -16.634987228686441 0 0 0 0 -8.6317766051010949 -13.30105344644744 0 -13.30105344644744 -15.670856498129865 0 0 0 0 1.0429250989603815 -10.963049182008945 0 -10.963049182008945 -1.5606881697276549 0 0 0 0 0.36590521001961784 -0.53570506561450859 0 -0.53570506561450859 0.73361245974875544 0 0 0 0 -39.777271674792246 80.610720908905023 0 80.610720908905023 56.24358626412868 0 0 0 0 -3.9102981498322151 -17.366463445730005 0 -17.366463445730005 3.5453360350184084 0 0 0 0 0.2129656012343446 -4.4296617728678029 0 -4.4296617728678029 10.806280595175849 0 0 0 0 -2.3493796171947565 -3.3026571981026791 0 -3.3026571981026791 15.981506020621055 0 0 0 0 -2.1923854384516517 -6.9166650960578409 0 -6.9166650960578409 5.1156459453438856 0 0 0 0 0.70430199901585411 3.6270525090912997 0 3.6270525090912997 7.3017057256688531 0 0 0 0 -0.17507836918247222 6.6735657023600652 0 6.6735657023600652 17.433509552195574 0 0 0 0 -7.9089075153221842 -12.162809446823303 0 -12.162809446823303 5.2894935837521189 0 0 0 0 0.28690090908720367 -0.41338524283396794 0 -0.41338524283396794 0.4754152538761609 0 0 0 0 6.9832383498946342 8.2524718399763515 0 8.2524718399763515 8.4766346002293176 0 0 0 0 -1.980639577318307 11.817739805271231 0 11.817739805271231 42.379477103706449 0 0 0 0 10.762569078697659 19.050825782483116 0 19.050825782483116 40.474719349631414 0 0 0 0 -3.4693625884149526 13.496303024873669 0 13.496303024873669 32.889030644568265 0 0 0 0 -0.099191304858181728 -0.57151184566405533 0 -0.57151184566405533 1.2482749082599689 0 0 0 0 -1.9224352705963099 -1.1451321623835611 0 -1.1451321623835611 18.380423401835287 0 0 0 0 4.6945157612386765 -2.6646347031573896 0 -2.6646347031573896 5.8929247384085102 0 0 0 0 2.1611172812145014 16.063585501226044 0 16.063585501226044 34.127377128901571 0 0 0 0 8.9250361970230188 18.099098923885322 0 18.099098923885322 31.689747542657642 0 0 0 0 4.5339268814834313 16.103435344886066 0 16.103435344886066 48.089764655203908 0 0 0 0 6.2703111074057922 25.437492554317942 0 25.437492554317942 52.741425021649775 0 0 0 0 8.0418030445457021 22.021945667916953 0 22.021945667916953 55.932617089270934 0 0 0 0 8.9607003917640213 28.243783836809598 0 28.243783836809598 54.855133385834051 0 0 0 0 8.2006303516045023 12.366146766495149 0 12.366146766495149 32.206529516662158 0 0 0 0 1.3794649976806852 20.219142409626329 0 20.219142409626329 59.043068058603239 0 0 0 0 5.3083057216716441 28.268339255342653 0 28.268339255342653 74.718336627464396 0 0 0 0 11.313082828867039 26.425267542322217 0 26.425267542322217 56.949599122093787 0 0 0 0 5.5139104947985516 27.34300809501201 0 27.34300809501201 79.787974914215738 0 0 0 0 12.328295581001669 29.193380884249564 0 29.193380884249564 64.648976273752169 0 0 0 0 6.8955243502500458 26.072724983961052 0 26.072724983961052 89.499263687859639 0 0 0 0 4.7723774538628732 18.218181746608025 0 18.218181746608025 66.526015285401627 0 0 0 0 7.5082702441724916 23.460920777769388 0 23.460920777769388 100.35602869306967 0 0 0 0 14.255637021885779 32.070968858715787 0 32.070968858715787 73.79332146336165 0 0 0 0 17.232462755221682 19.184252436957195 0 19.184252436957195 50.589603134983918 0 0 0 0 9.2463594544540459 14.716723721425296 0 14.716723721425296 73.629260997583387 0 0 0 0 7.4112211848484293 10.701851643831105 0 10.701851643831105 45.308242733244242 0 0 0 0 14.807509328959497 18.921767797206485 0 18.921767797206485 41.121760087247822 0 0 0 0 11.710640472363167 9.2287878023525991 0 9.2287878023525991 17.488095493130459 0 0 0 0 -3.248565990231806 11.343334190785527 0 11.343334190785527 18.800226519781063 0 0 0 0 7.4724572895694141 11.954873889946157 0 11.954873889946157 53.757005142892012 0 0 0 0 10.209813755517306 -4.8697634252730495 0 -4.8697634252730495 23.967425499231013 0 0 0 0 15.859111889045961 12.214280855057041 0 12.214280855057041 26.914940197715623 0 0 0 0 3.9884233159240363 -6.0742959653916841 0 -6.0742959653916841 36.554536723200727 0 0 0 0 13.457574663711585 1.11756326898103 0 1.11756326898103 31.458676489477511 0 0 0 0 -1.0907519441263478 1.8589774821184619 0 1.8589774821184619 31.521032130170283 0 0 0 0 -0.12228094708856929 2.0158266074677158 0 2.0158266074677158 52.510765879957034 0 0 0 0 10.107313517487 -15.033410393928534 0 -15.033410393928534 -6.9072764590237057 0 0 0 0 10.44301527931291 -8.0680653794470345 0 -8.0680653794470345 29.783474010642749 0 0 0 0 0.026104275680014333 -0.17637243893404175 0 -0.17637243893404175 0.28861194969747928 0 0 0 0 -0.50783048593883673 7.6519719387415535 0 7.6519719387415535 34.067321521000622 0 0 0 0 8.1416498981223029 1.2636936702028834 0 1.2636936702028834 38.632565101026557 0 0 0 0 11.289230012912567 12.108055162045275 0 12.108055162045275 34.690436531368846 0 0 0 0 0.038010351104427541 6.1045629459595148 0 6.1045629459595148 56.597006916297687 0 0 0 0 13.545864997082877 25.559291836109878 0 25.559291836109878 67.848955450696394 0 0 0 0 8.6510912519893779 12.455230041640789 0 12.455230041640789 82.422493397660219 0 0 0 0 16.794384163667459 33.829651660227682 0 33.829651660227682 91.139617068859479 0 0 0 0 -0.10294337481003835 14.863389582816126 0 14.863389582816126 101.59363135174499 0 0 0 0 14.289870369668858 44.553013063162325 0 44.553013063162325 132.67446385942912 0 0 0 0 0.45116247373931051 24.57063563221709 0 24.57063563221709 167.85582418258127 0 0 0 0 0.88356967656000052 64.324129289121629 0 64.324129289121629 251.09686928224255 0 0 0 0 4.0802344541391751 38.405133504267496 0 38.405133504267496 168.78765232515616 0 0 0 0 10.905006421535665 22.278184355149278 0 22.278184355149278 118.67162203209227 0 0 0 0 5.3210956928100224 49.3876668514622 0 49.3876668514622 155.23788316915216 0 0 0 0 11.653409652558114 45.690065324210082 0 45.690065324210082 113.14659173746531 0 0 0 0 8.4010922999204531 40.066931965076947 0 40.066931965076947 121.16947395036368 0 0 0 0 5.5695628230078249 37.014455452430866 0 37.014455452430866 111.08510824179393 0 0 0 0 7.9369440258923873 35.58273602853842 0 35.58273602853842 98.364182908542716 0 0 0 0 12.397354401609888 39.200643782696716 0 39.200643782696716 87.982300981636172 0 0 0 0 13.71424314528117 50.76253773330609 0 50.76253773330609 112.37628980832869 0 0 0 0 14.814496432498586 47.070828026699019 0 47.070828026699019 101.29995148679336 0 0 0 0 7.7037312395657187 47.670272788924194 0 47.670272788924194 118.21752723485042 0 0 0 0 7.4841112763412845 64.559247981340377 0 64.559247981340377 128.16124094619227 0 0 0 0 17.018811861884689 60.891075903688034 0 60.891075903688034 121.12652517042034 0 0 0 0 13.688420586514715 56.192363852566814 0 56.192363852566814 118.20201980690035 0 0 0 0 4.6731204685833774 46.993885149319794 0 46.993885149319794 144.03878528644054 0 0 0 0 9.8795910286106299 72.621867408295202 0 72.621867408295202 152.75209878397436 0 0 0 0 3.2840578035475403 89.567417055793612 0 89.567417055793612 151.11616167718967 0 0 0 0 9.3324554799978401 82.26648007847507 0 82.26648007847507 142.48809209661704 0 0 0 0 18.34986543658335 85.905688767326865 0 85.905688767326865 137.20179927231584 0 0 0 0 31.381898055579143 94.705499873534791 0 94.705499873534791 135.96152881939656 0 0 0 0 31.063319562318796 64.860648754909562 0 64.860648754909562 119.78819104746935 0 0 0 0 23.200498660888076 70.294129127311862 0 70.294129127311862 120.30754425879059 0 0 0 0 27.187463728342689 77.121181746244474 0 77.121181746244474 130.16115165969836 0 0 0 0 59.672473106042474 74.852878645155215 0 74.852878645155215 120.8719351728846 0 0 0 0 42.252613927038922 77.701471518385006 0 77.701471518385006 125.95250852283607 0 0 0 0 40.787016637773419 95.87386219945256 0 95.87386219945256 115.33971688675229 0 0 0 0 43.644490934380144 82.972758276787999 0 82.972758276787999 90.595759202504269 0 0 0 0 20.402753386932709 111.15823214254306 0 111.15823214254306 112.94562724139178 0 0 0 0 42.367104369995928 84.875684237300447 0 84.875684237300447 77.589287255010618 0 0 0 0 -0.0082979827921804573 -4.0580352369470347 0 -4.0580352369470347 1.072140616550314 0 0 0 0 -0.063911809628456134 0.084197388836935616 0 0.084197388836935616 1.1997074150357108 0 0 0 0 86.242612509968467 189.89859344920296 0 189.89859344920296 246.24688438137409 0 0 0 0 66.275905312052203 118.60527084225691 0 118.60527084225691 122.31985872294536 0 0 0 0 7.6580874410700872 109.54772014236369 0 109.54772014236369 224.66972993370746 0 0 0 0 14.004144331994084 113.91937574107214 0 113.91937574107214 152.50041810972471 0 0 0 0 0.3624003365504862 3.4361896920331674 0 3.4361896920331674 33.776420915762174 0 0 0 0 61.196518571107532 -32.39736780604926 0 -32.39736780604926 28.156162896794285 0 0 0 0 -11.957461855594133 42.5188385297688 0 42.5188385297688 201.06168386501304 0 0 0 0 0.16046886167691216 -0.36403469877432393 0 -0.36403469877432393 1.2146254483653394 0 0 0 0 -14.237290997434641 24.479212439377079 0 24.479212439377079 88.257709880471339 0 0 0 0 22.50799865794383 -1.1659671953423185 0 -1.1659671953423185 59.034957277814101 0 0 0 0 12.558257698071913 -3.6310363130382939 0 -3.6310363130382939 84.517991813119352 0 0 0 0 32.957080595842939 -3.9453294287250174 0 -3.9453294287250174 56.917679146962655 0 0 0 0 27.071648884474712 7.5005540776833186 0 7.5005540776833186 35.299018474805052 0 0 0 0 0.28813147558520669 11.974353317671557 0 11.974353317671557 68.040788916039673 0 0 0 0 1.8377685926995184 4.5682651156153042 0 4.5682651156153042 39.085815641802355 0 0 0 0 38.830304805003223 -8.1029599202142819 0 -8.1029599202142819 3.3207090932119172 0 0 0 0 13.562657999930238 -17.858067681860121 0 -17.858067681860121 20.206168581019483 0 0 0 0 0.70564611144394718 -5.0457974170412854 0 -5.0457974170412854 8.1374475390202861 0 0 0 0 -0.96457788542916845 -18.548026553742602 0 -18.548026553742602 -4.7687154742670828 0 0 0 0 1.5525967719254901 -1.5395019508570158 0 -1.5395019508570158 2.9026203733419607 0 0 0 0 -24.612245340469229 -6.3379982034498425 0 -6.3379982034498425 37.091834094854903 0 0 0 0 6.7299017143149058 -6.6610289602606372 0 -6.6610289602606372 6.581638783292874 0 0 0 0 0.35072893231404773 -1.0238622010690617 0 -1.0238622010690617 2.9741564606359958 0 0 0 0 5.117306232823978 1.7208495473328185 0 1.7208495473328185 2.1731700508723861 0 0 0 0 24.537976140381204 -13.802470663136774 0 -13.802470663136774 -14.060387192532289 0 0 0 0 37.500279684383997 -6.9692645148729753 0 -6.9692645148729753 -10.605426377365347 0 0 0 0 18.349894495109282 -16.146588098139773 0 -16.146588098139773 16.617497951577207 0 0 0 0 27.661720133984119 -22.68392917540632 0 -22.68392917540632 2.6041986283889855 0 0 0 0 38.282156654298433 -20.296852563681114 0 -20.296852563681114 -21.602627121091245 0 0 0 0 18.099437797288033 -22.268509333292968 0 -22.268509333292968 -17.733728971082201 0 0 0 0 24.266336665079166 -34.19267987477815 0 -34.19267987477815 -31.763552127586991 0 0 0 0 19.314053205443201 -20.157712769987484 0 -20.157712769987484 -38.555407661708159 0 0 0 0 34.677330621203055 -16.527552069470858 0 -16.527552069470858 5.3909268941121127 0 0 0 0 12.330240474186041 -20.60572650776021 0 -20.60572650776021 6.1730088481963321 0 0 0 0 54.331971489026046 -19.032184500827952 0 -19.032184500827952 -2.504656280654217 0 0 0 0 37.718142025993643 16.625218145156623 0 16.625218145156623 -6.8878058864211198 0 0 0 0 -10.684822235673209 -21.360881344814516 0 -21.360881344814516 -20.305874039772334 0 0 0 0 -17.930253610371892 -2.4672584397994797 0 -2.4672584397994797 -47.543723070866889 0 0 0 0 -12.783773535758996 -15.24340410053901 0 -15.24340410053901 -31.690148281281608 0 0 0 0 5.1764858473584354 -3.3727184627423412 0 -3.3727184627423412 -94.304562566211644 0 0 0 0 -9.8242733294884488 -27.893271666282089 0 -27.893271666282089 -20.599099820436095 0 0 0 0 -3.7274369687513627 -23.098742585666514 0 -23.098742585666514 -47.179538501102797 0 0 0 0 6.2516368436733956 -23.742481465499168 0 -23.742481465499168 -52.607214911984556 0 0 0 0 0.60087350110711668 -25.181927894926957 0 -25.181927894926957 -52.55765133938803 0 0 0 0 7.4465711845718943 -59.687013181004659 0 -59.687013181004659 -86.710079984097774 0 0 0 0 9.6192253869378419 -34.409185371287094 0 -34.409185371287094 -83.311541659932118 0 0 0 0 -1.9219020389284651 -33.362228637455701 0 -33.362228637455701 -43.536037168047187 0 0 0 0 7.7233672589542266 -36.851196247998814 0 -36.851196247998814 -42.304638162917399 0 0 0 0 -8.6485897368222595 -60.028410751760021 0 -60.028410751760021 -59.661085915110561 0 0 0 0 -6.4826536778971331 -42.752625323128086 0 -42.752625323128086 -33.520660603964643 0 0 0 0 -4.6013785812907599 -21.331835255550686 0 -21.331835255550686 -20.350117513402893 0 0 0 0 17.014713910420937 -22.484298844182376 0 -22.484298844182376 -21.005779185374195 0 0 0 0 4.9181002902216733 -14.832096153822931 0 -14.832096153822931 8.0544863747953741 0 0 0 0 -5.1720159370190686 -21.768812259945662 0 -21.768812259945662 7.4177793449252931 0 0 0 0 -8.5742437192354117 -21.375834152706602 0 -21.375834152706602 0.34919502264347102 0 0 0 0 -11.458746256380039 -27.074216575749233 0 -27.074216575749233 20.645174282750304 0 0 0 0 -3.8615095664763714 -32.012826550168768 0 -32.012826550168768 -0.75067565445169748 0 0 0 0 -7.0427515421697535 -19.324400004710697 0 -19.324400004710697 -18.163124766244209 0 0 0 0 5.3393075232269211 -24.831000065684748 0 -24.831000065684748 1.1398419900685894 0 0 0 0 -5.1302739379203786 -30.932810867274384 0 -30.932810867274384 -14.987341336388454 0 0 0 0 -3.2216929369994887 -12.172915947352976 0 -12.172915947352976 24.574563593546941 0 0 0 0 -1.3675037508593846 -24.235781172562156 0 -24.235781172562156 52.12269562718393 0 0 0 0 11.628788338290065 -30.284751456020786 0 -30.284751456020786 32.551477898203302 0 0 0 0 9.876740490451354 -7.6534670231478685 0 -7.6534670231478685 48.304105143522065 0 0 0 0 -8.6452456826805815 9.6410261888631794 0 9.6410261888631794 76.893462720068328 0 0 0 0 -13.407424312632173 -0.94619439997177324 0 -0.94619439997177324 53.993423522595549 0 0 0 0 30.831558139487896 -20.674424695788275 0 -20.674424695788275 50.975288829561578 0 0 0 0 34.214473757820144 -38.218246977746276 0 -38.218246977746276 85.677416512075979 0 0 0 0 57.620086000891718 -5.0831441682930745 0 -5.0831441682930745 49.698204698515013 0 0 0 0 36.003835978851981 -19.314943950191264 0 -19.314943950191264 201.84354014295332 0 0 0 0 0.62872500467176806 0.33002591690151384 0 0.33002591690151384 0.29925602888282832 0 0 0 0 72.450053707014717 40.491883047276588 0 40.491883047276588 168.48667108621635 0 0 0 0 45.92707932627048 5.2208830059597631 0 5.2208830059597631 11.420598510680065 0 0 0 0 59.254780001599656 50.225492654534719 0 50.225492654534719 74.925747607168887 0 0 0 0 -0.037497038487288137 13.473561078699731 0 13.473561078699731 52.192172347368796 0 0 0 0 3.096212438820217 -22.832431935136356 0 -22.832431935136356 49.428384535615351 0 0 0 0 -7.8878866727895343 27.042723119020593 0 27.042723119020593 86.102034893193377 0 0 0 0 -4.8420198924021634 26.141786883226814 0 26.141786883226814 53.867539701907923 0 0 0 0 -7.3763838076305035 14.309710789105793 0 14.309710789105793 67.556996202128175 0 0 0 0 -8.5100591120407785 16.098544529902483 0 16.098544529902483 147.24619461731527 0 0 0 0 -4.5658342349260579 55.71387456432285 0 55.71387456432285 66.567148893319199 0 0 0 0 -18.60836201136118 16.116128806450433 0 16.116128806450433 113.69777707378648 0 0 0 0 -0.51281701084932285 0.068045658217647187 0 0.068045658217647187 0.15609269782157753 0 0 0 0 8.7493682537023858 47.874889355876689 0 47.874889355876689 42.013550241514167 0 0 0 0 -23.061991009872344 24.222004063164263 0 24.222004063164263 99.099105986641007 0 0 0 0 -11.895436072315476 22.59820611653231 0 22.59820611653231 99.153490295678239 0 0 0 0 5.8883197534537075 14.781534004818582 0 14.781534004818582 88.529770794752949 0 0 0 0 22.696179693743325 8.7278029583606553 0 8.7278029583606553 72.308694014829598 0 0 0 0 3.1266877187129154 -8.879260338126187 0 -8.879260338126187 90.977261045130945 0 0 0 0 -9.9623873249511448 42.743259436735116 0 42.743259436735116 75.665375891708209 0 0 0 0 22.375672792081573 11.961171133429616 0 11.961171133429616 49.046698071773335 0 0 0 0 16.713603693260779 26.032089777785131 0 26.032089777785131 86.11673888560199 0 0 0 0 -14.941193364735966 25.252885090625568 0 25.252885090625568 103.13314881917358 0 0 0 0 6.0025356249096191 36.623364945183084 0 36.623364945183084 118.73163222084713 0 0 0 0 10.91067282262553 42.260887123964721 0 42.260887123964721 112.01487730914141 0 0 0 0 -29.949305004457937 -20.114806432525256 0 -20.114806432525256 49.161172102332102 0 0 0 0 -0.25323187092446542 -0.012441041355282678 0 -0.012441041355282678 0.56435649402027721 0 0 0 0 -24.813342203799763 -1.81356838039801 0 -1.81356838039801 89.114561982725718 0 0 0 0 -13.213685049160887 14.127420161137252 0 14.127420161137252 108.23261787112824 0 0 0 0 -12.571190594035528 12.355440041688325 0 12.355440041688325 111.06736237114637 0 0 0 0 7.4356156987324766 37.527274133803985 0 37.527274133803985 142.73401739492147 0 0 0 0 -16.352385435452447 -41.431421216008403 0 -41.431421216008403 161.92494276551042 0 0 0 0 -0.076779522569324854 -20.125349736562384 0 -20.125349736562384 69.819230871032232 0 0 0 0 -5.5404073659776287 8.2506451379158534 0 8.2506451379158534 110.50735926030393 0 0 0 0 -2.2809150948812515 6.5118118172713366 0 6.5118118172713366 57.15531112734061 0 0 0 0 1.132836503834985 0.69486608240591785 0 0.69486608240591785 0.56533566678864844 0 0 0 0 -9.0919936875057559 -24.618621070522465 0 -24.618621070522465 115.48195654844039 0 0 0 0 1.0775967344883952 -35.837287459418349 0 -35.837287459418349 47.540193587351496 0 0 0 0 2.8303962976173125 -72.884160131432054 0 -72.884160131432054 139.15522891233036 0 0 0 0 16.858201975353268 -7.7805619878977268 0 -7.7805619878977268 85.248163738106086 0 0 0 0 18.113710271852653 -8.1612561139686477 0 -8.1612561139686477 82.481892619635801 0 0 0 0 -8.0195240853660295 -27.624403726788728 0 -27.624403726788728 77.045107647668374 0 0 0 0 45.567782142725093 5.1721133799651398 0 5.1721133799651398 38.696039715385268 0 0 0 0 65.069489093339143 52.880475780022607 0 52.880475780022607 119.76864051216762 0 0 0 0 43.704081820958436 18.925741651572935 0 18.925741651572935 81.84721646482194 0 0 0 0 141.70558076102259 29.841173270750915 0 29.841173270750915 202.5270656647258 0 0 0 0 7.3067102232363936 49.144876727572409 0 49.144876727572409 209.17668063596921 0 0 0 0 1.9111078812820779 12.290685041381039 0 12.290685041381039 192.46509297859666 0 0 0 0 65.529872025357975 80.585910241721194 0 80.585910241721194 199.20193918716177 0 0 0 0 0.55687967567332208 0.29207525391173306 0 0.29207525391173306 0.342248258771086 0 0 0 0 19.95578814843077 8.2538667420058118 0 8.2538667420058118 209.16235635220983 0 0 0 0 76.529080109904953 110.81713753521399 0 110.81713753521399 145.26062892708705 0 0 0 0 15.487762104696742 33.232508500709173 0 33.232508500709173 135.2642587394148 0 0 0 0 18.949656459730647 53.42421919376784 0 53.42421919376784 253.01706513947101 0 0 0 0 65.042622501471897 73.399922123383476 0 73.399922123383476 53.03654210016839 0 0 0 0 57.247504517331947 81.740728708821734 0 81.740728708821734 121.09634362994075 0 0 0 0 0.1868644771870917 0.55925195326859667 0 0.55925195326859667 1.0682158246955282 0 0 0 0 93.632439499426994 92.848445687102412 0 92.848445687102412 54.212428294365054 0 0 0 0 -63.464675720476194 12.907788215122196 0 12.907788215122196 178.24229665717576 0 0 0 0 -42.27217216093203 -44.583731491672211 0 -44.583731491672211 111.29236615233276 0 0 0 0 -3.363040497108841 20.613034106284431 0 20.613034106284431 179.35719212628828 0 0 0 0 -10.576883861444742 12.223677962162128 0 12.223677962162128 182.6934945802368 0 0 0 0 5.8220064459190439 38.549606706179475 0 38.549606706179475 162.27258342212326 0 0 0 0 8.0044054202735424 27.801928401810528 0 27.801928401810528 160.86224417187714 0 0 0 0 -2.7850962511806188 3.559746039372385 0 3.559746039372385 119.95425756846635 0 0 0 0 34.989826301130336 2.4250885229594132 0 2.4250885229594132 115.59049501098343 0 0 0 0 31.354634905026451 21.2572860323491 0 21.2572860323491 103.27821749967097 0 0 0 0 88.751578251941567 53.6898504703463 0 53.6898504703463 52.260432335501719 0 0 0 0 28.780799787093059 8.3597988475916054 0 8.3597988475916054 55.871688076758801 0 0 0 0 26.477997839211042 85.454269120182062 0 85.454269120182062 207.68177577092047 0 0 0 0 6.1095545515561298 40.089033847933024 0 40.089033847933024 113.19980104890169 0 0 0 0 -1.9284362232347689 10.410879333181128 0 10.410879333181128 152.92830145173775 0 0 0 0 -18.158973804359448 4.5650605791111047 0 4.5650605791111047 189.62024109182289 0 0 0 0 3.0148259697367052 32.396031304457438 0 32.396031304457438 199.89528392549528 0 0 0 0 -0.57234125139564185 -89.168761567569618 0 -89.168761567569618 183.2560447252672 0 0 0 0 14.475061357604261 -18.855499503002193 0 -18.855499503002193 53.941686279536498 0 0 0 0 -13.125395108305156 -27.495865160481117 0 -27.495865160481117 143.63676296845472 0 0 0 0 1.1422019780480355 -28.856978049074314 0 -28.856978049074314 91.476113485672158 0 0 0 0 14.084326450542164 2.0005727048592234 0 2.0005727048592234 129.28138970129567 0 0 0 0 29.093386508666015 -0.10431357768447924 0 -0.10431357768447924 84.981696747661658 0 0 0 0 3.9078643387161378 30.40229336244829 0 30.40229336244829 150.61786543614653 0 0 0 0 1.5415183751524637 26.049214711726563 0 26.049214711726563 162.37153480488178 0 0 0 0 -4.9198825729615052 0.23931318817733427 0 0.23931318817733427 131.10339264594313 0 0 0 0 7.9331623400296394 106.91209398612637 0 106.91209398612637 203.38334813818847 0 0 0 0 65.360474870712522 -37.545217268436772 0 -37.545217268436772 24.211885261991029 0 0 0 0 1.1828990198472042 0.82286252837505458 0 0.82286252837505458 0.63069735641711233 0 0 0 0 -24.711691321126104 22.584489889502493 0 22.584489889502493 226.18343944048047 0 0 0 0 96.249968811222544 35.983468110504873 0 35.983468110504873 -14.160314896947057 0 0 0 0 17.491511767669238 -33.723588937368731 0 -33.723588937368731 206.7172915824865 0 0 0 0 -173.44398874910794 -68.666406186779568 0 -68.666406186779568 266.86460515566614 0 0 0 0 -25.15942228919738 2.1646562638745763 0 2.1646562638745763 -58.573099988438116 0 0 0 0 0.046696460942015822 0.53861053577039297 0 0.53861053577039297 3.0188450033581802 0 0 0 0 196.36530498602673 181.3826788919564 0 181.3826788919564 197.76921274696178 0 0 0 0 0.5768591825230942 -8.0554602318516118 0 -8.0554602318516118 398.49990878393146 0 0 0 0 185.11008295717704 -9.3333722175507319 0 -9.3333722175507319 184.17216984210609 0 0 0 0 -29.901019865356375 38.84806345821471 0 38.84806345821471 173.42526697883704 0 0 0 0 0.41397113651616846 0.30276940155651388 0 0.30276940155651388 0.19759193402266373 0 0 0 0 7.1671263683895674 20.135353215684063 0 20.135353215684063 171.41632484616412 0 0 0 0 98.575102894996121 72.709329733985669 0 72.709329733985669 86.20277873838495 0 0 0 0 111.13261023381864 130.28778300288036 0 130.28778300288036 253.12507370028288 0 0 0 0 -82.128033699509473 39.383171794919235 0 39.383171794919235 377.26544138275858 0 0 0 0 -72.809292876106127 -23.898932947777553 0 -23.898932947777553 265.81739639200168 0 0 0 0 -12.959708112901865 20.513231126100663 0 20.513231126100663 252.86549081670637 0 0 0 0 -33.990319633765893 -10.86023964119795 0 -10.86023964119795 270.19132838609312 0 0 0 0 8.9214764679170884 10.536199897505185 0 10.536199897505185 223.48258105729292 0 0 0 0 -23.535876020403407 -61.349651238160277 0 -61.349651238160277 110.70299562832224 0 0 0 0 -55.196830668287419 -16.788058096107306 0 -16.788058096107306 242.65117695956974 0 0 0 0 5.4251040277435036 5.6744014741475173 0 5.6744014741475173 3.4291771141723579 0 0 0 0 71.416004763118735 100.04779235421256 0 100.04779235421256 -134.98586269454609 0 0 0 0 -25.169146766018059 16.577169379875158 0 16.577169379875158 270.64444924454165 0 0 0 0 52.182963779836825 56.715305515026898 0 56.715305515026898 260.2082041473077 0 0 0 0 16.926311529601435 38.321527837669237 0 38.321527837669237 255.8097942588247 0 0 0 0 -10.796009121808311 19.424656027580113 0 19.424656027580113 252.17307233217889 0 0 0 0 -35.816854955046892 14.765090064891865 0 14.765090064891865 31.963986635659239 0 0 0 0 -11.080645119383462 13.836115323454578 0 13.836115323454578 8.4459826562369926 0 0 0 0 -47.055281361168454 37.564336112107412 0 37.564336112107412 2.2831135114422523 0 0 0 0 -0.9121192136449805 0.38017572070599925 0 0.38017572070599925 0.12784772148510726 0 0 0 0 -8.8888654976508406 40.588065648221345 0 40.588065648221345 -39.819326573206126 0 0 0 0 -69.915141552602108 24.364008883572751 0 24.364008883572751 -64.014337687901389 0 0 0 0 -4.3612728175039592 48.348469625753751 0 48.348469625753751 -125.72591928771726 0 0 0 0 -7.7164696459664697 11.636750251101489 0 11.636750251101489 23.243947401098922 0 0 0 0 -6.7656157142869233 10.557593454799644 0 10.557593454799644 -10.45775632976256 0 0 0 0 -13.293495507541593 35.779082853021464 0 35.779082853021464 15.625291152754471 0 0 0 0 -0.39803288953271121 0.26792074714997938 0 0.26792074714997938 0.077457010077340627 0 0 0 0 -18.263820325287952 16.082447361796767 0 16.082447361796767 54.657646107347318 0 0 0 0 31.744900101581607 66.862569977058229 0 66.862569977058229 -133.0626308169285 0 0 0 0 7.0201542807377519 6.9634347616501202 0 6.9634347616501202 3.9104864913862301 0 0 0 0 -47.02915640769703 -10.84011294810125 0 -10.84011294810125 68.366256735278512 0 0 0 0 122.53642847303377 36.881932826491266 0 36.881932826491266 15.846605417998489 0 0 0 0 7.155751062340693 7.3760455793046997 0 7.3760455793046997 4.5978121052395267 0 0 0 0 36.967796357776962 7.3762255087663107 0 7.3762255087663107 -0.35637462895283534 0 0 0 0 -26.3545884747614 33.251300050275802 0 33.251300050275802 7.7688037958760106 0 0 0 0 -26.443802095977617 32.146507443061637 0 32.146507443061637 39.71390362177408 0 0 0 0 -66.528676956314484 43.980501646125958 0 43.980501646125958 -14.282114244588229 0 0 0 0 -24.665712191436569 12.241883024021377 0 12.241883024021377 16.407592546422165 0 0 0 0 -25.524594398545105 18.527323403160153 0 18.527323403160153 36.531276226144541 0 0 0 0 -27.170973475300002 16.439515383079879 0 16.439515383079879 34.010109488317539 0 0 0 0 -12.234666413805144 31.878992106589976 0 31.878992106589976 30.956109459726576 0 0 0 0 -11.462713797764081 31.015254718598953 0 31.015254718598953 30.931113870197805 0 0 0 0 -14.919477757216214 26.107961066619737 0 26.107961066619737 27.384536642530293 0 0 0 0 8.5790402243610515 42.285101936304727 0 42.285101936304727 37.377408941641988 0 0 0 0 -25.97936874419198 30.632573065122486 0 30.632573065122486 76.863183330748143 0 0 0 0 7.14287593326776 0.46840681645971927 0 0.46840681645971927 34.345556276823118 0 0 0 0 42.279148118955362 -6.1337310684184558 0 -6.1337310684184558 -8.493094926010599 0 0 0 0 22.79915885520478 -13.819800188664885 0 -13.819800188664885 82.222581128315937 0 0 0 0 26.88016470823149 -12.022501801896851 0 -12.022501801896851 72.515794665701833 0 0 0 0 0.28861911790210515 -0.054990250540763341 0 -0.054990250540763341 0.090026541253245718 0 0 0 0 -14.074173832697767 -1.7681169033471633 0 -1.7681169033471633 68.308891953133752 0 0 0 0 0.75254906374375929 0.10840122429611476 0 0.10840122429611476 0.14942830228872772 0 0 0 0 -16.123417360836186 -5.8420100466455551 0 -5.8420100466455551 61.973953041599771 0 0 0 0 -15.026446756488895 31.250274689083199 0 31.250274689083199 -13.933344431197582 0 0 0 0 16.893143470870484 8.688551736539921 0 8.688551736539921 1.2920079608802553 0 0 0 0 0.36470684712773549 0.62965027430700005 0 0.62965027430700005 2.1096681011714384 0 0 0 0 -6.0122544353746292 1.0232426848124305 0 1.0232426848124305 20.044178801280395 0 0 0 0 5.1762406343628697 1.292318589144088 0 1.292318589144088 13.121284180820112 0 0 0 0 -23.404351786715779 20.453126437898391 0 20.453126437898391 25.061162429308752 0 0 0 0 0.62345978826821979 3.8550864857680978 0 3.8550864857680978 11.840412919284486 0 0 0 0 -14.655442510699231 23.07882360054964 0 23.07882360054964 6.9151824062228116 0 0 0 0 -3.7084935417542226 10.460704135056403 0 10.460704135056403 14.570498466304855 0 0 0 0 9.1010918678016992 16.357104783521208 0 16.357104783521208 24.343482335440513 0 0 0 0 3.4844412587502518 3.4261304804568908 0 3.4261304804568908 19.212833943099213 0 0 0 0 0.52509364031673744 0.03474945660830997 0 0.03474945660830997 -0.26715020517699273 0 0 0 0 6.3037471511615877 17.123718196685786 0 17.123718196685786 62.699189230514094 0 0 0 0 38.823457447268218 20.564216815369992 0 20.564216815369992 12.418892435514863 0 0 0 0 10.998710874602864 4.6460849851619059 0 4.6460849851619059 4.3877721106273384 0 0 0 0 19.87273935732631 5.9913563475938645 0 5.9913563475938645 -4.0470325374553795 0 0 0 0 9.4025530399309787 3.1666179164872119 0 3.1666179164872119 -13.996441865199813 0 0 0 0 2.6774809985640218 -0.16511380817701138 0 -0.16511380817701138 -5.7507594033759233 0 0 0 0 2.4383895721712463 7.7214100305436659 0 7.7214100305436659 -14.546020921592799 0 0 0 0 4.7685089742407172 -2.1275959538879761 0 -2.1275959538879761 3.7424764298884838 0 0 0 0 0.4113151446345088 -0.45202153877134599 0 -0.45202153877134599 0.75275352496515957 0 0 0 0 -0.29970259028959179 -0.29033425958056291 0 -0.29033425958056291 1.0720017978615726 0 0 0 0 14.520860465949994 -8.1383007002168597 0 -8.1383007002168597 4.2928401415983899 0 0 0 0 19.540695312056286 -0.19984568344398213 0 -0.19984568344398213 3.5010122161220352 0 0 0 0 3.5197008467455362 -3.8738966252312821 0 -3.8738966252312821 8.5119411567702628 0 0 0 0 17.498443265667305 21.360157307896657 0 21.360157307896657 2.7144759716902627 0 0 0 0 -8.3345178969328089 16.024730299687917 0 16.024730299687917 3.5891078112053947 0 0 0 0 0.13650246313279923 -0.0031097570039193556 0 -0.0031097570039193556 -0.026663447006562535 0 0 0 0 4.4253322835410707 5.2805633854145526 0 5.2805633854145526 12.874336339648835 0 0 0 0 -39.31394046557466 2.2224564896296215 0 2.2224564896296215 25.110918760472941 0 0 0 0 -0.061077790467059634 3.4880333207578462 0 3.4880333207578462 11.616508944964554 0 0 0 0 13.698093227193397 9.6641775000784946 0 9.6641775000784946 8.8278944398339263 0 0 0 0 4.4662907183073628 5.6733691445774639 0 5.6733691445774639 8.0590727289390998 0 0 0 0 6.725597303512572 4.4442330255424167 0 4.4442330255424167 8.4749447464664627 0 0 0 0 -32.084694735851372 -11.24023953714277 0 -11.24023953714277 10.888483585837093 0 0 0 0 0.50022641483159436 3.2912742653156477 0 3.2912742653156477 11.123678983224011 0 0 0 0 -21.105749978935705 -5.8028698407328108 0 -5.8028698407328108 10.0612781435957 0 0 0 0 -7.9005556019881169 5.4484123504644231 0 5.4484123504644231 10.745502600064356 0 0 0 0 -28.066704562214227 16.407898186726925 0 16.407898186726925 9.0331246305246395 0 0 0 0 -0.27610181322524152 0.78793996658607668 0 0.78793996658607668 3.5378172471664788 0 0 0 0 0.72472750714601608 0.42785519426263718 0 0.42785519426263718 12.386179659810153 0 0 0 0 1.1455425418425875 -0.0028231716892150871 0 -0.0028231716892150871 15.744577271522985 0 0 0 0 4.1950465498681657 0.1194693078278366 0 0.1194693078278366 2.2725861754901207 0 0 0 0 2.0614474564922602 -5.5640802100933797 0 -5.5640802100933797 2.9992470896440864 0 0 0 0 4.3211738272823936 3.7436992704358545 0 3.7436992704358545 -2.1852433403564646 0 0 0 0 6.9632292617926339 -1.6126667949101829 0 -1.6126667949101829 -9.8572002845039606 0 0 0 0 -3.4593164477540768 -4.6010701570135097 0 -4.6010701570135097 12.359138896508341 0 0 0 0 3.349238583331072 -0.94954433842849539 0 -0.94954433842849539 5.3303722048432292 0 0 0 0 2.3399958434735582 -0.42324232448172161 0 -0.42324232448172161 -0.40408697678530769 0 0 0 0 1.4279449278483369 -3.6111617768251563 0 -3.6111617768251563 10.09531831635104 0 0 0 0 4.7794457597334059 -1.8136094949677499 0 -1.8136094949677499 6.2497944188689871 0 0 0 0 5.3851071862284812 -2.1482143250805166 0 -2.1482143250805166 5.986345232475287 0 0 0 0 3.3625749175023998 -0.094645521380698483 0 -0.094645521380698483 6.5767587024092791 0 0 0 0 6.8255195000132005 -3.6234798295272412 0 -3.6234798295272412 7.73441019513848 0 0 0 0 7.8921976495574029 0.091947924091982713 0 0.091947924091982713 6.0235390466195895 0 0 0 0 -3.5215240080098624 5.232622839067858 0 5.232622839067858 0.59398363798754872 0 0 0 0 -16.775650031728674 3.7640290836134227 0 3.7640290836134227 8.4599702424548013 0 0 0 0 -13.919398142262708 10.518862782632823 0 10.518862782632823 -0.60202714186561934 0 0 0 0 -24.113317779991121 -14.035835158786995 0 -14.035835158786995 4.9669668995265965 0 0 0 0 0.19385880932336708 -0.25493887142510196 0 -0.25493887142510196 0.59878245618899228 0 0 0 0 -27.491067300361692 -11.011679385104799 0 -11.011679385104799 59.899801655962619 0 0 0 0 -22.766504269214465 -3.1929759671111242 0 -3.1929759671111242 -3.6452932475385751 0 0 0 0 -27.75878398876057 7.6200976659629305 0 7.6200976659629305 7.9297180410849251 0 0 0 0 -26.888056826531283 0.12903179596378322 0 0.12903179596378322 14.640086041320913 0 0 0 0 -24.71487217035201 -1.7108021765079684 0 -1.7108021765079684 10.45018423701913 0 0 0 0 -20.809743712875957 -3.4581689670249034 0 -3.4581689670249034 14.570882030363464 0 0 0 0 -29.601664119373254 -1.4502904254213718 0 -1.4502904254213718 39.464540152868381 0 0 0 0 -29.6156551260583 1.1702829311288951 0 1.1702829311288951 14.862399779717634 0 0 0 0 -31.114004716873296 -3.8409456877752746 0 -3.8409456877752746 14.268528229269236 0 0 0 0 -35.806739084132943 4.6499174889271444 0 4.6499174889271444 7.552338917104862 0 0 0 0 -38.800595423131426 -4.3058798468809982 0 -4.3058798468809982 17.673443866631715 0 0 0 0 -30.685751614962783 1.5761988227791335 0 1.5761988227791335 21.369816333355629 0 0 0 0 -29.242850866287426 -0.869926008938819 0 -0.869926008938819 1.3502928018342573 0 0 0 0 -41.127362382303545 -10.346153646071798 0 -10.346153646071798 21.238129222667453 0 0 0 0 -34.318343550390637 17.669790977761295 0 17.669790977761295 5.5435405116031689 0 0 0 0 -47.632427840163245 9.764042761528799 0 9.764042761528799 35.310791566127591 0 0 0 0 -32.413345579919678 4.2770843642254022 0 4.2770843642254022 20.032557271621044 0 0 0 0 -49.095819132558063 18.919230432346922 0 18.919230432346922 54.882413574620841 0 0 0 0 -11.313146959023925 31.212663040586449 0 31.212663040586449 19.833714119518845 0 0 0 0 -7.7791188258870534 14.325628771992342 0 14.325628771992342 6.6820191781844187 0 0 0 0 -0.19671997292827026 0.095318028629076679 0 0.095318028629076679 -0.06664783306487998 0 0 0 0 -2.5718414318694158 12.441143104355433 0 12.441143104355433 -38.208130772284676 0 0 0 0 -33.018282213128032 4.4879550482093578 0 4.4879550482093578 2.4577048669489159 0 0 0 0 49.481757372864024 -15.292163148453255 0 -15.292163148453255 -48.987074149294131 0 0 0 0 -19.382553178402986 41.874594536932818 0 41.874594536932818 72.431327407213757 0 0 0 0 -96.536088684785454 -3.64296077733934 0 -3.64296077733934 119.18513544550842 0 0 0 0 -86.54849551593054 -45.946364744596735 0 -45.946364744596735 43.362548791035806 0 0 0 0 -42.387774605295817 -12.106057212015912 0 -12.106057212015912 60.867020950324331 0 0 0 0 -33.791719776716036 -47.788925451844989 0 -47.788925451844989 9.9666696583857117 0 0 0 0 8.4043423858320239 -38.22760261482108 0 -38.22760261482108 10.02426912435034 0 0 0 0 -15.855031527668416 -10.508191090976652 0 -10.508191090976652 16.491363062303208 0 0 0 0 4.4167063579602654 -1.1299440857656009 0 -1.1299440857656009 20.031755554563006 0 0 0 0 -7.9201175885698376 -16.285256310543446 0 -16.285256310543446 18.309645249188179 0 0 0 0 -29.373156071145786 -15.59664208936465 0 -15.59664208936465 19.396198519105383 0 0 0 0 -25.014736749066287 -1.2992056408193093 0 -1.2992056408193093 18.314451214813744 0 0 0 0 -23.090604855142374 -2.0356880229646777 0 -2.0356880229646777 17.689927030593026 0 0 0 0 -16.650824119662047 -1.7430785193855627 0 -1.7430785193855627 21.026540942299107 0 0 0 0 -10.999909401306923 -2.2474807023245376 0 -2.2474807023245376 16.030767815995205 0 0 0 0 -4.8043101195941063 -19.596952458112128 0 -19.596952458112128 34.239093971316834 0 0 0 0 -10.794489202714203 -4.7704316460985865 0 -4.7704316460985865 35.050062611910107 0 0 0 0 -7.4931627190992458 -3.3989937402616306 0 -3.3989937402616306 18.160690135924597 0 0 0 0 2.9436581258398746 -10.232934024996212 0 -10.232934024996212 14.80375059618018 0 0 0 0 -8.5011548761435733 2.8064808818362508 0 2.8064808818362508 14.63492042206417 0 0 0 0 -3.5296101799705544 -1.7195135679844391 0 -1.7195135679844391 0.066926220048305396 0 0 0 0 -0.19184898887797086 -0.02412979294992823 0 -0.02412979294992823 0.27557708214826615 0 0 0 0 -8.4486558657516753 -10.904459121211403 0 -10.904459121211403 -2.254373698586619 0 0 0 0 -1.3675258661165675 -0.50637808132572459 0 -0.50637808132572459 -0.19869636987466066 0 0 0 0 -52.958678605622481 29.726489155900708 0 29.726489155900708 -7.2323884887655367 0 0 0 0 -21.258311525854424 10.318147442288591 0 10.318147442288591 4.1159067985645379 0 0 0 0 -31.442201182327153 3.7497132125668031 0 3.7497132125668031 2.4962079791730503 0 0 0 0 -24.562374131464367 -20.85292933830533 0 -20.85292933830533 25.921657195185162 0 0 0 0 -2.6819730099830394 -31.83671843537013 0 -31.83671843537013 8.9895422382051038 0 0 0 0 -7.3241153227393738 -14.593689512650371 0 -14.593689512650371 13.011356722152414 0 0 0 0 -49.893207849015653 -73.419160826003463 0 -73.419160826003463 22.158615772939356 0 0 0 0 -79.790232636119185 4.1109407100834687 0 4.1109407100834687 18.480223820371975 0 0 0 0 -3.5476009005083142 -1.5610862821563387 0 -1.5610862821563387 55.957136945442471 0 0 0 0 -0.58410577983613621 3.9512880652473541 0 3.9512880652473541 36.564510221071032 0 0 0 0 1.2962412037879361 -3.1263809084228456 0 -3.1263809084228456 17.725182735474846 0 0 0 0 -0.0253435276217715 0.14870013895870215 0 0.14870013895870215 23.590567638865195 0 0 0 0 1.0258288787328889 -0.19374124398999903 0 -0.19374124398999903 -0.054156026704436755 0 0 0 0 9.0605074929528655 -5.0142855613753454 0 -5.0142855613753454 -10.889954915467115 0 0 0 0 0.436323570746457 0.022848737460847701 0 0.022848737460847701 -0.041370864137355134 0 0 0 0 8.6000975974002358 -6.2048548415509686 0 -6.2048548415509686 2.7986390455207584 0 0 0 0 -21.200806050707058 5.489188514069042 0 5.489188514069042 13.897731627510439 0 0 0 0 -25.984039947248629 -5.5483065591667895 0 -5.5483065591667895 49.734761746181903 0 0 0 0 -0.045145718555610392 0.38319841599699522 0 0.38319841599699522 13.468526927260331 0 0 0 0 -15.274127621039042 1.1095093652147625 0 1.1095093652147625 11.229612541859751 0 0 0 0 -19.870510321479287 3.2739770726730058 0 3.2739770726730058 16.955111504912566 0 0 0 0 14.496401952934889 5.6653635966335969 0 5.6653635966335969 -2.4999664057622795 0 0 0 0 9.0246001131683897 -11.332923620392648 0 -11.332923620392648 29.959348162939023 0 0 0 0 -0.028339235922089756 3.8099010350688332 0 3.8099010350688332 11.00004183218698 0 0 0 0 -10.996608284580134 6.2720904470525056 0 6.2720904470525056 14.83540490821224 0 0 0 0 -17.652815242918223 -3.7954442021027717 0 -3.7954442021027717 19.450679110526835 0 0 0 0 -0.45692666723284281 0.5586982572296959 0 0.5586982572296959 14.257490262640118 0 0 0 0 -0.98134849086362053 0.62376483610898603 0 0.62376483610898603 4.4301626332406823 0 0 0 0 -16.797613510482734 -3.647736998073924 0 -3.647736998073924 24.361936898354543 0 0 0 0 -16.937924859043733 -4.8561613007148026 0 -4.8561613007148026 14.895984524628147 0 0 0 0 -3.2022173733477248 -2.921866221452678 0 -2.921866221452678 4.8496111088001195 0 0 0 0 -12.873698805738968 0.33251256184985323 0 0.33251256184985323 26.198349137075638 0 0 0 0 -0.84909071313813911 2.8491447175074427 0 2.8491447175074427 15.951728334168365 0 0 0 0 -2.4745196384418868 -0.57114648676316637 0 -0.57114648676316637 10.740310913474911 0 0 0 0 -1.8368964391573854 -1.0090117469062534 0 -1.0090117469062534 15.128211417724742 0 0 0 0 -1.5685625709817259 -2.0159584933089718 0 -2.0159584933089718 8.7761233890640824 0 0 0 0 -1.760593574872731 -0.77321209111585343 0 -0.77321209111585343 9.2389430431050492 0 0 0 0 -2.7562013585988892 0.7109757776818757 0 0.7109757776818757 7.0050372593755288 0 0 0 0 -0.59720121508573243 -2.8166738632580746 0 -2.8166738632580746 17.029864844935219 0 0 0 0 -1.4406193528757258 -1.3631533712785568 0 -1.3631533712785568 11.472284113986461 0 0 0 0 -2.2616479623280137 1.6105803431267489 0 1.6105803431267489 5.8848456039736021 0 0 0 0 -2.4774889618749585 -2.0791679005730259 0 -2.0791679005730259 4.1355883251397021 0 0 0 0 -8.3117658851822114 -1.2199888492295941 0 -1.2199888492295941 19.466756043372698 0 0 0 0 -2.4273489185782751 -2.5904449219765411 0 -2.5904449219765411 15.727107858345335 0 0 0 0 -3.193277386984029 0.67745749461781202 0 0.67745749461781202 2.049383971973322 0 0 0 0 -4.4390470423210218 -8.0251965148072486 0 -8.0251965148072486 16.057384604814615 0 0 0 0 -2.2956268525971906 -1.5830311533869974 0 -1.5830311533869974 1.8468748489863558 0 0 0 0 -1.2297997411593542 -3.0157287422553054 0 -3.0157287422553054 10.398767201919327 0 0 0 0 12.009199286755234 -7.2439867051220972 0 -7.2439867051220972 10.546494276605699 0 0 0 0 -4.3422327959187896 -0.52470569688171054 0 -0.52470569688171054 9.1827066584482964 0 0 0 0 -2.3289129604509924 -1.9006779957285289 0 -1.9006779957285289 9.2109049412001696 0 0 0 0 1.7947844720743547 -11.137738499983016 0 -11.137738499983016 15.745157592466057 0 0 0 0 -0.68559063976429679 -1.0806535091513423 0 -1.0806535091513423 1.7660927406905671 0 0 0 0 -0.24109655814538655 -4.4156866402095147 0 -4.4156866402095147 19.31542056099579 0 0 0 0 -3.5759013452237696 -1.9899179533636016 0 -1.9899179533636016 10.667385906129766 0 0 0 0 -2.5059298815014959 0.011047365665795006 0 0.011047365665795006 2.6822178874592089 0 0 0 0 -4.3589980083706905 -0.30495313868368612 0 -0.30495313868368612 25.139411847584597 0 0 0 0 -3.1872918817160425 1.1709698062942735 0 1.1709698062942735 8.0819555517979875 0 0 0 0 -0.53436386929085522 -5.9384902884422814 0 -5.9384902884422814 1.7779157392996328 0 0 0 0 -1.6700161147696235 -0.46470099229725292 0 -0.46470099229725292 22.66919913050674 0 0 0 0 -1.3897299517011561 -1.0019578118281061 0 -1.0019578118281061 23.308736118487104 0 0 0 0 -2.649818728820037 -6.7078508878839784 0 -6.7078508878839784 24.156831803781245 0 0 0 0 0.38944107584973153 -1.4434216410725185 0 -1.4434216410725185 19.33819295518424 0 0 0 0 -0.22026803615199242 -5.9038344813657204 0 -5.9038344813657204 17.235573894412255 0 0 0 0 -2.1069440298640352 -6.1225126214927457 0 -6.1225126214927457 26.787587959159737 0 0 0 0 -2.4393826681900919 -1.7977704337536125 0 -1.7977704337536125 21.363388111732547 0 0 0 0 -0.021057094627808803 -6.0245112751347518 0 -6.0245112751347518 0.87717053654379895 0 0 0 0 -0.96225058740361646 -5.9752510592161343 0 -5.9752510592161343 12.291208689971768 0 0 0 0 2.4086136529479063 -7.3696943847662624 0 -7.3696943847662624 7.4445312098154091 0 0 0 0 -1.6318851613533525 -5.1248241168914319 0 -5.1248241168914319 13.080677183982516 0 0 0 0 -0.42850092683119279 -6.4002078386409664 0 -6.4002078386409664 14.01651380678868 0 0 0 0 1.8455289215263164 -11.187092902539689 0 -11.187092902539689 19.040541454057347 0 0 0 0 -6.3330911799583482 -16.774713482818356 0 -16.774713482818356 44.014156714997171 0 0 0 0 -0.99894374387861262 10.670771931704621 0 10.670771931704621 57.629341552965002 0 0 0 0 -1.7227773323868973 -5.9985144455461068 0 -5.9985144455461068 28.352491411193114 0 0 0 0 0.28165372629173646 -5.4793365548525799 0 -5.4793365548525799 12.109581078423616 0 0 0 0 1.5919135355408685 -5.2781492958051786 0 -5.2781492958051786 10.705507227466114 0 0 0 0 0.5372866623651199 -6.0167946162735921 0 -6.0167946162735921 0.85977612116655466 0 0 0 0 -0.16841638056328634 -5.1233705634276703 0 -5.1233705634276703 13.019071800754432 0 0 0 0 0.43671651638777931 -4.1737654019602815 0 -4.1737654019602815 10.308299800964051 0 0 0 0 -1.7246425546509023 0.42618043406104622 0 0.42618043406104622 1.7321958110013682 0 0 0 0 4.4699076412227896 -6.6539849171458627 0 -6.6539849171458627 6.3288994593040115 0 0 0 0 -1.0513544679031099 -4.1605460964105987 0 -4.1605460964105987 11.895570573202576 0 0 0 0 0.56631291442807452 -4.8812754686642847 0 -4.8812754686642847 9.0230869570168579 0 0 0 0 8.5433996876839728 -9.1967674803163391 0 -9.1967674803163391 8.8945423526924969 0 0 0 0 -0.39695072577211477 -0.29063127244580755 0 -0.29063127244580755 6.5371018004398138 0 0 0 0 -1.4717431873194935 0.26031040463938382 0 0.26031040463938382 1.9779456593284053 0 0 0 0 -0.089066627744003313 -3.262417893107795 0 -3.262417893107795 10.880485850725563 0 0 0 0 -2.9413142326264961 -5.4575337173141634 0 -5.4575337173141634 9.5229870945947823 0 0 0 0 -1.5774335006011966 0.34991850799251623 0 0.34991850799251623 1.0202983854658978 0 0 0 0 -1.2257763619219304 -3.1537630629404703 0 -3.1537630629404703 16.595308337840834 0 0 0 0 -1.1037128958450353 -4.0192315144774966 0 -4.0192315144774966 11.537433935519402 0 0 0 0 0.17678826362816835 -0.86581457735701406 0 -0.86581457735701406 10.920168215356171 0 0 0 0 -0.408349646216152 -1.4217115876404023 0 -1.4217115876404023 10.413398442542075 0 0 0 0 0.57044298406088956 -0.61280035122854315 0 -0.61280035122854315 12.311597866840202 0 0 0 0 0.67210847172867716 -1.2849619225096376 0 -1.2849619225096376 9.9157656568777384 0 0 0 0 -3.3881727794767897 -9.018711853681225 0 -9.018711853681225 11.572012980727777 0 0 0 0 0.56167299008858373 -0.77669233869623078 0 -0.77669233869623078 0.94254638720391171 0 0 0 0 1.3308574888083626 -2.8541552576170943 0 -2.8541552576170943 8.1247620557037408 0 0 0 0 1.4835123107800428 -4.1409327033707086 0 -4.1409327033707086 7.379986627271137 0 0 0 0 1.6563524736982345 -4.3930658624694843 0 -4.3930658624694843 7.1278332860392766 0 0 0 0 -1.4482583501115207 0.88697833718979169 0 0.88697833718979169 3.2976931725697334 0 0 0 0 0.81206988057347651 -2.0577559056991959 0 -2.0577559056991959 8.0869559502079937 0 0 0 0 0.87439276044321446 -2.2930103143710312 0 -2.2930103143710312 7.9548701053026889 0 0 0 0 1.5500136198919563 -4.5601937360233933 0 -4.5601937360233933 5.7959622711314296 0 0 0 0 -0.085770090191772397 -4.0746524491810305 0 -4.0746524491810305 7.6343143231169961 0 0 0 0 1.0370545742030117 -3.4319988710085454 0 -3.4319988710085454 7.6292443599724464 0 0 0 0 -0.21781042915290527 -3.6937320170873136 0 -3.6937320170873136 8.3542417929638759 0 0 0 0 -0.36713587299209394 -4.4887726844299323 0 -4.4887726844299323 6.282658074003848 0 0 0 0 0.60319222500197611 -3.2083630160177563 0 -3.2083630160177563 7.3510222466284176 0 0 0 0 1.3984804629224072 -3.8637880979094916 0 -3.8637880979094916 5.3158536388455104 0 0 0 0 0.63808373538972774 -4.357173833057459 0 -4.357173833057459 6.770970044313799 0 0 0 0 1.6678206689641684 -4.2079228891761886 0 -4.2079228891761886 6.7924583926878768 0 0 0 0 2.586756550571863 -3.1598766643892304 0 -3.1598766643892304 7.9111549557419494 0 0 0 0 1.2871075468059985 -2.6213393038131017 0 -2.6213393038131017 8.9929640941809339 0 0 0 0 1.4169816766386703 -1.9883992213772217 0 -1.9883992213772217 10.38379835538035 0 0 0 0 0.87387535956395368 -2.9081519512837986 0 -2.9081519512837986 9.1155339887627633 0 0 0 0 0.73069289897847511 -2.3988471046504856 0 -2.3988471046504856 10.257337845097936 0 0 0 0 0.16096008593490296 -3.0552002991116751 0 -3.0552002991116751 9.5195888570306124 0 0 0 0 1.1237274255224747 -2.5338858171426182 0 -2.5338858171426182 9.3324150325061055 0 0 0 0 0.81305050694891179 -3.0374852654840652 0 -3.0374852654840652 9.4586400399130071 0 0 0 0 0.49198107305915073 -2.5449007265924593 0 -2.5449007265924593 9.3998905995940731 0 0 0 0 1.6346815274782784 -2.712746918286939 0 -2.712746918286939 10.346118858247792 0 0 0 0 1.5016973575444865 -1.733973000897322 0 -1.733973000897322 10.540281419991516 0 0 0 0 0.347524123458129 -1.5942541740864726 0 -1.5942541740864726 9.7457743843260687 0 0 0 0 1.1471429785411074 -0.63518291844420105 0 -0.63518291844420105 0.95351993647046918 0 0 0 0 3.3494566841528695 -2.2060962390405621 0 -2.2060962390405621 2.3907181890608626 0 0 0 0 0.29148208930564579 -2.6654577572790004 0 -2.6654577572790004 10.91837062052582 0 0 0 0 0.44692594274491171 -2.2472600557550777 0 -2.2472600557550777 10.582854151289212 0 0 0 0 1.1016778274733952 -2.1133027029500226 0 -2.1133027029500226 3.3348150652088862 0 0 0 0 1.1739556465868191 -2.6873950377339497 0 -2.6873950377339497 5.0326953971798503 0 0 0 0 -0.78983577590646881 -0.72725843057368955 0 -0.72725843057368955 2.8623243706555535 0 0 0 0 0.49432233335755016 -1.9989497241497887 0 -1.9989497241497887 4.0236206666299701 0 0 0 0 0.11410396859847105 -1.2076765859600709 0 -1.2076765859600709 2.7850551362024256 0 0 0 0 -0.012961447387930036 -0.4104669114171724 0 -0.4104669114171724 1.5561278711072219 0 0 0 0 -0.52924846179848828 -1.4999773136751173 0 -1.4999773136751173 4.8645672324601037 0 0 0 0 3.899689054200735 -3.743844281132624 0 -3.743844281132624 8.2639635621526395 0 0 0 0 0.60680102821253445 -2.8132014246524051 0 -2.8132014246524051 4.129462536867214 0 0 0 0 -0.57627916519908728 0.122360210138309 0 0.122360210138309 1.6699641327989241 0 0 0 0 -1.2403318792109488 0.91014087995593584 0 0.91014087995593584 2.2045113504415834 0 0 0 0 0.046075272323518046 -0.28734867190520674 0 -0.28734867190520674 1.036922049913509 0 0 0 0 0.2971106048380534 -4.8071077397780755 0 -4.8071077397780755 10.210583226045856 0 0 0 0 1.6608189784285405 -1.1425696539819334 0 -1.1425696539819334 0.93627655158073697 0 0 0 0 2.894884629896751 -6.2073031563631957 0 -6.2073031563631957 5.4348269802112554 0 0 0 0 -0.91431884763801463 3.5159462702758901 0 3.5159462702758901 17.042876926570898 0 0 0 0 -0.84037320477647182 -0.29052850345382275 0 -0.29052850345382275 2.0012514972651694 0 0 0 0 4.9113438608940214 3.154315921208763 0 3.154315921208763 11.645388051470945 0 0 0 0 7.1240542963805638 -0.76494626195562887 0 -0.76494626195562887 9.5179420163885879 0 0 0 0 7.0821272526627581 1.5550669642907451 0 1.5550669642907451 10.07533818441334 0 0 0 0 3.9797274690472477 1.0522090909362305 0 1.0522090909362305 11.443556143054593 0 0 0 0 3.8211682898327126 -2.1690231923676038 0 -2.1690231923676038 9.4131947098726414 0 0 0 0 2.1726470873970811 -6.0018593979775687 0 -6.0018593979775687 2.1329084650890309 0 0 0 0 1.3427464169924974 -2.3072252783526892 0 -2.3072252783526892 7.858561210849075 0 0 0 0 -6.1702764273641151 -0.52981644910801151 0 -0.52981644910801151 2.4525664683487776 0 0 0 0 -2.9941118986355377 0.9313271145674662 0 0.9313271145674662 17.467713599290391 0 0 0 0 -1.6223884744813404 -1.1348013083652404 0 -1.1348013083652404 16.487849931801975 0 0 0 0 -4.8906059087157701 -2.7234283584557488 0 -2.7234283584557488 12.877403191941312 0 0 0 0 5.2809813818499833 -0.74471979632244256 0 -0.74471979632244256 12.297129226399193 0 0 0 0 -1.639692998927103 0.065187676135792572 0 0.065187676135792572 12.516165674040167 0 0 0 0 0.21738018566838946 -1.9446837957102616 0 -1.9446837957102616 10.64185376126261 0 0 0 0 1.6573365815247598 -0.50828283058581292 0 -0.50828283058581292 10.760574867630112 0 0 0 0 1.1524470237438891 -0.21275798711576499 0 -0.21275798711576499 10.94622638009605 0 0 0 0 2.4559107611785294 -1.2481576362224587 0 -1.2481576362224587 10.40536342789801 0 0 0 0 2.6502570667073542 2.40343709121953 0 2.40343709121953 13.160125134261762 0 0 0 0 0.16215085173701027 1.5972758202433397 0 1.5972758202433397 13.24525249781982 0 0 0 0 -1.7025317254726815 0.84875905579792743 0 0.84875905579792743 13.401904797974566 0 0 0 0 -3.6902592689064022 -0.81821657530963421 0 -0.81821657530963421 13.369276251631163 0 0 0 0 -1.2002567070478563 -0.73639159511003527 0 -0.73639159511003527 10.670680681989325 0 0 0 0 -3.4709502342866472 -3.2239830041180539 0 -3.2239830041180539 10.113175196605425 0 0 0 0 -1.7600705209747503 -3.7235253630788065 0 -3.7235253630788065 6.4120499644595839 0 0 0 0 -2.0933619126085432 -3.5686460801352951 0 -3.5686460801352951 8.5303917763858408 0 0 0 0 -0.90519179091188562 -2.258909339996535 0 -2.258909339996535 9.0157097568007885 0 0 0 0 -1.2982269284685373 -2.4711833216510968 0 -2.4711833216510968 9.7023661989151151 0 0 0 0 -1.2342278579617414 -2.0159778962006385 0 -2.0159778962006385 10.569912938597554 0 0 0 0 0.32086285881928234 -2.1763327843441402 0 -2.1763327843441402 9.0133876594773028 0 0 0 0 -1.171500027061029 -3.3459622953232611 0 -3.3459622953232611 8.2088258290968952 0 0 0 0 -0.78259799632360227 -3.1007103577503585 0 -3.1007103577503585 7.8337462329764094 0 0 0 0 -0.98661868343560855 -4.0795028656139039 0 -4.0795028656139039 6.0517233954378753 0 0 0 0 -1.8361889395066555 -4.1013296413848366 0 -4.1013296413848366 6.0864297407424601 0 0 0 0 -0.5879249923664247 -4.6662188430300375 0 -4.6662188430300375 3.7246439310656569 0 0 0 0 -1.6718870121305827 -4.6338684140155237 0 -4.6338684140155237 2.1545273573465238 0 0 0 0 -1.9383177492557593 -4.9473811432017101 0 -4.9473811432017101 3.8474695895820332 0 0 0 0 -2.793790573498427 -4.6425006897916319 0 -4.6425006897916319 4.7111783617292531 0 0 0 0 -2.351575798945305 -3.6895552259557007 0 -3.6895552259557007 2.7274669477628777 0 0 0 0 -2.797717776241825 -4.4982703830828541 0 -4.4982703830828541 4.2465602906086133 0 0 0 0 -2.5958522119091185 -3.440802071599137 0 -3.440802071599137 6.3167369829570816 0 0 0 0 -1.6375854760135553 -4.3931451668286172 0 -4.3931451668286172 4.1842007180439396 0 0 0 0 -4.589872886213584 -5.8919908950888384 0 -5.8919908950888384 4.271170257092308 0 0 0 0 -5.189407148342184 -3.6078322042785658 0 -3.6078322042785658 7.7166368131802301 0 0 0 0 -2.5357088243374051 -2.5435361262047991 0 -2.5435361262047991 7.3596449245287658 0 0 0 0 -2.9063126601186013 -3.7440070549873781 0 -3.7440070549873781 2.6932649268652966 0 0 0 0 -2.4243808029027605 -4.3955555279480905 0 -4.3955555279480905 2.6954463393776678 0 0 0 0 -2.6606983502169896 -6.6366505351707019 0 -6.6366505351707019 -3.7498254711208574 0 0 0 0 -1.3911858096307697 -1.6806414760467305 0 -1.6806414760467305 -5.0464882921951357 0 0 0 0 -2.391373102323314 -4.8863771415940391 0 -4.8863771415940391 1.4294745549523213 0 0 0 0 -3.34754018328249 -1.9125147872218804 0 -1.9125147872218804 -1.6982113316262257 0 0 0 0 -3.5415824800354585 -2.9792431599234988 0 -2.9792431599234988 -0.50367408376769163 0 0 0 0 -2.9435025288880752 -4.8136545389461389 0 -4.8136545389461389 2.1356145724166709 0 0 0 0 -3.0764492726066237 -4.7263848381116986 0 -4.7263848381116986 1.872046299120484 0 0 0 0 -2.4999342228006753 -3.7489079488605057 0 -3.7489079488605057 -1.8353485469488078 0 0 0 0 -6.2858424868695693 -4.0250894579248779 0 -4.0250894579248779 10.305439084587761 0 0 0 0 4.5238878580776714 1.5666707248224157 0 1.5666707248224157 5.5807678140408825 0 0 0 0 -0.49634752297993145 1.5460941647652362 0 1.5460941647652362 11.537742074772723 0 0 0 0 -2.3984483890339447 -2.0122849563967975 0 -2.0122849563967975 4.0496714012388111 0 0 0 0 -10.619802316953951 -11.412997087433723 0 -11.412997087433723 1.1806501736152768 0 0 0 0 -7.6013544955966523 -0.50758904944564165 0 -0.50758904944564165 6.4187921015773099 0 0 0 0 -0.82677130635681806 -10.985998790316899 0 -10.985998790316899 -12.505166740658751 0 0 0 0 -0.15295704322711612 -0.17107949365793473 0 -0.17107949365793473 0.94954880510629636 0 0 0 0 -0.82370386224863523 -3.2387317265097408 0 -3.2387317265097408 7.434765191963379 0 0 0 0 0.55118373696703704 -1.5874824128913163 0 -1.5874824128913163 3.7588980528165727 0 0 0 0 -17.363589860065154 -19.19397019009466 0 -19.19397019009466 2.5385951180687698 0 0 0 0 -7.3186638507104931 -7.0866097560597154 0 -7.0866097560597154 -7.3444500943751336 0 0 0 0 -0.20540783683399866 -12.644739211938941 0 -12.644739211938941 -8.2459164627812243 0 0 0 0 0.82861519578980847 -16.082369608910085 0 -16.082369608910085 1.5602974068851836 0 0 0 0 10.302581127435872 -6.0044208517615516 0 -6.0044208517615516 -4.8235567364154122 0 0 0 0 8.0954953350726271 -5.8555710194959829 0 -5.8555710194959829 3.3141934068655701 0 0 0 0 4.9673082515360392 -2.4357843749803578 0 -2.4357843749803578 -8.4999968338247527 0 0 0 0 16.824852326507596 -8.1897002938494552 0 -8.1897002938494552 -5.7152638358802506 0 0 0 0 2.548479355148201 -5.3801723043465692 0 -5.3801723043465692 -16.005730324202887 0 0 0 0 2.0709631366335417 -2.6628855649560812 0 -2.6628855649560812 1.7993041959288121 0 0 0 0 1.3077153177439413 -3.2848685774324622 0 -3.2848685774324622 7.5858886936573526 0 0 0 0 12.835116697560792 -2.2696636349141954 0 -2.2696636349141954 -15.149609645871351 0 0 0 0 1.2287638938284999 -2.6815631440431389 0 -2.6815631440431389 5.946143459346672 0 0 0 0 1.5527336285087898 -12.587662837024254 0 -12.587662837024254 -14.075512310577324 0 0 0 0 1.8504024085487354 -2.5280801441877525 0 -2.5280801441877525 1.6675330913438788 0 0 0 0 0.81212112583284579 -5.6273468178210351 0 -5.6273468178210351 -0.61529058198539133 0 0 0 0 1.7613681886861059 -2.6158444631173552 0 -2.6158444631173552 1.1205690718115875 0 0 0 0 0.40730601487280182 -4.9043875184943317 0 -4.9043875184943317 4.8643884930438617 0 0 0 0 -0.87371973103245182 -4.1189802903918462 0 -4.1189802903918462 6.1410638913375806 0 0 0 0 0.3355166339963489 -4.0111763783534116 0 -4.0111763783534116 3.7092421552806627 0 0 0 0 -0.2197319191866427 -5.5890607191186064 0 -5.5890607191186064 1.642877656930068 0 0 0 0 -6.7412259020184138 -7.2884488655158748 0 -7.2884488655158748 133.56735409858697 0 0 0 0 0.50451535692626881 -0.25706706471635599 0 -0.25706706471635599 0.18243744744130019 0 0 0 0 25.930996682315481 -43.564419493388868 0 -43.564419493388868 -24.279528308726185 0 0 0 0 58.562000660784747 -69.223777323167269 0 -69.223777323167269 100.47493817171471 0 0 0 0 25.090359618402886 -47.720833057359869 0 -47.720833057359869 99.29447794595626 0 0 0 0 2.8327506660472892 -52.044572810477575 0 -52.044572810477575 101.59691842754364 0 0 0 0 78.897018004620861 -38.417015258801257 0 -38.417015258801257 53.218773590676392 0 0 0 0 54.420796262996589 -39.918598561599083 0 -39.918598561599083 55.873712692575737 0 0 0 0 12.597555489698721 2.2610398620843171 0 2.2610398620843171 -5.1973563364167603 0 0 0 0 -0.024745801704712189 0.040946252395830385 0 0.040946252395830385 -0.01237435321276692 0 0 0 0 7.2077726263190129 -36.04623658225546 0 -36.04623658225546 60.749189242558714 0 0 0 0 -0.34562221898129952 -0.084528664280304255 0 -0.084528664280304255 -0.062975373948616242 0 0 0 0 22.703950676249633 -29.611045235826168 0 -29.611045235826168 -117.13363848557583 0 0 0 0 10.910168669276743 -24.923283380702742 0 -24.923283380702742 77.481537587638286 0 0 0 0 9.2411580656587375 -41.677918551607945 0 -41.677918551607945 13.838404135311066 0 0 0 0 -2.222809461977306 -51.152638858760611 0 -51.152638858760611 60.559066302739666 0 0 0 0 16.037396096474509 -77.874466114840573 0 -77.874466114840573 -14.258052739545747 0 0 0 0 15.849052076087105 -28.061092615963389 0 -28.061092615963389 -24.976431048446102 0 0 0 0 12.854223793828055 -38.658993929181634 0 -38.658993929181634 2.7108608995001049 0 0 0 0 12.724417701286256 -35.330429024215846 0 -35.330429024215846 19.34261764138455 0 0 0 0 0.11601849845365853 0.061202520920335957 0 0.061202520920335957 -0.095577405449801311 0 0 0 0 12.41434541693404 -25.420093558478811 0 -25.420093558478811 26.342857140738488 0 0 0 0 10.619040131336192 -16.248845310995875 0 -16.248845310995875 -20.421477396997943 0 0 0 0 2.9287717745417581 -3.3477929981086163 0 -3.3477929981086163 22.327836230528192 0 0 0 0 6.1261038612150855 -3.8731746572675547 0 -3.8731746572675547 19.898194929423312 0 0 0 0 7.2931648893019201 8.523636354127575 0 8.523636354127575 79.734123418767922 0 0 0 0 -18.132809035023342 -13.991550084953815 0 -13.991550084953815 6.5950508945097681 0 0 0 0 1.1427809822701638 -0.84920481840686968 0 -0.84920481840686968 0.44607768216775057 0 0 0 0 -3.3330397611446188 -13.556037925171495 0 -13.556037925171495 -14.823021998130116 0 0 0 0 2.8365953080512867 8.1606456365149143 0 8.1606456365149143 24.989892881763353 0 0 0 0 -3.6556777771436373 -6.3974140154514316 0 -6.3974140154514316 4.5477544811355983 0 0 0 0 -9.7352091950079966 -1.9751618976642931 0 -1.9751618976642931 10.180156874995191 0 0 0 0 -8.7708000208072008 -5.0534879615336195 0 -5.0534879615336195 17.746081280740327 0 0 0 0 -3.9059632510736719 -0.74670475545735826 0 -0.74670475545735826 4.8460153027969 0 0 0 0 23.899075319576781 12.083996163301208 0 12.083996163301208 20.26926305267807 0 0 0 0 28.107473536863267 1.1247439890435089 0 1.1247439890435089 6.8650293955424786 0 0 0 0 22.009314817120185 7.6166329838442834 0 7.6166329838442834 -11.284952005919877 0 0 0 0 -12.844801340572928 3.7636643303007986 0 3.7636643303007986 6.783165555028063 0 0 0 0 49.006518987348308 -9.5370831205794175 0 -9.5370831205794175 36.317258834607856 0 0 0 0 28.720479962381347 -5.3716829103345844 0 -5.3716829103345844 12.470711307358215 0 0 0 0 27.397969202322429 1.4844210202527393 0 1.4844210202527393 40.217262438326543 0 0 0 0 23.524987648150102 8.8508537680340851 0 8.8508537680340851 12.790427927663742 0 0 0 0 22.376216071120268 0.445037287270452 0 0.445037287270452 7.1814335045628468 0 0 0 0 29.773188136179954 -3.5763879810720027 0 -3.5763879810720027 9.2904854472753868 0 0 0 0 14.192667570138838 -12.453423725627545 0 -12.453423725627545 1.8931536792481438 0 0 0 0 19.431515767538087 -6.3215767377296288 0 -6.3215767377296288 13.20324730138816 0 0 0 0 21.399266998396456 -4.8207903144364082 0 -4.8207903144364082 -4.274140386367435 0 0 0 0 0.20808655144430477 -0.21235832982149061 0 -0.21235832982149061 0.024449567572560227 0 0 0 0 27.3711556289214 2.3422994103780184 0 2.3422994103780184 -0.32766005090343242 0 0 0 0 10.776140069355051 -0.31558140394690781 0 -0.31558140394690781 -0.40660319834658765 0 0 0 0 10.502236229598736 -0.77307835751298626 0 -0.77307835751298626 -0.88249798349806952 0 0 0 0 12.654421012638636 -1.8827949891187927 0 -1.8827949891187927 0.50233198839850957 0 0 0 0 10.387636176738667 -11.785548641136188 0 -11.785548641136188 -7.6079174308806614 0 0 0 0 -1.9820755077207082 -15.794905604081578 0 -15.794905604081578 -2.5408633283459494 0 0 0 0 8.7352438936304679 -8.4736503937051566 0 -8.4736503937051566 -0.91453098684337419 0 0 0 0 -5.8605539425794859 -1.3353903282445572 0 -1.3353903282445572 9.2677103999512838 0 0 0 0 -1.2747707812903855 -1.4895610986536667 0 -1.4895610986536667 7.6937489826882484 0 0 0 0 -3.8940628851449901 5.7877936612790108 0 5.7877936612790108 17.657020776279879 0 0 0 0 7.531583209273208 9.2228830476042276 0 9.2228830476042276 7.8767461608958911 0 0 0 0 0.023879823190053218 -0.35805710007989511 0 -0.35805710007989511 0.37942912152925246 0 0 0 0 -0.84268817216684511 0.70612916801292158 0 0.70612916801292158 4.8287180763650213 0 0 0 0 -0.58760990723612849 1.0280303977710901 0 1.0280303977710901 4.0892036188874954 0 0 0 0 -1.4882139598204633 -0.088172191837870173 0 -0.088172191837870173 1.3492021928708038 0 0 0 0 -0.66334719362209071 -1.7587742597924034 0 -1.7587742597924034 8.2580142922724917 0 0 0 0 2.1099234428020424 -6.6026298333817977 0 -6.6026298333817977 13.072219077383124 0 0 0 0 0.95337145740232576 -6.3753460359968805 0 -6.3753460359968805 1.877543868249931 0 0 0 0 -1.4256096398196492 -0.32918706201379155 0 -0.32918706201379155 2.9663296497455107 0 0 0 0 1.1146118116204491 -4.5171259282415122 0 -4.5171259282415122 5.913714593703844 0 0 0 0 2.855069424369276 -6.294040621163731 0 -6.294040621163731 12.889526606297295 0 0 0 0 1.0132763467732004 -5.0196928763167321 0 -5.0196928763167321 -2.3276021738958725 0 0 0 0 0.27092137192346399 -3.4335860825126474 0 -3.4335860825126474 -0.57434135647054063 0 0 0 0 -0.61212786819904941 -8.0208448827462639 0 -8.0208448827462639 2.2286267516743532 0 0 0 0 -0.62403026995128386 -2.156010403565932 0 -2.156010403565932 1.7298278416137975 0 0 0 0 -2.7744253453786314 -3.3910972130347545 0 -3.3910972130347545 1.0056783284962876 0 0 0 0 -3.0666534298470651 -2.8525577669570339 0 -2.8525577669570339 1.4191015951582813 0 0 0 0 -1.0816342872129878 -4.2601713269291839 0 -4.2601713269291839 3.2601182578298662 0 0 0 0 -0.1191411648162557 -6.7738655355974515 0 -6.7738655355974515 -6.4064520660397193 0 0 0 0 -0.096823846463921281 -0.69602372607460694 0 -0.69602372607460694 -0.68092928895476623 0 0 0 0 -12.833365115076035 -18.573406673160321 0 -18.573406673160321 2.8628969352880631 0 0 0 0 0.65363278352890997 -2.464682337583592 0 -2.464682337583592 0.72134049390358079 0 0 0 0 -6.356907404279923 -7.4525661377438155 0 -7.4525661377438155 -0.2495824870056822 0 0 0 0 1.3263071139804197 -11.68491054218407 0 -11.68491054218407 -0.036205869098921539 0 0 0 0 -5.4904690112208527 -11.172030452699346 0 -11.172030452699346 1.1653272164353439 0 0 0 0 1.2335244532994238 -12.298090985392719 0 -12.298090985392719 -2.0962304615732137 0 0 0 0 -0.13549598180179601 -13.86883668831797 0 -13.86883668831797 1.6217809323097754 0 0 0 0 1.3091473674901977 -9.3828215355725888 0 -9.3828215355725888 2.9261539442950379 0 0 0 0 3.0429724042005546 -12.759294264098571 0 -12.759294264098571 1.3446069167555379 0 0 0 0 -0.70592612569748781 -9.0676365970532515 0 -9.0676365970532515 4.9468538416849697 0 0 0 0 2.652571597994779 -11.679826701236323 0 -11.679826701236323 6.909093316594408 0 0 0 0 1.2552022637979618 -18.423097840531341 0 -18.423097840531341 -5.4186923921542984 0 0 0 0 11.498808677080362 -12.857332522832621 0 -12.857332522832621 -0.36276009639007611 0 0 0 0 -0.68818401567718723 -14.668406688692812 0 -14.668406688692812 9.0114738096349356 0 0 0 0 -0.41673353201491636 -14.777367020800739 0 -14.777367020800739 -4.7382782897625475 0 0 0 0 0.3966699210351976 -15.715218766131102 0 -15.715218766131102 -4.6188695126011226 0 0 0 0 -2.8789084427589842 -14.109439124668825 0 -14.109439124668825 -3.6668855075004103 0 0 0 0 1.3244712840817812 1.7587263140899267 0 1.7587263140899267 -5.5163397266505854 0 0 0 0 -0.13532872885145886 -0.17568055925888615 0 -0.17568055925888615 0.37218894514290568 0 0 0 0 0.90817516516131036 -10.907914459929088 0 -10.907914459929088 -2.4237075071723666 0 0 0 0 4.520836577248474 -5.5805659421898781 0 -5.5805659421898781 4.939411636062232 0 0 0 0 7.0526343294109211 -7.9575233672480863 0 -7.9575233672480863 1.209195000084037 0 0 0 0 5.1340441243381747 -17.08730960909088 0 -17.08730960909088 -18.43991247129361 0 0 0 0 3.1164148178849587 -9.1422184592477151 0 -9.1422184592477151 0.021199714356782806 0 0 0 0 0.16734360151717786 -4.5687862866674083 0 -4.5687862866674083 -4.7486717461723806 0 0 0 0 3.8314260994665119 -8.0637770287093815 0 -8.0637770287093815 3.0680226466774911 0 0 0 0 7.8144982648079804 -9.6006101337370637 0 -9.6006101337370637 3.639724495077644 0 0 0 0 7.2424051329004158 -7.6064106409677947 0 -7.6064106409677947 7.3322772191968397 0 0 0 0 10.856582415044613 -8.3556368108052084 0 -8.3556368108052084 7.1665948951407472 0 0 0 0 7.0121200368957943 -11.118367800577289 0 -11.118367800577289 13.307799666996743 0 0 0 0 4.4956174187879583 -6.4951096440524907 0 -6.4951096440524907 8.3489984130219455 0 0 0 0 14.140682560194364 -6.7460206229457071 0 -6.7460206229457071 -0.13517284474710323 0 0 0 0 16.917037618914492 -12.288276319503893 0 -12.288276319503893 -3.3843113572511356 0 0 0 0 11.575916520244391 -11.800908168160731 0 -11.800908168160731 15.301789644247037 0 0 0 0 44.05706716427094 8.2269055407995211 0 8.2269055407995211 10.31681747099924 0 0 0 0 0.89414231986658965 -4.7703460376116826 0 -4.7703460376116826 7.8857785510482863 0 0 0 0 -2.1053444368975534 -6.7720694521258338 0 -6.7720694521258338 -13.348362952161551 0 0 0 0 79.422518636993004 14.24023648291768 0 14.24023648291768 8.365800858709008 0 0 0 0 9.1939772555267609 -5.6734427907269946 0 -5.6734427907269946 104.98610060506553 0 0 0 0 0.61457558787680977 -0.15049957721524265 0 -0.15049957721524265 1.196865224675546 0 0 0 0 15.445162874049402 -22.130183924149605 0 -22.130183924149605 0.9665342791186049 0 0 0 0 0.72304451556123683 -0.24095177543486113 0 -0.24095177543486113 -1.1166965653894358 0 0 0 0 7.887303197875724 -14.895441870870059 0 -14.895441870870059 39.904991719714417 0 0 0 0 10.926659280719605 -22.272884745765168 0 -22.272884745765168 21.006195927298904 0 0 0 0 6.5044673270139484 -7.3496767544793471 0 -7.3496767544793471 23.336527327775002 0 0 0 0 2.9708421666246068 -3.1026776017606608 0 -3.1026776017606608 20.65756438254698 0 0 0 0 6.0834135638068574 -2.862253221513356 0 -2.862253221513356 31.01260287251489 0 0 0 0 4.1153375100667517 -12.826899832791696 0 -12.826899832791696 59.768761009114769 0 0 0 0 3.6579637343477245 5.0372508680635661 0 5.0372508680635661 48.408523635654547 0 0 0 0 5.8150238327717716 19.835004606987241 0 19.835004606987241 71.553119621947417 0 0 0 0 51.702520076970359 46.86591062879711 0 46.86591062879711 77.106099329707718 0 0 0 0 30.324162887172747 18.193961182017119 0 18.193961182017119 40.437700603023359 0 0 0 0 -0.078839886037509521 -0.00038292479695778425 0 -0.00038292479695778425 1.0028903819343622 0 0 0 0 105.76653838797178 -21.413451667437812 0 -21.413451667437812 -38.152045938250467 0 0 0 0 -12.828355704756603 8.0091083649513166 0 8.0091083649513166 38.204687059525895 0 0 0 0 -3.975569772975021 -63.320718756661563 0 -63.320718756661563 71.240583287177287 0 0 0 0 -34.092516834007242 -9.3744613410735838 0 -9.3744613410735838 10.374703776721617 0 0 0 0 -9.796259343046323 -6.1245275526877663 0 -6.1245275526877663 56.807334080817327 0 0 0 0 -2.2238407726686091 5.718738998389199 0 5.718738998389199 28.637031436902134 0 0 0 0 -1.4353861987866026 10.263395499247054 0 10.263395499247054 -5.2518922621173267 0 0 0 0 -3.940728361241554 2.64026751904089 0 2.64026751904089 31.905722812342901 0 0 0 0 6.2798377448539213 -3.1008303468065606 0 -3.1008303468065606 5.4483700081983102 0 0 0 0 -5.7711771810861023 4.2493435543522082 0 4.2493435543522082 52.101486163490335 0 0 0 0 15.885960627154418 1.4775150597918127 0 1.4775150597918127 42.236187168759102 0 0 0 0 65.981755397493643 -27.977350566869973 0 -27.977350566869973 48.47699051233576 0 0 0 0 16.072732592917561 2.6582825848388438 0 2.6582825848388438 29.952079587560775 0 0 0 0 18.520843273627371 41.620350165326045 0 41.620350165326045 59.778645611207594 0 0 0 0 16.227998145673148 13.011599726486338 0 13.011599726486338 16.343354896326673 0 0 0 0 29.787616593893631 0.27329670534504658 0 0.27329670534504658 17.614241892172458 0 0 0 0 19.973868250997839 12.651031588473188 0 12.651031588473188 27.404343401877441 0 0 0 0 22.936033812090329 10.063208718634542 0 10.063208718634542 22.526542979055876 0 0 0 0 19.686825356245549 13.041975665528071 0 13.041975665528071 19.800476715218338 0 0 0 0 23.145477703400388 11.636956354509607 0 11.636956354509607 11.266849398301019 0 0 0 0 40.3497484671866 7.0496296247682722 0 7.0496296247682722 25.921511873320924 0 0 0 0 22.161234259060279 14.235700000259612 0 14.235700000259612 40.026482475877827 0 0 0 0 21.888083518672715 10.304625773477881 0 10.304625773477881 23.441798575427129 0 0 0 0 14.971991168908403 9.6511717847424734 0 9.6511717847424734 24.356310468162633 0 0 0 0 14.298163548675859 12.752374556479651 0 12.752374556479651 11.358395452639343 0 0 0 0 22.353942422216505 -8.8562409435987774 0 -8.8562409435987774 25.1431289967623 0 0 0 0 0.20936298563159506 -0.048483503954563467 0 -0.048483503954563467 -0.19891171846742406 0 0 0 0 1.296360241157231 -11.253452632574977 0 -11.253452632574977 17.094863387431133 0 0 0 0 2.6277578344465677 7.8434675860975887 0 7.8434675860975887 41.339374148960815 0 0 0 0 2.819053628548513 -0.22552768258198519 0 -0.22552768258198519 35.155251869504809 0 0 0 0 19.027667738502089 15.509994721315934 0 15.509994721315934 20.816448542224066 0 0 0 0 18.840095295357028 15.1922146327029 0 15.1922146327029 26.154582386780021 0 0 0 0 18.72774684755262 19.860343686550095 0 19.860343686550095 20.060991980672952 0 0 0 0 23.482513980219551 34.967022357748874 0 34.967022357748874 36.191975477270944 0 0 0 0 0.51603844710806612 16.250627627175902 0 16.250627627175902 86.706547693432185 0 0 0 0 -2.1425451007725087 4.9834478560685511 0 4.9834478560685511 39.775430307808165 0 0 0 0 4.5431364572499149 -19.305468246856151 0 -19.305468246856151 22.970485955655022 0 0 0 0 3.5882771430230491 -24.315494445137347 0 -24.315494445137347 70.031991021543263 0 0 0 0 -5.6278522251748058 23.684372057584596 0 23.684372057584596 38.914813837495785 0 0 0 0 0.2093719148124592 0.15176033104967024 0 0.15176033104967024 0.068992835187186685 0 0 0 0 30.00237694843986 -5.232775412916908 0 -5.232775412916908 1.4469499586971892 0 0 0 0 16.472531034256463 -19.404783568351377 0 -19.404783568351377 2.8121290872726661 0 0 0 0 -8.4056666134687248 2.8802925679058262 0 2.8802925679058262 14.088685674308749 0 0 0 0 -5.3238362710893625 -13.808559361615266 0 -13.808559361615266 38.443427944483574 0 0 0 0 -10.055287127869377 -9.8284593128379356 0 -9.8284593128379356 35.7347688596019 0 0 0 0 -4.9010990443489391 -0.099160361318354262 0 -0.099160361318354262 47.438335025215792 0 0 0 0 -16.892381514065164 2.4176755990893071 0 2.4176755990893071 61.405559305609131 0 0 0 0 -6.380916802308036 6.9703138376166862 0 6.9703138376166862 63.377334399920528 0 0 0 0 -7.9777939846775681 2.8373909638074224 0 2.8373909638074224 87.353265696628114 0 0 0 0 -12.80112143444876 5.3301154967739421 0 5.3301154967739421 73.740591549803867 0 0 0 0 -7.9408199923277039 10.675898830159895 0 10.675898830159895 64.273989903460915 0 0 0 0 15.289694809450282 28.666899790242951 0 28.666899790242951 59.291380968141311 0 0 0 0 -2.3004915747760037 11.785918549745247 0 11.785918549745247 48.085394209973856 0 0 0 0 -13.77437251458743 24.962520194078792 0 24.962520194078792 68.874550336606262 0 0 0 0 -16.266143575166382 8.533560093057531 0 8.533560093057531 63.801275073395345 0 0 0 0 -11.579400790364815 65.104723646835282 0 65.104723646835282 -90.906827150774006 0 0 0 0 -29.030074263326128 -0.4419409474294298 0 -0.4419409474294298 48.967038204555138 0 0 0 0 0.4686585796539332 0.56370812615211285 0 0.56370812615211285 0.48511263685949935 0 0 0 0 -20.255410765160235 7.6884544784277296 0 7.6884544784277296 57.324318981812212 0 0 0 0 -14.628520568375109 13.200924407306502 0 13.200924407306502 53.725232734484962 0 0 0 0 -25.513602333468469 -10.536728968903162 0 -10.536728968903162 24.410292915334139 0 0 0 0 -8.5104625299253485 -11.141791295125131 0 -11.141791295125131 -15.780174388209161 0 0 0 0 -8.8917913975629403 1.7586774349435927 0 1.7586774349435927 24.7908657315038 0 0 0 0 -6.7089587085011999 7.7526854807147174 0 7.7526854807147174 11.762756965086737 0 0 0 0 -0.87306959389700101 2.100870982738094 0 2.100870982738094 40.769134393121931 0 0 0 0 -0.66767244249240321 13.915597357504339 0 13.915597357504339 34.316710039416648 0 0 0 0 -0.051604628207655878 19.203618887730045 0 19.203618887730045 -0.13222107575711561 0 0 0 0 2.5352716336079766 4.794455497249146 0 4.794455497249146 5.8161408810319699 0 0 0 0 38.558750434564999 15.981760374752184 0 15.981760374752184 28.248069073052193 0 0 0 0 10.33994780930081 17.275465938208072 0 17.275465938208072 23.779443385077684 0 0 0 0 23.383610948882442 -2.7105398162493657 0 -2.7105398162493657 6.4718355192317176 0 0 0 0 37.798856780879788 -15.740831351470206 0 -15.740831351470206 13.585756587573542 0 0 0 0 31.82081049816469 -4.8824567548706455 0 -4.8824567548706455 2.274057009530452 0 0 0 0 28.467496806134406 3.2299694283353233 0 3.2299694283353233 42.529560072685854 0 0 0 0 13.783168809560046 -14.293546128037519 0 -14.293546128037519 112.15353275078542 0 0 0 0 79.448151158146104 -9.2632211424070192 0 -9.2632211424070192 45.324578322345019 0 0 0 0 17.719735345022087 19.266928658807956 0 19.266928658807956 55.432556732274861 0 0 0 0 21.131133410821121 -0.27202856662370323 0 -0.27202856662370323 49.247803403040962 0 0 0 0 4.4847140881405778 -4.6708185198331194 0 -4.6708185198331194 150.56213509328109 0 0 0 0 54.553683528443806 40.949010279850313 0 40.949010279850313 90.797759453498657 0 0 0 0 7.1457448317253807 -4.5075151438231842 0 -4.5075151438231842 76.997585635832365 0 0 0 0 0.24930981550712511 0.40120534167950739 0 0.40120534167950739 0.86710006182483568 0 0 0 0 32.42780460874009 -41.020235179067072 0 -41.020235179067072 47.827120791397647 0 0 0 0 40.200159975212671 -64.139814549710309 0 -64.139814549710309 106.37948226217804 0 0 0 0 6.833297855757138 27.181527138452338 0 27.181527138452338 112.0983755529234 0 0 0 0 10.239601175921152 47.106456388910715 0 47.106456388910715 10.383344212633801 0 0 0 0 -6.7879541270046388 -8.4150957126807953 0 -8.4150957126807953 -6.0499803292911452 0 0 0 0 21.340017642358369 15.672246587890754 0 15.672246587890754 4.2822617079887095 0 0 0 0 8.2073439608835201 -8.0930545581950355 0 -8.0930545581950355 21.202440849497066 0 0 0 0 16.664829502785722 -14.600755363270309 0 -14.600755363270309 20.646496526692403 0 0 0 0 6.7656868654504478 -14.753161270934925 0 -14.753161270934925 31.387507188457676 0 0 0 0 11.312236947938004 -15.16720646761496 0 -15.16720646761496 21.903128760017353 0 0 0 0 15.257024043941669 -24.041291865907908 0 -24.041291865907908 29.024009089076571 0 0 0 0 -5.5617285442718583 -11.817475849183893 0 -11.817475849183893 65.01929256088988 0 0 0 0 -6.2707149797490729 -11.631597155385407 0 -11.631597155385407 91.794604498188164 0 0 0 0 -0.74723303883703807 -8.6358819222259626 0 -8.6358819222259626 53.022871083271639 0 0 0 0 3.5409533621439664 -5.510792201429922 0 -5.510792201429922 47.655895521882861 0 0 0 0 9.7292653343025961 -7.9625850569993872 0 -7.9625850569993872 31.111985926992929 0 0 0 0 5.9142822628595582 -22.138383609965786 0 -22.138383609965786 47.376114498885045 0 0 0 0 4.6436124226110849 -19.435665503375617 0 -19.435665503375617 34.753394804636628 0 0 0 0 5.4166724037493736 -16.51689906499746 0 -16.51689906499746 32.231463248289401 0 0 0 0 8.7266951080397916 -18.125632307857813 0 -18.125632307857813 28.748357960795147 0 0 0 0 1.1422895567665137 -15.80474808879444 0 -15.80474808879444 31.545385955411803 0 0 0 0 4.9513297162927188 -14.123009064449889 0 -14.123009064449889 27.166987613680249 0 0 0 0 5.3101923539251743 2.4752328101071726 0 2.4752328101071726 8.528881374372304 0 0 0 0 3.8796323929086043 -5.754602066836469 0 -5.754602066836469 27.317805765795626 0 0 0 0 3.2886818172215158 -2.1147559548071513 0 -2.1147559548071513 14.975228103998688 0 0 0 0 4.2377132590824544 -13.138761532663239 0 -13.138761532663239 26.041546963041583 0 0 0 0 7.5878647328064517 -13.608588111026165 0 -13.608588111026165 21.82675444821416 0 0 0 0 5.5519449855654557 -9.5551261480209178 0 -9.5551261480209178 20.448791884615275 0 0 0 0 5.2062681173553074 -9.1383944863487159 0 -9.1383944863487159 21.784103113263384 0 0 0 0 10.292112232225918 -1.9455548200276098 0 -1.9455548200276098 1.5393152704905333 0 0 0 0 8.0053705564116626 -12.597111269508218 0 -12.597111269508218 10.223513975712194 0 0 0 0 -21.044799538138765 0.34655760078496201 0 0.34655760078496201 8.2296732932945815 0 0 0 0 -19.957776986070712 -1.4488680296700522 0 -1.4488680296700522 5.1429170552103187 0 0 0 0 0.22751994035505774 -0.42742124736278297 0 -0.42742124736278297 0.85078852341677091 0 0 0 0 -0.26055483100509491 3.7807846891341796 0 3.7807846891341796 6.209123905757906 0 0 0 0 0.67451802682333484 0.91800970642553481 0 0.91800970642553481 3.2669184713136765 0 0 0 0 -10.895079263414232 -28.123516474659596 0 -28.123516474659596 16.585818785711183 0 0 0 0 2.8118545717270487 -1.8088318754435022 0 -1.8088318754435022 2.1841697664568134 0 0 0 0 4.9748927025188863 -3.359396267519287 0 -3.359396267519287 6.4977659003038752 0 0 0 0 -3.6655386282175186 -9.8109719083695381 0 -9.8109719083695381 3.4318181734370796 0 0 0 0 6.5257870600549666 1.1472383201157754 0 1.1472383201157754 8.0206218132301501 0 0 0 0 -13.042644584372422 13.521755371388736 0 13.521755371388736 19.244758739574081 0 0 0 0 -16.176835753718706 41.504679126802785 0 41.504679126802785 -2.5759801854455873 0 0 0 0 -35.175081452173544 11.708159768437781 0 11.708159768437781 18.857790140690213 0 0 0 0 0.31947753643167176 0.98140432282730727 0 0.98140432282730727 2.325026725918411 0 0 0 0 -15.813456487262556 6.6886049501324578 0 6.6886049501324578 7.9534526887036918 0 0 0 0 -20.8613378320726 2.8645111557826937 0 2.8645111557826937 15.39014497275457 0 0 0 0 -21.96356052671058 -1.6062513327734678 0 -1.6062513327734678 11.972533662954447 0 0 0 0 -20.683956205515202 0.30610604518551554 0 0.30610604518551554 14.772337739445447 0 0 0 0 1.0188606930756947 20.53891345638624 0 20.53891345638624 25.700708227227096 0 0 0 0 -23.071281994897618 2.7049671275071887 0 2.7049671275071887 20.947863972275826 0 0 0 0 -22.679954395756326 -0.59783358646063789 0 -0.59783358646063789 24.449368188795233 0 0 0 0 -28.738905575404601 7.7965748544652342 0 7.7965748544652342 12.869491256265519 0 0 0 0 -2.4014093228747697 -25.047332838158127 0 -25.047332838158127 -26.671571836216572 0 0 0 0 -0.32220506445191055 0.26465165890180753 0 0.26465165890180753 0.57533723582214247 0 0 0 0 -22.062484925685226 -5.7143183460689215 0 -5.7143183460689215 17.858317495212532 0 0 0 0 -47.250546780119521 -21.29045358797066 0 -21.29045358797066 9.0185829799866042 0 0 0 0 -1.3779743819178165 -0.32396589591414227 0 -0.32396589591414227 19.430655179258792 0 0 0 0 -0.33414119182483404 1.6193601310787642 0 1.6193601310787642 12.159776602344664 0 0 0 0 -2.3779318297780776 2.0968274946974361 0 2.0968274946974361 21.078697794229356 0 0 0 0 -52.196332867235228 -38.020819734308361 0 -38.020819734308361 -26.783921507687296 0 0 0 0 -0.8901985667819079 0.18592408742122579 0 0.18592408742122579 0.59399670117513903 0 0 0 0 -57.853359599484833 -45.869431368203777 0 -45.869431368203777 3.6730178543124339 0 0 0 0 31.311779627366388 -103.06737790907647 0 -103.06737790907647 -79.170341682959133 0 0 0 0 -0.16967205196126359 -0.012626707220233069 0 -0.012626707220233069 0.022776055222030855 0 0 0 0 -22.54929397394978 -12.569397110841919 0 -12.569397110841919 -44.186624598555227 0 0 0 0 -2.340898942817375 -1.1801472586874184 0 -1.1801472586874184 5.4650281079028069 0 0 0 0 -3.5500416409267928 -4.2961085837960127 0 -4.2961085837960127 9.2448144397149008 0 0 0 0 2.9374360543513376 -4.7616352789614211 0 -4.7616352789614211 4.1789089114963645 0 0 0 0 -10.125155439362629 -3.6307744046874859 0 -3.6307744046874859 0.28353472683738801 0 0 0 0 -1.1272733680586258 -1.0697522469680871 0 -1.0697522469680871 2.4226875377774206 0 0 0 0 -21.245982662715576 -7.5476128787932737 0 -7.5476128787932737 1.9844612127658365 0 0 0 0 -1.6572962233800013 -0.1236495393363839 0 -0.1236495393363839 4.5623828862208029 0 0 0 0 -2.8227032945327153 1.5414959049028312 0 1.5414959049028312 3.1935354769693731 0 0 0 0 -3.4937127198279541 -5.2902374903978853 0 -5.2902374903978853 20.145117549044926 0 0 0 0 -0.80997078704041314 0.13810692431889038 0 0.13810692431889038 3.3483549360439611 0 0 0 0 -1.1862678691554152 -1.1098436131405833 0 -1.1098436131405833 4.8429861361389612 0 0 0 0 -1.3474059247139007 1.0865951791890192 0 1.0865951791890192 1.2425008728747517 0 0 0 0 -0.81262819140329157 -3.4194784369874469 0 -3.4194784369874469 9.4099707809127722 0 0 0 0 0.62894578075776053 -1.3143409313757957 0 -1.3143409313757957 13.527144659441092 0 0 0 0 -2.6362534950106635 0.40836954823794258 0 0.40836954823794258 4.418496283073182 0 0 0 0 -1.7357722904048321 0.48655006999024675 0 0.48655006999024675 1.6803069929129171 0 0 0 0 -1.8216159326388284 0.23393222482839038 0 0.23393222482839038 3.445952483237031 0 0 0 0 -4.3846789079061637 2.7417710805239039 0 2.7417710805239039 -0.21037167288886849 0 0 0 0 -1.3368798018302601 1.0378176491741158 0 1.0378176491741158 1.3930335655720789 0 0 0 0 -0.52402504087710344 1.1828864523782077 0 1.1828864523782077 -1.0708529026256874 0 0 0 0 -4.1693423199425297 4.9427799763763716 0 4.9427799763763716 -6.9395668014185503 0 0 0 0 -2.1099971804231066 -0.81855159303023139 0 -0.81855159303023139 8.0308662602581826 0 0 0 0 -0.11931622136125952 -3.6034195605880086 0 -3.6034195605880086 12.605130908912088 0 0 0 0 2.0731476757283644 -3.1381031362993781 0 -3.1381031362993781 8.8217980369026918 0 0 0 0 -0.42914702036125618 0.016288991620967863 0 0.016288991620967863 8.4481646296953841 0 0 0 0 -0.010922733312099808 -0.82774005283999941 0 -0.82774005283999941 10.085078668568713 0 0 0 0 -1.4841775870065703 -1.4766166628387509 0 -1.4766166628387509 10.59222707699837 0 0 0 0 -2.6057098635624243 -3.3601264345932123 0 -3.3601264345932123 9.0542688487694249 0 0 0 0 -4.6513006886841595 -1.3402043880901147 0 -1.3402043880901147 10.206538098796955 0 0 0 0 -4.400728602877507 -0.93006582076145605 0 -0.93006582076145605 10.86358266112984 0 0 0 0 0.64240722598151478 26.599373535160339 0 26.599373535160339 53.404864506199374 0 0 0 0 -8.1900351310115411 5.7907057354225344 0 5.7907057354225344 10.820204288437708 0 0 0 0 37.344796335039689 28.616042758355434 0 28.616042758355434 -15.798261062038364 0 0 0 0 6.0229865884130902 -17.101381186022763 0 -17.101381186022763 -31.976295416082394 0 0 0 0 13.223581460868388 -0.4460252661508548 0 -0.4460252661508548 2.6214994160272909 0 0 0 0 4.4611404269378454 5.4668673552150722 0 5.4668673552150722 10.209627314631689 0 0 0 0 2.5149003459175674 -5.6875932527582336 0 -5.6875932527582336 2.8379865602564678 0 0 0 0 -6.6460752348751839 -6.4629303473611799 0 -6.4629303473611799 15.417869442560914 0 0 0 0 -12.374751527666746 -4.7655058529726375 0 -4.7655058529726375 15.260280097767009 0 0 0 0 -5.2480274277597374 -5.8119972022088859 0 -5.8119972022088859 12.385379438317614 0 0 0 0 -1.1996481966083128 -0.40184185387023152 0 -0.40184185387023152 4.122284077865034 0 0 0 0 -11.002446822854843 3.8137039530445236 0 3.8137039530445236 12.726656697799626 0 0 0 0 -13.843042145978785 -8.6276105343627023 0 -8.6276105343627023 22.193699081447448 0 0 0 0 -12.741671591962628 -7.4396212780470705 0 -7.4396212780470705 17.901703327108407 0 0 0 0 -17.368014432501525 -15.108351805525672 0 -15.108351805525672 10.279187907417736 0 0 0 0 -0.065554849097736678 -1.6087853795461342 0 -1.6087853795461342 14.334252414471848 0 0 0 0 -0.23958584937368244 -1.4194133260953095 0 -1.4194133260953095 16.833338437520524 0 0 0 0 -0.27262563176589083 -2.7904317638995053 0 -2.7904317638995053 15.986752569409873 0 0 0 0 1.4470882014859967 -1.2777791070848252 0 -1.2777791070848252 14.723080633948484 0 0 0 0 -0.63288728034556041 -0.42098828500139618 0 -0.42098828500139618 13.96422716513257 0 0 0 0 0.21327425429683444 -1.9995005701366608 0 -1.9995005701366608 14.772650511646134 0 0 0 0 -2.3036256848040466 -0.59547095133166295 0 -0.59547095133166295 15.109547047586602 0 0 0 0 -2.1319062824109665 -1.9896452704697367 0 -1.9896452704697367 14.861994100985157 0 0 0 0 2.2277098029521598 -2.1398126604314598 0 -2.1398126604314598 13.549158062945935 0 0 0 0 -0.57849852303257232 -1.7273219570961951 0 -1.7273219570961951 13.677121192423844 0 0 0 0 -7.9723090923536262 13.687475860237555 0 13.687475860237555 26.996940381104537 0 0 0 0 -40.143587208480795 -92.358046693000688 0 -92.358046693000688 24.496232557765325 0 0 0 0 -0.72787098866815492 0.93439201049557141 0 0.93439201049557141 1.5869077708088852 0 0 0 0 -64.807449661764025 -77.807677844486079 0 -77.807677844486079 120.27220734439834 0 0 0 0 -57.045489794588519 -78.310291779643876 0 -78.310291779643876 -8.0811656701553147 0 0 0 0 56.868672552026453 65.559473114622506 0 65.559473114622506 3.4575031989288618 0 0 0 0 0.10043981886063685 -0.36463442822107162 0 -0.36463442822107162 1.076320487474165 0 0 0 0 -44.169481244594749 31.976667356969756 0 31.976667356969756 13.167175905128261 0 0 0 0 -18.382889511636222 37.450625466422025 0 37.450625466422025 108.49806095730946 0 0 0 0 2.0633800856334688 20.637778058568301 0 20.637778058568301 -37.361566390574808 0 0 0 0 28.259440808972045 -10.098867390391661 0 -10.098867390391661 -10.996605991966135 0 0 0 0 -0.82278696718358102 -8.5320917552559052 0 -8.5320917552559052 2.3870488762308923 0 0 0 0 -3.6244525622631727 -2.949177324100674 0 -2.949177324100674 14.384949642406809 0 0 0 0 -0.42906718429856799 -3.0099529076845517 0 -3.0099529076845517 7.8759989773593411 0 0 0 0 0.0337878978982784 -1.2918939989737457 0 -1.2918939989737457 1.3985632727229067 0 0 0 0 12.278581602945536 -9.7602901862815088 0 -9.7602901862815088 2.3462610793758358 0 0 0 0 0.014347191698000694 0.18789476041334774 0 0.18789476041334774 0.50693641014835933 0 0 0 0 19.397155313316716 -29.459592787649399 0 -29.459592787649399 41.391610061950814 0 0 0 0 10.102219287587104 19.210811464652579 0 19.210811464652579 4.8466256860203885 0 0 0 0 -0.13875284491419027 -0.54024235972764556 0 -0.54024235972764556 2.7226416774306834 0 0 0 0 -78.89443214108428 64.252185892951729 0 64.252185892951729 91.346323125814706 0 0 0 0 27.319154105283928 -44.124200069517428 0 -44.124200069517428 54.507405317869143 0 0 0 0 5.3756068624441014 -30.55571023165885 0 -30.55571023165885 75.7925813495699 0 0 0 0 1.2498560823289573 -0.58128849660864557 0 -0.58128849660864557 0.12814243585541707 0 0 0 0 57.629091349715623 -70.175494771769991 0 -70.175494771769991 -56.245643998178366 0 0 0 0 -0.50761566642518119 3.0437703187731131 0 3.0437703187731131 73.912583398762848 0 0 0 0 1.6569397986874037 -15.753556528634817 0 -15.753556528634817 57.56904362304067 0 0 0 0 2.7095074615131125 -17.992200235708879 0 -17.992200235708879 36.626263716485482 0 0 0 0 1.017075603161345 4.7363855412831981 0 4.7363855412831981 43.257681351577162 0 0 0 0 -8.6129614270751063 -6.9310479347627734 0 -6.9310479347627734 9.5478372870888393 0 0 0 0 -8.2414129236576628 -3.8112064541383006 0 -3.8112064541383006 13.636194945170701 0 0 0 0 -1.9818741176327421 -15.6207464696231 0 -15.6207464696231 -14.376505270606231 0 0 0 0 18.234447096815984 -8.6055317521640973 0 -8.6055317521640973 -14.380760204910985 0 0 0 0 -12.89927142454178 -23.644506757963427 0 -23.644506757963427 37.621385786961241 0 0 0 0 17.496851469030844 -18.950610653804688 0 -18.950610653804688 15.373103695301324 0 0 0 0 0.28238332528405863 -7.8088423466808763 0 -7.8088423466808763 17.724910600623843 0 0 0 0 3.0034306167171962 -14.616267964566759 0 -14.616267964566759 16.720686065242262 0 0 0 0 -3.7640722667571254 -21.120070784651034 0 -21.120070784651034 16.24799800022447 0 0 0 0 -19.974483124006383 -13.363207819180388 0 -13.363207819180388 19.179226863354415 0 0 0 0 -12.98660506084866 -8.2900561900455614 0 -8.2900561900455614 19.777615493825579 0 0 0 0 -10.174260595788837 -10.891284912104311 0 -10.891284912104311 21.479332801797682 0 0 0 0 -0.49812137006301782 -10.777763014905759 0 -10.777763014905759 16.355927653209619 0 0 0 0 -10.140886026046928 -4.766345106024346 0 -4.766345106024346 17.592647612195833 0 0 0 0 -11.050342892443652 -5.341169879970721 0 -5.341169879970721 19.026356402962847 0 0 0 0 -7.8158691089054173 -2.5683004828606499 0 -2.5683004828606499 18.012748762585034 0 0 0 0 -12.968396170194012 -1.0158063980018142 0 -1.0158063980018142 17.658040305370378 0 0 0 0 -23.672341405425868 -2.1549474035778076 0 -2.1549474035778076 20.887863523554188 0 0 0 0 -17.086675965413008 3.3467853257152456 0 3.3467853257152456 17.168048495546827 0 0 0 0 -12.242370101006145 -4.5832804283372752 0 -4.5832804283372752 21.110037570182612 0 0 0 0 -8.0506238794603178 -0.31044107681464084 0 -0.31044107681464084 16.897597114342716 0 0 0 0 -7.3922236461439752 1.2162700573526308 0 1.2162700573526308 15.648785647825207 0 0 0 0 -0.5781159422148221 -0.23105209431832918 0 -0.23105209431832918 14.258043611023822 0 0 0 0 -2.8879187617615116 -1.3251072225375538 0 -1.3251072225375538 15.298783092690428 0 0 0 0 -2.4286317194734011 -1.0553707422386651 0 -1.0553707422386651 15.190455554992241 0 0 0 0 -7.4802188257924627 -2.6303545204436887 0 -2.6303545204436887 15.736638237941406 0 0 0 0 -4.1566328032119486 -1.9367144049911076 0 -1.9367144049911076 13.881907588583999 0 0 0 0 -7.6161714778562555 7.6322860657155616 0 7.6322860657155616 31.962999623293399 0 0 0 0 -3.6008046632318838 -7.4669361093719999 0 -7.4669361093719999 5.3450999935071195 0 0 0 0 -2.8962046979979732 -6.5710179043412609 0 -6.5710179043412609 4.9822581058351716 0 0 0 0 -6.5733114896702318 -6.7678160305213169 0 -6.7678160305213169 16.761812482395271 0 0 0 0 -5.2321794793493837 -4.2749985933310199 0 -4.2749985933310199 8.7987766443111468 0 0 0 0 -5.5483850479815828 -7.9716773100599312 0 -7.9716773100599312 10.77387983331937 0 0 0 0 -4.7250561482851481 -10.402725338883101 0 -10.402725338883101 16.831585241469384 0 0 0 0 0.067294388386926585 -9.9614852874569806 0 -9.9614852874569806 6.9554864543497388 0 0 0 0 -4.2615653764062245 -7.2345460401190849 0 -7.2345460401190849 10.326893693109014 0 0 0 0 -1.7309965396825646 -9.3193534605547939 0 -9.3193534605547939 3.5852241583143041 0 0 0 0 -2.2254852574258166 -8.7215379689205292 0 -8.7215379689205292 6.7082435947594377 0 0 0 0 -0.11264225541174255 -14.707271635040343 0 -14.707271635040343 -31.935090524305451 0 0 0 0 -0.65766592548260316 -0.046292069146828041 0 -0.046292069146828041 0.28318432564664775 0 0 0 0 32.461473720481081 65.531281161058814 0 65.531281161058814 52.842558606236707 0 0 0 0 -19.765066985296016 -16.572352000763203 0 -16.572352000763203 23.430619254238991 0 0 0 0 26.552766840458844 5.2469675619486225 0 5.2469675619486225 19.859492895231028 0 0 0 0 1.2187163499191911 -13.524000666867096 0 -13.524000666867096 17.965855484804706 0 0 0 0 -34.118843848286986 32.926430058496294 0 32.926430058496294 49.219378607208455 0 0 0 0 13.701425402491168 -20.696912393964567 0 -20.696912393964567 -16.914795210632292 0 0 0 0 0.25931753244742595 -27.569473185768629 0 -27.569473185768629 95.609332120826366 0 0 0 0 32.331633599176712 -55.136077944435328 0 -55.136077944435328 39.847193945370236 0 0 0 0 -4.4335966514134952 -84.509580557268237 0 -84.509580557268237 39.432257314569142 0 0 0 0 4.0619286600621933 -48.711265017616256 0 -48.711265017616256 49.327453507527025 0 0 0 0 32.818824498312551 -51.906526069831216 0 -51.906526069831216 46.528527757228403 0 0 0 0 54.639395027990645 -15.405182478564484 0 -15.405182478564484 8.4656753593899339 0 0 0 0 -3.0020563295586271 -3.6940174470428246 0 -3.6940174470428246 -3.4336835728154256 0 0 0 0 -1.8359513136414378 -0.57628082600439789 0 -0.57628082600439789 1.884838580753792 0 0 0 0 0.68417143719448337 0.25240808802376957 0 0.25240808802376957 0.78030600332647104 0 0 0 0 1.4022457647465671 -4.9473404265972931 0 -4.9473404265972931 116.43900650872865 0 0 0 0 23.926305047855067 22.094572715245249 0 22.094572715245249 42.335514220362711 0 0 0 0 47.237357975885288 -57.308540554194678 0 -57.308540554194678 70.069586882514159 0 0 0 0 7.2625403385885647 -38.813610064328714 0 -38.813610064328714 69.171441027397123 0 0 0 0 1.1878590115938421 3.0636975428905764 0 3.0636975428905764 3.6337596015139688 0 0 0 0 0.41470490549244232 -12.688675609111783 0 -12.688675609111783 60.74441539899999 0 0 0 0 -2.0889002659173315 3.6092245299259957 0 3.6092245299259957 8.9488085420825882 0 0 0 0 -1.5298476896345659 -2.1688223227152932 0 -2.1688223227152932 5.8405313522739668 0 0 0 0 -5.8244830951321944 0.99523521461605924 0 0.99523521461605924 10.172543208827847 0 0 0 0 -1.2532899525328816 7.7483042816247689 0 7.7483042816247689 12.708663592332215 0 0 0 0 -7.7584449264412569 4.1868537196969555 0 4.1868537196969555 12.648995724290216 0 0 0 0 3.5895432578943485 10.034230819322602 0 10.034230819322602 -5.1554482109613673 0 0 0 0 0.78988320214926944 2.369345840994356 0 2.369345840994356 1.4264822729351181 0 0 0 0 0.12976401903974383 1.8425022676607847 0 1.8425022676607847 2.9947584372417069 0 0 0 0 15.81673054961254 -39.482846411460628 0 -39.482846411460628 42.584250602842076 0 0 0 0 102.17351755914774 -84.013982891749038 0 -84.013982891749038 65.437207310985286 0 0 0 0 -59.86948641317953 -32.528059703070767 0 -32.528059703070767 153.21921423459571 0 0 0 0 120.27287651137797 13.104031037250479 0 13.104031037250479 -28.494797343781102 0 0 0 0 15.834501467703243 56.772560776321825 0 56.772560776321825 -17.090590979808098 0 0 0 0 -50.58797840096458 27.345016135798858 0 27.345016135798858 11.610174101622761 0 0 0 0 -49.802013263172199 5.2339217405738054 0 5.2339217405738054 10.633521174012458 0 0 0 0 -0.86005519942664355 1.5899907968469025 0 1.5899907968469025 2.6857567571379821 0 0 0 0 -40.973495798601107 29.722278943113736 0 29.722278943113736 4.1379866524466706 0 0 0 0 -0.89799464910220195 1.8384271568388613 0 1.8384271568388613 -6.6162515000032727 0 0 0 0 0.137317649605734 11.914313071719789 0 11.914313071719789 -11.515244869860908 0 0 0 0 -1.5835651439900233 4.3100282496412721 0 4.3100282496412721 4.8693601322086426 0 0 0 0 -1.5708486183928017 4.1147610285206611 0 4.1147610285206611 -10.142052650364803 0 0 0 0 15.877839632179015 -37.913892652511777 0 -37.913892652511777 56.377972468346343 0 0 0 0 -12.680622052451213 -16.377104230271925 0 -16.377104230271925 67.114909906951652 0 0 0 0 5.9061880971113965 18.431851375712768 0 18.431851375712768 -28.052003674972184 0 0 0 0 -6.7281705534401226 -5.6342719262697756 0 -5.6342719262697756 31.573129590112899 0 0 0 0 14.129171515124682 -16.833574191602906 0 -16.833574191602906 27.180583873855539 0 0 0 0 -3.4912024044996923 1.4442390881187368 0 1.4442390881187368 6.427163685900334 0 0 0 0 -8.2026350760272919 3.9166952311888963 0 3.9166952311888963 5.8785282351418573 0 0 0 0 -0.552876047030054 2.7763170924754377 0 2.7763170924754377 1.0918738586442487 0 0 0 0 -0.83731546415103519 2.0875316352220041 0 2.0875316352220041 4.8827679266246946 0 0 0 0 -6.2569958889729378 -1.5808261140273316 0 -1.5808261140273316 3.3592218052508542 0 0 0 0 0.047871788301520724 3.3933560794898767 0 3.3933560794898767 5.3125128190267787 0 0 0 0 -0.26133124637665678 0.80639736891499503 0 0.80639736891499503 1.4731313215604018 0 0 0 0 -3.5365914443269215 -1.6567895899488327 0 -1.6567895899488327 8.5154641795115502 0 0 0 0 -2.4283436672554028 0.19297870882394097 0 0.19297870882394097 9.4070294774479741 0 0 0 0 -4.3567488056179968 3.3779615095672852 0 3.3779615095672852 10.35894300869586 0 0 0 0 -8.8085180512757688 3.3997601651749392 0 3.3997601651749392 6.6933974532621505 0 0 0 0 -11.683064013480561 -1.8565571579483731 0 -1.8565571579483731 13.580592396029715 0 0 0 0 -22.593543861721173 -7.0863363485659647 0 -7.0863363485659647 32.243213436955557 0 0 0 0 -24.255198070422807 18.469620414012297 0 18.469620414012297 3.8215777549717131 0 0 0 0 -12.607187204075842 -6.9894381046124181 0 -6.9894381046124181 20.670740534764263 0 0 0 0 4.2353301983516189 -13.359128017205421 0 -13.359128017205421 26.990879732138012 0 0 0 0 -2.052070080999215 -2.1804127152142883 0 -2.1804127152142883 17.382249308841892 0 0 0 0 8.3394255794265177 -18.077006903892197 0 -18.077006903892197 20.966184122392065 0 0 0 0 4.9711438068609368 -20.694779050171746 0 -20.694779050171746 32.189234457904035 0 0 0 0 5.4926731224968535 -21.727675495511903 0 -21.727675495511903 34.219480304323952 0 0 0 0 1.9827419952064673 -18.777203776099554 0 -18.777203776099554 38.337187015927157 0 0 0 0 23.416637793166615 -30.747829609154451 0 -30.747829609154451 30.145333927778665 0 0 0 0 0.52485477968718897 -13.860525845214852 0 -13.860525845214852 25.410737417776545 0 0 0 0 8.6334773357371972 4.3671534996350374 0 4.3671534996350374 1.0527167284481038 0 0 0 0 59.448565144641094 1.2957904575914654 0 1.2957904575914654 6.7456447118647702 0 0 0 0 -29.06411370078888 8.0168840320075105 0 8.0168840320075105 18.773711268723218 0 0 0 0 1.7091474440413776 -3.7126949237517692 0 -3.7126949237517692 91.405826438372969 0 0 0 0 -135.51937442463282 -30.958596601542581 0 -30.958596601542581 55.096514057616332 0 0 0 0 -29.598202913963146 -7.3664891946060109 0 -7.3664891946060109 -15.311963989091964 0 0 0 0 -8.1108713940552093 13.598707040513546 0 13.598707040513546 15.448032168540522 0 0 0 0 -11.226547096566321 19.071760118616794 0 19.071760118616794 88.591393793314637 0 0 0 0 25.667680284572043 72.844585015501252 0 72.844585015501252 5.5210957788885935 0 0 0 0 22.23002798187099 14.491524522784403 0 14.491524522784403 -40.744081979911243 0 0 0 0 8.0832227069463443 19.806006220009294 0 19.806006220009294 13.927415802590076 0 0 0 0 -3.0326678979427015 -7.6836517593014833 0 -7.6836517593014833 -14.650267985366099 0 0 0 0 -0.084887659041044394 0.12644010004637263 0 0.12644010004637263 3.1095978877777437 0 0 0 0 -39.176083098649855 13.408451957637226 0 13.408451957637226 2.4286428300169973 0 0 0 0 -27.081436679965805 8.6464365023971368 0 8.6464365023971368 12.119747468009791 0 0 0 0 -31.555926466226765 18.373812621418438 0 18.373812621418438 -2.4284435374111126 0 0 0 0 -31.25416775316576 16.589213155289826 0 16.589213155289826 -0.89111192881682655 0 0 0 0 0.88751611943026842 1.9278968224395232 0 1.9278968224395232 2.3741277058553507 0 0 0 0 -31.943873825204108 14.623485708597968 0 14.623485708597968 1.8987266603753596 0 0 0 0 5.9988869674997716 0.2213159713769528 0 0.2213159713769528 57.827945185182216 0 0 0 0 -4.9171439253273874 1.5688936649348761 0 1.5688936649348761 145.47492695758501 0 0 0 0 0.23078972483442844 0.217907006153923 0 0.217907006153923 1.3793566826568338 0 0 0 0 91.540065409764523 -103.03084139115799 0 -103.03084139115799 97.760896349491532 0 0 0 0 18.154133014466218 -31.523624101227711 0 -31.523624101227711 35.11432103484367 0 0 0 0 21.978585579007266 -42.869302380352224 0 -42.869302380352224 52.956447550810481 0 0 0 0 59.739036851651299 -28.67133579634492 0 -28.67133579634492 22.318645606002065 0 0 0 0 9.9133809339289627 -40.206574219632557 0 -40.206574219632557 71.944466581923734 0 0 0 0 6.473881008422012 -39.381986888136908 0 -39.381986888136908 88.717916436610267 0 0 0 0 1.5495922825955404 -25.767240571678485 0 -25.767240571678485 71.6651660604699 0 0 0 0 0.78297046218164823 1.5334010326602661 0 1.5334010326602661 1.4464939729161559 0 0 0 0 6.23660493377119 -41.925507233930716 0 -41.925507233930716 92.920762955525788 0 0 0 0 14.768750361391767 -21.79006337996907 0 -21.79006337996907 81.825888955755318 0 0 0 0 -20.971679955304694 20.423442703936416 0 20.423442703936416 -24.043879501055471 0 0 0 0 -53.474678140516858 85.13940484348268 0 85.13940484348268 -39.881927627650384 0 0 0 0 -42.559271918521915 21.488591246672513 0 21.488591246672513 16.024620638727356 0 0 0 0 34.075165501398999 10.809970819599585 0 10.809970819599585 22.417486873817495 0 0 0 0 2.2920851266221121 -18.513459685449561 0 -18.513459685449561 27.188618291276725 0 0 0 0 0.46552912928251833 0.53966714748703026 0 0.53966714748703026 0.46719915429103054 0 0 0 0 20.662366314009901 90.647509369802265 0 90.647509369802265 -139.72835545971657 0 0 0 0 -80.563753295542369 31.760117148763129 0 31.760117148763129 60.316420120027487 0 0 0 0 5.0375454133016291 -58.823409220760141 0 -58.823409220760141 170.72531917605374 0 0 0 0 4.4689421172464563 22.033009238646628 0 22.033009238646628 149.86974989696546 0 0 0 0 41.606308502163245 -48.300701362855762 0 -48.300701362855762 88.36406003049251 0 0 0 0 28.309738444809014 -12.205248868843 0 -12.205248868843 52.945238073843939 0 0 0 0 7.1867841534838988 -9.1554016065172164 0 -9.1554016065172164 90.829444488595072 0 0 0 0 14.693490440077341 -11.539337898480426 0 -11.539337898480426 119.16596611347813 0 0 0 0 22.297714158055271 3.3962427317367201 0 3.3962427317367201 11.12552852367935 0 0 0 0 20.735776637893721 -19.010565961888233 0 -19.010565961888233 32.992213326206183 0 0 0 0 8.3694133391450691 4.281204084896217 0 4.281204084896217 50.056563718945995 0 0 0 0 -15.440273062829505 10.285668314185841 0 10.285668314185841 21.041195086131893 0 0 0 0 1.9745862463583137 -1.9647694268310261 0 -1.9647694268310261 47.844970127366651 0 0 0 0 12.191927682072048 6.7962063913955717 0 6.7962063913955717 14.64179822333972 0 0 0 0 4.1755504750343704 -3.6003566071542537 0 -3.6003566071542537 61.727497540541663 0 0 0 0 17.774421578004819 -14.690584195322117 0 -14.690584195322117 44.107765818599773 0 0 0 0 11.745871145495499 -31.529912727321516 0 -31.529912727321516 64.004125806842239 0 0 0 0 12.463084496906404 -26.033173524547237 0 -26.033173524547237 42.033166416789754 0 0 0 0 4.6613954562364768 3.5874934944504275 0 3.5874934944504275 20.363301380969915 0 0 0 0 4.9929823872249983 -14.470111200990232 0 -14.470111200990232 39.856953353904828 0 0 0 0 15.09566671757435 5.3714471112114097 0 5.3714471112114097 1.632465749144103 0 0 0 0 6.4233778899095171 -19.181328883499646 0 -19.181328883499646 43.499347331608305 0 0 0 0 22.592103615807346 -4.3879201536653909 0 -4.3879201536653909 6.7897315708378301 0 0 0 0 6.3811388443630221 1.4777489545549543 0 1.4777489545549543 15.682777012588758 0 0 0 0 -1.9326625593095565 11.170066685119309 0 11.170066685119309 10.638322180875548 0 0 0 0 2.6651118671623379 31.481455890902453 0 31.481455890902453 -15.972647088499798 0 0 0 0 -0.47925153317071384 6.0008510807106212 0 6.0008510807106212 9.4013634603324849 0 0 0 0 0.72189542218917413 1.8532927518446698 0 1.8532927518446698 -2.9136942722600239 0 0 0 0 -21.951296435766722 25.468700854472445 0 25.468700854472445 2.0359855810816043 0 0 0 0 -1.022410981656293 -6.5336763793175123 0 -6.5336763793175123 6.9861516153778211 0 0 0 0 -0.71998265159930952 27.631754076850029 0 27.631754076850029 -10.627778261859817 0 0 0 0 -3.404881936344367 5.3921081106750535 0 5.3921081106750535 2.6274221324583777 0 0 0 0 -0.42836068462277577 2.5344359939696819 0 2.5344359939696819 4.7720912432711931 0 0 0 0 0.12098406499412762 3.3895351749115612 0 3.3895351749115612 5.4248047989000945 0 0 0 0 -6.4383945883033391 -1.8750961731484495 0 -1.8750961731484495 17.688150353832725 0 0 0 0 -3.6654992411107088 11.225005604363105 0 11.225005604363105 11.403368450789458 0 0 0 0 -5.0512379698709466 6.6474468787332626 0 6.6474468787332626 11.223412506236855 0 0 0 0 -9.2148757974293787 12.170380007955828 0 12.170380007955828 12.662510363727961 0 0 0 0 -6.7493574163984249 0.22201505556813572 0 0.22201505556813572 7.4555135787941254 0 0 0 0 -0.88568582995696943 2.3512678340184721 0 2.3512678340184721 6.5737903270386369 0 0 0 0 -1.6253515288030655 4.5713420689721715 0 4.5713420689721715 5.5229276235722864 0 0 0 0 -0.29315405003681155 1.8078328881651036 0 1.8078328881651036 6.2393171980064039 0 0 0 0 -1.7953618816343919 3.7481985316744613 0 3.7481985316744613 6.8817732837126186 0 0 0 0 0.30299484010254041 3.0416251577721978 0 3.0416251577721978 4.0844413149313077 0 0 0 0 0.49881027264348177 2.8806704115841058 0 2.8806704115841058 3.5627419481970719 0 0 0 0 6.2055658626307828 12.378019104930235 0 12.378019104930235 -13.251021874260459 0 0 0 0 6.864717367157434 -10.460980120317686 0 -10.460980120317686 -10.821883608246026 0 0 0 0 6.15251585827491 -9.0830561474654132 0 -9.0830561474654132 5.1319071503703526 0 0 0 0 -2.3752476815450621 0.6558543175478917 0 0.6558543175478917 1.62443488003737 0 0 0 0 -0.088615179710619607 1.7079866111201625 0 1.7079866111201625 1.0401170458208071 0 0 0 0 -5.183124459244965 -1.1999734157930106 0 -1.1999734157930106 3.0245444330703322 0 0 0 0 -2.4687732696296294 2.088033667030686 0 2.088033667030686 6.2962281980198895 0 0 0 0 -0.48976063489812116 1.074331562509399 0 1.074331562509399 4.0429514657996961 0 0 0 0 -0.18216707603948379 -0.17997000093419047 0 -0.17997000093419047 0.53167719567863969 0 0 0 0 -3.935455974834781 6.6503292746410807 0 6.6503292746410807 4.1189757741026369 0 0 0 0 0.73275602771180459 4.9177356275260991 0 4.9177356275260991 18.164554221324579 0 0 0 0 -0.079037671662817388 1.4856878892478562 0 1.4856878892478562 2.2003698229955262 0 0 0 0 13.050022767177275 14.515536327554855 0 14.515536327554855 4.3814254005956172 0 0 0 0 -0.22623037642599758 0.35970725754632227 0 0.35970725754632227 0.089263323519681137 0 0 0 0 0.04198017953753426 0.26056702229353768 0 0.26056702229353768 -0.16896623478874773 0 0 0 0 1.1081209060549497 6.276070921217979 0 6.276070921217979 17.944052412281962 0 0 0 0 -0.35310062075674864 10.495826709351604 0 10.495826709351604 14.376671529895248 0 0 0 0 -1.4956405589284145 1.2484121031041013 0 1.2484121031041013 6.8134799125764403 0 0 0 0 -1.5828783081104338 3.3525645555352099 0 3.3525645555352099 -0.56977758419420255 0 0 0 0 0.023514548273389835 15.384600822834614 0 15.384600822834614 -0.69445747239842603 0 0 0 0 -3.2553772244333459 4.8810651547628368 0 4.8810651547628368 6.342434360380139 0 0 0 0 1.4212262095137049 7.6093449951058574 0 7.6093449951058574 2.9837133466835439 0 0 0 0 -0.94351023647534404 6.3506317757923449 0 6.3506317757923449 7.8547282570358732 0 0 0 0 -30.42506041051675 10.474978953677692 0 10.474978953677692 10.27158194999069 0 0 0 0 -13.370450885306113 33.801298496937761 0 33.801298496937761 11.973961120049381 0 0 0 0 6.5279700685749376 19.996021612280174 0 19.996021612280174 -17.571661125879473 0 0 0 0 -5.2502773806774456 14.331524160156732 0 14.331524160156732 4.674548386726201 0 0 0 0 -0.74364126634695538 6.8956768099624242 0 6.8956768099624242 6.444117824591558 0 0 0 0 3.6807068803125134 6.6889343106849992 0 6.6889343106849992 9.9888359704732466 0 0 0 0 -0.48004028527271103 1.0297077679906579 0 1.0297077679906579 24.920000587666436 0 0 0 0 -3.3868964783008551 6.9618783642868038 0 6.9618783642868038 29.526269239697285 0 0 0 0 -3.810411436770309 9.1359987861533227 0 9.1359987861533227 23.286916064555953 0 0 0 0 1.1556119747569298 5.2312554960496982 0 5.2312554960496982 22.70651295598509 0 0 0 0 0.91728292209359097 3.8777811398158519 0 3.8777811398158519 15.190611064208497 0 0 0 0 8.2355090256639585 11.36725833761011 0 11.36725833761011 15.087123899840662 0 0 0 0 6.9722924316606765 7.0119617953423585 0 7.0119617953423585 15.731877938209436 0 0 0 0 7.0292095635273739 10.703477883249434 0 10.703477883249434 18.604759811718395 0 0 0 0 6.4416781694242431 13.807141719157244 0 13.807141719157244 18.643914835989563 0 0 0 0 5.5984792672809789 13.088376583623358 0 13.088376583623358 23.415203910721175 0 0 0 0 1.0044302088143553 6.7156683240618804 0 6.7156683240618804 24.451239231763793 0 0 0 0 7.1757113907286012 7.5877251066076496 0 7.5877251066076496 19.301573686525899 0 0 0 0 0.54515036302606745 8.0114768436857275 0 8.0114768436857275 26.927489456547846 0 0 0 0 9.7946305366991204 1.7653289871725519 0 1.7653289871725519 32.070271107029839 0 0 0 0 14.273750259828535 7.2358840263209458 0 7.2358840263209458 20.332906185671163 0 0 0 0 11.820587363970004 9.5698307679631398 0 9.5698307679631398 31.997932192749431 0 0 0 0 8.1043809824089443 14.763042831629718 0 14.763042831629718 31.552305742992758 0 0 0 0 9.1470134878671274 25.650115002423263 0 25.650115002423263 83.374532391157118 0 0 0 0 10.704061338095403 12.315598211428551 0 12.315598211428551 25.826376659095331 0 0 0 0 7.0502849757708788 16.371909543225229 0 16.371909543225229 29.28333044417559 0 0 0 0 -0.32761494984553996 0.32852256956295278 0 0.32852256956295278 -0.12276338802851683 0 0 0 0 12.989692834922135 17.377080770570501 0 17.377080770570501 10.364944466017732 0 0 0 0 1.6542554332670583 11.786699428421898 0 11.786699428421898 18.857657728914091 0 0 0 0 14.075830650722521 12.429537216753033 0 12.429537216753033 7.7375231747810176 0 0 0 0 13.543133823253674 12.599444429079085 0 12.599444429079085 8.3439176255965322 0 0 0 0 3.9637149984458517 9.0966889388118943 0 9.0966889388118943 14.23386125576144 0 0 0 0 4.367290029654427 7.5026002557524407 0 7.5026002557524407 19.492338796768308 0 0 0 0 -3.2169683906354081 9.618189135965622 0 9.618189135965622 15.120655310658549 0 0 0 0 2.0283513690418573 5.3227605654369654 0 5.3227605654369654 3.2054984771948511 0 0 0 0 -0.76749673353714343 1.5573815724593487 0 1.5573815724593487 -5.1392576110902155 0 0 0 0 0.20788895051678935 12.839822895843554 0 12.839822895843554 19.16550186418408 0 0 0 0 -0.00096237162479625993 -0.046126753975725521 0 -0.046126753975725521 0.18902177154305377 0 0 0 0 -13.709877093997143 -12.536605917125144 0 -12.536605917125144 7.069667241168645 0 0 0 0 -5.6516917175688377 -2.6988169968144575 0 -2.6988169968144575 -2.5001424144466 0 0 0 0 -5.0080778198509392 6.4340303649059933 0 6.4340303649059933 5.3765302159420116 0 0 0 0 -5.8489228228497439 0.80574674030958704 0 0.80574674030958704 3.1493079494298399 0 0 0 0 -16.573620828844156 1.2002727895693397 0 1.2002727895693397 6.3640286844438378 0 0 0 0 -15.483644149209141 -10.208810671138053 0 -10.208810671138053 6.6415650922622262 0 0 0 0 0.002828376585885195 -0.058642996361932376 0 -0.058642996361932376 0.16430059520709861 0 0 0 0 -18.868086292529739 -3.4668422522249784 0 -3.4668422522249784 8.4300080511702618 0 0 0 0 -0.020034550106341809 -0.071797673628387848 0 -0.071797673628387848 0.371629802276356 0 0 0 0 -10.578472601042826 5.2861641119875458 0 5.2861641119875458 6.4533174526632138 0 0 0 0 -4.591176555084644 -5.5955502607121161 0 -5.5955502607121161 -2.3469763979965137 0 0 0 0 -3.05803695539948 -7.4570205101053944 0 -7.4570205101053944 5.3886811084394139 0 0 0 0 -1.5506012688515796 0.2771703687765239 0 0.2771703687765239 8.0065148462781508 0 0 0 0 0.02423283342967153 -4.9376848901847552 0 -4.9376848901847552 19.421915002803871 0 0 0 0 1.9764359258602369 8.4725675051795406 0 8.4725675051795406 13.94603072976588 0 0 0 0 0.85081533973357182 -2.5956668656317561 0 -2.5956668656317561 14.083317521634171 0 0 0 0 0.87715926013021317 7.8005170501805878 0 7.8005170501805878 11.92003498774011 0 0 0 0 0.2000244596805687 2.054070817833419 0 2.054070817833419 6.7806812611920009 0 0 0 0 -0.61356818487163878 0.092789709734915959 0 0.092789709734915959 9.1484584722766158 0 0 0 0 -1.5016513754436573 4.8412838908516278 0 4.8412838908516278 9.0159923861674542 0 0 0 0 -0.53477966143141942 1.2229778728438081 0 1.2229778728438081 1.1914183119263022 0 0 0 0 -1.1900666995607594 2.1740352943643302 0 2.1740352943643302 6.6037893512848314 0 0 0 0 -0.62203290407427403 1.6687521186786398 0 1.6687521186786398 7.0530117831594907 0 0 0 0 -1.320259086319723 2.4621704241095586 0 2.4621704241095586 7.4517837360981503 0 0 0 0 -1.0880989433568831 1.2210559956761902 0 1.2210559956761902 3.7093479501918054 0 0 0 0 0.28828370904901846 2.462838540125218 0 2.462838540125218 6.7359032449742564 0 0 0 0 -0.069426418847369664 0.71186151082195614 0 0.71186151082195614 1.5962466082664442 0 0 0 0 3.2791532666388434 -1.9228438656373328 0 -1.9228438656373328 6.4459334177013261 0 0 0 0 -0.9221162238519014 -6.6665298539446667 0 -6.6665298539446667 8.0925030555777084 0 0 0 0 -10.579562241973576 -8.0548740164067567 0 -8.0548740164067567 12.997749696839492 0 0 0 0 -5.5402070137002397 -1.3565429657701316 0 -1.3565429657701316 13.608669164975254 0 0 0 0 3.0304043830644858 4.9093063447425038 0 4.9093063447425038 5.8520488082249358 0 0 0 0 5.7598916300628034 -1.7144690982343036 0 -1.7144690982343036 7.6298482924521522 0 0 0 0 -4.3122377162676742 4.4265374585479549 0 4.4265374585479549 7.8113524578047873 0 0 0 0 -0.40928454887212951 1.3801977299378905 0 1.3801977299378905 6.6470617417689937 0 0 0 0 0.093871390895145623 2.5797128808662819 0 2.5797128808662819 6.4606346033742739 0 0 0 0 1.5584914570979436 -0.35421554604818084 0 -0.35421554604818084 6.2909063410461386 0 0 0 0 0.61702669562319556 -0.52207284443784374 0 -0.52207284443784374 9.4206497703917194 0 0 0 0 -4.1988517285311389 -5.6455507177123536 0 -5.6455507177123536 6.0166526196717314 0 0 0 0 -0.22701237208153563 -0.98976204209084262 0 -0.98976204209084262 6.919186021825638 0 0 0 0 -4.2879920069265154 -7.031422217321051 0 -7.031422217321051 0.063348882902573678 0 0 0 0 -8.8606099037908166 2.9322062175710926 0 2.9322062175710926 -5.3515935842979161 0 0 0 0 -5.390526624962547 -1.7885541519003709 0 -1.7885541519003709 0.13813662872644272 0 0 0 0 0.34513170221617884 -0.70163933114463362 0 -0.70163933114463362 2.4574460579942752 0 0 0 0 -0.58547838990625678 -3.9473297168651698 0 -3.9473297168651698 -4.5332735421752659 0 0 0 0 0.35679064478175032 -0.48712810086146519 0 -0.48712810086146519 0.36395616436833933 0 0 0 0 2.3611576689783398 2.210824390255766 0 2.210824390255766 11.02167132559407 0 0 0 0 -0.92726305303344247 -1.1933412602861608 0 -1.1933412602861608 2.4175581532708748 0 0 0 0 0.92624933251376262 0.8211254743112022 0 0.8211254743112022 4.6038512799177624 0 0 0 0 -5.0600995187951412 -0.66626462709155021 0 -0.66626462709155021 5.8224159250748926 0 0 0 0 -5.5441301384955182 2.1343899274497744 0 2.1343899274497744 4.1787973807531671 0 0 0 0 -0.30922518312967728 -0.73129980878789702 0 -0.73129980878789702 1.158866600830109 0 0 0 0 -4.2379034576754293 1.3052576332393073 0 1.3052576332393073 10.045748415970593 0 0 0 0 -4.1332186797358759 -1.076996875660825 0 -1.076996875660825 5.5319999486728193 0 0 0 0 -1.1003183100387304 2.5432496918404013 0 2.5432496918404013 8.0041119895431621 0 0 0 0 -1.9230777078620918 -0.063932952534742071 0 -0.063932952534742071 5.9074134933831601 0 0 0 0 -1.8411772421548562 0.47446073460673688 0 0.47446073460673688 7.9180752081783794 0 0 0 0 -0.76480563504378551 -0.024377060238748527 0 -0.024377060238748527 8.0034284177979771 0 0 0 0 -0.48255829745770668 2.4905552586949673 0 2.4905552586949673 3.574730361779455 0 0 0 0 -6.5223132599111686 21.775483150262517 0 21.775483150262517 -0.77308630023435398 0 0 0 0 -1.0442691343196628 2.9168812524839041 0 2.9168812524839041 5.7010497548817511 0 0 0 0 -0.9442615528450915 1.6014040699451471 0 1.6014040699451471 6.825478757396013 0 0 0 0 9.9401456607114085 -7.0430009950367349 0 -7.0430009950367349 -1.2256451502689742 0 0 0 0 17.316189397161054 3.4536619308296395 0 3.4536619308296395 6.7696227223677852 0 0 0 0 -2.1847443807842204 1.9659405661666369 0 1.9659405661666369 11.16624367697932 0 0 0 0 11.819719841244435 19.779878173509132 0 19.779878173509132 -17.613301638585654 0 0 0 0 -0.40415608206237152 15.780562857150016 0 15.780562857150016 -17.691901733420309 0 0 0 0 -0.28916519251307599 2.4726775796043938 0 2.4726775796043938 3.5270744500533322 0 0 0 0 -0.42134916699081471 0.48242207743317955 0 0.48242207743317955 1.8532589631570104 0 0 0 0 3.6040296341121874 -4.6321898949953493 0 -4.6321898949953493 -31.875213955934669 0 0 0 0 -8.8474085286921991 14.270189980628857 0 14.270189980628857 -14.167333594021329 0 0 0 0 1.7822009638159813 3.436063661102196 0 3.436063661102196 5.9419127678847872 0 0 0 0 1.0026912735202622 2.2109638322869438 0 2.2109638322869438 2.744917300716688 0 0 0 0 -2.8049200585311951 3.4984983449205629 0 3.4984983449205629 4.9901139904973206 0 0 0 0 1.1242120496348527 -0.42771282307205638 0 -0.42771282307205638 6.4153767432253517 0 0 0 0 2.4629751412826124 0.961580329843855 0 0.961580329843855 5.3951962746705249 0 0 0 0 0.66755259588016247 -0.35947998845129803 0 -0.35947998845129803 1.665067108132984 0 0 0 0 1.8315066662633512 4.6479612292941965 0 4.6479612292941965 9.9392683697951725 0 0 0 0 1.9496846671033836 -0.31643755934692308 0 -0.31643755934692308 9.051552753499891 0 0 0 0 0.37296899370147685 2.2132402500619719 0 2.2132402500619719 12.869414181838692 0 0 0 0 2.093531386695787 1.6969901445863798 0 1.6969901445863798 1.9459159334182914 0 0 0 0 0.86137884135806497 1.9714236021763796 0 1.9714236021763796 3.6796522473916831 0 0 0 0 0.6975705323736463 -1.0086854908589657 0 -1.0086854908589657 4.1220819614673019 0 0 0 0 4.6307878986107198 -2.6887187782781439 0 -2.6887187782781439 3.9633461119439062 0 0 0 0 3.7291354883018926 -1.1634484143180543 0 -1.1634484143180543 1.44664210195333 0 0 0 0 1.6239285333212479 6.6592559140071899 0 6.6592559140071899 -4.6416050248471947 0 0 0 0 5.75226028779133 0.58426085825658447 0 0.58426085825658447 2.2838029396557431 0 0 0 0 0.059292158082188351 0.15888258263719202 0 0.15888258263719202 -0.13065655722529446 0 0 0 0 2.7942841729440318 -7.0593312274592108 0 -7.0593312274592108 -4.5803705449516201 0 0 0 0 -1.2337936928156523 -1.4061534272414065 0 -1.4061534272414065 12.007251117383703 0 0 0 0 0.77877232297848842 -2.621825763564904 0 -2.621825763564904 2.8788361590765872 0 0 0 0 2.1871363528622396 -1.7061077611197106 0 -1.7061077611197106 1.515644341482357 0 0 0 0 0.97539348725427999 -3.7991745683764293 0 -3.7991745683764293 9.5780101779128017 0 0 0 0 0.57152037702917369 -2.8451646447028907 0 -2.8451646447028907 7.3247150836114088 0 0 0 0 -0.33601658685074653 0.60082200232227478 0 0.60082200232227478 5.5152118383293782 0 0 0 0 -2.1290140778178284 -0.96342721701398659 0 -0.96342721701398659 8.9079857245142193 0 0 0 0 -1.3502185090056855 -2.4294101703158049 0 -2.4294101703158049 14.822268375633939 0 0 0 0 -0.91893275873053426 -1.8449165803294818 0 -1.8449165803294818 9.2123668852730134 0 0 0 0 2.0896450668413991 1.770217444521677 0 1.770217444521677 6.4073651501112181 0 0 0 0 -0.52790628552440921 -3.9409142691667967 0 -3.9409142691667967 6.9439852654486458 0 0 0 0 -9.7920297689590825 -18.152527750863101 0 -18.152527750863101 30.067939601352919 0 0 0 0 -9.5235863128721121 -9.3545072679030454 0 -9.3545072679030454 42.110314852685406 0 0 0 0 -6.6956240392933069 -12.753303826184492 0 -12.753303826184492 22.560687339555443 0 0 0 0 -10.575428744285546 -12.900128956564004 0 -12.900128956564004 31.447989102220163 0 0 0 0 -3.6983707586684886 1.3886712554281075 0 1.3886712554281075 36.663076963377534 0 0 0 0 -4.5011080646913797 -1.4063439009778449 0 -1.4063439009778449 28.770279111157379 0 0 0 0 -1.038909994479468 1.2845887276926078 0 1.2845887276926078 20.26780070834684 0 0 0 0 -5.0921513222410795 -5.119449704084218 0 -5.119449704084218 22.161649434045103 0 0 0 0 -2.6694115899057351 -6.8786203673762429 0 -6.8786203673762429 15.439298607045203 0 0 0 0 -4.097434249373805 -6.2972224224131423 0 -6.2972224224131423 22.960223393922206 0 0 0 0 -5.4478698811617505 -12.131949000440727 0 -12.131949000440727 20.723801525062299 0 0 0 0 -2.4751423045522642 -12.62867041429854 0 -12.62867041429854 19.660223003756073 0 0 0 0 0.30542182930616946 -11.676858097216609 0 -11.676858097216609 15.736145637325421 0 0 0 0 -1.0192859887359873 -8.6959686655104633 0 -8.6959686655104633 16.066192858135764 0 0 0 0 1.3077467425120517 -7.2777329383916367 0 -7.2777329383916367 8.9798523603876674 0 0 0 0 4.1349599898700262 -10.576259557025878 0 -10.576259557025878 12.638891052284634 0 0 0 0 0.10640737910779308 -10.610981406849305 0 -10.610981406849305 13.002196378354711 0 0 0 0 3.3732721964545362 -13.041766928193283 0 -13.041766928193283 14.791680878412535 0 0 0 0 0.63097962077722514 -11.27766550805427 0 -11.27766550805427 16.402955639964603 0 0 0 0 3.0405911848110918 -13.545419442727052 0 -13.545419442727052 18.512874218776233 0 0 0 0 -0.88576684927056704 -7.8265703665256297 0 -7.8265703665256297 15.650449855684073 0 0 0 0 0.42320311933578125 -13.102491361953412 0 -13.102491361953412 15.698462202757582 0 0 0 0 -2.4150033484363576 -13.083661052271054 0 -13.083661052271054 16.194949140355675 0 0 0 0 -1.4100009667615723 -12.488264708073984 0 -12.488264708073984 16.312258278309855 0 0 0 0 -1.3966468321584671 -13.148962578275132 0 -13.148962578275132 13.766890794888241 0 0 0 0 -4.1412266193460709 -15.661650171092333 0 -15.661650171092333 15.532050709505711 0 0 0 0 -1.75268057133394 -14.724339692063495 0 -14.724339692063495 10.943671141489176 0 0 0 0 -2.8071228067037737 -14.194019388604374 0 -14.194019388604374 12.906333275370343 0 0 0 0 -4.7775032909294168 -16.131607208315472 0 -16.131607208315472 22.323435380390094 0 0 0 0 -5.5196613476541643 -20.286180800387228 0 -20.286180800387228 11.414642755846216 0 0 0 0 10.326448111321735 -6.1752601836273016 0 -6.1752601836273016 1.2773556178935905 0 0 0 0 15.574913800108334 -10.395673839640949 0 -10.395673839640949 -15.80992990204868 0 0 0 0 8.8685338539272607 -8.334484379872265 0 -8.334484379872265 1.2806244790577068 0 0 0 0 9.3773268529608913 -11.082533059040088 0 -11.082533059040088 7.0103950404773059 0 0 0 0 3.709287839389205 -8.624833962143839 0 -8.624833962143839 9.136641691222394 0 0 0 0 7.7276381660230271 -10.013765040744829 0 -10.013765040744829 9.5598347116792866 0 0 0 0 8.527646424534737 -12.981600455268563 0 -12.981600455268563 10.676363158167078 0 0 0 0 3.3388721550219884 -13.17269013814041 0 -13.17269013814041 16.701610272566541 0 0 0 0 3.308385875505337 -12.044927396544153 0 -12.044927396544153 16.584098151618889 0 0 0 0 5.5569742208980415 -18.346428699656144 0 -18.346428699656144 28.119932755390437 0 0 0 0 10.80071857454584 -14.855115068738087 0 -14.855115068738087 11.839148216107333 0 0 0 0 7.4552602478115091 -14.77537444269683 0 -14.77537444269683 23.346863989735539 0 0 0 0 14.317664833914193 -23.222882745043535 0 -23.222882745043535 4.6114171811760798 0 0 0 0 13.888326634359089 -13.998496315937246 0 -13.998496315937246 22.980578394830445 0 0 0 0 15.215359457923384 -25.581952195348777 0 -25.581952195348777 47.43454698953974 0 0 0 0 -1.3871170763238752 -10.685640962519074 0 -10.685640962519074 48.173075575284201 0 0 0 0 1.0054732459207116 -1.7761344645086865 0 -1.7761344645086865 29.137893355706183 0 0 0 0 -0.036818736856354395 -0.21626064538634182 0 -0.21626064538634182 0.16732431761587563 0 0 0 0 10.332653432775487 3.0371366426284112 0 3.0371366426284112 3.9406231994016707 0 0 0 0 -0.8279254712662123 5.8722904358251071 0 5.8722904358251071 11.604704399552702 0 0 0 0 13.629383420268482 -0.89810555618669241 0 -0.89810555618669241 7.8450342664327763 0 0 0 0 12.91584920210461 -2.1645992817400384 0 -2.1645992817400384 12.582387377548002 0 0 0 0 -1.2486487312924055 -0.6482285745109948 0 -0.6482285745109948 5.2810698894726329 0 0 0 0 -1.8753515470185675 -9.9887622978185391 0 -9.9887622978185391 3.740382634141497 0 0 0 0 -0.68520953652569005 -7.3427933607940759 0 -7.3427933607940759 9.2767767468976672 0 0 0 0 -0.75078118350825207 -8.3153415963413408 0 -8.3153415963413408 14.268950142852191 0 0 0 0 2.0658889888886733 -1.5371849651714911 0 -1.5371849651714911 17.168527165865953 0 0 0 0 2.1719790258255216 -2.7239880298734533 0 -2.7239880298734533 9.31092400510056 0 0 0 0 -0.79486383891526202 -9.3460307360858224 0 -9.3460307360858224 23.393703954910961 0 0 0 0 -9.9121872495572347 -4.1353652509922085 0 -4.1353652509922085 33.405369694863111 0 0 0 0 -0.75717579071090313 -2.6512884119044884 0 -2.6512884119044884 10.400171885297141 0 0 0 0 -0.055334157722232824 -0.30227165109406595 0 -0.30227165109406595 0.20809896014198692 0 0 0 0 13.557260165180992 -6.3844240588894081 0 -6.3844240588894081 13.002553834427999 0 0 0 0 -5.3631597402683155 5.0137133633513713 0 5.0137133633513713 20.141326510885847 0 0 0 0 0.20086081183759408 0.13221693475132401 0 0.13221693475132401 -0.0095647297977397017 0 0 0 0 -9.2759374594895974 12.306711672269557 0 12.306711672269557 7.3249679016034861 0 0 0 0 9.4630479900406499 -18.024618363315994 0 -18.024618363315994 24.796489194793367 0 0 0 0 -2.3126283426049667 7.6576557618752759 0 7.6576557618752759 1.8767033486165019 0 0 0 0 -1.1969073674555375 -3.9385117423389033 0 -3.9385117423389033 6.381584865579498 0 0 0 0 16.526432300928771 -4.8243488585416827 0 -4.8243488585416827 -5.1670008499181677 0 0 0 0 16.487786870242473 -3.9225498723574219 0 -3.9225498723574219 8.8726529232199027 0 0 0 0 8.5358089206292789 -1.5531137644679802 0 -1.5531137644679802 8.3051116856331646 0 0 0 0 7.8601840530934481 -9.0445900589751886 0 -9.0445900589751886 12.551984349482154 0 0 0 0 8.0260160739180719 -3.0501110503341806 0 -3.0501110503341806 19.127426393770293 0 0 0 0 0.22037159669322104 0.22639994411103448 0 0.22639994411103448 0.22648725413023385 0 0 0 0 12.352046908252333 -7.1579707883943229 0 -7.1579707883943229 6.7380843410292073 0 0 0 0 0.25269327892354454 -8.7024442484621432 0 -8.7024442484621432 6.5429798940208457 0 0 0 0 21.983123537202456 -10.594062737070999 0 -10.594062737070999 -0.74032277046512718 0 0 0 0 19.44671323237057 4.9500826038554351 0 4.9500826038554351 -13.274684962610991 0 0 0 0 18.630090814924372 3.5622801787958451 0 3.5622801787958451 5.4597643288589097 0 0 0 0 -7.349077047608592 -20.277104343498763 0 -20.277104343498763 37.173672435361368 0 0 0 0 1.0713610015300503 -0.51190812175218525 0 -0.51190812175218525 -7.704194070757012 0 0 0 0 -3.6034017785300136 20.819755342080498 0 20.819755342080498 -16.001266178496735 0 0 0 0 0.54103339759327695 0.7587025675640291 0 0.7587025675640291 1.0141948681120247 0 0 0 0 -8.0243853265114637 -3.9509062748156794 0 -3.9509062748156794 -5.9796310567026012 0 0 0 0 8.0371080227810126 7.9827553460006584 0 7.9827553460006584 -25.311034723935336 0 0 0 0 29.385818528243462 2.8405533986556293 0 2.8405533986556293 -11.0782080819572 0 0 0 0 3.743098640038852 1.3960438353469726 0 1.3960438353469726 6.4275241102651393 0 0 0 0 9.5350821375295141 10.61749419039279 0 10.61749419039279 -6.6494718105832362 0 0 0 0 -56.349086609663786 54.627158176434477 0 54.627158176434477 29.160911850881348 0 0 0 0 -10.028103121321351 10.518551905081949 0 10.518551905081949 5.2221845287131146 0 0 0 0 -23.261771063751951 36.153264077130643 0 36.153264077130643 -12.889254244293625 0 0 0 0 0.69092101270549833 1.0633067823906224 0 1.0633067823906224 1.2671496743799455 0 0 0 0 -12.915593441353963 22.099620493532711 0 22.099620493532711 3.6083928608968563 0 0 0 0 3.0957530213321434 19.701933215436384 0 19.701933215436384 -28.550758954683261 0 0 0 0 1.734591500323063 6.3495923950840734 0 6.3495923950840734 -27.351857912810374 0 0 0 0 -20.605266213130449 5.9167443799015018 0 5.9167443799015018 -5.9217462210817757 0 0 0 0 -91.734537039487066 -17.999011595200045 0 -17.999011595200045 102.65866902345988 0 0 0 0 22.961635064087261 1.2051574986790001 0 1.2051574986790001 53.157028699763032 0 0 0 0 -31.046640835978085 1.3984548580783667 0 1.3984548580783667 43.49660091275473 0 0 0 0 -22.466901489239405 -17.42108664917032 0 -17.42108664917032 55.905016052837254 0 0 0 0 32.587234484390933 -12.514582290578801 0 -12.514582290578801 59.369207487829954 0 0 0 0 33.440611589483126 36.354576543970552 0 36.354576543970552 92.094691694976063 0 0 0 0 -5.9779859276728757 -14.499397475063233 0 -14.499397475063233 38.90931829761098 0 0 0 0 15.660279370801106 -10.789145805706085 0 -10.789145805706085 22.090399498113584 0 0 0 0 20.478384485408633 -17.710864009722627 0 -17.710864009722627 30.9030154968641 0 0 0 0 11.618335183640909 -1.7499289632478394 0 -1.7499289632478394 53.941576844979863 0 0 0 0 -8.2336201515726657 -19.23357382668064 0 -19.23357382668064 41.047912348446062 0 0 0 0 -7.9040438294423794 -18.611176246897799 0 -18.611176246897799 18.309444737427839 0 0 0 0 13.147676361379808 -33.907236537441349 0 -33.907236537441349 -9.9635670362463316 0 0 0 0 -13.595670937625124 -27.267081149925161 0 -27.267081149925161 46.568569510136513 0 0 0 0 -8.6546466707383765 -22.356523099083915 0 -22.356523099083915 40.758697191577085 0 0 0 0 -4.1583195777346846 -23.104027863339525 0 -23.104027863339525 36.520996177652705 0 0 0 0 -8.3616524616054519 1.7822625649482688 0 1.7822625649482688 4.2837149770134602 0 0 0 0 -3.650305268815929 -24.808127039309738 0 -24.808127039309738 0.76141976553662971 0 0 0 0 -13.194536909014687 4.5864621606019682 0 4.5864621606019682 17.836310827594161 0 0 0 0 0.15084884592580924 -0.18290358493365844 0 -0.18290358493365844 0.0072051736367360064 0 0 0 0 0.05806475278277845 0.3447975912543324 0 0.3447975912543324 1.5750298624389849 0 0 0 0 -0.83410868851410447 2.4243991630419899 0 2.4243991630419899 3.7255985687028268 0 0 0 0 -14.542287990671747 -1.8840191265830981 0 -1.8840191265830981 9.0749371092415458 0 0 0 0 -12.777878381676118 6.440272023014586 0 6.440272023014586 7.3177721789302268 0 0 0 0 -12.21136988158505 3.5418789025285378 0 3.5418789025285378 20.472701600105211 0 0 0 0 -0.47366913106754005 -7.5374444504843723 0 -7.5374444504843723 15.258934056275848 0 0 0 0 13.951266639587928 25.078507991757306 0 25.078507991757306 35.633903095325422 0 0 0 0 17.113577871220254 -32.036581231398259 0 -32.036581231398259 62.91195119396491 0 0 0 0 46.760778619067722 -9.2807836450328978 0 -9.2807836450328978 11.384506109093536 0 0 0 0 13.493284309161567 22.403957984624867 0 22.403957984624867 56.434594623563044 0 0 0 0 0.28238091425948764 0.24432119289495979 0 0.24432119289495979 0.28664687090207686 0 0 0 0 12.461280479034151 10.470503826545411 0 10.470503826545411 -2.7634777146377019 0 0 0 0 2.3300133811500512 -3.8443976449000274 0 -3.8443976449000274 17.804466076972858 0 0 0 0 -4.9142924117209859 -21.838039598930663 0 -21.838039598930663 35.740631563001443 0 0 0 0 13.770479852983257 -7.6412165902347624 0 -7.6412165902347624 8.9385025384044638 0 0 0 0 0.56727792588516213 -0.87828359094146435 0 -0.87828359094146435 14.183932747344443 0 0 0 0 1.0157539940540303 0.3118000549475255 0 0.3118000549475255 16.995475858439931 0 0 0 0 15.3848903416987 -15.316753679952853 0 -15.316753679952853 19.382466732681223 0 0 0 0 -0.010264698252773064 -0.015585981454199427 0 -0.015585981454199427 0.082697032649306834 0 0 0 0 -0.00042220554922874586 0.24686602796555235 0 0.24686602796555235 -0.58151959789938701 0 0 0 0 -1.0111266270014208 0.90577002503869153 0 0.90577002503869153 -0.95811409914858814 0 0 0 0 5.9738149598414223 -1.5537136721968636 0 -1.5537136721968636 4.3487576880925189 0 0 0 0 -0.094436958559392714 -1.3843828787539678 0 -1.3843828787539678 -3.7132212702526886 0 0 0 0 -16.163807194583583 -7.2623298579401308 0 -7.2623298579401308 16.424429484821303 0 0 0 0 0.027088083738463963 -0.17435194682974231 0 -0.17435194682974231 0.47017734172767689 0 0 0 0 -15.455254234201103 -8.0041717195244928 0 -8.0041717195244928 4.6624992448960256 0 0 0 0 0.021476814696755803 -0.095545895864946218 0 -0.095545895864946218 0.23012320024613331 0 0 0 0 -12.637014494479812 4.3930304612672444 0 4.3930304612672444 16.915081462997478 0 0 0 0 -8.0214536353248214 7.8466340601898992 0 7.8466340601898992 4.9486101407737806 0 0 0 0 0.55392493321088043 -4.854978406338887 0 -4.854978406338887 9.5877084913772705 0 0 0 0 -4.6016798127298291 1.5516160363545168 0 1.5516160363545168 14.185053317833081 0 0 0 0 -2.9885371656912447 3.3116942773231131 0 3.3116942773231131 9.2472933094754239 0 0 0 0 -3.6057707993398527 3.7660947883153995 0 3.7660947883153995 16.149842251612426 0 0 0 0 -4.1908938665965962 1.1603403988801801 0 1.1603403988801801 15.161720222798976 0 0 0 0 -9.2649831070163291 3.1460510901415546 0 3.1460510901415546 15.170718533843683 0 0 0 0 2.3479630774488314 -14.651034019063445 0 -14.651034019063445 20.2999950191479 0 0 0 0 -9.3650402845031682 -1.6930197056707925 0 -1.6930197056707925 24.655068698994 0 0 0 0 -2.517255068120317 -3.0270834012162595 0 -3.0270834012162595 4.5626617439993424 0 0 0 0 -2.4920976166222908 -2.5543487279060173 0 -2.5543487279060173 11.864088269830972 0 0 0 0 -1.183888062122314 -1.7813742400285264 0 -1.7813742400285264 5.3424085266524344 0 0 0 0 0.31965409795856203 1.9437225142255556 0 1.9437225142255556 8.9844170866804234 0 0 0 0 0.31349918883456418 2.0925774384168108 0 2.0925774384168108 6.6721189893496557 0 0 0 0 1.7188666336913458 4.0257378021306067 0 4.0257378021306067 10.19001901210504 0 0 0 0 1.977739179446357 5.6293418521386229 0 5.6293418521386229 19.055868251172797 0 0 0 0 6.4829436114292811 -3.6346596958283044 0 -3.6346596958283044 18.573915045977628 0 0 0 0 2.2282545025007749 3.329884862003837 0 3.329884862003837 28.294578917066247 0 0 0 0 0.094065753225023807 -3.1485997979907552 0 -3.1485997979907552 23.321640724752797 0 0 0 0 4.7387780887358408 -5.0237223865970009 0 -5.0237223865970009 23.741423869005303 0 0 0 0 -0.037298445783040632 -0.027591166116785359 0 -0.027591166116785359 0.080227010234825258 0 0 0 0 -0.029404198917298764 -7.2886041182664485 0 -7.2886041182664485 -2.8479154345077404 0 0 0 0 -3.8311989357177794 -2.4535983354517157 0 -2.4535983354517157 -2.1986969117649551 0 0 0 0 0.0080056101440128067 -0.019256264303706416 0 -0.019256264303706416 0.014198404691448729 0 0 0 0 -0.0015571051757487366 -0.88685128110682854 0 -0.88685128110682854 -2.7217639051523292 0 0 0 0 -4.2903270021794633 -4.631240377377253 0 -4.631240377377253 -1.6386377822127542 0 0 0 0 -3.5438561148188565 -1.70244450584687 0 -1.70244450584687 -0.82537660016350856 0 0 0 0 -0.0082534193389917632 -0.045095365391055964 0 -0.045095365391055964 0.040401331196672885 0 0 0 0 0.031055229655783632 -0.045929589533017179 0 -0.045929589533017179 0.030979098863817001 0 0 0 0 0.23853324503256579 -3.8019413373767748 0 -3.8019413373767748 -4.9054137009406986 0 0 0 0 0.29870653947033321 0.24084785689865384 0 0.24084785689865384 -1.3143043525869871 0 0 0 0 0.0048619412659814823 -0.65264534588641254 0 -0.65264534588641254 0.35298517853334488 0 0 0 0 1.7944472739145108 6.6332704015885611 0 6.6332704015885611 12.266420328920503 0 0 0 0 -5.3205890796957949 0.24129402706967085 0 0.24129402706967085 -0.049635216802926152 0 0 0 0 3.5640725494272205 -0.46678051686672006 0 -0.46678051686672006 -0.67654274433698447 0 0 0 0 5.3715387632571261 2.1958615516741702 0 2.1958615516741702 14.868481787834753 0 0 0 0 2.308187321632321 6.8015621069735062 0 6.8015621069735062 13.364424653629158 0 0 0 0 -0.00079825876691981502 0.50279623645474203 0 0.50279623645474203 17.025691712076878 0 0 0 0 14.843769748899266 -25.196807876959156 0 -25.196807876959156 7.6562726024676522 0 0 0 0 8.1535510434274414 -20.842303095323587 0 -20.842303095323587 -13.606368064680282 0 0 0 0 -24.314147359022925 1.5181827611268091 0 1.5181827611268091 4.1793341974298528 0 0 0 0 1.449042984039238 -15.507681547960601 0 -15.507681547960601 8.9181245502550155 0 0 0 0 20.995868484187149 -1.0929704273637526 0 -1.0929704273637526 1.7327117200875364 0 0 0 0 -3.7887537231927482 14.550341058160484 0 14.550341058160484 24.801727440218201 0 0 0 0 2.1364216466070793 -2.7789196044095661 0 -2.7789196044095661 -0.64199947843371774 0 0 0 0 -1.1037812303098029 -10.778966990481422 0 -10.778966990481422 -7.7202488273796916 0 0 0 0 5.0270618028914669 1.6001429472053132 0 1.6001429472053132 -50.181067357334541 0 0 0 0 -4.0426867879422659 -6.5304211403235968 0 -6.5304211403235968 -3.1887914067337988 0 0 0 0 -3.5093241349030819 -13.60890551686316 0 -13.60890551686316 -7.0011248801456532 0 0 0 0 0.0091685976232893235 -0.031734889875021821 0 -0.031734889875021821 0.01999653649122024 0 0 0 0 3.1416259696578921 4.0358364082221669 0 4.0358364082221669 -13.428121090801142 0 0 0 0 0.1402775253253879 -0.51558663745798761 0 -0.51558663745798761 0.0027243651657755663 0 0 0 0 0.38619263938684867 1.46791050929005 0 1.46791050929005 -9.7671025760391785 0 0 0 0 -6.0860134021659533 -4.4772031681095541 0 -4.4772031681095541 -0.78249551161934505 0 0 0 0 4.8798465540689904 -6.7386905595976714 0 -6.7386905595976714 -1.6515354510229372 0 0 0 0 9.3196819516768983 -5.7092168980307179 0 -5.7092168980307179 -18.513182837853492 0 0 0 0 -3.1788279615703665 0.47540319265590369 0 0.47540319265590369 3.3939622863699697 0 0 0 0 -1.189316066527585 -1.6181328953080083 0 -1.6181328953080083 -3.9338700060579868 0 0 0 0 -1.5406576657980438 1.9648612260516529 0 1.9648612260516529 2.3418512938096683 0 0 0 0 -0.26268569632286137 -0.047038427014630457 0 -0.047038427014630457 0.57219515159370005 0 0 0 0 0.38817324847788903 -0.10422912208105117 0 -0.10422912208105117 2.0573614672284748 0 0 0 0 -0.010743766833761603 0.2199596438580993 0 0.2199596438580993 0.25499923196093022 0 0 0 0 2.8026978213500797 5.7216527758200755 0 5.7216527758200755 1.0767924008359842 0 0 0 0 -6.9172394673153121 -2.0416156990504533 0 -2.0416156990504533 15.424312070495944 0 0 0 0 -0.70878637477348094 -0.34077724319615221 0 -0.34077724319615221 4.117763689700098 0 0 0 0 -46.547529278933325 1.4288966852268459 0 1.4288966852268459 7.5027389111764933 0 0 0 0 10.037065042460654 -0.8827054558432792 0 -0.8827054558432792 -9.3949996721603384 0 0 0 0 0.15727083611454634 -0.96169730616359517 0 -0.96169730616359517 4.1654076714730479 0 0 0 0 -10.962361116935085 -7.7775623557108702 0 -7.7775623557108702 22.901800726087458 0 0 0 0 8.8444400014816438 -1.3792891847424471 0 -1.3792891847424471 -2.8371252418219228 0 0 0 0 5.086298455000815 2.2433589971515175 0 2.2433589971515175 -2.5278906233254475 0 0 0 0 9.249855825137729 -8.528589795670996 0 -8.528589795670996 3.3472727668104199 0 0 0 0 1.5058198281714397 -3.4356018397791104 0 -3.4356018397791104 -2.3274717590538785 0 0 0 0 1.071705559269893 -2.4847539300472476 0 -2.4847539300472476 3.0837571443465457 0 0 0 0 3.4992596863412473 -4.2673188255357672 0 -4.2673188255357672 2.9025898190636781 0 0 0 0 5.6507202355998345 -6.640964156521477 0 -6.640964156521477 -5.611023314851991 0 0 0 0 -0.91477088672459672 -11.857622988160074 0 -11.857622988160074 6.6393141001854019 0 0 0 0 0.18537584938341856 -1.5547742330090868 0 -1.5547742330090868 4.5261958086160732 0 0 0 0 0.23480455224830132 -2.0431108909055808 0 -2.0431108909055808 4.3694574363513468 0 0 0 0 -5.9157892294218186 1.2918919720059421 0 1.2918919720059421 4.345528965954145 0 0 0 0 -8.6954826043947122 -7.4517006501391734 0 -7.4517006501391734 11.738338079463574 0 0 0 0 -4.8766765831148575 -3.8045068341052684 0 -3.8045068341052684 11.932071124459981 0 0 0 0 -44.531934921025936 -29.316577726555806 0 -29.316577726555806 0.097092319436342223 0 0 0 0 -10.91931220413403 -17.013716024787755 0 -17.013716024787755 -7.6015449221195013 0 0 0 0 -6.023814589261633 -9.1552929239251171 0 -9.1552929239251171 -6.2810919009061763 0 0 0 0 -23.71559575441961 -10.627424120727483 0 -10.627424120727483 -0.76720163361824234 0 0 0 0 -11.03165139943269 -8.457797440871218 0 -8.457797440871218 -0.72770544339437038 0 0 0 0 -47.556084455174982 -12.70090065318891 0 -12.70090065318891 61.352891098664259 0 0 0 0 -1.114568493390423 0.5855574940703363 0 0.5855574940703363 1.1989436909454341 0 0 0 0 74.500567114711885 -51.79469340702417 0 -51.79469340702417 -6.5000045690103434 0 0 0 0 -26.017566449854939 -50.590212202998373 0 -50.590212202998373 -22.09322701621204 0 0 0 0 0.51416668295075296 -3.0189411438744909 0 -3.0189411438744909 8.2908273247793218 0 0 0 0 -6.6251731950771955 -24.316691732340587 0 -24.316691732340587 -24.675600921594707 0 0 0 0 -7.5426578648389295 -6.0062929062451076 0 -6.0062929062451076 6.3008239773607784 0 0 0 0 -14.747060133626519 -13.344683994077968 0 -13.344683994077968 36.176841678006895 0 0 0 0 -12.306270375092936 -27.718120330187958 0 -27.718120330187958 -9.4511194867791346 0 0 0 0 -17.932859808689955 -14.746371152768006 0 -14.746371152768006 36.881354396805364 0 0 0 0 -57.918203670596057 -34.324703067785435 0 -34.324703067785435 29.243095998244826 0 0 0 0 -17.872738925907242 19.841889709600764 0 19.841889709600764 9.9508729235260489 0 0 0 0 -0.046995823307800166 0.026285321647287807 0 0.026285321647287807 0.48704686929102081 0 0 0 0 -25.47451447048708 -25.232443849005278 0 -25.232443849005278 23.34152012416962 0 0 0 0 -19.284352408575842 3.6420364815267021 0 3.6420364815267021 -5.4287923216579657 0 0 0 0 -8.5620530234847934 -16.128128684337753 0 -16.128128684337753 8.1688863946783385 0 0 0 0 -25.757437458133836 2.3868078124060048 0 2.3868078124060048 -1.0858765039083664 0 0 0 0 -26.03027896153651 -10.358437452867292 0 -10.358437452867292 -1.2687934699970356 0 0 0 0 -50.560281545240855 -5.6701909002927096 0 -5.6701909002927096 10.375135149888592 0 0 0 0 -40.631182552797611 6.524520956167521 0 6.524520956167521 5.7879656190816604 0 0 0 0 -32.258196880719765 1.3475558894488131 0 1.3475558894488131 7.4487978927336371 0 0 0 0 -0.10288429019821094 0.030777624981809026 0 0.030777624981809026 1.2719760658720816 0 0 0 0 -1.6211650371387805 -3.4252732510649366 0 -3.4252732510649366 6.5339165271179809 0 0 0 0 0.25146811562646521 -0.96465188602627738 0 -0.96465188602627738 3.1927365572175219 0 0 0 0 -20.509260346069937 5.4606594126516939 0 5.4606594126516939 -2.0527448487173388 0 0 0 0 -0.34919957893595571 -0.53791412853090925 0 -0.53791412853090925 4.1754636829728469 0 0 0 0 -6.1829313154988075 9.3163239430132307 0 9.3163239430132307 -4.6552178494821419 0 0 0 0 9.6293140636102272 -6.1011244102755882 0 -6.1011244102755882 -5.9520460186375885 0 0 0 0 -9.2739289629439554 -9.7425396252074279 0 -9.7425396252074279 8.2977937215637212 0 0 0 0 -9.8520851254060471 -10.36480091910289 0 -10.36480091910289 35.268935679525384 0 0 0 0 0.15908536616122043 -2.0444114288737305 0 -2.0444114288737305 6.4616505608197485 0 0 0 0 0.9442291895934839 -0.91817546744465872 0 -0.91817546744465872 -0.61250858429533395 0 0 0 0 39.010006081812662 -37.462906602894236 0 -37.462906602894236 -10.99090989738761 0 0 0 0 -24.44811820827772 -3.6242340681164933 0 -3.6242340681164933 -3.2843202336091792 0 0 0 0 -28.286036301259287 9.3085651130286351 0 9.3085651130286351 -2.842371830914999 0 0 0 0 0.33452321756260939 -0.19744336525413253 0 -0.19744336525413253 0.11463754699228446 0 0 0 0 0.2539681055524583 -0.12639630448446226 0 -0.12639630448446226 0.41748900898208774 0 0 0 0 7.6397596147414504 -13.196165301405472 0 -13.196165301405472 25.006280800545937 0 0 0 0 0.52654530283427903 -11.784201563228635 0 -11.784201563228635 28.090221150916477 0 0 0 0 0.3214461685893184 5.3705291031928937 0 5.3705291031928937 21.079602308227095 0 0 0 0 -3.6748579179782723 -15.633639472509003 0 -15.633639472509003 -13.002986673953274 0 0 0 0 -1.4352236685491717 -6.350479372396876 0 -6.350479372396876 2.0920518790371716 0 0 0 0 41.355139481538345 26.240527705838758 0 26.240527705838758 4.6917021410408779 0 0 0 0 -10.166450491268961 15.623824965754466 0 15.623824965754466 20.742706445154909 0 0 0 0 0.19410057710719969 -2.0706294756171353 0 -2.0706294756171353 6.6474939639697013 0 0 0 0 11.113543448148516 -3.2950288177280527 0 -3.2950288177280527 -13.272798572350439 0 0 0 0 -20.680685470880462 1.8851628378324676 0 1.8851628378324676 15.988538830661128 0 0 0 0 -5.5295898606102583 -0.39727574431344692 0 -0.39727574431344692 -2.9414917732101458 0 0 0 0 -0.86212268888047805 0.10422595879628016 0 0.10422595879628016 0.22010531099715536 0 0 0 0 -0.34025393417160499 -2.5763938829968112 0 -2.5763938829968112 4.181128633964498 0 0 0 0 -25.863381493588804 -5.1825019350758339 0 -5.1825019350758339 4.721200584235703 0 0 0 0 -16.912352216033241 -13.073413771659034 0 -13.073413771659034 -1.2876100694052184 0 0 0 0 9.2295762260674792 2.0278601942936803 0 2.0278601942936803 3.8626323809530732 0 0 0 0 1.5004393888027607 2.0183659505710239 0 2.0183659505710239 -0.95978375798404159 0 0 0 0 -45.961814290175653 -0.39882874399199864 0 -0.39882874399199864 12.170540389217422 0 0 0 0 -46.162683146026097 -27.316610655353543 0 -27.316610655353543 3.6823801295367957 0 0 0 0 -0.093552330904134617 -0.03735639594574891 0 -0.03735639594574891 1.2773664675656349 0 0 0 0 -33.197105843143618 7.3200979173498126 0 7.3200979173498126 0.88698554382426664 0 0 0 0 -25.123680633617369 -3.0274932310367149 0 -3.0274932310367149 9.6528899972436193 0 0 0 0 -26.501502000609278 0.4280317758871206 0 0.4280317758871206 11.248613932635635 0 0 0 0 -25.637214549994951 -4.2341068528312462 0 -4.2341068528312462 -3.289386431924413 0 0 0 0 -67.388938034661805 9.8718143589312604 0 9.8718143589312604 30.815161309843461 0 0 0 0 -49.777140681125317 -4.2133956677587321 0 -4.2133956677587321 7.2747670995904627 0 0 0 0 -0.12136517319139883 -0.0084898035561249419 0 -0.0084898035561249419 1.6148424081905191 0 0 0 0 9.7438871707721546 3.0254521077417849 0 3.0254521077417849 9.0087008830087143 0 0 0 0 6.280422861428633 -12.78544625444647 0 -12.78544625444647 13.050218842199229 0 0 0 0 -12.411718466343245 -10.421803433559035 0 -10.421803433559035 3.0140710874838987 0 0 0 0 -12.147442989761885 5.2496428315726007 0 5.2496428315726007 2.6551560963725933 0 0 0 0 -9.2581084054767189 -2.1437837481034876 0 -2.1437837481034876 21.227593421413985 0 0 0 0 12.362380013382563 -6.6903711934910461 0 -6.6903711934910461 41.056128411947157 0 0 0 0 8.4477528317711403 20.061012187422875 0 20.061012187422875 26.86844377210673 0 0 0 0 -0.53347446232533002 -13.832020775230376 0 -13.832020775230376 30.333359885227651 0 0 0 0 42.866402943426692 2.2060137940320601 0 2.2060137940320601 10.095149027196385 0 0 0 0 14.181782353690551 3.7132724941293418 0 3.7132724941293418 10.471605015254227 0 0 0 0 22.199448720242003 -3.3322621297647856 0 -3.3322621297647856 6.8354067303389456 0 0 0 0 3.7831553091332353 2.5438282162690484 0 2.5438282162690484 14.249970618950101 0 0 0 0 7.0546562891224767 -10.266216192001593 0 -10.266216192001593 8.0961085894978169 0 0 0 0 8.6479848458614015 -4.6628968046661612 0 -4.6628968046661612 23.119611251121569 0 0 0 0 8.0515604525398317 -11.041494867159599 0 -11.041494867159599 6.7859981738092756 0 0 0 0 2.773142753757611 -14.887205772073685 0 -14.887205772073685 5.4453887991628562 0 0 0 0 -4.4293956454309864 -1.4465794965831265 0 -1.4465794965831265 3.2948071736263955 0 0 0 0 -11.166667368006756 0.24710303819620094 0 0.24710303819620094 -0.91094228697329527 0 0 0 0 7.8197600671734335 -0.80156256365853551 0 -0.80156256365853551 19.543123294843099 0 0 0 0 -1.0384812150275593 -23.89736279513636 0 -23.89736279513636 38.609316716207104 0 0 0 0 19.614879529919563 -22.322778109740284 0 -22.322778109740284 12.002118782716479 0 0 0 0 0.023836348997901768 -0.07733023139679851 0 -0.07733023139679851 0.45228626808012962 0 0 0 0 -14.64686010747721 4.901381657258753 0 4.901381657258753 33.553659382479964 0 0 0 0 -14.832729251039382 -22.158119610967333 0 -22.158119610967333 48.660981790525511 0 0 0 0 26.336275311845839 -24.32475692736989 0 -24.32475692736989 15.650820388525972 0 0 0 0 4.4128582082091725 -14.405622250638771 0 -14.405622250638771 1.1386815752375696 0 0 0 0 -1.0077452227726553 -4.700593897258841 0 -4.700593897258841 1.609589702622543 0 0 0 0 -7.3800001512081508 -10.83230087762422 0 -10.83230087762422 0.14304483769228682 0 0 0 0 -6.8617574077024983 -6.2701762048363889 0 -6.2701762048363889 1.3391237482042015 0 0 0 0 -23.721345942368771 2.7140202979026071 0 2.7140202979026071 7.0994133731537659 0 0 0 0 4.6952088058226309 2.6959905981548218 0 2.6959905981548218 -7.0628094654894085 0 0 0 0 -21.208900957789922 1.6108183352828291 0 1.6108183352828291 6.8893051674203889 0 0 0 0 0.0081678522331219972 -0.21487932081323557 0 -0.21487932081323557 1.3898855129868508 0 0 0 0 -10.001478145668784 -9.1441920932838912 0 -9.1441920932838912 -0.53267142072218121 0 0 0 0 -20.305466409197152 1.2594224398089864 0 1.2594224398089864 2.7343763284334273 0 0 0 0 -8.5545969237650752 -12.516832280991366 0 -12.516832280991366 -1.9956068585743196 0 0 0 0 -6.2260771609808216 -11.106150030769641 0 -11.106150030769641 -3.0256124775460194 0 0 0 0 -9.4914290252963838 -8.342884932769266 0 -8.342884932769266 -0.27994038005999755 0 0 0 0 -7.4496703200406955 -15.071428515727803 0 -15.071428515727803 -4.5579997818786069 0 0 0 0 -8.3458017592288343 -14.302354504814502 0 -14.302354504814502 -0.97770484680540903 0 0 0 0 -6.6997666234440203 -11.87486164578695 0 -11.87486164578695 -4.2689790326658112 0 0 0 0 -1.8372099380367217 -9.9691503130015917 0 -9.9691503130015917 -4.5897812360635726 0 0 0 0 -6.0391230998825449 -12.180015630779963 0 -12.180015630779963 -4.5451246937410303 0 0 0 0 -17.220181061200492 -11.296210866776164 0 -11.296210866776164 -0.8758357108799828 0 0 0 0 -16.385051845767521 -4.3507082077758241 0 -4.3507082077758241 9.1335806947408855 0 0 0 0 -21.965656720045047 -1.3227938793290832 0 -1.3227938793290832 8.1526023681653896 0 0 0 0 0.920275193119096 11.223100335892013 0 11.223100335892013 1.4934025142174505 0 0 0 0 -0.2438108952073077 0.10562465847114311 0 0.10562465847114311 0.03813069111398093 0 0 0 0 2.7011154202094332 0.37872137738060019 0 0.37872137738060019 -5.126205963524626 0 0 0 0 10.687990258890068 9.8897102258406449 0 9.8897102258406449 15.766334379621981 0 0 0 0 -0.1564898530653438 0.092302210806664675 0 0.092302210806664675 0.08558105724756615 0 0 0 0 -23.981151409790414 -17.891166915594567 0 -17.891166915594567 -5.1820009011116781 0 0 0 0 -8.0313296810754764 5.6776791931970365 0 5.6776791931970365 0.03280503741711982 0 0 0 0 -14.9890033369619 1.0319862743504018 0 1.0319862743504018 22.151651817888705 0 0 0 0 -5.9124567765672964 -11.769384825311136 0 -11.769384825311136 20.800898697671528 0 0 0 0 -4.7298469325747874 -7.7038559866650758 0 -7.7038559866650758 14.247380284088649 0 0 0 0 4.0905554752045532 0.99691959058304747 0 0.99691959058304747 16.959662203989865 0 0 0 0 6.1636816661786042 -1.477132818778955 0 -1.477132818778955 19.485371450304228 0 0 0 0 11.242592392661209 4.3891685223170498 0 4.3891685223170498 9.3533792222042393 0 0 0 0 1.7670304916809982 12.641686731662958 0 12.641686731662958 16.042131828307902 0 0 0 0 -0.0092381022730307905 2.6485078285629697 0 2.6485078285629697 20.386257752885285 0 0 0 0 -0.9591469258002121 12.948572784401563 0 12.948572784401563 6.5757704410098086 0 0 0 0 -2.4630453380445374 4.7227035093679888 0 4.7227035093679888 12.020085486588869 0 0 0 0 8.9293902915684384 4.905644240604488 0 4.905644240604488 2.2823782016412224 0 0 0 0 -0.18635071716670826 0.16951469816471132 0 0.16951469816471132 -0.078300917960660854 0 0 0 0 3.7977849533206154 9.4431084232846842 0 9.4431084232846842 4.5736999252499118 0 0 0 0 -3.2400062915336321 1.1095350266591595 0 1.1095350266591595 2.8542812612613488 0 0 0 0 -1.65344366334417 -1.6405263738320848 0 -1.6405263738320848 7.0726678413749404 0 0 0 0 -5.8283377131649559 7.2896324817593268 0 7.2896324817593268 4.8458128758848034 0 0 0 0 -0.51512680969426583 6.5939996140541552 0 6.5939996140541552 1.3700778188404001 0 0 0 0 27.555386528320241 -22.69955926655075 0 -22.69955926655075 6.9068166472479788 0 0 0 0 28.318359873628197 -18.134970106788387 0 -18.134970106788387 13.587278861790764 0 0 0 0 43.310187620212673 -22.821328659451865 0 -22.821328659451865 9.8201690190035151 0 0 0 0 -15.461178615232484 13.294741903823706 0 13.294741903823706 6.3267881954125187 0 0 0 0 -1.9593211431618549 -0.48778023803185278 0 -0.48778023803185278 9.4670184128112318 0 0 0 0 22.450508185940294 -13.191961495929718 0 -13.191961495929718 17.261909187569472 0 0 0 0 10.455411694320901 -26.212585240636145 0 -26.212585240636145 23.243874577920906 0 0 0 0 -1.6229810738356143 0.477672053171732 0 0.477672053171732 11.935442381182813 0 0 0 0 28.867604185674509 -23.924421013632582 0 -23.924421013632582 15.940912064762415 0 0 0 0 26.498367367720057 -17.995513312005485 0 -17.995513312005485 5.5701520768125192 0 0 0 0 -18.013707007671201 2.8461079783510286 0 2.8461079783510286 4.7594628742585883 0 0 0 0 -29.812366851073875 18.458060018009292 0 18.458060018009292 12.924364308455552 0 0 0 0 -13.870734150546696 13.530347788996551 0 13.530347788996551 0.69764822828074102 0 0 0 0 -17.225291317628944 4.8293979278023471 0 4.8293979278023471 14.244837073842064 0 0 0 0 48.222752712117654 -78.50388264532512 0 -78.50388264532512 29.93241770665918 0 0 0 0 105.52698826102733 -5.1926959441670988 0 -5.1926959441670988 -1.0166468955567325 0 0 0 0 -1.3761189563777703 0.35857484451485888 0 0.35857484451485888 14.524898264916018 0 0 0 0 -0.67655537681558975 1.1494450486492984 0 1.1494450486492984 1.3024795698110445 0 0 0 0 -33.474971442049593 11.233709038563575 0 11.233709038563575 23.795785440957843 0 0 0 0 -6.5401500894854507 38.657254128131626 0 38.657254128131626 30.641603130049393 0 0 0 0 -28.043575386831208 -0.31207743692129952 0 -0.31207743692129952 18.816646931980358 0 0 0 0 -26.978152451442838 0.16565566304871027 0 0.16565566304871027 21.44801147590988 0 0 0 0 -1.6714738185265141 1.6890150150041769 0 1.6890150150041769 10.037088960878197 0 0 0 0 -26.838077374799283 -0.13116581814222172 0 -0.13116581814222172 15.072937846998684 0 0 0 0 -20.342988674900425 3.3389174035273754 0 3.3389174035273754 12.188362392160343 0 0 0 0 -23.474304435318004 -0.16352244101994984 0 -0.16352244101994984 32.870207810961801 0 0 0 0 -4.3645089743042718 -8.3034557152950583 0 -8.3034557152950583 19.470283524518891 0 0 0 0 -1.6663077200679481 -5.1153089504050513 0 -5.1153089504050513 16.222095536535562 0 0 0 0 -16.312597759170785 8.6946707751494614 0 8.6946707751494614 22.479897963297844 0 0 0 0 -9.6167820060107942 -4.8715613897466028 0 -4.8715613897466028 27.168262817260256 0 0 0 0 -5.5750618822066826 7.5591619432179868 0 7.5591619432179868 52.124143306431506 0 0 0 0 18.555171900776486 12.446327279994875 0 12.446327279994875 25.336346028513617 0 0 0 0 17.592988308008898 -5.3805082446124288 0 -5.3805082446124288 20.760273301424149 0 0 0 0 4.2936343249513698 6.4749301178620158 0 6.4749301178620158 38.32882585027437 0 0 0 0 -15.255440517972715 31.544061921265893 0 31.544061921265893 7.3258867087697581 0 0 0 0 24.376641876082203 -33.95505959998718 0 -33.95505959998718 44.252688318016453 0 0 0 0 -0.058493844398942674 0.041163261930616812 0 0.041163261930616812 0.38212150382158683 0 0 0 0 0.1269947140053862 0.29840234393238241 0 0.29840234393238241 0.69555564408732096 0 0 0 0 -6.3576086729642611 0.8098585717179958 0 0.8098585717179958 3.0898486173275614 0 0 0 0 -10.794015802290687 -4.8786113285259489 0 -4.8786113285259489 7.3188607236990322 0 0 0 0 -29.307717385781871 13.746014524024758 0 13.746014524024758 8.0911662436938059 0 0 0 0 -4.5357851753835803 -6.4712732444932044 0 -6.4712732444932044 8.7735416165223796 0 0 0 0 -5.7866746284089459 -4.1001161665280961 0 -4.1001161665280961 9.8895087580531253 0 0 0 0 -4.8145432690218968 -5.2908727893609466 0 -5.2908727893609466 6.9464953866859105 0 0 0 0 -15.169280126553986 -0.64147771196985559 0 -0.64147771196985559 10.046881105039574 0 0 0 0 -6.0326068907793342 -2.5622467334960675 0 -2.5622467334960675 5.6988574223478281 0 0 0 0 -1.3870987516258488 1.7029331230826892 0 1.7029331230826892 7.8797953775535134 0 0 0 0 -7.0165483200138397 -9.6930731036782163 0 -9.6930731036782163 14.09353316331908 0 0 0 0 -15.548054644968033 -0.62901948114995321 0 -0.62901948114995321 11.849702469211479 0 0 0 0 -10.157318985827715 -2.3563573570572771 0 -2.3563573570572771 10.241983374064148 0 0 0 0 -16.968617757614766 -4.6025647282431237 0 -4.6025647282431237 12.544789771560318 0 0 0 0 -27.576340789718415 6.0499079428918776 0 6.0499079428918776 9.3299098430652521 0 0 0 0 -1.167404658605725 0.22047642794990097 0 0.22047642794990097 1.8591406243209967 0 0 0 0 -17.067751000940035 -3.0462210316252367 0 -3.0462210316252367 18.705690179191151 0 0 0 0 -17.991491781403511 2.245104502846516 0 2.245104502846516 11.688781654796912 0 0 0 0 1.3384047144845681 -3.8964227166579803 0 -3.8964227166579803 7.6914665551212238 0 0 0 0 8.0337053247070571 -15.741618272607866 0 -15.741618272607866 17.425093781495889 0 0 0 0 -11.224576899367094 -3.4308670796717706 0 -3.4308670796717706 6.605919056344419 0 0 0 0 -7.5584188603910718 1.0810724641978595 0 1.0810724641978595 -5.0803730642937808 0 0 0 0 -2.3471824576332141 0.26971656505353181 0 0.26971656505353181 4.3201659301532516 0 0 0 0 -0.63327501959388577 -0.9413911442399211 0 -0.9413911442399211 2.8721006005960277 0 0 0 0 -1.1328111824719134 -4.0359279014510321 0 -4.0359279014510321 -2.5954547217897925 0 0 0 0 -5.2841203390672771 7.1541104413199719 0 7.1541104413199719 11.064539337883616 0 0 0 0 9.4724178915150361 -14.120013054071478 0 -14.120013054071478 -23.47893058326008 0 0 0 0 -8.8207671822025873 -10.172974077820982 0 -10.172974077820982 -6.5072637366956769 0 0 0 0 -1.1923695028090167 -0.78349143165751567 0 -0.78349143165751567 1.0936638295462231 0 0 0 0 0.042342073596208077 -0.35967445680914167 0 -0.35967445680914167 1.0032824457445138 0 0 0 0 -2.3258885759495391 0.40881243519294586 0 0.40881243519294586 4.9687273763848907 0 0 0 0 -3.3588483832632239 -2.8069455411827882 0 -2.8069455411827882 2.1007897679555754 0 0 0 0 -0.38217183760439283 -0.83772262064550984 0 -0.83772262064550984 1.9596252365262607 0 0 0 0 -1.1569173796095251 -0.22146015577185629 0 -0.22146015577185629 2.1099648790416481 0 0 0 0 -18.38474581457649 1.5709650118778882 0 1.5709650118778882 10.299580662220251 0 0 0 0 -11.503514090858516 9.0483611647432554 0 9.0483611647432554 2.2302941195084713 0 0 0 0 -4.2347813090201498 4.1078635504193244 0 4.1078635504193244 9.3056372837017989 0 0 0 0 -10.720761129543462 -14.073237543318101 0 -14.073237543318101 11.694460919845369 0 0 0 0 -0.68150851648933819 -2.0129662288240535 0 -2.0129662288240535 -0.20073376832602463 0 0 0 0 -3.3508072318915305 -1.124585147174745 0 -1.124585147174745 5.9236310386966302 0 0 0 0 -17.33572958400768 -2.8587198314539819 0 -2.8587198314539819 10.567607083399707 0 0 0 0 -9.2085979581577817 -1.5185826052247648 0 -1.5185826052247648 13.077031493099639 0 0 0 0 2.3799791760892504 -11.774348187441319 0 -11.774348187441319 10.215292023047368 0 0 0 0 -6.6671986237515739 -3.6750707359974513 0 -3.6750707359974513 3.1321298637294603 0 0 0 0 -9.7859328915667447 -6.3201694829704138 0 -6.3201694829704138 9.8954048718788954 0 0 0 0 3.3525824815346539 -3.389741472649348 0 -3.389741472649348 55.447024183587928 0 0 0 0 -8.0556425134487064 23.113216346962645 0 23.113216346962645 21.172013923607665 0 0 0 0 -2.0481194431696004 -0.59681159576646969 0 -0.59681159576646969 4.3774894827747239 0 0 0 0 -6.0951587170827679 -8.2546187113375709 0 -8.2546187113375709 1.9837971378547081 0 0 0 0 23.499058368304361 11.380890297579299 0 11.380890297579299 40.018803178189046 0 0 0 0 16.932460721516691 30.995285576638707 0 30.995285576638707 -13.449984532278904 0 0 0 0 -6.8121352923030827 -1.2012614056748134 0 -1.2012614056748134 -9.1861819485302476 0 0 0 0 0.29801538839757202 -0.17464699205330447 0 -0.17464699205330447 -0.18757473868258501 0 0 0 0 -1.2218140193770068 -11.691691380750854 0 -11.691691380750854 -6.9356735552100872 0 0 0 0 -1.0203428956611447 -12.827686070761047 0 -12.827686070761047 -0.55578258112655021 0 0 0 0 -0.23969949835577609 -6.7116709810470638 0 -6.7116709810470638 -7.3012339623055595 0 0 0 0 -0.63022258376895479 -5.0819058558008692 0 -5.0819058558008692 -11.068558228265829 0 0 0 0 -0.41110657737851852 -5.2035099672557408 0 -5.2035099672557408 -0.59401281423014751 0 0 0 0 -3.7179085846731326 -1.7834607228414825 0 -1.7834607228414825 -2.3718841498830443 0 0 0 0 -37.251711453018487 13.564640372647318 0 13.564640372647318 33.29985106552158 0 0 0 0 -9.2832873007237424 -5.7298119525048605 0 -5.7298119525048605 4.8091961250029271 0 0 0 0 0.073057090364938043 -0.19126453719259173 0 -0.19126453719259173 2.2376351521275346 0 0 0 0 -5.9400610005871144 -12.872281652429137 0 -12.872281652429137 16.24837943847524 0 0 0 0 -20.30597308612014 -24.693008907013109 0 -24.693008907013109 6.0735309743104153 0 0 0 0 1.1128243539551477 -20.58475048543005 0 -20.58475048543005 4.2990424634990632 0 0 0 0 -3.0928344373310495 5.0160909148335122 0 5.0160909148335122 64.203090753890137 0 0 0 0 -3.122111271092983 6.6773665830905884 0 6.6773665830905884 -16.726000789972204 0 0 0 0 48.409286600558005 3.4980956645595143 0 3.4980956645595143 15.89072983346523 0 0 0 0 -0.06893248872268809 -0.075940296854664524 0 -0.075940296854664524 0.1277874252663409 0 0 0 0 41.892415937812984 14.862502660291057 0 14.862502660291057 17.400646547113865 0 0 0 0 30.498260881384756 -14.26418623495374 0 -14.26418623495374 44.162609199014696 0 0 0 0 -10.989289409093004 0.54730751935358057 0 0.54730751935358057 9.4119092706969241 0 0 0 0 2.7910150819022661 17.878216016322767 0 17.878216016322767 19.714548166395161 0 0 0 0 25.521128889582265 3.5014884470510879 0 3.5014884470510879 9.4256813747924753 0 0 0 0 9.5548988023637129 5.9331048932208432 0 5.9331048932208432 -2.7986397914473855 0 0 0 0 13.809110326711146 15.671714187551515 0 15.671714187551515 -1.0931399416326713 0 0 0 0 19.988202611962066 31.552179611972406 0 31.552179611972406 20.86979393947604 0 0 0 0 0.024980488745431805 -0.19576041998152649 0 -0.19576041998152649 0.83207826941438157 0 0 0 0 13.9917924495726 -16.7960212070534 0 -16.7960212070534 21.518196710423581 0 0 0 0 0.92416971406457193 5.7994749620065704 0 5.7994749620065704 54.919595463899896 0 0 0 0 31.758724210797993 -27.42579966586618 0 -27.42579966586618 24.864698470068106 0 0 0 0 44.496594948682549 36.218484435328719 0 36.218484435328719 23.974849366624767 0 0 0 0 27.312567153350223 -7.2971211335830048 0 -7.2971211335830048 -4.6876880552681541 0 0 0 0 3.732263143810485 30.330450228908376 0 30.330450228908376 -31.514692846349135 0 0 0 0 -10.857968723727936 4.4962637637936496 0 4.4962637637936496 5.8012439268832168 0 0 0 0 -26.613290149443912 33.156223392745233 0 33.156223392745233 -5.3240779194966308 0 0 0 0 1.4640664443162741 1.2001317497892998 0 1.2001317497892998 -0.98342356938997 0 0 0 0 -8.823713931786699 5.8765409456300404 0 5.8765409456300404 -15.749971658267896 0 0 0 0 -9.0511611860882226 13.040440833223329 0 13.040440833223329 -4.4245918643173354 0 0 0 0 6.46891504435348 10.105178731068008 0 10.105178731068008 -12.018381938315542 0 0 0 0 8.3160503269608057 -1.9385324978393328 0 -1.9385324978393328 8.6407723564389016 0 0 0 0 8.6428806142810259 -3.7509462496309425 0 -3.7509462496309425 3.6425017385103899 0 0 0 0 12.194843478467732 4.7910438286112367 0 4.7910438286112367 -8.4741108328089467 0 0 0 0 14.437093949252642 -6.0394683691984028 0 -6.0394683691984028 3.7149244127522252 0 0 0 0 -1.09298553092529 7.4641170152349332 0 7.4641170152349332 7.8967144846701558 0 0 0 0 -0.84267093522056769 6.0721332510638604 0 6.0721332510638604 13.43120608348363 0 0 0 0 9.3330810581148853 11.028928060943599 0 11.028928060943599 -3.2032834377523614 0 0 0 0 3.3148797134562447 4.4496892949119413 0 4.4496892949119413 1.8677238661849023 0 0 0 0 7.9417254378685129 3.2667176466457022 0 3.2667176466457022 -16.345402549850405 0 0 0 0 7.0463793047171066 32.055846920134172 0 32.055846920134172 -1.8244367861821047 0 0 0 0 -9.0093207355608342 4.5518926060030935 0 4.5518926060030935 28.555281756737259 0 0 0 0 -9.3451679177415485 7.4282447022414999 0 7.4282447022414999 79.503648685536973 0 0 0 0 -2.4571939448121611 21.96703206930124 0 21.96703206930124 38.28555140354365 0 0 0 0 -6.3433380068828455 5.6892254113531635 0 5.6892254113531635 21.857658351679675 0 0 0 0 -3.7540217072195219 10.826541639839661 0 10.826541639839661 16.476650088152383 0 0 0 0 -4.3639843226503672 12.695386606687862 0 12.695386606687862 10.865055765838861 0 0 0 0 -6.6849010858375095 -3.5358101773890667 0 -3.5358101773890667 12.02732797180397 0 0 0 0 -6.528658419995395 3.7030258640306783 0 3.7030258640306783 17.952381465807775 0 0 0 0 -6.277913284814872 -7.1138346029247259 0 -7.1138346029247259 17.246325935250184 0 0 0 0 -6.5224023438756866 3.3930101497816167 0 3.3930101497816167 28.051535442657041 0 0 0 0 -6.2581628485929741 -7.9853465259666336 0 -7.9853465259666336 30.15985202402635 0 0 0 0 5.8966858849436221 -11.782437834122902 0 -11.782437834122902 9.5654407759393507 0 0 0 0 6.2917960314248944 -3.149179726420698 0 -3.149179726420698 -0.4484477580535895 0 0 0 0 -2.1445092975338866 -2.9202264977593586 0 -2.9202264977593586 2.0715059036028833 0 0 0 0 -0.38626981455315246 -6.0332805894043986 0 -6.0332805894043986 -5.6696240008968743 0 0 0 0 -0.54864266963579666 -2.8618537040783849 0 -2.8618537040783849 -5.1136775578925153 0 0 0 0 1.9261837214957609 -4.7147811295046722 0 -4.7147811295046722 -3.7299995534922346 0 0 0 0 0.70457321943297302 0.39845336699181644 0 0.39845336699181644 -1.5076106671658636 0 0 0 0 -5.4737065099749316 -4.6591151182485646 0 -4.6591151182485646 -1.6325424341266626 0 0 0 0 -1.6437661235996988 -0.95663230962089685 0 -0.95663230962089685 4.656925632775355 0 0 0 0 0.73777897557919447 0.47405710621362651 0 0.47405710621362651 1.4550777646704809 0 0 0 0 -8.6584450979726739 -12.270268231992077 0 -12.270268231992077 1.1403725087438943 0 0 0 0 0.029499280583507925 -8.4398087353433766 0 -8.4398087353433766 0.34481574923484004 0 0 0 0 -9.9130150610774308 -5.8986402398295468 0 -5.8986402398295468 -0.27117767425079364 0 0 0 0 -12.313384822066837 -4.1071835957145595 0 -4.1071835957145595 -1.310997797671007 0 0 0 0 -0.78872093642939944 -2.6380613373203232 0 -2.6380613373203232 1.4950480060890641 0 0 0 0 0.54713943116007613 -0.427236265173633 0 -0.427236265173633 1.9626525852568193 0 0 0 0 -0.76138999401177898 -2.4584058372483923 0 -2.4584058372483923 0.49047084500489291 0 0 0 0 -2.0915305955431904 -2.0100428020314212 0 -2.0100428020314212 1.1283340467816743 0 0 0 0 8.6401046289802252 2.0952472112430769 0 2.0952472112430769 1.1060272077565969 0 0 0 0 -0.16042139766864238 -2.2619819817737152 0 -2.2619819817737152 -0.84777341774497472 0 0 0 0 0.1609571402936103 -0.075258052725629909 0 -0.075258052725629909 0.051945519046263655 0 0 0 0 11.652012824927169 40.685188143932464 0 40.685188143932464 -16.903838983438618 0 0 0 0 -1.1926432203084842 -1.5682780829644578 0 -1.5682780829644578 5.3564590106529515 0 0 0 0 -8.5705153878947158 -4.2943486693022805 0 -4.2943486693022805 12.073552591311454 0 0 0 0 24.98355132081997 15.64542946574511 0 15.64542946574511 29.14010611132835 0 0 0 0 0.67735781087054736 0.70942215816448417 0 0.70942215816448417 1.7933241659516845 0 0 0 0 -4.5168467935335599 0.4868825075092218 0 0.4868825075092218 10.018720447900705 0 0 0 0 1.5243201344449062 5.3125914018260119 0 5.3125914018260119 13.71425086432555 0 0 0 0 13.97742889220126 -9.2704385166762222 0 -9.2704385166762222 43.821896585761351 0 0 0 0 2.2395531458636242 1.237073459156818 0 1.237073459156818 1.3729878776025544 0 0 0 0 -2.0514646596798798 0.30809339177130823 0 0.30809339177130823 18.144579339012125 0 0 0 0 0.76295974158909408 3.8598066132627729 0 3.8598066132627729 3.063545073288938 0 0 0 0 -3.7611077025761688 5.2137859522704275 0 5.2137859522704275 16.734722611033249 0 0 0 0 2.197279556207596 4.2151676395140463 0 4.2151676395140463 1.0305831744464706 0 0 0 0 0.10308590678699048 -0.33985537694711709 0 -0.33985537694711709 1.6778192401825294 0 0 0 0 -19.28107851500306 6.9529234738065497 0 6.9529234738065497 15.636531529187778 0 0 0 0 -22.106890789122417 1.4798965745694659 0 1.4798965745694659 14.960192445171742 0 0 0 0 2.6559739963854554 -1.9453428314609482 0 -1.9453428314609482 14.195704046243918 0 0 0 0 -0.34780613812188665 2.6504538129591602 0 2.6504538129591602 5.6003964733159926 0 0 0 0 -3.3655588626534154 2.7835721591691254 0 2.7835721591691254 -8.0092359750810829 0 0 0 0 -0.1467526004559141 -0.85014411712470528 0 -0.85014411712470528 5.4453925693068683 0 0 0 0 -18.152286835992072 -1.8005902372178753 0 -1.8005902372178753 17.797197217849316 0 0 0 0 -0.92371928514465473 -1.6553235022766657 0 -1.6553235022766657 7.5098471491730727 0 0 0 0 -2.3732014231009089 12.441914676041051 0 12.441914676041051 16.255738014744566 0 0 0 0 -16.460624949085968 4.0340278538869825 0 4.0340278538869825 28.717085900515485 0 0 0 0 4.2454209033439838 1.9340325157490952 0 1.9340325157490952 1.353705844752767 0 0 0 0 3.3525565850526391 4.8402462117728646 0 4.8402462117728646 18.387820288064177 0 0 0 0 -37.330750178427479 -4.9565956144761003 0 -4.9565956144761003 31.093006722466271 0 0 0 0 -52.891793407785855 50.745447160803906 0 50.745447160803906 -14.039075522849089 0 0 0 0 -8.313226694875766 -9.3852413411314046 0 -9.3852413411314046 1.8970388407369683 0 0 0 0 8.4262381387842531 -10.522912703947689 0 -10.522912703947689 -2.0490793106509955 0 0 0 0 21.901258659565428 28.66734190526131 0 28.66734190526131 -15.049138808302814 0 0 0 0 0.087946054840986498 -0.59530467663576436 0 -0.59530467663576436 3.8077155965096949 0 0 0 0 -17.346883856843078 12.380202736877436 0 12.380202736877436 13.894727532444449 0 0 0 0 -23.718851275110751 0.031196591082789382 0 0.031196591082789382 -9.8466062756888277 0 0 0 0 6.3455121668948777 -8.4206758768959844 0 -8.4206758768959844 -3.8621397473107208 0 0 0 0 -12.145872713457834 -0.39698762861144132 0 -0.39698762861144132 8.1934156786956009 0 0 0 0 -23.651765954357984 9.4003188371329998 0 9.4003188371329998 11.187393254758717 0 0 0 0 11.21697785030176 -3.0029246019439597 0 -3.0029246019439597 2.9880179220873515 0 0 0 0 0.050736426589020445 -0.37055057997204388 0 -0.37055057997204388 2.4849976301681025 0 0 0 0 26.849526570017474 12.599716333385459 0 12.599716333385459 4.0720244533349614 0 0 0 0 0.48640444350962753 -2.4731131773924062 0 -2.4731131773924062 0.28336685524664063 0 0 0 0 -2.3376494007931115 -4.6640390986622151 0 -4.6640390986622151 -0.10427609598991694 0 0 0 0 -0.67062107609592658 -2.2381977315994845 0 -2.2381977315994845 1.7206629297152176 0 0 0 0 0.2636256446102152 -2.6111038378749072 0 -2.6111038378749072 -0.44522898199841165 0 0 0 0 0.043778503865905982 -0.19158481706704977 0 -0.19158481706704977 1.4597923112854332 0 0 0 0 4.2190743836889055 -1.8948437919516437 0 -1.8948437919516437 0.83472808858823555 0 0 0 0 3.6627205665604379 -1.1935334170357237 0 -1.1935334170357237 1.9253123540584056 0 0 0 0 23.317497894350652 -11.357072176670044 0 -11.357072176670044 6.9074274658414652 0 0 0 0 40.187682786120376 27.746336168711423 0 27.746336168711423 24.966306877755187 0 0 0 0 0.036176715743322374 -0.033395486378373196 0 -0.033395486378373196 0.50313774426901148 0 0 0 0 13.545157712410287 3.6673316151468498 0 3.6673316151468498 9.0147283259011601 0 0 0 0 -15.307000057460044 6.5447887050144118 0 6.5447887050144118 15.921632753272206 0 0 0 0 7.9730261245163092 15.26447485600147 0 15.26447485600147 13.407693354741696 0 0 0 0 0.37579497827255182 12.036117126088357 0 12.036117126088357 11.709161912478521 0 0 0 0 29.473064193885079 14.137077488532668 0 14.137077488532668 7.0352410833911563 0 0 0 0 -0.036186713280836058 0.035063815524530417 0 0.035063815524530417 0.45714181319681302 0 0 0 0 -14.365269537697031 -5.8880491655654623 0 -5.8880491655654623 -39.274392339619226 0 0 0 0 -11.726451666223511 18.215150394364628 0 18.215150394364628 14.962730643371287 0 0 0 0 -27.355981514351129 18.595778126056757 0 18.595778126056757 29.710616157706681 0 0 0 0 -32.241146130531206 8.7863950825621941 0 8.7863950825621941 17.586814037646946 0 0 0 0 -22.786333787152785 13.691599781627701 0 13.691599781627701 13.019583635539675 0 0 0 0 -15.075004877282481 7.5884257922483584 0 7.5884257922483584 16.330901773060759 0 0 0 0 -23.928519602351415 1.477416447508574 0 1.477416447508574 -5.0610071198316291 0 0 0 0 -29.235907337832714 -8.6117028092694454 0 -8.6117028092694454 -0.33438508160065084 0 0 0 0 -28.516327970316524 -2.527975969448562 0 -2.527975969448562 0.71823748919450736 0 0 0 0 -1.0696266205772269 -1.0161121514916989 0 -1.0161121514916989 0.35331486533117129 0 0 0 0 -23.18726681004091 -7.8089269531210448 0 -7.8089269531210448 -0.32979937581694685 0 0 0 0 -22.046605503360198 -0.1240349140307444 0 -0.1240349140307444 1.5269680588553456 0 0 0 0 -0.54732035186009398 -5.9131922857441168 0 -5.9131922857441168 3.7043573005776125 0 0 0 0 12.184458154362689 -1.9564946264073342 0 -1.9564946264073342 -6.0758919372983655 0 0 0 0 -4.8969805145045484 -0.76793007183732698 0 -0.76793007183732698 2.3195695024041925 0 0 0 0 -0.34317733127245925 -0.63821572744440425 0 -0.63821572744440425 3.962729966547009 0 0 0 0 -0.94616400487194308 0.42113713479170301 0 0.42113713479170301 3.2281510316422128 0 0 0 0 -0.10612778790404583 -0.16929705625513325 0 -0.16929705625513325 3.0855787686137717 0 0 0 0 -9.1687071005451202 -3.6143211572621112 0 -3.6143211572621112 7.4026440941133842 0 0 0 0 3.6111456279421148 -6.6145326999460394 0 -6.6145326999460394 3.2854004551281832 0 0 0 0 5.5776679804154696 -12.32909949871032 0 -12.32909949871032 8.3537013828336057 0 0 0 0 -2.7448831588424305 -1.2158528538129758 0 -1.2158528538129758 2.3416674375985167 0 0 0 0 0.040738560996891063 -0.60710380189303903 0 -0.60710380189303903 3.1896296609718959 0 0 0 0 -0.11101594703486441 0.16540109008658721 0 0.16540109008658721 3.1942755499244413 0 0 0 0 -14.867517495632953 0.9537136205144634 0 0.9537136205144634 9.4718334218632663 0 0 0 0 -8.1042532469938351 4.4395281808810978 0 4.4395281808810978 2.7928393874391872 0 0 0 0 -0.97523187816537416 -2.2799543686705874 0 -2.2799543686705874 6.3553399406064273 0 0 0 0 -1.1397812817198201 -2.6587040857148168 0 -2.6587040857148168 14.855810639373885 0 0 0 0 -0.3932103700948697 -0.1740493116063071 0 -0.1740493116063071 0.40889047128880662 0 0 0 0 -57.135094374619769 -5.3586171083773024 0 -5.3586171083773024 20.878086939301284 0 0 0 0 -0.77060433411231111 -0.40185469752174363 0 -0.40185469752174363 0.52529907864067127 0 0 0 0 -27.470436495396825 55.558553297427352 0 55.558553297427352 48.376313389315328 0 0 0 0 -21.206747361748285 3.0332930481099538 0 3.0332930481099538 -22.882484608829145 0 0 0 0 -58.883357426646512 30.800417313391335 0 30.800417313391335 -7.1746014007330814 0 0 0 0 10.078105085013448 -6.3812760668039346 0 -6.3812760668039346 10.559499601953576 0 0 0 0 15.167653285986546 -31.771658275044501 0 -31.771658275044501 24.581909804855968 0 0 0 0 -19.187775049822449 17.553980701192359 0 17.553980701192359 0.83852260318781191 0 0 0 0 -26.800137345363964 -8.1099566948023494 0 -8.1099566948023494 32.951033000323378 0 0 0 0 40.88129752848161 -46.636635161853064 0 -46.636635161853064 0.7727493793645408 0 0 0 0 0.023111671358076125 0.025350267776317992 0 0.025350267776317992 -0.033159383713126545 0 0 0 0 -12.957285418158335 15.517735716151947 0 15.517735716151947 19.456240420989161 0 0 0 0 -31.863286051951292 6.5467410700888422 0 6.5467410700888422 18.000420188343924 0 0 0 0 -33.486017142371345 -3.9775446913098449 0 -3.9775446913098449 5.9682870901997376 0 0 0 0 -22.881852786150205 9.7903031834630383 0 9.7903031834630383 3.1777219951381994 0 0 0 0 -19.120677952898575 3.8307063697557169 0 3.8307063697557169 10.130607543324004 0 0 0 0 -16.237947725404297 19.626507748350377 0 19.626507748350377 17.710345788700579 0 0 0 0 -7.7860056613112647 15.885059612322948 0 15.885059612322948 12.295057196747621 0 0 0 0 -3.4908567822780014 10.815416325011029 0 10.815416325011029 31.772213912212464 0 0 0 0 0.37560955064571999 -12.461866158235352 0 -12.461866158235352 37.581254352173346 0 0 0 0 2.441487579471584 -5.3126291226462854 0 -5.3126291226462854 24.172325015862953 0 0 0 0 0.55988887823849609 -6.4570898564979871 0 -6.4570898564979871 23.555998484234806 0 0 0 0 0.49339268414843246 1.1645046355086848 0 1.1645046355086848 1.8594603811570423 0 0 0 0 -0.61872459416820735 0.03092269045342988 0 0.03092269045342988 0.73931067810782736 0 0 0 0 -16.094078487283994 -5.0251729247074763 0 -5.0251729247074763 0.44425451698589313 0 0 0 0 -21.767233800181373 -8.5255924970833803 0 -8.5255924970833803 -1.521145769418581 0 0 0 0 0.10034994773837624 0.26082939264688321 0 0.26082939264688321 2.2754474644807487 0 0 0 0 5.2149268961159265 -3.5363426064973282 0 -3.5363426064973282 4.591263960897777 0 0 0 0 0.47399249984517738 0.38002131703817099 0 0.38002131703817099 0.76990472723603709 0 0 0 0 -7.1869722108091878 7.3018780254733429 0 7.3018780254733429 -2.2589820187076839 0 0 0 0 0.074178677385958736 0.36563324278540676 0 0.36563324278540676 2.0102031308979349 0 0 0 0 -0.0045586291680770885 0.68479161724097182 0 0.68479161724097182 1.8237800206368249 0 0 0 0 -0.054510246599738577 0.17964119060006034 0 0.17964119060006034 2.5277754225850373 0 0 0 0 -0.83200687996939493 0.36887915424267703 0 0.36887915424267703 2.0486853176080331 0 0 0 0 -2.7459896457127115 5.0965092858950811 0 5.0965092858950811 -1.5773241448896442 0 0 0 0 -3.6623129341293748 9.9496597167171785 0 9.9496597167171785 -17.317803767970872 0 0 0 0 -10.054100249528657 9.8472383757870148 0 9.8472383757870148 4.3588536247807497 0 0 0 0 -10.524182713726134 2.6730247638315632 0 2.6730247638315632 20.112891004555422 0 0 0 0 -10.921147477864565 2.4205350040829217 0 2.4205350040829217 14.487027234732523 0 0 0 0 -6.9297597053450772 6.0611624782454783 0 6.0611624782454783 2.2074435255308344 0 0 0 0 -10.790513910264838 2.2514075522969961 0 2.2514075522969961 1.8463273164270504 0 0 0 0 -1.6056357990425738 1.1140565993773635 0 1.1140565993773635 5.3925075888619176 0 0 0 0 -0.14949451774726397 -0.043959016648599913 0 -0.043959016648599913 2.7493355836889748 0 0 0 0 -6.4168346094929518 -3.8526778862578794 0 -3.8526778862578794 4.1155672596451041 0 0 0 0 -0.7961692987845872 0.33432246146230682 0 0.33432246146230682 3.9269983287813375 0 0 0 0 -0.42352979899467691 -1.8431097816992406 0 -1.8431097816992406 4.9931387492761132 0 0 0 0 1.3589758871897075 -3.7632698980742134 0 -3.7632698980742134 4.2122247812658316 0 0 0 0 3.6693839514628781 -6.0925950549390109 0 -6.0925950549390109 5.9608740987605415 0 0 0 0 4.0509345889658661 -5.6284034474192595 0 -5.6284034474192595 4.7280437168519711 0 0 0 0 -0.30652322360869277 -1.7451840168105264 0 -1.7451840168105264 4.8168703972114599 0 0 0 0 0.77193849790329239 -4.0490626532846363 0 -4.0490626532846363 4.3057699043729372 0 0 0 0 1.8888018128591924 -1.6583874148618634 0 -1.6583874148618634 3.3558647476311307 0 0 0 0 5.8845895294068393 -5.4922582853705535 0 -5.4922582853705535 1.6291802281812124 0 0 0 0 5.5070492112590301 -5.0118763599184604 0 -5.0118763599184604 4.1784085568411911 0 0 0 0 12.845099785669406 -5.7592237344852037 0 -5.7592237344852037 1.5508572928265494 0 0 0 0 5.9937068351600473 -1.845231666105974 0 -1.845231666105974 1.314837455181987 0 0 0 0 3.8975785465538308 -2.3971010902641865 0 -2.3971010902641865 3.5083504484150581 0 0 0 0 3.8136968747391098 0.79842453839319205 0 0.79842453839319205 2.8744739964931796 0 0 0 0 8.8060236438942638 -1.7620871970866574 0 -1.7620871970866574 1.3108182953810683 0 0 0 0 17.721934829265678 3.496404205966428 0 3.496404205966428 -0.14040579615902971 0 0 0 0 -0.13863767702597282 0.2307245826709492 0 0.2307245826709492 2.503805413382274 0 0 0 0 -1.3789430495015012 -0.12379937915284245 0 -0.12379937915284245 4.3151773387207868 0 0 0 0 1.051433680434009 0.47446130612752313 0 0.47446130612752313 2.6420426496297296 0 0 0 0 1.9693976310133223 -1.3317054550643661 0 -1.3317054550643661 2.2175221580209836 0 0 0 0 2.7816087362607078 -0.71937752673966315 0 -0.71937752673966315 -0.025753141768291243 0 0 0 0 0.22801262368236574 -0.18959104724959674 0 -0.18959104724959674 1.7992815946104201 0 0 0 0 8.1086957530877157 -12.69146036125494 0 -12.69146036125494 23.601549210593475 0 0 0 0 0.73466739481218379 -0.22124892801842222 0 -0.22124892801842222 0.32648858249420165 0 0 0 0 -0.91113413797503817 -0.63062306429628734 0 -0.63062306429628734 2.6097833646017534 0 0 0 0 0.28440051725163384 0.10782651956958222 0 0.10782651956958222 0.098116360765800437 0 0 0 0 0.27892422993302335 -0.09158241574242254 0 -0.09158241574242254 0.063826875377186454 0 0 0 0 3.4167096178774159 -1.8652655754522129 0 -1.8652655754522129 2.0402941791521698 0 0 0 0 33.3292874953693 10.614820083948871 0 10.614820083948871 1.7239765620188336 0 0 0 0 6.4390607028670033 2.9396164131671867 0 2.9396164131671867 1.9257479625593987 0 0 0 0 12.44047026919548 -16.321802133401434 0 -16.321802133401434 60.385287986588082 0 0 0 0 -2.6022103778198868 -1.8578638391800268 0 -1.8578638391800268 50.661282158485847 0 0 0 0 0.80527510444301242 -4.0175950174925674 0 -4.0175950174925674 46.102094177209437 0 0 0 0 2.7633504309531673 -10.216076774857584 0 -10.216076774857584 39.680401570311005 0 0 0 0 -1.2277843647255438 1.0365881288644232 0 1.0365881288644232 41.316066774637875 0 0 0 0 -18.42463980577655 19.030209722494874 0 19.030209722494874 54.946762520034099 0 0 0 0 -10.132738550218384 26.864413768380473 0 26.864413768380473 32.87642479949136 0 0 0 0 -0.012982592144020514 0.011390472931453788 0 0.011390472931453788 0.29438163100849124 0 0 0 0 4.3759358756504314 -6.6641625276442937 0 -6.6641625276442937 10.208253617776791 0 0 0 0 1.8830553684318208 18.876247449255061 0 18.876247449255061 -5.930582998538739 0 0 0 0 2.3557593813257682 23.5405150147526 0 23.5405150147526 37.76979612544892 0 0 0 0 -2.6761647496924752 11.486345320797227 0 11.486345320797227 63.791451336463069 0 0 0 0 5.0533049777155696 18.499662490132323 0 18.499662490132323 47.003230552527384 0 0 0 0 12.404107995983864 0.94760419253907457 0 0.94760419253907457 40.946248883954922 0 0 0 0 44.526629713723267 1.2272099096426246 0 1.2272099096426246 40.689389305362965 0 0 0 0 24.087597241349691 23.344551786693955 0 23.344551786693955 39.14300434863253 0 0 0 0 11.240266144962561 14.926197397086071 0 14.926197397086071 45.80933213642129 0 0 0 0 11.205181455495161 -4.1796294462410515 0 -4.1796294462410515 4.0454219504827051 0 0 0 0 12.879899003626662 4.4964458960766933 0 4.4964458960766933 48.955531500946563 0 0 0 0 38.994782175556807 -22.380084339469249 0 -22.380084339469249 6.5570055488060461 0 0 0 0 20.569991328292751 -18.203799397197145 0 -18.203799397197145 -6.8438519027986331 0 0 0 0 18.940781451840891 -13.091820810434001 0 -13.091820810434001 -4.4084475952331559 0 0 0 0 19.506041013913332 -8.8045123150841391 0 -8.8045123150841391 -2.2218829199646279 0 0 0 0 0.011949748850249194 4.1505117311662616 0 4.1505117311662616 -5.9715203771484084 0 0 0 0 2.3562410579600623 -14.369919496159127 0 -14.369919496159127 -2.8128819580888376 0 0 0 0 -3.2565955033852134 -17.645161675882264 0 -17.645161675882264 1.8107664070339524 0 0 0 0 0.02719845631992257 -18.365799136081478 0 -18.365799136081478 -4.1478425022796728 0 0 0 0 8.2260002102822156 -9.6924332042181049 0 -9.6924332042181049 -28.293799327526358 0 0 0 0 3.5632746794688615 -24.89452927698585 0 -24.89452927698585 -5.0715313270338811 0 0 0 0 11.038297598180208 -0.92281815855312743 0 -0.92281815855312743 -3.009021763171404 0 0 0 0 -8.1647115939758095 -28.963161968184977 0 -28.963161968184977 -14.730513816757593 0 0 0 0 -0.020183736308586376 -0.093974980010537501 0 -0.093974980010537501 0.46260579905288068 0 0 0 0 -12.765883705367612 -0.064134662728172032 0 -0.064134662728172032 4.1418766207279987 0 0 0 0 -21.614430330055956 -13.89809313841215 0 -13.89809313841215 5.8998898580975947 0 0 0 0 -1.5828026871650862 0.067969069297760143 0 0.067969069297760143 -0.47779388217895757 0 0 0 0 -12.791754432686361 -15.371053916929668 0 -15.371053916929668 3.2807905372101231 0 0 0 0 11.057452406423508 -15.234124584909296 0 -15.234124584909296 -4.6082422278395825 0 0 0 0 -2.4429547905297362 -12.261152508644955 0 -12.261152508644955 -1.2528150158250355 0 0 0 0 4.9316132182752268 -13.331289619249901 0 -13.331289619249901 -1.5616070781034068 0 0 0 0 -5.4734749258173352 -5.9487942068844859 0 -5.9487942068844859 -1.341684895567596 0 0 0 0 5.7834852676867001 -6.514928659034922 0 -6.514928659034922 -1.8213010137533274 0 0 0 0 3.8867089285020171 -5.8241059469510219 0 -5.8241059469510219 0.64673491760913748 0 0 0 0 11.500462749378144 -10.037681618261558 0 -10.037681618261558 -2.2351531481617712 0 0 0 0 13.141521539300626 -11.579940316325519 0 -11.579940316325519 -2.0403215950232152 0 0 0 0 13.348034160348778 -10.523252349423728 0 -10.523252349423728 -0.06142870728217531 0 0 0 0 8.7791609326362163 -4.1608725055521063 0 -4.1608725055521063 -1.6817673727200599 0 0 0 0 30.796558041923646 3.787343411531765 0 3.787343411531765 -4.0021423140042316 0 0 0 0 4.5925344144338194 9.9020683569332277 0 9.9020683569332277 -5.4258877340544132 0 0 0 0 25.897383137725427 -7.9961390967318948 0 -7.9961390967318948 -5.6483135971029697 0 0 0 0 15.508761342855312 -13.124949978016957 0 -13.124949978016957 -4.4408973369208979 0 0 0 0 12.838356340736922 -10.769729461335373 0 -10.769729461335373 -2.9745552219646925 0 0 0 0 11.557779780570581 -12.467819990720386 0 -12.467819990720386 -1.462179372596438 0 0 0 0 13.811944867668458 -12.985021587686788 0 -12.985021587686788 -1.4245727300640283 0 0 0 0 13.349759101202137 -11.695673586908413 0 -11.695673586908413 1.3437247752372059 0 0 0 0 16.710953127372633 -8.7719012276011199 0 -8.7719012276011199 -2.8943023059200641 0 0 0 0 11.246406499889719 -8.1355232781425002 0 -8.1355232781425002 -1.8008835300242936 0 0 0 0 13.362370963078241 -10.944982886147045 0 -10.944982886147045 1.0678983202087693 0 0 0 0 9.525664076740572 -8.6905002541279828 0 -8.6905002541279828 4.1088617454006453 0 0 0 0 9.4916126076484648 -9.06744319509653 0 -9.06744319509653 1.7056757634272799 0 0 0 0 12.199238165642207 -11.970891103643226 0 -11.970891103643226 4.7893884528028821 0 0 0 0 12.435906322618306 -11.340192928491433 0 -11.340192928491433 1.3080768324944074 0 0 0 0 13.499146846772028 -13.294169085118483 0 -13.294169085118483 4.2181331246465561 0 0 0 0 14.765592694929126 -12.72400470681896 0 -12.72400470681896 4.1497284815177409 0 0 0 0 10.71330893320734 -11.934777252710774 0 -11.934777252710774 7.4812208053917857 0 0 0 0 9.5998523285343058 -11.966974384351488 0 -11.966974384351488 11.028004373642034 0 0 0 0 13.507515517441632 -12.303615921105575 0 -12.303615921105575 7.526719234068878 0 0 0 0 9.7942542831828359 -10.332278995076194 0 -10.332278995076194 6.8376488362264354 0 0 0 0 10.646008761605962 -12.173626579279244 0 -12.173626579279244 7.3183981488473364 0 0 0 0 8.4140607764197597 -9.7184269826648233 0 -9.7184269826648233 4.7159144468744216 0 0 0 0 5.7606234315830616 -10.176470582664479 0 -10.176470582664479 10.09057818713336 0 0 0 0 4.8696648540622824 -7.1304302808566717 0 -7.1304302808566717 6.6050944340713613 0 0 0 0 4.6674348924441986 -7.49986220012579 0 -7.49986220012579 7.0455478206640691 0 0 0 0 8.5759286438215057 -9.2992841540408335 0 -9.2992841540408335 5.379472903048736 0 0 0 0 6.4366505718070357 -7.299465218471596 0 -7.299465218471596 3.6840873271830787 0 0 0 0 -3.9506573587276459 -14.450348722647504 0 -14.450348722647504 15.704887463143677 0 0 0 0 0.017774980700362028 -0.077879716625115503 0 -0.077879716625115503 0.16669193054661946 0 0 0 0 39.398886795905725 -16.282229918206667 0 -16.282229918206667 0.92415605980204418 0 0 0 0 -0.0309194573730322 -0.74444974125435692 0 -0.74444974125435692 -0.060379142385954765 0 0 0 0 36.786517456556076 -3.8381002713394992 0 -3.8381002713394992 -5.7353856399349752 0 0 0 0 31.873212687101741 -5.5670882073718531 0 -5.5670882073718531 -1.9556480289829778 0 0 0 0 19.703648758075502 -3.230655206796655 0 -3.230655206796655 -2.1485403309343383 0 0 0 0 15.210852436683673 -9.8118450663432668 0 -9.8118450663432668 1.8971599170108675 0 0 0 0 21.522271248679573 -6.9496966608676303 0 -6.9496966608676303 -1.0714449937640893 0 0 0 0 16.320702403731389 -11.958959683950525 0 -11.958959683950525 0.46795008807748673 0 0 0 0 14.350165344114785 -11.286751310276486 0 -11.286751310276486 2.505174827951123 0 0 0 0 14.749797399420604 -12.397505537483653 0 -12.397505537483653 5.9924010661343345 0 0 0 0 17.490267262444547 -13.570883549342398 0 -13.570883549342398 4.1641716062295018 0 0 0 0 24.639463048163691 -12.59749228599685 0 -12.59749228599685 2.8914748986717314 0 0 0 0 24.53175959403989 -11.419973291682254 0 -11.419973291682254 2.0246412253472954 0 0 0 0 20.323169728875321 -9.4766401209835749 0 -9.4766401209835749 1.9164024324709317 0 0 0 0 30.473746627724012 -11.936382382435113 0 -11.936382382435113 2.0265978353709215 0 0 0 0 21.866931231415634 -11.464793904400722 0 -11.464793904400722 3.6547652605295298 0 0 0 0 25.264461675298165 -15.013839711598848 0 -15.013839711598848 5.27619803698326 0 0 0 0 19.496550828625033 -14.436633441066078 0 -14.436633441066078 6.7096649565428379 0 0 0 0 18.452425379258919 -13.064063463432831 0 -13.064063463432831 7.2322342337847658 0 0 0 0 13.999727001346132 -14.658376034746652 0 -14.658376034746652 10.027069339070295 0 0 0 0 27.137328630891545 -14.735526699805632 0 -14.735526699805632 5.2578751226537861 0 0 0 0 21.349609033993985 -17.309435223713081 0 -17.309435223713081 9.8922154614992905 0 0 0 0 36.539783390107175 -11.966446453865046 0 -11.966446453865046 -1.8112951575312763 0 0 0 0 31.004314899660443 -18.135528835897276 0 -18.135528835897276 6.055586798764125 0 0 0 0 27.950457115229625 -16.917215548921376 0 -16.917215548921376 5.5696140559630294 0 0 0 0 32.24471776140706 -16.494278704056342 0 -16.494278704056342 3.1385392333613709 0 0 0 0 34.057484661958988 -26.879974524672889 0 -26.879974524672889 14.095006887233467 0 0 0 0 33.824568393526384 -21.555196461591549 0 -21.555196461591549 8.6183635689667426 0 0 0 0 27.880392358700661 -24.459303539970279 0 -24.459303539970279 16.41709760305821 0 0 0 0 27.317086446187229 -29.496805303268047 0 -29.496805303268047 26.148749682339258 0 0 0 0 19.257740362626269 -20.960306391410995 0 -20.960306391410995 17.764653189966339 0 0 0 0 9.6503084093817026 -12.807995761213533 0 -12.807995761213533 15.604105375496147 0 0 0 0 14.930772025677662 -12.495960623913561 0 -12.495960623913561 10.069491559029188 0 0 0 0 12.608376489443692 -14.553541969107755 0 -14.553541969107755 16.257255883159814 0 0 0 0 22.960286076088195 -20.491005822666921 0 -20.491005822666921 13.601436237921007 0 0 0 0 16.748856371416228 -17.383850112079926 0 -17.383850112079926 15.602433024942002 0 0 0 0 22.181278023139598 -16.47597717957251 0 -16.47597717957251 9.83544066593754 0 0 0 0 6.3569124497787044 -11.790185463178204 0 -11.790185463178204 25.125002878718078 0 0 0 0 18.936702988768182 -20.592729644415158 0 -20.592729644415158 21.33689409197541 0 0 0 0 9.2004724288230122 -7.6194507073769273 0 -7.6194507073769273 16.180032386080711 0 0 0 0 12.776604764989875 -14.512753577128024 0 -14.512753577128024 15.95216594858357 0 0 0 0 6.0755235863470691 -7.9395285218779463 0 -7.9395285218779463 17.780345333585501 0 0 0 0 6.7761726295548916 -11.183526014263407 0 -11.183526014263407 20.800861453038124 0 0 0 0 34.70723007670486 -7.2841463499062229 0 -7.2841463499062229 16.875648308661766 0 0 0 0 12.222814179538524 -20.159744541510008 0 -20.159744541510008 33.93067166434048 0 0 0 0 0.026659169068018188 -2.4568429741566433 0 -2.4568429741566433 9.5553191154649539 0 0 0 0 6.1455069404814626 -1.2930507845285319 0 -1.2930507845285319 0.13643805532410624 0 0 0 0 6.0568807077739502 1.0394093604533623 0 1.0394093604533623 8.9056375738182396 0 0 0 0 0.097025291349408072 2.6576729498910936 0 2.6576729498910936 5.6381788184911557 0 0 0 0 1.9397205008001968 -2.864971409089776 0 -2.864971409089776 5.6726853475847747 0 0 0 0 2.7357659790201598 -4.577900188748572 0 -4.577900188748572 4.9962588159105508 0 0 0 0 3.027956564663933 -2.2072807718272998 0 -2.2072807718272998 10.55048220592289 0 0 0 0 6.9680266971757892 -10.353492990134328 0 -10.353492990134328 12.052091466044658 0 0 0 0 9.846164580707681 -9.5580410365499802 0 -9.5580410365499802 9.2896047883114079 0 0 0 0 2.7743396174782049 -7.2067607230783324 0 -7.2067607230783324 9.8515372505644336 0 0 0 0 2.0785424974107425 -4.6662480017075723 0 -4.6662480017075723 7.8367135313164908 0 0 0 0 -1.0539954621079239 1.0104420944253434 0 1.0104420944253434 2.0219509350936278 0 0 0 0 -6.6536054405281391 2.2259811871390411 0 2.2259811871390411 5.6954003632854437 0 0 0 0 2.4336945516696744 -4.8670788763920427 0 -4.8670788763920427 6.3780201600493456 0 0 0 0 -0.26299054666052513 -3.5691538934297569 0 -3.5691538934297569 6.3304564676436712 0 0 0 0 0.0075901192543241791 -1.6223165256978973 0 -1.6223165256978973 3.355467094173946 0 0 0 0 -0.55698627268979806 -3.0427226133651857 0 -3.0427226133651857 1.2483345021755667 0 0 0 0 -3.7289507427827999 -1.4711422831551317 0 -1.4711422831551317 7.659168126962868 0 0 0 0 -0.064045382759205086 -0.097677647342338858 0 -0.097677647342338858 0.59448361278690243 0 0 0 0 -0.0047278158737702608 -0.26975166436580622 0 -0.26975166436580622 2.5462650241773659 0 0 0 0 -1.560260684105272 -0.14111879778988623 0 -0.14111879778988623 3.049720929855539 0 0 0 0 -1.8488031852701425 -0.13292883740723482 0 -0.13292883740723482 3.4698970260396891 0 0 0 0 -0.30732023916477991 0.44310251471907236 0 0.44310251471907236 0.33054074172704162 0 0 0 0 -3.1444577814650359 -3.8318353785931549 0 -3.8318353785931549 3.4942161059407226 0 0 0 0 -3.2607050131973865 -4.7075090562176456 0 -4.7075090562176456 11.014244693989895 0 0 0 0 -4.7581992722339024 2.8586061192909256 0 2.8586061192909256 6.7254955667958711 0 0 0 0 -4.9944778651390038 2.7850322573594894 0 2.7850322573594894 10.220237281242589 0 0 0 0 15.177777339130364 13.978029065965529 0 13.978029065965529 4.254512164319749 0 0 0 0 0.34899979115188562 -0.55395115054398048 0 -0.55395115054398048 -4.4197784232237609 0 0 0 0 -0.093241189402668567 -25.713272075239729 0 -25.713272075239729 0.67121613130541391 0 0 0 0 2.3572710354779289 -13.205539872916233 0 -13.205539872916233 4.0551473294272 0 0 0 0 -0.46366270096788087 -13.826219123882368 0 -13.826219123882368 4.6954519164173689 0 0 0 0 -0.073810412490595653 0.077741171223468797 0 0.077741171223468797 0.39319678430362615 0 0 0 0 5.511419624690304 -14.648732215421205 0 -14.648732215421205 2.2691144623422588 0 0 0 0 0.67004959010677112 7.1862232750336261 0 7.1862232750336261 6.9040768733211735 0 0 0 0 0.018599723662134957 -0.086143918961513855 0 -0.086143918961513855 0.23488314842607849 0 0 0 0 -7.4376061360311141 9.5597699150030166 0 9.5597699150030166 7.6666401331058296 0 0 0 0 -9.9859296736614827 3.5890032916204291 0 3.5890032916204291 9.8491717832657741 0 0 0 0 3.1116045750103005 1.391172525604361 0 1.391172525604361 -0.89620434781318181 0 0 0 0 -0.057793349504003035 -0.00054859464813894476 0 -0.00054859464813894476 0.23151220948097517 0 0 0 0 -1.1702441825090126 2.1424104756360975 0 2.1424104756360975 -1.4959871611790732 0 0 0 0 13.459346663768944 -10.516935423470386 0 -10.516935423470386 3.7906789211806995 0 0 0 0 -0.002509008190126789 0.91852483330876566 0 0.91852483330876566 -1.7726267127000028 0 0 0 0 -0.7086162835040688 0.40765692047625635 0 0.40765692047625635 0.90903921395147336 0 0 0 0 -4.0462130292239715 5.8386598572678849 0 5.8386598572678849 1.3859661293099634 0 0 0 0 -0.26102775489122099 -0.20674596245589782 0 -0.20674596245589782 -3.3461000394772782 0 0 0 0 -3.764950529377014 -3.9150528431255225 0 -3.9150528431255225 10.953816337705575 0 0 0 0 -3.9753857261418659 -12.863131875879844 0 -12.863131875879844 7.2968694673900245 0 0 0 0 2.496864134144225 -2.8056758523052849 0 -2.8056758523052849 3.29194241896721 0 0 0 0 0.0042739247674953903 -13.976445124214479 0 -13.976445124214479 9.5958802995919541 0 0 0 0 -3.9337732285575626 -1.1860750866026137 0 -1.1860750866026137 29.677612218067225 0 0 0 0 0.046845631230363109 -0.049071780834168521 0 -0.049071780834168521 0.047764963809351357 0 0 0 0 3.5516034207613671 -10.64559470590757 0 -10.64559470590757 -4.3941472623373556 0 0 0 0 -6.7669751801432341 -11.893125957598386 0 -11.893125957598386 -3.2119693249360353 0 0 0 0 -3.6042518266500174 -16.297434614241865 0 -16.297434614241865 -8.0962442795771494 0 0 0 0 -14.384091697364099 -14.621171779856013 0 -14.621171779856013 -3.6669156931075122 0 0 0 0 -0.73885351500042873 -12.374651808991075 0 -12.374651808991075 -7.0643535320232331 0 0 0 0 22.499027175132426 9.9090151984528347 0 9.9090151984528347 44.716136209588512 0 0 0 0 -21.116858738921458 -22.040284190682996 0 -22.040284190682996 -2.5769022724198294 0 0 0 0 0.52255409338422465 -2.9432145397153278 0 -2.9432145397153278 6.4121291945711647 0 0 0 0 -23.696215304048025 -15.620807466995757 0 -15.620807466995757 -11.352272478598024 0 0 0 0 -23.939463358888446 -25.569685061314885 0 -25.569685061314885 -8.7440983404007966 0 0 0 0 0.038144474446305934 -0.079637649730674553 0 -0.079637649730674553 -0.099743630863976307 0 0 0 0 -36.493725177256721 -4.7107078027529496 0 -4.7107078027529496 0.82419022431713529 0 0 0 0 5.4313576373460108 -5.4680549545810209 0 -5.4680549545810209 -5.0147031349940789 0 0 0 0 -9.9398127638368834 -21.979895124719405 0 -21.979895124719405 -8.5215128759300569 0 0 0 0 -34.724697256742793 -19.68061919920865 0 -19.68061919920865 -2.6440057465297286 0 0 0 0 -0.032933376385445468 -0.093632621858443343 0 -0.093632621858443343 0.025588759538246464 0 0 0 0 -16.083826308511277 -15.004623931767128 0 -15.004623931767128 -1.4965728691022377 0 0 0 0 -24.26051352314488 -10.995431093746447 0 -10.995431093746447 6.7040766785685264 0 0 0 0 3.3472037254568932 3.6709621691697976 0 3.6709621691697976 -5.8484041958727175 0 0 0 0 -1.2239133117734013 -2.959526748956705 0 -2.959526748956705 8.7811625673966773 0 0 0 0 -2.3841648804934721 -0.32900447125939536 0 -0.32900447125939536 2.8179282831306409 0 0 0 0 -18.144118930462838 -20.569366800979878 0 -20.569366800979878 -6.6394298869163322 0 0 0 0 -17.314466725383593 -25.545073005182189 0 -25.545073005182189 -7.9143014468390902 0 0 0 0 -20.106594175498842 -20.698899832248571 0 -20.698899832248571 -3.8498426031364943 0 0 0 0 -11.269765096032074 -12.469376865768936 0 -12.469376865768936 -5.1913816396354378 0 0 0 0 -2.9503045083862034 -5.9337736663133001 0 -5.9337736663133001 -0.80373221544869011 0 0 0 0 -7.6060173877800779 -16.77102973955266 0 -16.77102973955266 -13.735895488729511 0 0 0 0 5.5601128472252128 -4.0860019937726975 0 -4.0860019937726975 -1.7101718830544996 0 0 0 0 -1.2637564194808846 -7.5279565565692792 0 -7.5279565565692792 -0.73824990608045482 0 0 0 0 -0.10860523452862293 -0.20479598577318114 0 -0.20479598577318114 0.047946341263028103 0 0 0 0 0.052293520106909686 -0.65750016325819161 0 -0.65750016325819161 -0.45505956581109785 0 0 0 0 -0.53239873797867743 0.36230988158422406 0 0.36230988158422406 0.55861367050965782 0 0 0 0 -0.41425747706177574 -0.42160585162037023 0 -0.42160585162037023 0.28914806125249015 0 0 0 0 0.1717182303001287 -0.17327976025415737 0 -0.17327976025415737 0.021294047754363277 0 0 0 0 -0.099718862468071143 -0.72440497353250066 0 -0.72440497353250066 -0.11512765238512657 0 0 0 0 -0.0018592434704993116 -0.85172760357272637 0 -0.85172760357272637 -0.6042522517254838 0 0 0 0 -2.4519084065235051 -2.0881344655535941 0 -2.0881344655535941 -0.78629851516234339 0 0 0 0 -0.0032517377972361297 -2.6586299092414265 0 -2.6586299092414265 -2.3632424976058246 0 0 0 0 7.6377713555807247 -2.9716515995974078 0 -2.9716515995974078 3.3084777919611952 0 0 0 0 -0.089860811796675141 -0.120131822146611 0 -0.120131822146611 0.18652699605459588 0 0 0 0 -6.1050863845726493 -2.4727686967180489 0 -2.4727686967180489 -0.87558491836171015 0 0 0 0 11.288305861967672 -2.7151199105728665 0 -2.7151199105728665 2.1300530893895484 0 0 0 0 -3.6181595749379647 -5.495573554065686 0 -5.495573554065686 -4.4977685868452681 0 0 0 0 -2.5584671458440429 1.2745117068207037 0 1.2745117068207037 -7.9416364099133716 0 0 0 0 -23.792572528798786 7.1846073110673387 0 7.1846073110673387 23.138082580813716 0 0 0 0 0.0052704436511804131 -6.7816107222424762 0 -6.7816107222424762 13.015514999369771 0 0 0 0 22.173536346665593 -24.182819181176455 0 -24.182819181176455 35.63107886589205 0 0 0 0 19.739673008836853 -16.152181988612028 0 -16.152181988612028 12.267143675107945 0 0 0 0 -0.023288622880766358 -0.037979730054761518 0 -0.037979730054761518 0.13424456920189698 0 0 0 0 22.468176747536781 -28.357685218100357 0 -28.357685218100357 49.080071024716744 0 0 0 0 3.1262865944927434 -4.4460166558010314 0 -4.4460166558010314 78.969280540404725 0 0 0 0 8.3965664652455416 -4.5139548986044247 0 -4.5139548986044247 54.875205276537599 0 0 0 0 15.245047726351743 8.1394516915906934 0 8.1394516915906934 55.808358165097161 0 0 0 0 7.0325994852296745 -1.6063547456114975 0 -1.6063547456114975 49.282338331846404 0 0 0 0 -0.0049017795943288155 -7.6126697298277577 0 -7.6126697298277577 87.982427750030183 0 0 0 0 -5.2193126641419099 8.0304761792795034 0 8.0304761792795034 60.953795068417094 0 0 0 0 -7.8157044849869379 -1.824774035370865 0 -1.824774035370865 91.350001491384319 0 0 0 0 33.347609606663354 -20.063200987795426 0 -20.063200987795426 66.98988401486713 0 0 0 0 -21.031687963418975 -3.4972626336466419 0 -3.4972626336466419 62.051032804047281 0 0 0 0 2.056595126909599 -5.7319575134679326 0 -5.7319575134679326 41.592343533186067 0 0 0 0 -0.92355454063371667 -10.753492114710753 0 -10.753492114710753 35.29359134049264 0 0 0 0 -2.3821601384069027 -8.7237809174093854 0 -8.7237809174093854 43.020530584170046 0 0 0 0 5.7896449629019173 -11.226015478196132 0 -11.226015478196132 49.099513854240286 0 0 0 0 13.048467348984005 -1.2575935534987366 0 -1.2575935534987366 45.699060142671442 0 0 0 0 7.0907619346893256 -9.3776870992037402 0 -9.3776870992037402 41.774309284657647 0 0 0 0 5.3162091168348411 -10.979676821990324 0 -10.979676821990324 45.185884083706696 0 0 0 0 1.8769383793717793 -6.3584220549137171 0 -6.3584220549137171 23.475030989815423 0 0 0 0 5.8541578179980647 -13.025755737254713 0 -13.025755737254713 28.880656529043335 0 0 0 0 2.5791821332017655 -10.162648727269811 0 -10.162648727269811 17.744837580055901 0 0 0 0 -5.1863749859086283 -3.8987128556900643 0 -3.8987128556900643 33.232324685992353 0 0 0 0 -2.6445034464308037 -2.0858526231149881 0 -2.0858526231149881 10.886257778458457 0 0 0 0 12.826752748082527 -10.815150651535077 0 -10.815150651535077 8.4680911844570801 0 0 0 0 8.0969386426665722 -2.6962471338956675 0 -2.6962471338956675 -0.16468214176347828 0 0 0 0 1.5204298616976057 -4.1311078221385458 0 -4.1311078221385458 4.8038648520414426 0 0 0 0 0.98213879400804416 -13.051870208875528 0 -13.051870208875528 -0.71112581335728464 0 0 0 0 -14.368591639939552 -28.073580844814387 0 -28.073580844814387 -18.064740536976842 0 0 0 0 -3.4375629069690774 -4.1851404886856471 0 -4.1851404886856471 -0.28443724202770682 0 0 0 0 -6.7323661384517095 -10.545724995040473 0 -10.545724995040473 15.825491316572879 0 0 0 0 -2.3749240120480408 -5.6656128730810451 0 -5.6656128730810451 15.97217413656665 0 0 0 0 -11.755644980965144 3.9446407320501748 0 3.9446407320501748 40.305725015052303 0 0 0 0 -11.051404118657866 -15.636810334757925 0 -15.636810334757925 75.336574402846963 0 0 0 0 26.296970417317482 -48.900938327472431 0 -48.900938327472431 61.822220802587253 0 0 0 0 10.352845999503643 -20.669907488485023 0 -20.669907488485023 31.32865617614334 0 0 0 0 -8.384772204590746 -11.164056527691173 0 -11.164056527691173 40.789161566668554 0 0 0 0 -6.519885708030813 -17.622121292560223 0 -17.622121292560223 51.400473770187091 0 0 0 0 -18.431969729535979 21.177477480138805 0 21.177477480138805 17.107371637388496 0 0 0 0 -20.415606606835127 17.301065448245936 0 17.301065448245936 12.137282977351106 0 0 0 0 0.31895401445116023 0.38635896839827488 0 0.38635896839827488 0.60554187281569227 0 0 0 0 -17.876295098234664 22.854222731419213 0 22.854222731419213 6.6150241999350783 0 0 0 0 19.302574714651541 26.384445436659917 0 26.384445436659917 -2.4610082230110493 0 0 0 0 -55.608317466435096 -63.245958088735506 0 -63.245958088735506 52.629164730728007 0 0 0 0 0.43819580750790799 -3.6250462831169052 0 -3.6250462831169052 7.670492998754618 0 0 0 0 2.8645999867695338 1.9248013526239447 0 1.9248013526239447 10.713013756372675 0 0 0 0 -24.480248410120609 -42.381459831284928 0 -42.381459831284928 -18.527860795567904 0 0 0 0 0.94808851401606198 -3.9283406797091462 0 -3.9283406797091462 8.0463552303895618 0 0 0 0 -0.74733548745905409 -8.58744919278206 0 -8.58744919278206 9.6897154874732223 0 0 0 0 4.8558919816674688 5.9456058600239885 0 5.9456058600239885 30.591657701675103 0 0 0 0 4.3188032872503754 8.5198681089436832 0 8.5198681089436832 28.346834027021032 0 0 0 0 10.021006416376849 2.3778923327927259 0 2.3778923327927259 8.7665135533918033 0 0 0 0 0.61434031772247977 -4.7192058481041386 0 -4.7192058481041386 14.262681356213761 0 0 0 0 -8.6998826361421777 -8.7509449266963202 0 -8.7509449266963202 -0.94398578142136103 0 0 0 0 1.0722335231320232 -3.8731014247211011 0 -3.8731014247211011 7.7315960786958442 0 0 0 0 19.616518501305904 18.000454626302599 0 18.000454626302599 18.380336762166166 0 0 0 0 0.91005234046967987 -3.5600411898451814 0 -3.5600411898451814 7.2398628126140885 0 0 0 0 25.875980195415025 61.098828328798845 0 61.098828328798845 118.05574502211948 0 0 0 0 -0.51182110942283998 -9.828257533341457 0 -9.828257533341457 24.017408467607311 0 0 0 0 33.617453175318019 21.733939323446066 0 21.733939323446066 25.770066695560303 0 0 0 0 20.662552575040991 54.104535290551212 0 54.104535290551212 83.861978845047361 0 0 0 0 21.236727841605529 13.762099682774419 0 13.762099682774419 127.33542313146609 0 0 0 0 1.3421058490258702 54.408696386803967 0 54.408696386803967 160.18791633957971 0 0 0 0 4.322856813731164 45.157216291521763 0 45.157216291521763 139.54191510682676 0 0 0 0 -0.23358188698955873 -0.12854790359824619 0 -0.12854790359824619 0.24354336333166593 0 0 0 0 3.9489601140807622 15.472390098567217 0 15.472390098567217 47.052288605249487 0 0 0 0 4.8165651904973856 5.1700029506823739 0 5.1700029506823739 49.884137524561993 0 0 0 0 -45.523492745943997 0.5281948385350006 0 0.5281948385350006 138.84522462798668 0 0 0 0 -0.37382780753752298 -0.39195096926218653 0 -0.39195096926218653 0.38192171169102096 0 0 0 0 1.2730960626317938 8.7632852709002691 0 8.7632852709002691 49.138573630286828 0 0 0 0 5.1925842309158838 42.766990775365684 0 42.766990775365684 145.77623775219126 0 0 0 0 -19.674998018739075 -9.2883467430556266 0 -9.2883467430556266 110.77520787454728 0 0 0 0 -22.050755649787675 -28.98783520921188 0 -28.98783520921188 97.938948809002142 0 0 0 0 -0.043077985527848028 -0.55317623018007467 0 -0.55317623018007467 0.3270960062676096 0 0 0 0 -4.7212603587938702 -46.536217131937974 0 -46.536217131937974 39.591529354892373 0 0 0 0 3.6651727382031254 5.8163706675406956 0 5.8163706675406956 35.559348725108066 0 0 0 0 1.3283471479951459 6.6496214981059438 0 6.6496214981059438 53.556041140602247 0 0 0 0 3.1540953973581054 -2.1345859023381308 0 -2.1345859023381308 35.624238489416712 0 0 0 0 4.5346495328637957 5.5803985774518878 0 5.5803985774518878 35.605138036239623 0 0 0 0 5.4504529954365353 2.11456368342715 0 2.11456368342715 24.928635243086319 0 0 0 0 5.0350578728135815 10.674508240987052 0 10.674508240987052 36.294327124584015 0 0 0 0 3.658081935812902 2.7768314469735742 0 2.7768314469735742 24.710287622984652 0 0 0 0 5.5809977048309065 -0.62527013556382371 0 -0.62527013556382371 12.961388375803836 0 0 0 0 7.4742423954756987 3.5193275964907116 0 3.5193275964907116 15.788628140666333 0 0 0 0 5.3123477672975241 -2.2406118876360779 0 -2.2406118876360779 12.596013475260406 0 0 0 0 0.048201915031427234 -6.3912351470526119 0 -6.3912351470526119 8.3810344815963163 0 0 0 0 4.2838743662131833 -1.200698919064962 0 -1.200698919064962 6.0699491852446954 0 0 0 0 2.3551803050539775 -0.79658077332805988 0 -0.79658077332805988 11.896885048048716 0 0 0 0 0.1559230776289553 -3.0968330061386951 0 -3.0968330061386951 6.0114960564660578 0 0 0 0 -0.35730792428159708 -2.0571011066462717 0 -2.0571011066462717 7.9561700684070686 0 0 0 0 2.0629395418135346 6.0481091946653578 0 6.0481091946653578 7.6060404529389416 0 0 0 0 8.282168599352417 -0.83253218677054974 0 -0.83253218677054974 -13.597546680537562 0 0 0 0 1.1537614572735038 -0.63228022766179492 0 -0.63228022766179492 5.895539548700981 0 0 0 0 5.0242983125703518 2.7383151836977504 0 2.7383151836977504 7.9179449759340059 0 0 0 0 3.0664726814986807 5.6725272205621877 0 5.6725272205621877 7.3658109646203229 0 0 0 0 11.601462707299106 4.5875374502875275 0 4.5875374502875275 7.0207186694497068 0 0 0 0 7.1463019707773014 3.9840560529673894 0 3.9840560529673894 13.326505062676006 0 0 0 0 9.2980409273776559 0.40050209401852044 0 0.40050209401852044 9.1920442341179296 0 0 0 0 5.7762851025402142 -1.0030196174443518 0 -1.0030196174443518 25.349824572015677 0 0 0 0 12.753214528943317 -4.7611382529494222 0 -4.7611382529494222 16.807451933217635 0 0 0 0 6.2708811868477028 2.8668203102913026 0 2.8668203102913026 31.342275854007312 0 0 0 0 14.381101822720666 5.15351328473389 0 5.15351328473389 10.976554864499121 0 0 0 0 5.2114235529150505 2.4020292035379498 0 2.4020292035379498 10.537644020565494 0 0 0 0 10.774630873958586 7.8321244422268137 0 7.8321244422268137 5.1309798077791129 0 0 0 0 11.649547331995109 12.461398082775304 0 12.461398082775304 1.8793642157634167 0 0 0 0 -2.7377262305390104 5.5322941957247167 0 5.5322941957247167 0.98496695589165029 0 0 0 0 8.0937421010862636 5.8739763233597841 0 5.8739763233597841 3.7017357590666506 0 0 0 0 8.1638052125229024 7.7934858157595954 0 7.7934858157595954 0.34004512269711995 0 0 0 0 -4.6806165632135617 -0.67539390645924868 0 -0.67539390645924868 24.728672327807544 0 0 0 0 7.2985744697793962 7.8977031639665256 0 7.8977031639665256 -2.6941306558073848 0 0 0 0 8.0854536605037737 29.585818216419625 0 29.585818216419625 9.8182526032287569 0 0 0 0 0.059814557307172223 0.42043217655210086 0 0.42043217655210086 1.752888325847227 0 0 0 0 8.7770509349041959 14.422030241374159 0 14.422030241374159 16.693212184436561 0 0 0 0 1.6154874657577238 -15.476270676092099 0 -15.476270676092099 24.411527202009893 0 0 0 0 4.8606617585444027 3.4524060099570306 0 3.4524060099570306 2.3344178402912803 0 0 0 0 2.4932633984604422 5.7978866639296029 0 5.7978866639296029 -0.80071972353835008 0 0 0 0 1.2424593610681569 8.3838532175195724 0 8.3838532175195724 -2.6446622147996095 0 0 0 0 -3.1053201912421287 4.9564091301263034 0 4.9564091301263034 6.5723287515393167 0 0 0 0 -1.6020348179890789 9.0572896974972537 0 9.0572896974972537 -1.0037018280654593 0 0 0 0 -0.22209141575690816 0.65336732483447513 0 0.65336732483447513 0.61862248380063534 0 0 0 0 1.2325353984353598 3.5363090800668981 0 3.5363090800668981 7.3803927502843507 0 0 0 0 -0.040649334762065337 7.3830600293840689 0 7.3830600293840689 -0.67458421467290464 0 0 0 0 -9.611703296392534 9.4951826856117805 0 9.4951826856117805 5.5916268976361607 0 0 0 0 1.2673417841541876 3.1928485005261793 0 3.1928485005261793 7.9490629930439098 0 0 0 0 0.0048141209372921656 0.63838253037360992 0 0.63838253037360992 1.9150583073928651 0 0 0 0 -6.8206891739317079 1.790469239289564 0 1.790469239289564 15.033812279844824 0 0 0 0 1.3967516558451614 -1.6074048925761417 0 -1.6074048925761417 11.926480186539266 0 0 0 0 -4.5843015999564756 7.7322250948486726 0 7.7322250948486726 9.5728796332032289 0 0 0 0 9.6368028514318667 7.6550822577776216 0 7.6550822577776216 1.4656018207297166 0 0 0 0 -3.3484281145822479 11.407809374245517 0 11.407809374245517 3.7889945540491681 0 0 0 0 -19.531691884314455 13.595531431631571 0 13.595531431631571 12.499726235420894 0 0 0 0 1.1737068348058992 3.382299017314593 0 3.382299017314593 8.7453963923410285 0 0 0 0 -9.9244388156474166 7.5940068358072494 0 7.5940068358072494 11.689573551318972 0 0 0 0 -3.9033200716182304 4.5369498525151357 0 4.5369498525151357 5.7720642745407531 0 0 0 0 -7.7774215350878819 7.3804734082141294 0 7.3804734082141294 9.2399048696788668 0 0 0 0 1.2593473669047537 3.4491755468973517 0 3.4491755468973517 9.2219193476748771 0 0 0 0 -22.726164351997966 23.728202116518787 0 23.728202116518787 7.2070347440421756 0 0 0 0 -13.166203344885162 4.3073732982238653 0 4.3073732982238653 25.279149613075788 0 0 0 0 21.04320256921153 5.7092703315224753 0 5.7092703315224753 -1.9914085715158762 0 0 0 0 17.776792497933116 -19.62504772523971 0 -19.62504772523971 31.075907811011348 0 0 0 0 2.259775936554945 0.7536869423142889 0 0.7536869423142889 75.584464687854961 0 0 0 0 0.11307878195246879 -0.26205876820698748 0 -0.26205876820698748 0.11822227483043335 0 0 0 0 37.618913967209096 -40.148275702511 0 -40.148275702511 -0.92793305267332471 0 0 0 0 53.421066422504509 -27.3428424325175 0 -27.3428424325175 -65.835092960579459 0 0 0 0 -22.755275938973909 -18.193584873060672 0 -18.193584873060672 36.729192483291627 0 0 0 0 40.87103429288868 -82.770470757055591 0 -82.770470757055591 91.174862752238369 0 0 0 0 138.46376489074055 -113.36258947963779 0 -113.36258947963779 106.57242484103517 0 0 0 0 26.045065204542198 -11.166169787741637 0 -11.166169787741637 20.259491237607563 0 0 0 0 62.342497638623172 9.3831718581459427 0 9.3831718581459427 3.318570582727034 0 0 0 0 -53.643514479219434 56.535067194976619 0 56.535067194976619 24.79594718665976 0 0 0 0 61.935943949914758 9.8173503138987144 0 9.8173503138987144 6.4875826452189358 0 0 0 0 -56.565477646893505 -17.882457028458987 0 -17.882457028458987 5.0072775823336997 0 0 0 0 -27.992479135814165 10.752525117271034 0 10.752525117271034 16.714588140383057 0 0 0 0 -11.104455355977393 -6.024767359433099 0 -6.024767359433099 14.434411175880086 0 0 0 0 2.6134820764307278 20.292895833982584 0 20.292895833982584 6.0963056897354591 0 0 0 0 44.031340039100684 -5.9680287230489739 0 -5.9680287230489739 -0.66675068892436684 0 0 0 0 116.12650050178581 -119.79901383469951 0 -119.79901383469951 -18.622821894241383 0 0 0 0 58.70130165750129 -4.4544078140370402 0 -4.4544078140370402 136.65733263867196 0 0 0 0 139.80078928703483 -96.053520331164236 0 -96.053520331164236 694.9281468776644 0 0 0 0 177.37593029866866 -233.64659699143886 0 -233.64659699143886 192.74534342695551 0 0 0 0 1.2541432401675312 -0.37179233743565909 0 -0.37179233743565909 0.090021695085720665 0 0 0 0 -63.519536506728343 -4.3302463629036083 0 -4.3302463629036083 397.52089266554322 0 0 0 0 -20.150841011850389 -94.363525883900365 0 -94.363525883900365 556.75043882438695 0 0 0 0 16.132146746368335 71.894574257798013 0 71.894574257798013 3.6228246604271135 0 0 0 0 -1.390994064116035 2.2341428824835443 0 2.2341428824835443 1.2142597319606807 0 0 0 0 -45.973777914210913 0.15377096725796946 0 0.15377096725796946 15.331731969767134 0 0 0 0 0.03577242327802832 0.25046208909808065 0 0.25046208909808065 -0.81215826542992176 0 0 0 0 122.88049371042553 27.715223780854103 0 27.715223780854103 -79.689703238973379 0 0 0 0 67.774524930662665 -236.7166536636596 0 -236.7166536636596 117.68022443424707 0 0 0 0 231.39804273723132 -144.13977952107552 0 -144.13977952107552 85.936358133647445 0 0 0 0 36.425501696413448 -115.51120693703979 0 -115.51120693703979 420.93895499848168 0 0 0 0 10.65521844135742 -1.6220711525647857 0 -1.6220711525647857 193.51778490339211 0 0 0 0 -16.886985572629328 -28.016253597963441 0 -28.016253597963441 125.51119014964479 0 0 0 0 13.781471036615343 -28.252718076764836 0 -28.252718076764836 107.91457118697872 0 0 0 0 -34.156891760612325 -71.134311680159499 0 -71.134311680159499 52.076179612866326 0 0 0 0 1.3698299578408202 -2.1708671273878863 0 -2.1708671273878863 1.3559792225008955 0 0 0 0 -177.89973745396037 -12.949169319108023 0 -12.949169319108023 183.84680181570911 0 0 0 0 211.19468802897063 -208.17142264299582 0 -208.17142264299582 -204.00716000489228 0 0 0 0 0.95366194216343736 -0.9237417305044815 0 -0.9237417305044815 0.52798577910950506 0 0 0 0 66.850485957970818 -224.93545992625445 0 -224.93545992625445 -1.1639376485582034 0 0 0 0 -23.678960990579299 80.791521897248003 0 80.791521897248003 -75.024931888809078 0 0 0 0 280.52993904630785 -157.50589033693359 0 -157.50589033693359 -33.395017470410949 0 0 0 0 106.53346601379553 -191.01644722032052 0 -191.01644722032052 271.26790824605814 0 0 0 0 -7.5133450779652122 0.7381232250011891 0 0.7381232250011891 0.77429266805082086 0 0 0 0 84.048536875917762 126.69813136696121 0 126.69813136696121 164.07751746101076 0 0 0 0 12.568154593399072 -19.350690719196791 0 -19.350690719196791 -4.8378043101620278 0 0 0 0 -54.922239270968475 99.214590769557617 0 99.214590769557617 294.85271616890179 0 0 0 0 -5.8321144000092504 -0.22234594950944953 0 -0.22234594950944953 0.43599668663106605 0 0 0 0 -91.603557901099521 14.001365885756968 0 14.001365885756968 296.32991081312775 0 0 0 0 -10.75971195632701 -10.170499373343773 0 -10.170499373343773 175.41471485554848 0 0 0 0 -12.15794715499365 -60.153541541238027 0 -60.153541541238027 177.18363262990169 0 0 0 0 41.080492914844342 -17.090513042051498 0 -17.090513042051498 -6.3790067779373203 0 0 0 0 -13.956083560424226 -6.0046879460651326 0 -6.0046879460651326 82.156638550912248 0 0 0 0 -13.573152486958634 -27.342248516619293 0 -27.342248516619293 13.629682797373789 0 0 0 0 -18.924545556510907 -3.5949748947377884 0 -3.5949748947377884 61.444902529607134 0 0 0 0 -6.4588001899622007 0.28414874805752355 0 0.28414874805752355 4.6582383584208245 0 0 0 0 -22.475825391604303 33.372234124093211 0 33.372234124093211 -30.31064051075009 0 0 0 0 120.33906853057761 -270.35160926296885 0 -270.35160926296885 479.28407924769363 0 0 0 0 205.20564442476348 -268.22141765220158 0 -268.22141765220158 305.40388972168876 0 0 0 0 -1.1015198699880058 1.8214388294945216 0 1.8214388294945216 1.6608532413046255 0 0 0 0 206.79827144107458 -221.67112922975139 0 -221.67112922975139 681.55103603592215 0 0 0 0 83.279400022281521 -175.92295350519794 0 -175.92295350519794 288.85916169697703 0 0 0 0 2.520282872630986 44.74206853786211 0 44.74206853786211 -16.331440359559565 0 0 0 0 84.916074276349605 -150.74715739392468 0 -150.74715739392468 260.29018461945634 0 0 0 0 -5.5171082317611013 1.1332151443260265 0 1.1332151443260265 5.6951990820025884 0 0 0 0 55.057661999562697 7.3232417753697518 0 7.3232417753697518 19.981520340319548 0 0 0 0 16.67040625748632 -22.59051388079115 0 -22.59051388079115 0.81737699616314785 0 0 0 0 195.53088386085156 -219.88421562278745 0 -219.88421562278745 499.63912981127669 0 0 0 0 48.449433244425677 -81.77054100660331 0 -81.77054100660331 114.9044643174966 0 0 0 0 48.907961671485609 -36.202502742930847 0 -36.202502742930847 49.013169653950854 0 0 0 0 104.19381474558358 -120.57917636325874 0 -120.57917636325874 81.849010852914034 0 0 0 0 7.1855981760909344 24.755978671756566 0 24.755978671756566 65.2000100139594 0 0 0 0 2.0529673440135294 -0.92661912926891432 0 -0.92661912926891432 0.70825951198849069 0 0 0 0 190.08209421859686 -16.56286961339714 0 -16.56286961339714 -81.548873783923227 0 0 0 0 254.62662974160042 -318.23261549418294 0 -318.23261549418294 294.07457400746262 0 0 0 0 11.694913451746116 -200.9424201158763 0 -200.9424201158763 555.50885666186605 0 0 0 0 -59.362166098132931 -195.89079945200058 0 -195.89079945200058 499.99722654481366 0 0 0 0 12.506471123223818 -175.84506853151493 0 -175.84506853151493 368.91159277388033 0 0 0 0 2.2396694257689234 -196.73228148309977 0 -196.73228148309977 343.3023256261431 0 0 0 0 55.571214115361933 -233.31688465807383 0 -233.31688465807383 366.01560955621983 0 0 0 0 14.944319708628472 -144.45284533445033 0 -144.45284533445033 220.94644713645175 0 0 0 0 49.181321728592479 -118.8915524674695 0 -118.8915524674695 134.95966158269039 0 0 0 0 0.080363108904215608 -98.698871408154446 0 -98.698871408154446 216.10818254959781 0 0 0 0 15.353918849095884 -114.03440655222312 0 -114.03440655222312 176.04276213228877 0 0 0 0 -30.984042884627286 -106.31723770729059 0 -106.31723770729059 275.86796393530312 0 0 0 0 -41.133771584768475 -92.084430497704943 0 -92.084430497704943 381.04487762320696 0 0 0 0 -27.929186801082025 -112.14626145684724 0 -112.14626145684724 284.35150419258252 0 0 0 0 -102.06578335755721 -100.94231182154942 0 -100.94231182154942 500.00829333070078 0 0 0 0 -73.314112780872904 -135.22909416928337 0 -135.22909416928337 420.76456965981333 0 0 0 0 -82.10113306809086 -116.80285916604339 0 -116.80285916604339 386.02750014185312 0 0 0 0 -54.072716305207479 -76.363639681050472 0 -76.363639681050472 405.97245588166425 0 0 0 0 -51.376598325101199 -71.17172244314861 0 -71.17172244314861 345.49982908787024 0 0 0 0 -139.49240953024301 -60.891428312525022 0 -60.891428312525022 407.29045304517058 0 0 0 0 -60.812893984303713 -0.07088799089206077 0 -0.07088799089206077 448.41004870089364 0 0 0 0 -1.1689308687383195 -0.44679206832152474 0 -0.44679206832152474 0.50918524522908548 0 0 0 0 -55.593962055652696 -185.31188981412652 0 -185.31188981412652 85.787061908463329 0 0 0 0 -173.37435469263232 -133.67522957190067 0 -133.67522957190067 105.80839514312356 0 0 0 0 -155.916864697487 -135.53604702947405 0 -135.53604702947405 103.60295973342363 0 0 0 0 -140.5364664724118 -138.95618183014903 0 -138.95618183014903 -92.67473597915523 0 0 0 0 -57.833343815934541 84.536786134880458 0 84.536786134880458 323.60618138159225 0 0 0 0 -0.06515632555536488 -0.82548876408928251 0 -0.82548876408928251 0.66487480314256153 0 0 0 0 -2.3616211269625467 -18.30922802835812 0 -18.30922802835812 342.31703974080375 0 0 0 0 -3.6443383185161506 -0.83159534972286764 0 -0.83159534972286764 0.7557254201005108 0 0 0 0 -7.1478143319414187 -44.169462905057571 0 -44.169462905057571 276.30327070606927 0 0 0 0 5.8095157818534915 -39.311710973722711 0 -39.311710973722711 106.96759266847948 0 0 0 0 -17.269609877827776 -30.225311405142747 0 -30.225311405142747 257.28977049076843 0 0 0 0 4.1808979651559639 62.827432042407054 0 62.827432042407054 144.97081909864028 0 0 0 0 0.49684289224461198 -1.8714384837296194 0 -1.8714384837296194 1.3123004609987596 0 0 0 0 8.7396716777116126 21.178371095353214 0 21.178371095353214 233.92575453208428 0 0 0 0 17.658164640134146 -8.7276087769760125 0 -8.7276087769760125 198.32641241523288 0 0 0 0 -30.490094761553223 -48.198299926075379 0 -48.198299926075379 16.665791419176003 0 0 0 0 -17.161207748228662 -18.524209628484641 0 -18.524209628484641 128.80675225941923 0 0 0 0 -17.420342510219484 -8.847747285643436 0 -8.847747285643436 89.058806464005102 0 0 0 0 -26.648864860396202 -52.954066792671028 0 -52.954066792671028 87.025177507804983 0 0 0 0 -46.329181828310311 -48.378434247813857 0 -48.378434247813857 97.888423508933826 0 0 0 0 -43.634433716712465 -25.927287355074441 0 -25.927287355074441 118.71744050955613 0 0 0 0 -65.816981694090373 -66.631393289045263 0 -66.631393289045263 71.872078091407275 0 0 0 0 -104.51340470339372 -2.8482110498930524 0 -2.8482110498930524 169.65579257080572 0 0 0 0 -0.95877699222117974 -0.29461182390407359 0 -0.29461182390407359 0.40570678990279241 0 0 0 0 -50.823101331070063 -24.23620890968391 0 -24.23620890968391 44.053706797478299 0 0 0 0 -2.0570602934013369 -0.57880691025439646 0 -0.57880691025439646 0.90062999955782175 0 0 0 0 2.994110635081995 59.366310106006495 0 59.366310106006495 259.79789283879381 0 0 0 0 -20.447511749668024 78.649387517770265 0 78.649387517770265 248.6489669935695 0 0 0 0 -81.181085066420337 -111.3862909310219 0 -111.3862909310219 -17.903646252154431 0 0 0 0 26.564191301122719 40.689590749992021 0 40.689590749992021 165.68612999288416 0 0 0 0 11.915879400292297 26.752168026746858 0 26.752168026746858 167.86910965302013 0 0 0 0 30.693008252874733 64.800881504057543 0 64.800881504057543 163.32295273298587 0 0 0 0 18.282191828554687 88.140199119112367 0 88.140199119112367 242.71041470988121 0 0 0 0 -9.2871805345691598 36.940565361882364 0 36.940565361882364 291.89053442465774 0 0 0 0 -7.7249131130153259 28.638876259048629 0 28.638876259048629 320.44252256663094 0 0 0 0 -2.0935591301135688 -0.65934131772923976 0 -0.65934131772923976 1.0884239870615531 0 0 0 0 7.4516599057501907 47.698788956614408 0 47.698788956614408 341.14128152426656 0 0 0 0 -42.031003927230984 -39.084084117671409 0 -39.084084117671409 304.62333528834984 0 0 0 0 -22.6846514679861 -7.7488727215495601 0 -7.7488727215495601 206.81936160683881 0 0 0 0 -11.265027161864168 -6.491109850115663 0 -6.491109850115663 139.42312357518676 0 0 0 0 -92.665591197341172 -86.110887838148301 0 -86.110887838148301 262.47714144740161 0 0 0 0 -141.86421232031165 -50.003093326310591 0 -50.003093326310591 264.16426832193065 0 0 0 0 -87.718140985174813 -49.451959146259469 0 -49.451959146259469 409.75858092434737 0 0 0 0 -85.877528127590892 -69.376960561831311 0 -69.376960561831311 410.78912183271768 0 0 0 0 -104.57287780360566 -53.331642906791558 0 -53.331642906791558 436.05519488532241 0 0 0 0 -82.44789608207661 -54.286722294508309 0 -54.286722294508309 476.35553502389575 0 0 0 0 -37.004200838338733 -15.186661860540084 0 -15.186661860540084 414.71593740631579 0 0 0 0 -41.233047353370786 -23.037323996279383 0 -23.037323996279383 499.76203753778054 0 0 0 0 -17.686558058856818 -12.024449742671095 0 -12.024449742671095 412.58767978564083 0 0 0 0 -17.987571731715153 -15.617503886966119 0 -15.617503886966119 473.39836878871211 0 0 0 0 13.695274337911798 -1.6795952166630741 0 -1.6795952166630741 470.10800610817887 0 0 0 0 -0.088660687363361496 -7.3579572873165811 0 -7.3579572873165811 479.89127541889138 0 0 0 0 8.788867174484972 -11.463621114437046 0 -11.463621114437046 468.40002558446486 0 0 0 0 6.3602646187482375 3.778613388636586 0 3.778613388636586 493.36694779233949 0 0 0 0 17.459155161702387 -0.28945417288105091 0 -0.28945417288105091 494.52613283558662 0 0 0 0 0.42198232075827641 36.968471152219536 0 36.968471152219536 548.51125090867572 0 0 0 0 116.52984453997303 279.79834553313958 0 279.79834553313958 473.05897281183888 0 0 0 0 -70.753051249965125 -3.4760368020038186 0 -3.4760368020038186 623.43001041998468 0 0 0 0 -0.098728997259513784 -0.40023905999434817 0 -0.40023905999434817 2.3453371554324178 0 0 0 0 -4.8024389506329612 99.525646932942436 0 99.525646932942436 349.78249114297705 0 0 0 0 78.18927600589393 62.793781528748696 0 62.793781528748696 306.24806967668155 0 0 0 0 3.9957405415104432 51.050516163998054 0 51.050516163998054 602.43569298067905 0 0 0 0 -0.49257515125060458 -0.2718082734899987 0 -0.2718082734899987 0.93740148939166446 0 0 0 0 13.614581192172288 45.944730613460706 0 45.944730613460706 432.02021726240946 0 0 0 0 4.1515092035891277 46.463787745488389 0 46.463787745488389 439.27703517926966 0 0 0 0 1.5748867502611006 97.129263060770427 0 97.129263060770427 291.5652523824574 0 0 0 0 -1.447658250147509 -0.60561199224320461 0 -0.60561199224320461 1.2233167836793779 0 0 0 0 11.020861156676744 45.321206928208085 0 45.321206928208085 226.00293200387296 0 0 0 0 37.506900973435499 89.41083773860467 0 89.41083773860467 157.66388663028556 0 0 0 0 0.018917544020251725 -1.9037795262974946 0 -1.9037795262974946 4.9239906979092751 0 0 0 0 -12.292025491185935 -18.8117260474246 0 -18.8117260474246 -6.0673096119198817 0 0 0 0 0.0020137554840396893 -12.724022461433378 0 -12.724022461433378 -7.4303942297219692 0 0 0 0 -0.01887892726607324 -8.4129440437302172 0 -8.4129440437302172 -7.4675887235625851 0 0 0 0 -8.0207486742766267 -8.842196256875468 0 -8.842196256875468 -7.463769524520103 0 0 0 0 35.396278794864095 46.84965401268974 0 46.84965401268974 139.94266832896938 0 0 0 0 136.9784675783967 171.32898041283897 0 171.32898041283897 197.65421020628673 0 0 0 0 1.5534737991573451 0.30984284752759095 0 0.30984284752759095 10.94586997650822 0 0 0 0 -3.7313589752473959 -2.6590218288688448 0 -2.6590218288688448 6.7115843972048879 0 0 0 0 -0.87374272523552365 -3.9387572920777849 0 -3.9387572920777849 5.5521130429255381 0 0 0 0 -5.4716632313317071 -2.5870492244732759 0 -2.5870492244732759 8.7448033197144923 0 0 0 0 -1.631703640193102 -10.386748850878462 0 -10.386748850878462 7.2374168088913393 0 0 0 0 4.7518067466938447 3.9438039097328783 0 3.9438039097328783 12.09573465777612 0 0 0 0 1.9952448836474446 -1.2023357256766758 0 -1.2023357256766758 13.240672807889496 0 0 0 0 1.8764837024637018 -0.0872335841813765 0 -0.0872335841813765 11.298984158580424 0 0 0 0 -0.93465915060507632 -3.6110814598314409 0 -3.6110814598314409 6.3729893915918545 0 0 0 0 -0.048417787827178871 0.27786959306259185 0 0.27786959306259185 1.1746924151339013 0 0 0 0 -1.346341395069544 -4.476753513332369 0 -4.476753513332369 6.9379000646335953 0 0 0 0 0.11850516838833869 -0.43561283112649107 0 -0.43561283112649107 17.29703663956343 0 0 0 0 1.2152535991139928 -2.1164564229898133 0 -2.1164564229898133 13.689158909568505 0 0 0 0 0.81773273136410296 -1.4255610787679416 0 -1.4255610787679416 12.607029369772135 0 0 0 0 0.053807045857455035 -1.312922786676044 0 -1.312922786676044 10.908491063652658 0 0 0 0 -0.54065269620014078 -3.045087312515534 0 -3.045087312515534 12.501445805281037 0 0 0 0 0.68644244157044909 -2.0736944027453319 0 -2.0736944027453319 10.555738151737842 0 0 0 0 0.09007279704066784 -1.1326294050219452 0 -1.1326294050219452 10.635992973466397 0 0 0 0 -1.8083605218675558 -1.4187623026236906 0 -1.4187623026236906 10.971082687328249 0 0 0 0 1.1868972132682671 -1.3308942672331341 0 -1.3308942672331341 11.638263125374579 0 0 0 0 2.0447601990304634 -0.99137565595628985 0 -0.99137565595628985 10.415800096559678 0 0 0 0 0.91408731502212459 -2.6846255119143279 0 -2.6846255119143279 6.1497600344220107 0 0 0 0 2.6496886948461054 -3.4785588148220086 0 -3.4785588148220086 6.0984270190135703 0 0 0 0 -1.3788783683959451 -1.9164663844089773 0 -1.9164663844089773 9.3667499567765162 0 0 0 0 1.2779012402020982 -1.6405177803678725 0 -1.6405177803678725 9.3657701521533454 0 0 0 0 0.66893531409816376 -3.1474126601379737 0 -3.1474126601379737 12.742158892285715 0 0 0 0 0.39365996544515225 -3.1031996689470014 0 -3.1031996689470014 6.8952941532810179 0 0 0 0 0.4168045174323538 -4.7878951760455948 0 -4.7878951760455948 12.646721945749519 0 0 0 0 0.57595320365228986 -2.5394608280267335 0 -2.5394608280267335 9.6640927210637528 0 0 0 0 1.6859426448091881 -4.5213075493229553 0 -4.5213075493229553 11.299522209902989 0 0 0 0 4.1543724088209331 -4.2857305807449393 0 -4.2857305807449393 7.8486562038615375 0 0 0 0 1.5742088180099358 -4.0904724238137078 0 -4.0904724238137078 10.634968441535875 0 0 0 0 1.0995833748507469 0.76165222800492849 0 0.76165222800492849 1.8771937077860521 0 0 0 0 -12.210302697461017 7.0761451128935278 0 7.0761451128935278 8.5840013481014807 0 0 0 0 2.7423498477465209 -2.945551583207461 0 -2.945551583207461 7.6344484663159164 0 0 0 0 7.8662662494343465 -10.198779092172572 0 -10.198779092172572 12.877073382253002 0 0 0 0 -13.008861002707608 -2.7345037963762735 0 -2.7345037963762735 24.716722921267774 0 0 0 0 8.327315517035359 20.241390274816922 0 20.241390274816922 -14.857451817099786 0 0 0 0 4.5583258808254925 -5.2168698369295043 0 -5.2168698369295043 9.6475266033298794 0 0 0 0 4.9751328278146971 -3.6402227040515243 0 -3.6402227040515243 13.162252664423704 0 0 0 0 -10.804518092056192 7.9187040336053087 0 7.9187040336053087 -12.1076999352765 0 0 0 0 0.73885167455277956 0.77482585370746904 0 0.77482585370746904 0.54696085727894861 0 0 0 0 -2.4507253333731995 19.02293008337233 0 19.02293008337233 -14.964127585008328 0 0 0 0 0.44159905524228193 8.3514005132381044 0 8.3514005132381044 -12.091421321366866 0 0 0 0 -5.5564616814245014 5.7779603502494865 0 5.7779603502494865 -14.980756521804324 0 0 0 0 7.1422836200822255 -11.881488187542118 0 -11.881488187542118 24.261569129020245 0 0 0 0 2.4599243330142855 -5.8598246832945051 0 -5.8598246832945051 21.798680988115848 0 0 0 0 2.6102374825909602 1.0295752335402995 0 1.0295752335402995 27.962191607911336 0 0 0 0 0.188526337862122 0.12676941972966915 0 0.12676941972966915 0.10695567615041579 0 0 0 0 0.87628583956032102 -13.905864194683431 0 -13.905864194683431 45.800451920386877 0 0 0 0 10.164597175038203 5.9609233355465676 0 5.9609233355465676 28.559432388198047 0 0 0 0 0.21114548677896583 0.21406534297979274 0 0.21406534297979274 0.2703699239314945 0 0 0 0 8.8560623483928893 -28.31810489080965 0 -28.31810489080965 42.528936585625615 0 0 0 0 4.9777114800913438 13.125329934079559 0 13.125329934079559 1.4267762028830475 0 0 0 0 0.52397529663563214 0.42456705514385673 0 0.42456705514385673 0.36588692711009685 0 0 0 0 -3.9438133215959272 -7.1710070532269583 0 -7.1710070532269583 23.874883316587784 0 0 0 0 -1.87685163617952 -4.7259396074473443 0 -4.7259396074473443 21.505060311214493 0 0 0 0 -0.71648485089602332 11.009271574128888 0 11.009271574128888 -14.549522432692811 0 0 0 0 1.9572968373805679 -8.61115144990913 0 -8.61115144990913 23.995423897378146 0 0 0 0 -1.5567774464210391 -8.1554868961125067 0 -8.1554868961125067 24.195762573052434 0 0 0 0 0.45457755732449556 0.62626083567301638 0 0.62626083567301638 0.86782381545457454 0 0 0 0 -5.9622383485615202 4.8007379551889358 0 4.8007379551889358 0.98066769229535566 0 0 0 0 -4.0518402261801647 -0.3623667141325484 0 -0.3623667141325484 4.3731631822774943 0 0 0 0 -0.6485027894213431 -1.153934843406887 0 -1.153934843406887 4.341034863835489 0 0 0 0 -0.80205047205151914 0.22867392312491575 0 0.22867392312491575 3.9337797868215603 0 0 0 0 0.025110595024528948 -0.97050695727375569 0 -0.97050695727375569 2.3326390123588681 0 0 0 0 -0.92513592094795527 -0.21250824523672529 0 -0.21250824523672529 0.73394771050529739 0 0 0 0 -3.0598822588378596 1.583043329777297 0 1.583043329777297 5.2770369264771944 0 0 0 0 0.043813555204749832 1.1968482441266133 0 1.1968482441266133 7.1152120558780894 0 0 0 0 -2.1710332849156924 0.80674356449446805 0 0.80674356449446805 9.7996890887534391 0 0 0 0 0.20399728420895258 1.6627101089745793 0 1.6627101089745793 1.2536328548640086 0 0 0 0 -3.0981606968969615 -1.2692449671272925 0 -1.2692449671272925 7.5090587077977489 0 0 0 0 -0.51118978741824828 -0.15927072087710004 0 -0.15927072087710004 -0.049517026198329539 0 0 0 0 -1.7616244347600514 -1.3814809357413651 0 -1.3814809357413651 6.7065767114636401 0 0 0 0 7.4350175631528721 -6.2835336138023195 0 -6.2835336138023195 9.9906326456693932 0 0 0 0 0.66467053459732284 -0.31075247344142554 0 -0.31075247344142554 8.7464333159587113 0 0 0 0 0.71368354566462311 0.88049509044142127 0 0.88049509044142127 1.5051434447717904 0 0 0 0 -0.92244543862240036 3.1816258624978673 0 3.1816258624978673 8.5758709507849176 0 0 0 0 4.2978789896257235 -5.3008927534073109 0 -5.3008927534073109 7.7465949677898607 0 0 0 0 -1.2159050441392214 -1.0714633984416508 0 -1.0714633984416508 11.076643736224014 0 0 0 0 -0.70817240498448386 0.42841519509670434 0 0.42841519509670434 5.9279593331033542 0 0 0 0 -0.07974480880107776 -1.1959976959141967 0 -1.1959976959141967 2.0882367403598923 0 0 0 0 5.4784584730323269 -2.8889119163383157 0 -2.8889119163383157 -0.5654493268295937 0 0 0 0 -0.73995193118058467 -1.2255764357637418 0 -1.2255764357637418 6.1408089598533024 0 0 0 0 0.48754097145223341 0.3342584571551015 0 0.3342584571551015 16.12605330421502 0 0 0 0 -0.030358432937930502 0.86207691217941829 0 0.86207691217941829 16.170640907448615 0 0 0 0 -0.61895107671722993 -2.3483885934561757 0 -2.3483885934561757 4.4985441718115515 0 0 0 0 0.48481728876049601 0.15261571797373108 0 0.15261571797373108 15.631557982585946 0 0 0 0 0.32447086823651716 -0.085749796620802954 0 -0.085749796620802954 17.130039955482061 0 0 0 0 0.55718018764844146 -0.25462331447261022 0 -0.25462331447261022 16.035939758043241 0 0 0 0 1.6677645005578938 -0.075263431793246127 0 -0.075263431793246127 12.561148673356001 0 0 0 0 -0.23580626078546629 0.32667438649741598 0 0.32667438649741598 12.891379025091737 0 0 0 0 0.71350001177836475 -1.1712267206921751 0 -1.1712267206921751 14.583280137690963 0 0 0 0 3.6952637129079449 2.0802118942337984 0 2.0802118942337984 16.709233081788625 0 0 0 0 1.1193440748326111 1.0202688269200735 0 1.0202688269200735 17.648424931256159 0 0 0 0 3.8243534391363028 1.4705621912398783 0 1.4705621912398783 14.229822048979258 0 0 0 0 2.6519956195443228 0.57228842330732732 0 0.57228842330732732 13.564622242171026 0 0 0 0 -1.9263117843493354 -1.1515042343239239 0 -1.1515042343239239 2.9748241830620152 0 0 0 0 0.018298525551818212 0.18147179102844646 0 0.18147179102844646 1.5584233123718105 0 0 0 0 2.6126865111575626 1.0037007204809925 0 1.0037007204809925 16.245423755254706 0 0 0 0 -1.2226318901603084 -0.75094840814472263 0 -0.75094840814472263 13.711668787398594 0 0 0 0 -0.057766989182084671 -1.0765980285773367 0 -1.0765980285773367 6.2669820005221482 0 0 0 0 -0.90819769439507692 -2.6862885806622447 0 -2.6862885806622447 3.4094697417718622 0 0 0 0 -0.18580133503428442 -0.47346986326101614 0 -0.47346986326101614 12.938762301637325 0 0 0 0 -0.41686989210498215 -2.1378339746494679 0 -2.1378339746494679 4.0152881360789126 0 0 0 0 -1.8650259373087366 0.94477422550926349 0 0.94477422550926349 14.380201020603067 0 0 0 0 -1.3568360395457191 1.6494575933811575 0 1.6494575933811575 12.145532369581815 0 0 0 0 0.59150341243133653 1.7514912075034772 0 1.7514912075034772 9.4642202348622959 0 0 0 0 1.210703815303134 -1.0111298599692873 0 -1.0111298599692873 8.3583729123602097 0 0 0 0 -0.034238095975676952 0.038347927393640902 0 0.038347927393640902 1.7725783545912188 0 0 0 0 3.8829120403846673 2.7936113115360968 0 2.7936113115360968 6.4766369053775179 0 0 0 0 0.82534342954750173 3.7115896521640934 0 3.7115896521640934 14.828576953126685 0 0 0 0 0.62256979060060758 1.2777274027439489 0 1.2777274027439489 13.013242114640434 0 0 0 0 0.68784216554682587 0.93542112549846479 0 0.93542112549846479 12.42042383518492 0 0 0 0 0.54115224871921441 -0.54339180416357635 0 -0.54339180416357635 13.113551846547125 0 0 0 0 -2.8440177063882572 -6.0317461288495906 0 -6.0317461288495906 25.251871954170895 0 0 0 0 -2.7534273051537355 0.45494063476940028 0 0.45494063476940028 10.175066619889776 0 0 0 0 2.8732512894255819 -1.0061228521730072 0 -1.0061228521730072 10.767342520982311 0 0 0 0 0.14885730419636878 -0.015455669921975002 0 -0.015455669921975002 -0.21729053133720377 0 0 0 0 -0.053908671624498083 1.316571907620073 0 1.316571907620073 7.7277118903953124 0 0 0 0 -5.3531952335295898 3.8920161181486037 0 3.8920161181486037 22.318057915470149 0 0 0 0 2.7397601551191713 -6.0207206268178197 0 -6.0207206268178197 11.29934997505552 0 0 0 0 -0.39512608300417451 3.5134651021814136 0 3.5134651021814136 10.688358843498008 0 0 0 0 -2.159978656093152 1.2759385309864228 0 1.2759385309864228 15.385258786134045 0 0 0 0 1.2891052359889841 -1.319636374595575 0 -1.319636374595575 4.9286547234810314 0 0 0 0 -0.37255148065048616 -1.9503723093193912 0 -1.9503723093193912 6.0436806744687033 0 0 0 0 -0.68565988464294314 -2.5427267194135328 0 -2.5427267194135328 1.604480268936189 0 0 0 0 -0.32218250879684218 -0.81166172608634746 0 -0.81166172608634746 3.367387003065331 0 0 0 0 0.0089768089336139667 -0.075708052690949046 0 -0.075708052690949046 8.2168497700217813 0 0 0 0 -0.42392268800207977 -2.1873672665018464 0 -2.1873672665018464 2.6501675662153197 0 0 0 0 -0.097657407434383003 -2.4095093658334008 0 -2.4095093658334008 5.4147897681377799 0 0 0 0 -0.39168488249261929 -0.12042858362444653 0 -0.12042858362444653 1.1480305747985087 0 0 0 0 -0.56757803694620179 -2.1214696016832022 0 -2.1214696016832022 6.659095969682312 0 0 0 0 -0.54096623276733058 -3.2561463340072585 0 -3.2561463340072585 1.8907001489462687 0 0 0 0 -0.52242830010555963 -2.4706317788709384 0 -2.4706317788709384 6.1326299258444124 0 0 0 0 0.020489068287361079 -1.7335544727120578 0 -1.7335544727120578 5.7794262062698181 0 0 0 0 3.5893756425131187 -10.433867969981293 0 -10.433867969981293 22.061930830055644 0 0 0 0 -0.25915581853574965 -2.3842664514201868 0 -2.3842664514201868 0.55950792020848161 0 0 0 0 5.8415476277769471 7.8746457734141586 0 7.8746457734141586 3.0151420756665175 0 0 0 0 -6.1682187865942524 -8.0186382021270219 0 -8.0186382021270219 24.99586542254292 0 0 0 0 0.32053080072820705 -0.086195210020295399 0 -0.086195210020295399 -0.64358694315809828 0 0 0 0 0.094054534284685687 -0.046244038635986584 0 -0.046244038635986584 0.67537020933293679 0 0 0 0 -4.8913137955337618 -1.2195825630942636 0 -1.2195825630942636 30.570527725923057 0 0 0 0 -3.7735081906447476 -2.8019626026607511 0 -2.8019626026607511 21.757689180056332 0 0 0 0 3.2749067291338179 5.73954302003267 0 5.73954302003267 30.087270237305347 0 0 0 0 0.40157620478146328 5.0131694627989418 0 5.0131694627989418 21.978744252983233 0 0 0 0 -1.6132182620744229 1.2995159583165226 0 1.2995159583165226 4.358560492994533 0 0 0 0 4.1869132867752796 -6.5768235997347801 0 -6.5768235997347801 9.5978845901877321 0 0 0 0 0.88328963810253924 4.4033381622839443 0 4.4033381622839443 -2.2756740718969013 0 0 0 0 -0.23782236673105217 -7.2366661862088222 0 -7.2366661862088222 7.7315593721750702 0 0 0 0 1.027908867257338 -2.4222700184227506 0 -2.4222700184227506 15.903993330683988 0 0 0 0 -1.1247466623809683 2.037738487010671 0 2.037738487010671 3.1179690536214615 0 0 0 0 -0.18106350566733909 0.56559782733802422 0 0.56559782733802422 19.78833273436021 0 0 0 0 -2.0451749626993205 -3.5647423642949434 0 -3.5647423642949434 16.242758684464206 0 0 0 0 0.033818752014269648 -2.0183108914052355 0 -2.0183108914052355 10.340355828017891 0 0 0 0 -0.72641770515391713 -1.5916145934096448 0 -1.5916145934096448 11.199222646502676 0 0 0 0 -0.9883778809701198 0.25748759980933755 0 0.25748759980933755 14.619602554536868 0 0 0 0 5.4055015661189429 -0.71134591325085239 0 -0.71134591325085239 8.1664317698950981 0 0 0 0 0.11122715244795245 -3.1004878333160377 0 -3.1004878333160377 18.490957401881133 0 0 0 0 -2.7267035556872372 -2.5116835709678753 0 -2.5116835709678753 7.8236445547236144 0 0 0 0 1.526514817313597 -4.9191176734414057 0 -4.9191176734414057 3.1428483320228224 0 0 0 0 -1.0210168921832536 -2.4837154640691477 0 -2.4837154640691477 2.9275575072005635 0 0 0 0 -0.62046397588977698 0.46081695982047677 0 0.46081695982047677 6.726626069251779 0 0 0 0 0.23661842951271694 3.3503929196713216 0 3.3503929196713216 15.610482766647237 0 0 0 0 -0.31928884533370416 -2.8897696231761625 0 -2.8897696231761625 1.8161031354006969 0 0 0 0 1.8056406501955991 2.0494506088334674 0 2.0494506088334674 12.004448981507267 0 0 0 0 -0.097736034659078541 -1.1486369210819021 0 -1.1486369210819021 12.079483718913252 0 0 0 0 0.18576742622445863 -0.95150257965406126 0 -0.95150257965406126 10.508280583600026 0 0 0 0 -1.9150455717036436 -1.3696226547093602 0 -1.3696226547093602 11.191995585871155 0 0 0 0 -0.30015396442067299 -2.6855236772789794 0 -2.6855236772789794 8.3370123624727057 0 0 0 0 -0.011545040200701351 -0.13212781104675742 0 -0.13212781104675742 12.810922796265913 0 0 0 0 0.5169574973666613 -0.5223644598681858 0 -0.5223644598681858 12.987231294486946 0 0 0 0 -0.70931116800052507 -1.4391217147577891 0 -1.4391217147577891 12.63891775711727 0 0 0 0 0.39165649596633045 -1.0892679680487163 0 -1.0892679680487163 12.076140745985867 0 0 0 0 0.6784010948138075 -0.55260737192111264 0 -0.55260737192111264 12.767334006448209 0 0 0 0 -0.1588573913272171 -1.0011677814816267 0 -1.0011677814816267 13.249064394936795 0 0 0 0 0.069364477052734186 -0.0224474050510306 0 -0.0224474050510306 -0.28770716472227376 0 0 0 0 -0.058175632533050248 1.4528514860626274 0 1.4528514860626274 18.989838755621349 0 0 0 0 1.9910850937039584 0.88701644963589388 0 0.88701644963589388 14.111884644963538 0 0 0 0 0.31216696904985497 -0.65792331525767622 0 -0.65792331525767622 13.609054128575735 0 0 0 0 1.1153097625812052 0.24650514055883832 0 0.24650514055883832 13.52381219109202 0 0 0 0 0.00431543225398201 0.33848748189166145 0 0.33848748189166145 13.200410371174257 0 0 0 0 -0.13783565768518094 -0.69953369548539646 0 -0.69953369548539646 11.068756781649427 0 0 0 0 -4.1842930573997741 -3.7022968082661691 0 -3.7022968082661691 15.201631449079287 0 0 0 0 0.21638127348750358 -0.26260348574978742 0 -0.26260348574978742 2.2367133936356085 0 0 0 0 -0.49105424767807904 -0.73128120989986201 0 -0.73128120989986201 14.398996588605314 0 0 0 0 -0.44512224966669578 -2.3535515603143722 0 -2.3535515603143722 14.052008377328548 0 0 0 0 0.29909920987604721 -1.1666134751208119 0 -1.1666134751208119 13.122682108352365 0 0 0 0 0.56450453625831187 -0.96340077369200117 0 -0.96340077369200117 11.222293905257175 0 0 0 0 -3.6710821561611375 4.1368468317158431 0 4.1368468317158431 22.044708582981912 0 0 0 0 0.44196610337989028 -1.404571460886018 0 -1.404571460886018 11.491818385945407 0 0 0 0 -0.11152569934024877 -0.65894101103039926 0 -0.65894101103039926 10.809046019963947 0 0 0 0 0.52253746095551468 -0.2477379611267061 0 -0.2477379611267061 -0.030139336347289714 0 0 0 0 -4.3738616792511138 8.6889022022304516 0 8.6889022022304516 21.182765413959714 0 0 0 0 0.3698978176758464 -2.8768985187411893 0 -2.8768985187411893 3.1347010585596324 0 0 0 0 1.853051670628588 -2.8034441119716575 0 -2.8034441119716575 18.326414185772592 0 0 0 0 0.33014042454191639 -1.4157860033503766 0 -1.4157860033503766 11.512850301721301 0 0 0 0 0.77788269355909989 3.2942646025799149 0 3.2942646025799149 18.343171426567555 0 0 0 0 3.7520483880055755 5.0620006913462134 0 5.0620006913462134 12.044997290005995 0 0 0 0 3.1505060642174314 3.5574873729702858 0 3.5574873729702858 23.128098848856098 0 0 0 0 -0.0060642974442637332 -0.18878010440625737 0 -0.18878010440625737 0.30814825476957353 0 0 0 0 0.54622936953910539 4.6965166113741361 0 4.6965166113741361 31.752891966682 0 0 0 0 9.1217015489938831 -0.86965895350112987 0 -0.86965895350112987 3.8697808517058547 0 0 0 0 0.44212716636809768 1.84338616330405 0 1.84338616330405 -0.0093779651057630531 0 0 0 0 8.2837774099019725 -4.4586204950305728 0 -4.4586204950305728 15.45999965961164 0 0 0 0 -7.136434197299991 4.9858180751045893 0 4.9858180751045893 9.6804261427942038 0 0 0 0 -0.5966051032802987 -0.36806525568091875 0 -0.36806525568091875 5.4200440039191804 0 0 0 0 9.0840071210676001 8.9407026507587943 0 8.9407026507587943 -12.047195751506024 0 0 0 0 -0.7693498449641254 0.5791572494290449 0 0.5791572494290449 5.9563528085075177 0 0 0 0 -9.375183567733659 -24.154849029767668 0 -24.154849029767668 34.084442727384157 0 0 0 0 -0.35454717764855681 -0.99891147555276394 0 -0.99891147555276394 6.0479382238447492 0 0 0 0 -2.9410234292116684 -1.1465766108262869 0 -1.1465766108262869 6.3404833917975338 0 0 0 0 -3.9945606184410849 1.20279490817029 0 1.20279490817029 8.3312437438171401 0 0 0 0 -5.6207671675192756 2.3390393163012959 0 2.3390393163012959 7.5515629565629752 0 0 0 0 -6.1389114198479007 3.3544246560022657 0 3.3544246560022657 9.6031877790283033 0 0 0 0 -8.7319459978754423 -0.71069293916298193 0 -0.71069293916298193 7.5614020581506338 0 0 0 0 -8.5185453495005348 0.17164701868239263 0 0.17164701868239263 11.134763928783286 0 0 0 0 -3.8887342514401553 -0.63064794007595992 0 -0.63064794007595992 6.1366435953711971 0 0 0 0 1.7490320516734243 10.524330554658263 0 10.524330554658263 62.200497399907363 0 0 0 0 -4.1867137215844465 -1.4136675209811074 0 -1.4136675209811074 4.7982027352209116 0 0 0 0 -0.23000912782569993 0.12068728990017874 0 0.12068728990017874 0.93258896915989808 0 0 0 0 23.196612655879733 51.412334872261908 0 51.412334872261908 73.53132143053881 0 0 0 0 -0.14034465814585501 0.55242341671228878 0 0.55242341671228878 0.59802235752615118 0 0 0 0 -7.1741390556968554 -6.8944002666971755 0 -6.8944002666971755 0.063941961625459953 0 0 0 0 -9.2758657218420737 -5.154162037588776 0 -5.154162037588776 10.766898105319342 0 0 0 0 9.0044474715664649 9.9369790164091683 0 9.9369790164091683 21.844318457964619 0 0 0 0 -7.6506447256571732 -0.24443460349539237 0 -0.24443460349539237 37.220510054260558 0 0 0 0 12.288893339307833 26.457233037422156 0 26.457233037422156 57.396673551712638 0 0 0 0 17.623954134333658 -7.0853876107976248 0 -7.0853876107976248 0.91430079512247175 0 0 0 0 0.46755686198983426 -4.090068924912714 0 -4.090068924912714 9.8914386034830386 0 0 0 0 -22.138643880693223 -14.451204282432627 0 -14.451204282432627 21.32903298130168 0 0 0 0 -20.181847919827419 -0.35757435307095875 0 -0.35757435307095875 14.520869977042594 0 0 0 0 -0.24692218101133034 -0.11346031121024502 0 -0.11346031121024502 0.040009430984798922 0 0 0 0 1.0125821700181064 0.61984887949984113 0 0.61984887949984113 10.905943636459824 0 0 0 0 -0.75223075218937974 -0.51128954920606873 0 -0.51128954920606873 3.4487186719580372 0 0 0 0 -0.75815402970636114 -2.4772795319640863 0 -2.4772795319640863 13.474977224775557 0 0 0 0 0.13652392885560971 -4.9858556106973992 0 -4.9858556106973992 14.704058705677198 0 0 0 0 3.4836005559170644 -3.534550408243831 0 -3.534550408243831 12.93925770466376 0 0 0 0 4.5110537468988525 2.3413296418766549 0 2.3413296418766549 16.985823629978654 0 0 0 0 -25.625009593794672 6.9740875830088953 0 6.9740875830088953 52.300292721798542 0 0 0 0 0.86092630231364176 1.91296611512578 0 1.91296611512578 -0.96479477720280826 0 0 0 0 -2.3772044118829498 1.7677386688883416 0 1.7677386688883416 -0.0075009290731031797 0 0 0 0 -3.5243110639603366 -2.0608746374127804 0 -2.0608746374127804 25.932642818492241 0 0 0 0 0.14299978239335628 0.17681931611093304 0 0.17681931611093304 -0.08050391735680229 0 0 0 0 5.6270497429703852 -1.2630225970519859 0 -1.2630225970519859 1.5900871672465655 0 0 0 0 -0.94348924192606631 -0.10136740174539227 0 -0.10136740174539227 2.0197558427153126 0 0 0 0 -9.5003582312501322 -4.4397202767718227 0 -4.4397202767718227 9.31570542269219 0 0 0 0 -5.8692426973638305 3.2952137896904787 0 3.2952137896904787 12.379212575538986 0 0 0 0 -12.151863114934969 5.119328705776752 0 5.119328705776752 14.214497698617379 0 0 0 0 -0.010968862537005519 0.15698725219987608 0 0.15698725219987608 0.1201801481332323 0 0 0 0 5.2726578456876751 4.2156878183682238 0 4.2156878183682238 -11.070356796315536 0 0 0 0 -10.538289159402098 7.0840184065455105 0 7.0840184065455105 14.985397541606289 0 0 0 0 -2.8854796620164223 9.8613247322082316 0 9.8613247322082316 10.909747365269141 0 0 0 0 -8.4374430894027626 3.742828476854811 0 3.742828476854811 11.195447152489578 0 0 0 0 -12.223887614203903 1.5664084608533813 0 1.5664084608533813 11.549090582122858 0 0 0 0 -10.476110817181578 -17.289901549349906 0 -17.289901549349906 -11.439690664409682 0 0 0 0 -0.12650214702398455 -0.025064728468468189 0 -0.025064728468468189 -0.0090392397733083385 0 0 0 0 -4.7642567569189964 28.460572990909895 0 28.460572990909895 59.248842593651261 0 0 0 0 -0.73190466161036127 5.1308334787099739 0 5.1308334787099739 10.908137454905045 0 0 0 0 -19.023914053443988 4.5233374293286488 0 4.5233374293286488 26.372617214474303 0 0 0 0 -7.2232370169912485 -7.6557413033324337 0 -7.6557413033324337 37.130208755155763 0 0 0 0 -1.5560619262261142 2.3131253769552131 0 2.3131253769552131 17.756586123568923 0 0 0 0 4.3622861742285526 1.918927512189839 0 1.918927512189839 17.017893941304465 0 0 0 0 -3.2001244210874766 6.3777149855245625 0 6.3777149855245625 10.576238529888997 0 0 0 0 2.2130028596134785 2.9241319951252081 0 2.9241319951252081 8.7977488333822293 0 0 0 0 -2.2533466315855151 2.9147248471740568 0 2.9147248471740568 7.3877471107407473 0 0 0 0 -0.15022282409502452 5.2955331882158134 0 5.2955331882158134 7.2075533368715696 0 0 0 0 -0.067963907481009223 7.6224961828525011 0 7.6224961828525011 8.1032213314556429 0 0 0 0 4.9892459218291139 3.9759820411100009 0 3.9759820411100009 9.6858460600233229 0 0 0 0 5.5430610333786419 14.328979035165503 0 14.328979035165503 12.099583149720956 0 0 0 0 -17.99623309735631 -10.667620351700407 0 -10.667620351700407 3.9262783349813617 0 0 0 0 -0.15989671688080259 0.01446886838026451 0 0.01446886838026451 -0.37484863606601238 0 0 0 0 -0.67879132512974394 5.0487138095741102 0 5.0487138095741102 10.904729692867818 0 0 0 0 -11.754609363871623 11.327046352274465 0 11.327046352274465 11.582114062915025 0 0 0 0 -14.369733794639863 6.069600883597559 0 6.069600883597559 32.310867595841046 0 0 0 0 0.6270906414397075 12.028348655236186 0 12.028348655236186 -8.5506302160929408 0 0 0 0 -8.3191070238962084 19.396138499369044 0 19.396138499369044 -4.0127894152356021 0 0 0 0 -14.610513056039423 0.22165784694652757 0 0.22165784694652757 24.336933311285975 0 0 0 0 12.901445498263286 7.343878183139168 0 7.343878183139168 2.8292193260876957 0 0 0 0 31.28214508899373 85.708747769340334 0 85.708747769340334 -137.29549491644866 0 0 0 0 -1.8256104074910073 1.0785537481896696 0 1.0785537481896696 -0.70040782634894505 0 0 0 0 -4.8909656769483263 16.005570396345774 0 16.005570396345774 26.100716791086597 0 0 0 0 -30.987022757976092 78.682363438950233 0 78.682363438950233 58.561482040416053 0 0 0 0 -69.511072328076239 34.403747719301464 0 34.403747719301464 42.410645515991746 0 0 0 0 5.7112146863390336 11.112978283582606 0 11.112978283582606 6.9129514191527051 0 0 0 0 2.4019664418902096 0.13298320570174837 0 0.13298320570174837 -0.31545280514910701 0 0 0 0 -1.1400860178192151 9.1833884355737609 0 9.1833884355737609 13.669956188604374 0 0 0 0 -0.26807893223430151 1.1702865895213517 0 1.1702865895213517 1.3165968928568219 0 0 0 0 -3.8026637659100402 -0.17167847397229252 0 -0.17167847397229252 11.128116292681625 0 0 0 0 0.65090137472923648 3.5130370769863601 0 3.5130370769863601 9.3177889407619254 0 0 0 0 -0.81742853099942647 9.2473915545579075 0 9.2473915545579075 10.061869700884927 0 0 0 0 17.51953144721324 -60.506079447180127 0 -60.506079447180127 -5.7420694826132603 0 0 0 0 7.9674602881066221 -21.498790843483221 0 -21.498790843483221 -12.522916598629308 0 0 0 0 12.023954718824029 -32.43117034410875 0 -32.43117034410875 13.786507853574221 0 0 0 0 86.236413785241268 -17.331561253413383 0 -17.331561253413383 -16.757886210375091 0 0 0 0 -34.375595228703354 0.76667266807271517 0 0.76667266807271517 21.989068074686656 0 0 0 0 18.470067284850273 45.504993869396458 0 45.504993869396458 48.004248395795003 0 0 0 0 19.054458999967707 -9.655037293720568 0 -9.655037293720568 -1.7073902246465877 0 0 0 0 -7.9532349248977994 5.4289430845549305 0 5.4289430845549305 8.8585572295887687 0 0 0 0 16.74207145120829 11.693767952531744 0 11.693767952531744 6.3301138765828 0 0 0 0 2.4990735439460536 -10.75334913943334 0 -10.75334913943334 6.8730873197146138 0 0 0 0 -10.910434226707054 -23.692483998156604 0 -23.692483998156604 11.138482454707628 0 0 0 0 -35.775546648005275 -7.7505646392337439 0 -7.7505646392337439 23.769867592491437 0 0 0 0 8.1516728650554455 -3.7114765036976678 0 -3.7114765036976678 21.83881686186669 0 0 0 0 -3.3346674322274623 5.3262149210713687 0 5.3262149210713687 13.088238177910171 0 0 0 0 -6.6844867928253962 6.9616792527535836 0 6.9616792527535836 22.107066739611355 0 0 0 0 -66.22547242001599 24.820811972055708 0 24.820811972055708 8.4674793784470239 0 0 0 0 -61.390209594514715 -50.754111236021345 0 -50.754111236021345 16.561295900568439 0 0 0 0 -81.104610313863986 -8.3186305252302191 0 -8.3186305252302191 37.923144186204809 0 0 0 0 -61.264943311528612 -39.405980446432295 0 -39.405980446432295 30.076516734789038 0 0 0 0 -1.2024607501025377 0.49382940889302063 0 0.49382940889302063 -0.11664424022209374 0 0 0 0 1.3127898398946343 24.359174729745064 0 24.359174729745064 2.7832251895524678 0 0 0 0 -47.995620043101553 -56.76512404092864 0 -56.76512404092864 52.605897120029113 0 0 0 0 -4.3602365028734766 -49.78733713505153 0 -49.78733713505153 -17.840464119473381 0 0 0 0 -77.448537212161682 -0.34194697364910098 0 -0.34194697364910098 10.457740583703526 0 0 0 0 -0.70698774635640804 -0.44422346940521606 0 -0.44422346940521606 -0.53104718187828581 0 0 0 0 11.167909807229677 -119.04058763237799 0 -119.04058763237799 27.126354665897452 0 0 0 0 -7.663859271412889 -39.456893999007661 0 -39.456893999007661 29.551238638108998 0 0 0 0 -11.460707638703695 0.56464907239416107 0 0.56464907239416107 39.016479293288285 0 0 0 0 -11.212850333260747 3.8916599115445933 0 3.8916599115445933 30.009459631103567 0 0 0 0 -4.6976244341894926 13.647079741132984 0 13.647079741132984 4.7631003511141898 0 0 0 0 -33.781091375007847 64.136394774194969 0 64.136394774194969 25.677978051279752 0 0 0 0 47.559272921995159 28.333296289114514 0 28.333296289114514 7.1864726328626602 0 0 0 0 0.043922280469532754 0.15801978710680054 0 0.15801978710680054 1.0709400129584381 0 0 0 0 0.48109631606753056 -2.7278307406312665 0 -2.7278307406312665 9.520051883548021 0 0 0 0 53.373864852514799 -19.281985355228244 0 -19.281985355228244 -5.6008471453533275 0 0 0 0 -36.144554901428535 -29.053157607440426 0 -29.053157607440426 25.956897067635509 0 0 0 0 14.001349594321027 -42.873722014003761 0 -42.873722014003761 17.33281904038904 0 0 0 0 6.2543607881614776 -1.9055873586671623 0 -1.9055873586671623 4.1025166555918986 0 0 0 0 1.912461799415837 -11.163092881423836 0 -11.163092881423836 0.16324983693152717 0 0 0 0 -0.11731306246695794 -2.8362199666849435 0 -2.8362199666849435 7.387552412457234 0 0 0 0 -1.6182187380506354 -3.2162756885773547 0 -3.2162756885773547 9.6463164176557257 0 0 0 0 0.02061602239199703 -2.7197644459704104 0 -2.7197644459704104 8.7174238992616573 0 0 0 0 -0.35434160080066412 -3.7371614480497328 0 -3.7371614480497328 10.546822984004393 0 0 0 0 -0.75284807080159155 -2.0453201167956196 0 -2.0453201167956196 5.584493551458289 0 0 0 0 -0.47782223157447873 -2.498591176234839 0 -2.498591176234839 7.9104559651155704 0 0 0 0 -1.5466457681666013 -8.4852212429533438 0 -8.4852212429533438 0.056498518270018394 0 0 0 0 -0.60467690226573723 -6.684732917882684 0 -6.684732917882684 5.2705451504334633 0 0 0 0 -2.6144112989156838 -4.7407712685021579 0 -4.7407712685021579 9.843055781442672 0 0 0 0 0.98365805122959094 -3.0658512151658499 0 -3.0658512151658499 4.3213945701278913 0 0 0 0 0.036181340203683021 -4.5835306820915775 0 -4.5835306820915775 7.9308394452236826 0 0 0 0 0.533889738002161 -3.5736140797131659 0 -3.5736140797131659 5.2103468174494658 0 0 0 0 -4.2786072374919968 -5.0606277312226666 0 -5.0606277312226666 30.321334128668184 0 0 0 0 3.4053449270747365 1.413794195459559 0 1.413794195459559 22.161578663271939 0 0 0 0 -0.35881558432004657 -1.4639066260323892 0 -1.4639066260323892 2.7746057387570531 0 0 0 0 2.2729475464375355 -6.6076655060460325 0 -6.6076655060460325 8.3761615063449426 0 0 0 0 2.9310336753244428 -5.5652238280797519 0 -5.5652238280797519 7.6039594921148819 0 0 0 0 1.7173571826722309 -5.2813926372500646 0 -5.2813926372500646 7.9135829396209374 0 0 0 0 -1.9735180446689216 -1.9891335481960351 0 -1.9891335481960351 1.4795044162599194 0 0 0 0 -0.35139996461919099 -0.70175692677909396 0 -0.70175692677909396 0.49431826127180756 0 0 0 0 -26.372696720287877 -2.7106851382632158 0 -2.7106851382632158 1.0375522268318491 0 0 0 0 -71.629764457810523 8.6299379057094825 0 8.6299379057094825 2.7475678905111636 0 0 0 0 -47.661333799271347 -37.363349103794917 0 -37.363349103794917 11.45590996979081 0 0 0 0 1.9722358218687077 -6.2646933182049906 0 -6.2646933182049906 8.3608104502260687 0 0 0 0 -1.5280405248941813 -1.0682443743005603 0 -1.0682443743005603 6.9997641827464143 0 0 0 0 -2.9449640185860062 0.21819737253645144 0 0.21819737253645144 9.3431196513238319 0 0 0 0 -1.349367868049228 5.9098983457899976 0 5.9098983457899976 9.1314864760461205 0 0 0 0 -5.1418504173416295 -1.1039510277551017 0 -1.1039510277551017 10.559267521890433 0 0 0 0 7.7036820840517768 -9.3114899238320135 0 -9.3114899238320135 8.3887486893102317 0 0 0 0 0.54095647329167185 -5.4626141075863437 0 -5.4626141075863437 6.1670676929102548 0 0 0 0 7.3425714290606265 -9.4491968734837428 0 -9.4491968734837428 -2.553271189057341 0 0 0 0 -2.6908518637096677 -3.0394189746421034 0 -3.0394189746421034 5.5563802847464103 0 0 0 0 1.4648218671295066 -6.1790457921238957 0 -6.1790457921238957 7.4381896881464229 0 0 0 0 -3.1056212028253087 -4.7437505130103563 0 -4.7437505130103563 5.2263689701483642 0 0 0 0 8.4162664235770706 -3.396864286722348 0 -3.396864286722348 4.0014428893900913 0 0 0 0 10.575201368812372 -5.7553344565976658 0 -5.7553344565976658 1.6537922025627267 0 0 0 0 -7.9951122372222017 -21.365174006661618 0 -21.365174006661618 8.2266297217974511 0 0 0 0 -6.5900921462289315 0.70910208082876025 0 0.70910208082876025 2.1587116805312299 0 0 0 0 -39.657407290961601 -24.566868594987682 0 -24.566868594987682 59.166203791436146 0 0 0 0 -55.742426902233547 -16.869113658788592 0 -16.869113658788592 34.323126536304699 0 0 0 0 -0.21708350188579617 -0.079815900580317845 0 -0.079815900580317845 0.67335248979978957 0 0 0 0 -3.6198093573108281 -82.919525293019888 0 -82.919525293019888 67.904168694074542 0 0 0 0 5.5893532788895657 -6.2398100998526536 0 -6.2398100998526536 6.8489108572278461 0 0 0 0 30.403954401999727 -31.31848435835991 0 -31.31848435835991 -43.837796218793301 0 0 0 0 -15.628968923919615 13.890099859160273 0 13.890099859160273 15.243020867264931 0 0 0 0 45.095463216413236 3.2165719445119976 0 3.2165719445119976 -35.925894109573505 0 0 0 0 6.8617981506652654 -24.273361277007098 0 -24.273361277007098 -30.50403703887514 0 0 0 0 7.7578038726107366 7.3062680090090453 0 7.3062680090090453 5.746313519472551 0 0 0 0 7.5307502620194668 2.9211535317822381 0 2.9211535317822381 -6.5306857548403059 0 0 0 0 1.7006951891813031 -3.3175703732890724 0 -3.3175703732890724 -0.96474401511378005 0 0 0 0 0.45676070567304022 -0.29950182065206987 0 -0.29950182065206987 2.0460577299352209 0 0 0 0 0.63578336530982205 0.18522398721283206 0 0.18522398721283206 1.7258387952131047 0 0 0 0 -15.979538074641168 -17.242996775803093 0 -17.242996775803093 30.138962971207093 0 0 0 0 -18.591734152884548 12.444020202994835 0 12.444020202994835 25.010317772137569 0 0 0 0 11.901899647004278 -8.0466279995131345 0 -8.0466279995131345 -1.0858223510722382 0 0 0 0 7.8764697940410713 -7.0599924969110361 0 -7.0599924969110361 1.4218238834723707 0 0 0 0 0.93256351872845977 -3.0029663167612615 0 -3.0029663167612615 3.6528804097292715 0 0 0 0 0.62916777821902703 -0.73724201516680221 0 -0.73724201516680221 -0.039483811296726401 0 0 0 0 -14.256503413839001 -4.8048736462737907 0 -4.8048736462737907 9.2272272929449173 0 0 0 0 8.0406703957633567 -10.088351366159941 0 -10.088351366159941 1.6045479013855584 0 0 0 0 -7.212903593112685 -9.8622114445438456 0 -9.8622114445438456 2.1291992412297986 0 0 0 0 -0.53760806511946102 -0.10500001574496842 0 -0.10500001574496842 0.40594091770648966 0 0 0 0 0.058412128475083591 -2.8328707512137044 0 -2.8328707512137044 0.66980371866884525 0 0 0 0 1.7357069924789812 -4.9056232895363792 0 -4.9056232895363792 -0.62061609274132934 0 0 0 0 0.31573041944875735 -3.2269099045099683 0 -3.2269099045099683 5.9533462258073726 0 0 0 0 1.2672237531115784 -4.2598529981941198 0 -4.2598529981941198 3.5378066047637695 0 0 0 0 -0.3665714272750511 -3.4960925174048088 0 -3.4960925174048088 6.1377989550242837 0 0 0 0 -0.751086100094426 -4.1289602877632205 0 -4.1289602877632205 5.1345760196404626 0 0 0 0 4.8400400931131742 -5.320678380947129 0 -5.320678380947129 4.6430769352537027 0 0 0 0 1.7223275512906013 -0.3866185884031168 0 -0.3866185884031168 2.0670008206913195 0 0 0 0 54.664177197770428 -70.236179351554711 0 -70.236179351554711 17.28818351341215 0 0 0 0 18.680824385377946 11.005750526768679 0 11.005750526768679 102.12604964555885 0 0 0 0 37.38812714750992 -60.494434464607593 0 -60.494434464607593 141.60456919974604 0 0 0 0 -0.53267723910315667 1.6113805304042352 0 1.6113805304042352 9.0955404923586585 0 0 0 0 -4.0614346835505728 11.307385611033169 0 11.307385611033169 17.747148401378581 0 0 0 0 -0.76293209971643461 1.1572239197110115 0 1.1572239197110115 0.58237592952410822 0 0 0 0 -0.78915970913249112 6.0492948175606216 0 6.0492948175606216 12.417804154576288 0 0 0 0 40.010127571510111 32.023146554134655 0 32.023146554134655 22.090014725935816 0 0 0 0 0.036059943147973339 0.11577700987119677 0 0.11577700987119677 2.8304856417661881 0 0 0 0 118.65185136665826 49.864218792264182 0 49.864218792264182 22.331768121402092 0 0 0 0 -121.31501473592425 -12.472987409103553 0 -12.472987409103553 53.859855665335999 0 0 0 0 -38.943352567367697 33.265983023802619 0 33.265983023802619 63.962096279775324 0 0 0 0 42.58077741466721 25.408978498343686 0 25.408978498343686 29.462176472230567 0 0 0 0 -29.553106503304207 3.6622500377816323 0 3.6622500377816323 61.580320581473586 0 0 0 0 -36.515071951465188 23.966115512376746 0 23.966115512376746 9.7218498450993138 0 0 0 0 -71.04529485184662 -28.101474687530754 0 -28.101474687530754 35.78954585902693 0 0 0 0 -75.264684397192966 -20.558056123982851 0 -20.558056123982851 22.745183401462782 0 0 0 0 -61.054708190351221 -46.227284242754195 0 -46.227284242754195 -1.6629252709717548 0 0 0 0 -57.705461917258162 -35.253999132675744 0 -35.253999132675744 19.728584935422077 0 0 0 0 -67.874940361141626 -130.29819428708288 0 -130.29819428708288 -107.14378242439034 0 0 0 0 -1.9828294316294857 0.94787418311893035 0 0.94787418311893035 -0.60684545482165397 0 0 0 0 -52.780871533121683 -19.347963988372385 0 -19.347963988372385 -14.000354694133421 0 0 0 0 -89.843356457157597 -18.914669412575677 0 -18.914669412575677 56.250423517011313 0 0 0 0 -37.825912912683407 48.468257040530148 0 48.468257040530148 94.912492087649298 0 0 0 0 -42.133043234372053 -73.642720083607855 0 -73.642720083607855 -22.821367615572171 0 0 0 0 -86.725436722465474 4.4553573644361677 0 4.4553573644361677 38.641298398286381 0 0 0 0 -66.601751542558873 -212.63104008242999 0 -212.63104008242999 112.52830677159272 0 0 0 0 -75.440548539239103 -21.998474043728493 0 -21.998474043728493 29.660988223493405 0 0 0 0 -209.74464663112212 -47.883379430294326 0 -47.883379430294326 177.57287975271993 0 0 0 0 16.116015374964405 95.717105645449919 0 95.717105645449919 124.17889008168731 0 0 0 0 186.1234539838118 -71.502272582695696 0 -71.502272582695696 126.71262641771045 0 0 0 0 141.50110044880631 -174.31386246307511 0 -174.31386246307511 -25.958145539688303 0 0 0 0 115.20532337456933 -59.851565574709184 0 -59.851565574709184 252.10819646379514 0 0 0 0 -1.1718292829102666 -11.409675534325288 0 -11.409675534325288 264.54604257219034 0 0 0 0 -8.9307665560431815 -45.584334901933744 0 -45.584334901933744 87.453407231648498 0 0 0 0 -24.943437120651708 18.625692941490456 0 18.625692941490456 15.312259184454888 0 0 0 0 -5.3570250057136306 2.505590242365674 0 2.505590242365674 7.6131644091887853 0 0 0 0 -29.287147180805732 0.28887647630472202 0 0.28887647630472202 51.049554520406673 0 0 0 0 93.556935762363167 -236.654358883442 0 -236.654358883442 183.34427046917676 0 0 0 0 93.159978755361863 -211.12145846842625 0 -211.12145846842625 59.398896164982943 0 0 0 0 -11.067175516869838 -9.9193883643247318 0 -9.9193883643247318 36.723093648780832 0 0 0 0 -11.062625409091197 -13.118771426321473 0 -13.118771426321473 18.464130021169694 0 0 0 0 -4.1042994423758197 2.8359215162925473 0 2.8359215162925473 9.4861928314492445 0 0 0 0 213.37117084238162 203.7018614455028 0 203.7018614455028 576.08117832210337 0 0 0 0 -315.26826095553304 -326.96938127463704 0 -326.96938127463704 833.15690762534268 0 0 0 0 114.14004803114315 -142.80245440773564 0 -142.80245440773564 -29.691574336033227 0 0 0 0 85.133117766500504 -282.40086504963801 0 -282.40086504963801 169.44735830905165 0 0 0 0 -100.43217593292366 97.528335751017039 0 97.528335751017039 775.2866473493923 0 0 0 0 -18.200978248680343 4.3294587662992399 0 4.3294587662992399 472.44099993038071 0 0 0 0 -72.107783893008673 -3.8603125865229231 0 -3.8603125865229231 4.0575678082768718 0 0 0 0 2.2753971943616316 -2.297374848280489 0 -2.297374848280489 2.6630955119364046 0 0 0 0 7.5442107744486862 -2.2753262430676386 0 -2.2753262430676386 14.667444161255844 0 0 0 0 0.88194211538906608 -0.70513501362489528 0 -0.70513501362489528 3.7295017808818942 0 0 0 0 -53.663979344344341 -270.87837076157348 0 -270.87837076157348 366.48734652525854 0 0 0 0 -7.5184294849445905 -7.7340751963420189 0 -7.7340751963420189 20.984404679417821 0 0 0 0 -0.1908620096243947 2.5036224655749528 0 2.5036224655749528 7.067855185740056 0 0 0 0 4.9453488018009466 15.109710292645104 0 15.109710292645104 5.7687235924440756 0 0 0 0 21.329814972412805 44.835241541187315 0 44.835241541187315 379.41620899225836 0 0 0 0 15.095662071580353 141.80738255522419 0 141.80738255522419 499.89210779500672 0 0 0 0 3.0498667752197126 -2.1180446742075638 0 -2.1180446742075638 2.281437465365296 0 0 0 0 -5.2895028546213325 -8.4797132726303062 0 -8.4797132726303062 7.2826403232356824 0 0 0 0 155.56549865089198 -56.265241681714997 0 -56.265241681714997 -12.065915408213186 0 0 0 0 -6.9093463603985583 -4.2989146329755386 0 -4.2989146329755386 38.361518573434296 0 0 0 0 1.244797978525527 -0.57484283010741244 0 -0.57484283010741244 0.7758462926622931 0 0 0 0 99.392815313324689 16.382966475156081 0 16.382966475156081 -7.0201045011663155 0 0 0 0 5.6897181823381118 19.03690618680298 0 19.03690618680298 23.908082058764194 0 0 0 0 6.3569627722943833 -3.3191274121715022 0 -3.3191274121715022 4.3266175718784705 0 0 0 0 47.158745100633624 -50.228269823687697 0 -50.228269823687697 53.584452938835057 0 0 0 0 -91.275360488245411 -58.751756689829563 0 -58.751756689829563 637.49331611336129 0 0 0 0 56.803378318324206 -203.32256873816868 0 -203.32256873816868 306.97797795442784 0 0 0 0 5.1289091149947517 -2.5408131197674919 0 -2.5408131197674919 1.1642415305684626 0 0 0 0 -8.9820957360253715 -39.392614467616568 0 -39.392614467616568 -15.227060833898577 0 0 0 0 -16.74710476207234 -27.924783395204258 0 -27.924783395204258 272.24092400959341 0 0 0 0 13.717586466953978 38.43792036508097 0 38.43792036508097 262.85112246726612 0 0 0 0 0.15816979414752552 -17.390356104403509 0 -17.390356104403509 249.18703447401322 0 0 0 0 -0.0053486498517621439 -0.014056602700976528 0 -0.014056602700976528 0.96389405401723494 0 0 0 0 -12.466922564774421 60.474475257461336 0 60.474475257461336 222.03622340357788 0 0 0 0 30.492867246088004 -18.190987406453132 0 -18.190987406453132 0.34452138849363223 0 0 0 0 59.825733996359624 -92.676108334072808 0 -92.676108334072808 140.26190286109613 0 0 0 0 45.20501321293591 10.36845874183382 0 10.36845874183382 5.8404508015095189 0 0 0 0 15.889891106171717 31.675754215455754 0 31.675754215455754 212.18075251279788 0 0 0 0 68.066368366580321 -5.2077261753261155 0 -5.2077261753261155 52.718872080881567 0 0 0 0 49.662013876633537 -58.177878092400775 0 -58.177878092400775 78.427610003230257 0 0 0 0 -23.322753977370951 -48.751452517676626 0 -48.751452517676626 337.12417878921269 0 0 0 0 -11.846047979649029 -103.22144082414661 0 -103.22144082414661 322.5193584595736 0 0 0 0 -32.199669458324991 -17.342060461779511 0 -17.342060461779511 292.79704177482381 0 0 0 0 52.074963002198672 -18.567699066073146 0 -18.567699066073146 287.80026887148392 0 0 0 0 77.443297943464216 -9.999122822131767 0 -9.999122822131767 206.26879830055805 0 0 0 0 16.953847534668569 -81.166699648983695 0 -81.166699648983695 182.63395489115101 0 0 0 0 35.979894156928893 -78.62441432013884 0 -78.62441432013884 24.999124895426576 0 0 0 0 130.78921751702933 -20.289386317901517 0 -20.289386317901517 55.253097796144175 0 0 0 0 133.76907756831787 72.736578088932106 0 72.736578088932106 277.43091196379009 0 0 0 0 75.097957616410724 -105.18376078037886 0 -105.18376078037886 83.355169665089306 0 0 0 0 16.130336166819802 -29.765057563266055 0 -29.765057563266055 185.37378139009934 0 0 0 0 46.158672180691497 -50.630739833162352 0 -50.630739833162352 75.928527240310359 0 0 0 0 -41.75510322897378 42.744098725079311 0 42.744098725079311 46.808798961461434 0 0 0 0 -7.6177203186903171 52.468843407588793 0 52.468843407588793 15.390195225125808 0 0 0 0 21.248417156932305 36.566404435963705 0 36.566404435963705 3.509092856670577 0 0 0 0 -1.4626956386070942 2.4709444973879222 0 2.4709444973879222 5.5517048856363473 0 0 0 0 234.25299624617912 149.80901529973471 0 149.80901529973471 500.07670128182508 0 0 0 0 -22.861039214076904 -5.8257170108456648 0 -5.8257170108456648 589.92021328014198 0 0 0 0 1.1166350482109524 0.068561027773925254 0 0.068561027773925254 1.8467079499705044 0 0 0 0 29.97838970003437 -18.121282272172721 0 -18.121282272172721 18.413307856900246 0 0 0 0 -14.348446726907383 -4.5683122656768091 0 -4.5683122656768091 -112.90627067174137 0 0 0 0 -0.60024839094818372 -0.1873359662685079 0 -0.1873359662685079 1.5562903922432358 0 0 0 0 93.413377132050584 114.67117170300548 0 114.67117170300548 244.34975745370957 0 0 0 0 272.15225446048714 161.67784916943128 0 161.67784916943128 -7.0839134078732968 0 0 0 0 138.03965474818744 250.41072835982663 0 250.41072835982663 607.82241453964707 0 0 0 0 -28.611107964482901 78.032431667742003 0 78.032431667742003 499.8783867459988 0 0 0 0 81.073996794024382 125.05879463997246 0 125.05879463997246 375.2396933530672 0 0 0 0 17.373320099822031 25.367966928203714 0 25.367966928203714 288.12508442059197 0 0 0 0 80.796099352439896 11.96559945980573 0 11.96559945980573 285.17193210320102 0 0 0 0 0.71530466536145809 45.065881041323451 0 45.065881041323451 353.01372647389189 0 0 0 0 -60.544438055623608 7.6722182514678252 0 7.6722182514678252 376.18081068469746 0 0 0 0 -80.576320122393724 -4.5915025970928127 0 -4.5915025970928127 499.88525104056851 0 0 0 0 -89.775878012923414 -85.945303687824435 0 -85.945303687824435 356.27645462373039 0 0 0 0 -75.676697145442375 -82.8139889997924 0 -82.8139889997924 248.40056790251901 0 0 0 0 -86.52181966838171 -20.608950508132921 0 -20.608950508132921 362.13113664105299 0 0 0 0 -2.2773528121694611 12.96790474070508 0 12.96790474070508 308.3729910960501 0 0 0 0 -2.0671309995157787 -75.523011760947838 0 -75.523011760947838 494.20310218551663 0 0 0 0 -1.1407861821811702 -0.88101143598040466 0 -0.88101143598040466 0.75000883562498788 0 0 0 0 -80.174395183065513 -43.04920510737783 0 -43.04920510737783 503.21344386162741 0 0 0 0 3.9594147484370628 -68.032845683853679 0 -68.032845683853679 500.03621522135541 0 0 0 0 -24.93014933969738 -104.73462371899222 0 -104.73462371899222 255.22519651826417 0 0 0 0 -0.58371075001455097 -0.44765354367443866 0 -0.44765354367443866 0.53146472718833171 0 0 0 0 49.94221349632852 -76.199289796766948 0 -76.199289796766948 207.46630374320512 0 0 0 0 -8.0034600923806352 -94.44659187347321 0 -94.44659187347321 401.14332049706991 0 0 0 0 27.984492045419984 -69.05049797608558 0 -69.05049797608558 159.39973857208793 0 0 0 0 -16.091700418755579 -54.422514939993562 0 -54.422514939993562 203.71775102738502 0 0 0 0 -13.36335655223678 -71.569022196635871 0 -71.569022196635871 239.87905429905504 0 0 0 0 -7.923033777199862 -13.536726649060483 0 -13.536726649060483 96.618331832350918 0 0 0 0 14.970550203913604 -10.902363925597228 0 -10.902363925597228 96.518729630664893 0 0 0 0 1.8737982448093682 1.3497618997718348 0 1.3497618997718348 251.62191949021781 0 0 0 0 -26.262326003456167 -21.471905928780188 0 -21.471905928780188 234.9089887447235 0 0 0 0 -27.335949217864083 -13.669692883220705 0 -13.669692883220705 182.66122713448817 0 0 0 0 13.552798454687562 51.921493080547066 0 51.921493080547066 105.63861681952017 0 0 0 0 11.590543599234742 22.606148408587728 0 22.606148408587728 -8.7751026368068779 0 0 0 0 0.26845725767802431 0.40125293391700456 0 0.40125293391700456 0.45324885597852038 0 0 0 0 8.0350722846351772 -7.9737587114266262 0 -7.9737587114266262 0.44179083408243969 0 0 0 0 -0.53551110134318947 -20.403228406554263 0 -20.403228406554263 26.902950000188753 0 0 0 0 6.5544459976288891 -16.562229242776766 0 -16.562229242776766 30.43111868080382 0 0 0 0 23.937707013724285 13.744783964467615 0 13.744783964467615 13.031580597003085 0 0 0 0 25.397891186252174 18.538437924475829 0 18.538437924475829 31.269660233093873 0 0 0 0 10.011574020608741 2.7136675598760576 0 2.7136675598760576 13.688554049175309 0 0 0 0 7.5086815757344567 3.6932080430981387 0 3.6932080430981387 19.823880174698388 0 0 0 0 -0.23896544863131952 -0.087781431765539431 0 -0.087781431765539431 -0.30583973395534692 0 0 0 0 8.0513570565796044 -2.7469039082059226 0 -2.7469039082059226 5.5030152021547565 0 0 0 0 6.0251309356334559 -3.7092192341556256 0 -3.7092192341556256 10.890100784444371 0 0 0 0 6.9864923950221431 0.5291962792813365 0 0.5291962792813365 15.736763129979408 0 0 0 0 3.5443500512317314 -3.4283691912614245 0 -3.4283691912614245 12.600003893399844 0 0 0 0 3.7566528322545736 -4.4498524939722017 0 -4.4498524939722017 10.503204699970865 0 0 0 0 0.71615632399880269 -4.807847219674386 0 -4.807847219674386 11.655950325368849 0 0 0 0 1.3746937092048199 -4.8258384674370802 0 -4.8258384674370802 11.165454319032506 0 0 0 0 0.89804953260369302 -3.4757011608332959 0 -3.4757011608332959 9.3439781089502958 0 0 0 0 -0.63650492615931831 -1.0741988382312906 0 -1.0741988382312906 0.8643219105535338 0 0 0 0 2.6762706077335991 -4.4487855902448246 0 -4.4487855902448246 -0.001637758520701027 0 0 0 0 0.083584020246419755 -4.0439021259517176 0 -4.0439021259517176 11.421687034839124 0 0 0 0 0.98752341944910427 -5.7925929797029312 0 -5.7925929797029312 12.18407245508638 0 0 0 0 64.116029933069001 -19.51361604383419 0 -19.51361604383419 3.4610155108226195 0 0 0 0 -0.22062696061801079 0.01162098967750147 0 0.01162098967750147 0.045814286962487571 0 0 0 0 -0.30507504797557772 16.502875544218114 0 16.502875544218114 37.423785279930371 0 0 0 0 -7.6091840490930167 26.331803969394969 0 26.331803969394969 8.9866823666225741 0 0 0 0 6.2675330475828162 13.574022381809073 0 13.574022381809073 28.172145748855655 0 0 0 0 -2.1392293894499659 11.31240053974625 0 11.31240053974625 23.831059693318821 0 0 0 0 -4.0610376429213773 10.263052814608727 0 10.263052814608727 37.053596550220846 0 0 0 0 -22.132142003777972 5.5086262086038005 0 5.5086262086038005 0.30388387630500802 0 0 0 0 -0.59641353249933182 0.2587201163947439 0 0.2587201163947439 0.10635738587668353 0 0 0 0 0.55546346408928571 5.8467993804529215 0 5.8467993804529215 32.891053944937994 0 0 0 0 -6.9531227341443866 8.3563691195772662 0 8.3563691195772662 34.0192246736909 0 0 0 0 -0.36703273409383996 8.3607609013142792 0 8.3607609013142792 34.016393806391889 0 0 0 0 8.141302388403993 21.61994931569609 0 21.61994931569609 9.4678211599539281 0 0 0 0 0.64451878354211622 0.82754868094134792 0 0.82754868094134792 0.30028719257426673 0 0 0 0 -6.3713795879561417 7.3061408290191139 0 7.3061408290191139 0.50856455415487289 0 0 0 0 8.8970831245392787 20.660048626577236 0 20.660048626577236 -7.3946982704878792 0 0 0 0 -7.1000906384723663 10.535553009733462 0 10.535553009733462 -13.800609758685823 0 0 0 0 3.7432261652804755 -16.387426389080474 0 -16.387426389080474 33.708569398547752 0 0 0 0 0.26802051189609 0.23439857839032641 0 0.23439857839032641 0.25061871102817346 0 0 0 0 3.07640974857968 9.0460623994661091 0 9.0460623994661091 -14.346673299563463 0 0 0 0 3.6951796094619453 -2.8944581023422415 0 -2.8944581023422415 12.866629087997012 0 0 0 0 8.6308512132204385 1.75729624309065 0 1.75729624309065 16.153648083330609 0 0 0 0 8.8644134526832374 1.1148222129754686 0 1.1148222129754686 14.82879057268201 0 0 0 0 -42.157169962903481 1.2642794362782297 0 1.2642794362782297 35.91173770197048 0 0 0 0 -1.6882267604385763 1.5736116588331297 0 1.5736116588331297 20.332639153659329 0 0 0 0 -1.7050884898173304 10.94562584587295 0 10.94562584587295 31.846585098555806 0 0 0 0 11.882921462415482 8.694677148624578 0 8.694677148624578 23.76757996477977 0 0 0 0 9.2764022049245511 1.0782661090904639 0 1.0782661090904639 21.932391941076048 0 0 0 0 -2.3051661124571297 10.538187618392271 0 10.538187618392271 40.179296050433095 0 0 0 0 -5.6817909975827945 3.8639281465329987 0 3.8639281465329987 27.276342622123479 0 0 0 0 -3.9885975663178925 -0.79350883349434298 0 -0.79350883349434298 17.416962631155911 0 0 0 0 0.22163162079729659 12.027212559582949 0 12.027212559582949 28.352101144303219 0 0 0 0 -3.3576447039098696 7.4838970975822576 0 7.4838970975822576 27.973114265184449 0 0 0 0 -5.072342317531513 -3.2250591126344261 0 -3.2250591126344261 7.2288878051485881 0 0 0 0 -8.2290401824262744 3.8987447043125485 0 3.8987447043125485 25.186145752203004 0 0 0 0 -2.117465990870663 8.6154168448415476 0 8.6154168448415476 21.675526579330835 0 0 0 0 -12.523943919693604 3.0332885634597915 0 3.0332885634597915 17.574913180884323 0 0 0 0 -5.645928511430812 -11.259197440793116 0 -11.259197440793116 14.924298946943736 0 0 0 0 7.3681877453413733 -17.511860274886772 0 -17.511860274886772 16.562467924089901 0 0 0 0 -3.1997623270874982 -7.0227000736541925 0 -7.0227000736541925 13.936590384010287 0 0 0 0 -22.087649234955961 -6.3905437113846801 0 -6.3905437113846801 16.972521604692588 0 0 0 0 -3.4443029013148987 -12.514495570458848 0 -12.514495570458848 90.96900511473325 0 0 0 0 -2.5686787544158847 -13.760872202096493 0 -13.760872202096493 28.557839524641111 0 0 0 0 48.830296336560785 -2.3664983828222432 0 -2.3664983828222432 82.872442798761313 0 0 0 0 64.819475102834133 -141.26783798886026 0 -141.26783798886026 181.62005499731526 0 0 0 0 -0.38898861210959618 -0.72172109158673559 0 -0.72172109158673559 -0.50978243828030223 0 0 0 0 20.451940988362384 -53.425936968834321 0 -53.425936968834321 379.06268128516285 0 0 0 0 -0.57930244198574832 -0.3774613917841001 0 -0.3774613917841001 0.63897217264701767 0 0 0 0 161.40439078914517 -323.51299691222346 0 -323.51299691222346 533.76952463027624 0 0 0 0 14.019335226578905 -187.62077766740668 0 -187.62077766740668 253.61986243259867 0 0 0 0 -20.386637914165906 -74.196632819915749 0 -74.196632819915749 499.85776688359692 0 0 0 0 -6.3224039491582005 -10.025981258835486 0 -10.025981258835486 12.231689935862505 0 0 0 0 -0.026221356839840837 -5.5043039177736546 0 -5.5043039177736546 7.2376750732516939 0 0 0 0 123.98364139279329 -450.63468635904752 0 -450.63468635904752 442.15710197659848 0 0 0 0 66.507777324338505 -407.01286228211256 0 -407.01286228211256 498.08557749204499 0 0 0 0 -0.47157011823194628 -2.1894091963606201 0 -2.1894091963606201 -2.5653434139681917 0 0 0 0 -0.053892099747325201 -0.39531826533888559 0 -0.39531826533888559 9.4033141915652898 0 0 0 0 314.54768143347985 190.91817910914307 0 190.91817910914307 165.69511892425612 0 0 0 0 -98.365931423174302 6.2776708310076401 0 6.2776708310076401 282.90530975355745 0 0 0 0 -0.099410271118768309 0.85330913940121722 0 0.85330913940121722 1.6162702167735419 0 0 0 0 36.180813539594674 185.72399445689922 0 185.72399445689922 496.15004337105472 0 0 0 0 202.34635513511546 10.979958142753645 0 10.979958142753645 -66.027685518541944 0 0 0 0 44.105582851307837 81.520853940815073 0 81.520853940815073 10.634302606865049 0 0 0 0 193.79068189119718 309.19147925405491 0 309.19147925405491 257.58034049483149 0 0 0 0 -33.09941693752134 257.87510932356031 0 257.87510932356031 499.13836631859289 0 0 0 0 -71.032865639482935 168.07978177529759 0 168.07978177529759 310.31112595039804 0 0 0 0 -103.96449763227388 147.28323986057421 0 147.28323986057421 500.08924015422974 0 0 0 0 -41.816492640929049 91.868844057071385 0 91.868844057071385 340.76890995021836 0 0 0 0 -20.700074689120356 83.189410578801358 0 83.189410578801358 159.82181975891831 0 0 0 0 -8.1374948252079449 160.59644152487408 0 160.59644152487408 311.19839319263718 0 0 0 0 -31.216878606022025 57.780612313634265 0 57.780612313634265 112.2207363562552 0 0 0 0 -27.888093193694829 39.677662441488337 0 39.677662441488337 179.13332378240023 0 0 0 0 -11.430922932527274 9.8571627876411867 0 9.8571627876411867 121.80873810822595 0 0 0 0 -4.7733349306653423 33.603174950003677 0 33.603174950003677 107.94186535907679 0 0 0 0 -4.8885959218737582 32.17112304864645 0 32.17112304864645 96.023508653537647 0 0 0 0 42.702743516292479 -46.233560564100799 0 -46.233560564100799 9.697187725810636 0 0 0 0 53.172741176157245 162.61288932114519 0 162.61288932114519 155.11541470116151 0 0 0 0 11.286199253786279 86.68146564786656 0 86.68146564786656 87.073288177127779 0 0 0 0 134.12509568982176 82.661411409002994 0 82.661411409002994 -42.848823331221581 0 0 0 0 186.2196033727497 156.71398915354959 0 156.71398915354959 20.782348584792999 0 0 0 0 -0.30902821166646588 -0.66439341913394823 0 -0.66439341913394823 13.839021237868334 0 0 0 0 -150.33437948274042 -9.4236378288791229 0 -9.4236378288791229 120.96728482722722 0 0 0 0 -0.1651981247943404 0.69732918004902467 0 0.69732918004902467 1.5659303247288374 0 0 0 0 -62.907694361172936 -15.236779214378998 0 -15.236779214378998 372.68466636305629 0 0 0 0 -52.783768314325286 -70.274317398956327 0 -70.274317398956327 499.91037116402481 0 0 0 0 -60.764393040948434 -3.7369098948930741 0 -3.7369098948930741 357.75112354056364 0 0 0 0 -101.41866110831428 53.666409080235553 0 53.666409080235553 499.84413933917449 0 0 0 0 -101.85451043507808 69.149847300455804 0 69.149847300455804 352.60824922834331 0 0 0 0 -35.497259914088502 23.036050751788594 0 23.036050751788594 205.91056255096146 0 0 0 0 -18.939348661622841 32.542763123357162 0 32.542763123357162 194.4410298859832 0 0 0 0 -0.25983026933633369 -25.180741152618339 0 -25.180741152618339 105.32955114151991 0 0 0 0 -2.5598872014334688 2.4644293392998406 0 2.4644293392998406 142.98062358901097 0 0 0 0 -3.3784055549856831 -31.785044165565409 0 -31.785044165565409 187.49359738985436 0 0 0 0 -39.361439149333044 32.474284328890803 0 32.474284328890803 321.9912921106702 0 0 0 0 18.38136778427338 -60.69392452653733 0 -60.69392452653733 304.91538698783461 0 0 0 0 -4.1592125622910325 -31.465476469412494 0 -31.465476469412494 279.26131251872266 0 0 0 0 18.710510328271873 2.2985266610326107 0 2.2985266610326107 40.637255799652394 0 0 0 0 0.019255434717182579 0.25730327734473946 0 0.25730327734473946 0.49318608086513827 0 0 0 0 18.075805476494615 -14.746702051070542 0 -14.746702051070542 265.39093697174735 0 0 0 0 34.094209330765366 50.345521492221451 0 50.345521492221451 170.56936634770136 0 0 0 0 37.370470871600595 -75.149714851483168 0 -75.149714851483168 141.10926309908427 0 0 0 0 86.985355386400443 32.704851382988181 0 32.704851382988181 155.28607374700385 0 0 0 0 52.027453269199114 -30.478497699618856 0 -30.478497699618856 249.26088157414233 0 0 0 0 21.692951416680238 -63.047532090551158 0 -63.047532090551158 252.33302249555254 0 0 0 0 20.944315624328212 12.185957569120092 0 12.185957569120092 -11.243923845137488 0 0 0 0 -2.077643942479213 -12.789174418203856 0 -12.789174418203856 -2.7077529798671094 0 0 0 0 29.813491842650464 43.701538336855265 0 43.701538336855265 27.164422307015684 0 0 0 0 20.746477700920728 -45.228006383760174 0 -45.228006383760174 84.657186752178404 0 0 0 0 0.24190140986859773 0.46208412057108639 0 0.46208412057108639 1.0655125836238799 0 0 0 0 21.134987905688142 -43.700944362345012 0 -43.700944362345012 38.581508117725662 0 0 0 0 -0.070264537705796215 -29.173323003647511 0 -29.173323003647511 67.340486287941985 0 0 0 0 16.826513727630982 -14.522112541005299 0 -14.522112541005299 13.209758164102709 0 0 0 0 4.5517702755058878 -13.060444249124544 0 -13.060444249124544 52.40413945269529 0 0 0 0 0.099289693161540571 0.53864185051370805 0 0.53864185051370805 0.76302243458562957 0 0 0 0 -0.62495755327549318 -31.151145129398458 0 -31.151145129398458 62.456967464367608 0 0 0 0 0.10213082241746146 0.46289525635238471 0 0.46289525635238471 0.60347441135347868 0 0 0 0 1.9105812216915865 18.494469484142996 0 18.494469484142996 48.250790532200199 0 0 0 0 8.5349064215949113 -27.087090007634515 0 -27.087090007634515 81.097429867954361 0 0 0 0 16.079207858086583 -27.140557533813876 0 -27.140557533813876 46.718944130180262 0 0 0 0 7.014051714453359 5.7519177346707693 0 5.7519177346707693 37.975191360562576 0 0 0 0 7.0978405197833894 -13.561310260959388 0 -13.561310260959388 58.468842840688012 0 0 0 0 20.289717594791313 0.74271673151361028 0 0.74271673151361028 -5.7611809320223983 0 0 0 0 0.65161772521247674 1.8025556869589181 0 1.8025556869589181 3.4806499204515724 0 0 0 0 -6.4310739196315438 9.3123011087564009 0 9.3123011087564009 2.7246689298449382 0 0 0 0 1.8090970781341866 14.004267976988388 0 14.004267976988388 5.3804455010920265 0 0 0 0 13.177129366605008 -7.782750315825183 0 -7.782750315825183 8.8441921804135291 0 0 0 0 0.51841606129580109 1.1881918234514353 0 1.1881918234514353 2.7055277852118991 0 0 0 0 -14.810746868625721 2.5454574293070209 0 2.5454574293070209 26.202738442111354 0 0 0 0 -2.6303920709940201 -1.6037029857122889 0 -1.6037029857122889 3.4452027310735502 0 0 0 0 -0.66604464517840256 -0.38941361384627271 0 -0.38941361384627271 1.4826700317435098 0 0 0 0 -1.4131281822256838 -1.3596395944799724 0 -1.3596395944799724 3.4118123479820497 0 0 0 0 -21.613325074484266 2.964216797315089 0 2.964216797315089 6.4633835871300107 0 0 0 0 -20.644576709566834 43.359989914773905 0 43.359989914773905 18.308534453844231 0 0 0 0 -5.2617506514061816 -17.351002819084442 0 -17.351002819084442 -35.922254005134164 0 0 0 0 5.075614129483677 20.961116459759523 0 20.961116459759523 105.05316797407886 0 0 0 0 -3.2893744878853788 10.963697879487768 0 10.963697879487768 16.622541983663723 0 0 0 0 -103.79842370316638 -26.2333599755313 0 -26.2333599755313 51.16875872967239 0 0 0 0 -26.04305446577386 -8.040465045535484 0 -8.040465045535484 20.370014806454492 0 0 0 0 -0.25163929646377198 -1.492974329658237 0 -1.492974329658237 16.44162802865263 0 0 0 0 10.818345494407517 12.387331122566025 0 12.387331122566025 34.794919849121015 0 0 0 0 41.322377730047805 57.656550289202968 0 57.656550289202968 43.018349447380388 0 0 0 0 31.130697232934423 7.2353042522208852 0 7.2353042522208852 3.9646574808307378 0 0 0 0 30.989829574310818 12.505043525917245 0 12.505043525917245 12.275359764839777 0 0 0 0 -3.756563929195039 -15.895276601073192 0 -15.895276601073192 62.316053831013505 0 0 0 0 -14.089261721483751 -47.078556276174368 0 -47.078556276174368 146.33060598560996 0 0 0 0 24.9336977231182 -13.520300261919147 0 -13.520300261919147 53.355257849873624 0 0 0 0 14.580708411187778 -44.346572154058947 0 -44.346572154058947 110.04678537084237 0 0 0 0 0.099909574439496829 0.13067956730391739 0 0.13067956730391739 0.233453354831342 0 0 0 0 20.572216999498963 24.659964469180977 0 24.659964469180977 3.6783513487955375 0 0 0 0 61.442995110208358 17.535603803591584 0 17.535603803591584 10.096820404640653 0 0 0 0 4.851178480859204 -24.215430818430832 0 -24.215430818430832 70.293086502440929 0 0 0 0 0.18457128610190501 -0.34761904228455509 0 -0.34761904228455509 0.6960047758238721 0 0 0 0 48.951413253598218 -52.617162166759954 0 -52.617162166759954 87.951764483324951 0 0 0 0 91.8678482428721 -9.6536283429829268 0 -9.6536283429829268 -21.563964951696562 0 0 0 0 -17.035854381799737 -5.6999036814756892 0 -5.6999036814756892 81.929614007970486 0 0 0 0 -24.274816849431559 0.40847094393279804 0 0.40847094393279804 136.24520107185072 0 0 0 0 -10.695741606955693 37.442324826439062 0 37.442324826439062 15.036053157128208 0 0 0 0 57.660374281702275 13.697900189715938 0 13.697900189715938 -29.922286139742027 0 0 0 0 11.420634888623454 13.930083721034634 0 13.930083721034634 18.231748380878798 0 0 0 0 2.7647272729227552 -2.6683130471888035 0 -2.6683130471888035 64.618416286905358 0 0 0 0 1.6459504603852793 -7.2852580637454594 0 -7.2852580637454594 61.639800564479856 0 0 0 0 6.0356973886145795 3.745278608104627 0 3.745278608104627 17.436161096947444 0 0 0 0 17.173167083281612 -4.3035033400353768 0 -4.3035033400353768 -26.303635272756765 0 0 0 0 -9.555546801463791 -16.75801135008237 0 -16.75801135008237 -9.7061831943608468 0 0 0 0 0.60930618722525498 -1.0251108171317707 0 -1.0251108171317707 1.9631648360979392 0 0 0 0 -3.0529141064800811 20.063439856632357 0 20.063439856632357 -31.036417848685232 0 0 0 0 -8.9266486972100552 -42.45689170126775 0 -42.45689170126775 26.525401296591099 0 0 0 0 24.683560059760168 -35.688540835813001 0 -35.688540835813001 -61.731161694151297 0 0 0 0 -0.38661806952761457 0.72602289528366981 0 0.72602289528366981 3.3725977085224637 0 0 0 0 -47.539147520299657 -2.6555672109714124 0 -2.6555672109714124 8.2439107391544439 0 0 0 0 -82.225514269527096 -62.297630331573998 0 -62.297630331573998 48.993053853025231 0 0 0 0 -2.1168224124440638 -50.131010135084352 0 -50.131010135084352 28.158096771885994 0 0 0 0 57.138903904680632 -79.737481327807473 0 -79.737481327807473 40.009119458837631 0 0 0 0 -11.577386319798954 11.465812069140839 0 11.465812069140839 31.170349958839324 0 0 0 0 -17.209936869294026 -3.5561186219861156 0 -3.5561186219861156 33.034715450399744 0 0 0 0 -0.24335725520775048 -1.8258193171264523 0 -1.8258193171264523 16.736936873392505 0 0 0 0 -2.7437056685799277 -3.1869735648707547 0 -3.1869735648707547 51.341457453753719 0 0 0 0 0.039063994219366294 0.03356474797832476 0 0.03356474797832476 0.0056454093335993605 0 0 0 0 18.112632508014954 -20.810278920607516 0 -20.810278920607516 -8.871145380240705 0 0 0 0 0.16582863252750712 2.8637930795707689 0 2.8637930795707689 -1.4570904584888922 0 0 0 0 -0.3591779612651857 1.2127680239872265 0 1.2127680239872265 4.1954923758926341 0 0 0 0 -24.169606991865322 -11.001657291868923 0 -11.001657291868923 41.763200714467757 0 0 0 0 0.1369919895760745 15.058012324529955 0 15.058012324529955 16.489816245597694 0 0 0 0 14.689746275519184 -13.261755187371364 0 -13.261755187371364 0.53792299867347992 0 0 0 0 -18.442716064063376 14.228217833161921 0 14.228217833161921 32.303430101238519 0 0 0 0 -0.062257399075516917 -1.8483374712192335 0 -1.8483374712192335 13.965938356232375 0 0 0 0 0.069141734066263894 -3.9385377381889271 0 -3.9385377381889271 34.493643701218389 0 0 0 0 -6.2994415327349316 7.7950879694573132 0 7.7950879694573132 11.28260477677361 0 0 0 0 -9.3580665870825683 -9.1371197945815368 0 -9.1371197945815368 3.7480231827403259 0 0 0 0 0.035074217171162769 -1.3451859580974821 0 -1.3451859580974821 11.463587002095114 0 0 0 0 -0.024072530176965756 2.7167087207599252 0 2.7167087207599252 -1.4971272629500163 0 0 0 0 0.49127000490287998 5.2356765347854832 0 5.2356765347854832 10.711827466581781 0 0 0 0 -0.90757313909372783 -2.5076840674064442 0 -2.5076840674064442 11.72652938849933 0 0 0 0 -1.2095680459857761 -0.17218690641078638 0 -0.17218690641078638 5.6362198635961249 0 0 0 0 -0.56593207307423654 -1.8998328832140032 0 -1.8998328832140032 6.0846128142826501 0 0 0 0 -0.10876497839804951 -0.67253923486819989 0 -0.67253923486819989 8.8577431707507372 0 0 0 0 9.07738643970103 15.975734095647283 0 15.975734095647283 -5.3002345149247958 0 0 0 0 2.6446068692183644 -5.1241566942010195 0 -5.1241566942010195 6.3150012475341555 0 0 0 0 -17.428931854328937 0.45978154541592176 0 0.45978154541592176 24.994986775027542 0 0 0 0 -1.0820220135385057 -2.2600674951663677 0 -2.2600674951663677 14.412047200253255 0 0 0 0 0.35631413314961591 -0.15892660737130848 0 -0.15892660737130848 1.8308142882129386 0 0 0 0 2.1258521570877207 -2.4181610133683762 0 -2.4181610133683762 2.7944739116719575 0 0 0 0 6.762703375290755 -5.1520711525320166 0 -5.1520711525320166 1.1443583319900767 0 0 0 0 -0.14274701933602185 -0.13561099423976319 0 -0.13561099423976319 -0.012123734689042986 0 0 0 0 -2.192281781504164 5.2051125841667272 0 5.2051125841667272 8.3991727064776569 0 0 0 0 -17.998263730792758 9.9997308379536207 0 9.9997308379536207 4.2637479353679737 0 0 0 0 -0.84063546745991857 -1.251284811935875 0 -1.251284811935875 8.9535006435903597 0 0 0 0 -1.297917628444111 -1.2979042001430798 0 -1.2979042001430798 10.653294881244619 0 0 0 0 -1.6390256628986033 0.2020658003143081 0 0.2020658003143081 2.4164769146098894 0 0 0 0 -1.063291544511193 -0.49148440686910955 0 -0.49148440686910955 5.3996478123374771 0 0 0 0 -1.0698296966467069 -1.801799077816554 0 -1.801799077816554 12.255292302374414 0 0 0 0 -0.84124493314848792 -1.5240871516600123 0 -1.5240871516600123 10.330658243664857 0 0 0 0 -2.0722619534816999 -1.5163876204671851 0 -1.5163876204671851 9.7782540750352496 0 0 0 0 -1.6044276327152707 0.53417408989131343 0 0.53417408989131343 3.5310974876357397 0 0 0 0 -2.3796434316700186 -2.34414054917454 0 -2.34414054917454 7.9808958692854048 0 0 0 0 -0.99362489380293084 -1.917924710988359 0 -1.917924710988359 5.0195103385558468 0 0 0 0 0.071147736070389378 -1.7946080288702251 0 -1.7946080288702251 5.2048474367320523 0 0 0 0 -1.361976338634534 -3.6069345188449944 0 -3.6069345188449944 8.446884936056108 0 0 0 0 -1.5190608795552407 -1.9533928807979919 0 -1.9533928807979919 6.8247325891970831 0 0 0 0 -0.03540154025296971 -0.92695211622276474 0 -0.92695211622276474 5.6584355132172277 0 0 0 0 0.7393311540236216 -1.3752544090688303 0 -1.3752544090688303 3.6604583917349869 0 0 0 0 -0.98860854640298612 -4.099144806028562 0 -4.099144806028562 3.5903221497130744 0 0 0 0 -0.092291883766961291 -2.1211667616187242 0 -2.1211667616187242 2.267238020842683 0 0 0 0 -2.6312600208881491 -3.4211172284072973 0 -3.4211172284072973 8.1932717937484938 0 0 0 0 0.18438777779218207 0.13351617456438047 0 0.13351617456438047 0.81865888719746072 0 0 0 0 -17.31942441758838 -1.2315572649494015 0 -1.2315572649494015 45.852739008396384 0 0 0 0 -0.73856534453460654 -4.1789639386423687 0 -4.1789639386423687 -0.90842576456998358 0 0 0 0 6.0733092160689282 -2.1914516412248304 0 -2.1914516412248304 -9.1310009274307049 0 0 0 0 0.98014352358572632 -0.047328277812669128 0 -0.047328277812669128 0.79952857152040802 0 0 0 0 0.7477992910629041 0.51749164333091358 0 0.51749164333091358 -5.5737339101976318 0 0 0 0 6.2301730268940645 3.5542133462779475 0 3.5542133462779475 -8.217429266318959 0 0 0 0 0.9731175318598273 0.22677472145550759 0 0.22677472145550759 1.3783909073479577 0 0 0 0 -1.1894744712027241 0.94700219375304551 0 0.94700219375304551 5.5225654490847198 0 0 0 0 -7.194178559689675 9.5658488410551854 0 9.5658488410551854 1.0932979947119748 0 0 0 0 -0.8422039873988183 12.71461376886964 0 12.71461376886964 2.2759433817864192 0 0 0 0 -5.0681495962591612 8.4123583524688001 0 8.4123583524688001 0.61698261352057671 0 0 0 0 0.68132599697193541 0.019570763103274658 0 0.019570763103274658 5.6756490732504972 0 0 0 0 0.59493102712573886 -0.90343011372942783 0 -0.90343011372942783 4.6329487649022667 0 0 0 0 0.54368560579362679 -0.20146430001705085 0 -0.20146430001705085 6.5936009677495662 0 0 0 0 -0.72837035082460488 0.10565197496021028 0 0.10565197496021028 4.4740591832628525 0 0 0 0 1.9763366704448231 -0.3739533127861705 0 -0.3739533127861705 -4.6078807466510625 0 0 0 0 -0.022253127493356617 1.3483921299778956 0 1.3483921299778956 -0.23630060782525247 0 0 0 0 -1.0553217708130624 4.8621941157859965 0 4.8621941157859965 -2.186067770619502 0 0 0 0 -4.8037054686584924 2.6719437906141366 0 2.6719437906141366 5.1916103832513727 0 0 0 0 -1.6661113219217003 1.4383334394149969 0 1.4383334394149969 1.6449479168396259 0 0 0 0 1.7283165640035278 6.026361549403191 0 6.026361549403191 -2.541784809544879 0 0 0 0 5.5205796821575461 4.8843041217737664 0 4.8843041217737664 -2.2403023955778281 0 0 0 0 1.7117691446638594 -0.84151409669857369 0 -0.84151409669857369 -3.2605722738026088 0 0 0 0 0.089414030418928259 -0.11290266199880872 0 -0.11290266199880872 -1.0178812965451609 0 0 0 0 1.2180335202142203 0.22122949333117958 0 0.22122949333117958 -3.3320283192661009 0 0 0 0 -22.241115515674096 83.7189120403159 0 83.7189120403159 112.8946159549987 0 0 0 0 9.2050756311756032 -1.9985629885673006 0 -1.9985629885673006 -1.0996270087184712 0 0 0 0 1.0925984782635965 0.082463653895047173 0 0.082463653895047173 -1.4574758998351172 0 0 0 0 73.972059169679994 7.6249753075348963 0 7.6249753075348963 -90.392468792460932 0 0 0 0 -33.279467293749207 26.21539912810033 0 26.21539912810033 60.503953949144488 0 0 0 0 16.904179463110012 3.9908010444310094 0 3.9908010444310094 3.1681356530289122 0 0 0 0 -0.18444533760041787 -0.161095465391766 0 -0.161095465391766 0.11344019769294711 0 0 0 0 39.867982822622935 -56.107777775940349 0 -56.107777775940349 -8.9090806064614299 0 0 0 0 11.429268115509785 11.141761885299729 0 11.141761885299729 23.617463262985439 0 0 0 0 9.0126038920211009 8.0402934261961292 0 8.0402934261961292 0.60181915915563877 0 0 0 0 8.9249327917880947 2.9671776347113337 0 2.9671776347113337 3.7138040384006672 0 0 0 0 4.4002814066557931 7.5248559273761657 0 7.5248559273761657 21.30793222099237 0 0 0 0 8.7760934318324075 -20.302357135796228 0 -20.302357135796228 26.19872711660264 0 0 0 0 5.2752298088250456 -8.7017561512010388 0 -8.7017561512010388 15.489716342251086 0 0 0 0 4.7096842307205478 -11.169392483824424 0 -11.169392483824424 47.218217269387424 0 0 0 0 22.187066609167687 -44.291812324067905 0 -44.291812324067905 45.763058200477531 0 0 0 0 -0.0084737977198566794 0.068346210665405582 0 0.068346210665405582 0.9579240599824832 0 0 0 0 19.913762564128263 15.653568824138688 0 15.653568824138688 20.877184718970057 0 0 0 0 -26.035787330952303 26.861813236257149 0 26.861813236257149 -15.681908078587639 0 0 0 0 0.13070798661084782 -0.53195593162499311 0 -0.53195593162499311 1.4923785467228932 0 0 0 0 -1.7536621742511898 -0.39121812731309547 0 -0.39121812731309547 4.5423233577348583 0 0 0 0 -0.91069143511396056 -1.4227717412431886 0 -1.4227717412431886 4.7557717977584248 0 0 0 0 -0.41423545284953889 -1.0988234941264636 0 -1.0988234941264636 5.5873863615552182 0 0 0 0 -0.35255754990006949 -1.1161114010346864 0 -1.1161114010346864 5.0693532517716449 0 0 0 0 -19.705839339953286 0.23028196249561006 0 0.23028196249561006 7.7293364439938159 0 0 0 0 -1.2801424747812788 0.10914530717496307 0 0.10914530717496307 5.2181778281296261 0 0 0 0 -17.204535369792602 15.347707862874188 0 15.347707862874188 1.7549769930556067 0 0 0 0 4.4507418412639481 2.4097183848025452 0 2.4097183848025452 -0.69024439744566735 0 0 0 0 -9.5826644217804642 0.86151677187172027 0 0.86151677187172027 -8.562048085731476 0 0 0 0 -3.3977590547971772 10.667045463110981 0 10.667045463110981 6.8618215772276017 0 0 0 0 11.878118886990706 -9.1462403860309678 0 -9.1462403860309678 8.933194899151232 0 0 0 0 3.5788051987745462 -12.223360136307292 0 -12.223360136307292 28.819152350773038 0 0 0 0 3.9995099665910629 19.054533916084438 0 19.054533916084438 9.669276779066422 0 0 0 0 -13.195227093227132 13.402583070530852 0 13.402583070530852 42.006410133828467 0 0 0 0 -19.590392924075786 6.6035668074819114 0 6.6035668074819114 5.8422493351235971 0 0 0 0 -25.134398891139824 24.003735323107094 0 24.003735323107094 2.824412739154468 0 0 0 0 -50.459529266428035 15.392110371738454 0 15.392110371738454 1.8673418589989978 0 0 0 0 -1.0986467798472264 -0.30573928502488013 0 -0.30573928502488013 5.0219069241088015 0 0 0 0 -30.128410186857081 -1.0243813729289286 0 -1.0243813729289286 29.444374943645016 0 0 0 0 -12.235746765991337 13.365541385264919 0 13.365541385264919 -3.8736260173427581 0 0 0 0 -1.0968902121435755 1.4164954685225855 0 1.4164954685225855 1.0614026805419776 0 0 0 0 -25.43178259644219 -4.1347631769422151 0 -4.1347631769422151 23.497624871799417 0 0 0 0 39.900697211874217 -26.682283255589027 0 -26.682283255589027 10.066536953236664 0 0 0 0 -16.974086961507965 0.14679120100663567 0 0.14679120100663567 25.471270208303395 0 0 0 0 -25.565004263336277 3.1170092483080225 0 3.1170092483080225 31.392581107367732 0 0 0 0 -10.022751478494001 -1.6162441493015649 0 -1.6162441493015649 4.7088576263377036 0 0 0 0 0.5586513535594122 -17.052111531522769 0 -17.052111531522769 23.638549807776144 0 0 0 0 -18.041412139764645 -8.3546049851200621 0 -8.3546049851200621 57.58538393458366 0 0 0 0 -4.1836022657766279 -30.781512126158987 0 -30.781512126158987 47.402950119658271 0 0 0 0 14.043615269631132 -5.9387947535692547 0 -5.9387947535692547 31.472495362572317 0 0 0 0 -30.270660339508126 13.825395236530966 0 13.825395236530966 33.835951784781173 0 0 0 0 -0.096859794841773705 -0.35486879329786702 0 -0.35486879329786702 0.48596047891848748 0 0 0 0 20.921546259255479 -18.087692648146003 0 -18.087692648146003 -8.6831250235984498 0 0 0 0 1.6308594220186023 -4.1213940583465956 0 -4.1213940583465956 7.1514423751688838 0 0 0 0 2.2202360931838712 -6.1600007382791659 0 -6.1600007382791659 10.033742032027476 0 0 0 0 3.8091057532977857 -12.921230040016155 0 -12.921230040016155 14.743392521964779 0 0 0 0 -15.478399003308823 -14.646305387690063 0 -14.646305387690063 20.526258696069362 0 0 0 0 5.7097668659467899 -7.6861308033005571 0 -7.6861308033005571 6.9449770580922632 0 0 0 0 13.080291534652488 -12.689945425071301 0 -12.689945425071301 12.454497006373458 0 0 0 0 39.212257355330109 2.3989525054531669 0 2.3989525054531669 -8.5198290098760481 0 0 0 0 0.091828117888420477 -0.43991175814979733 0 -0.43991175814979733 0.23131610047596318 0 0 0 0 -3.9084021476044768 2.5431099916984294 0 2.5431099916984294 25.586256755195336 0 0 0 0 12.806928807211818 -0.59231862526598889 0 -0.59231862526598889 -4.5019088957787972 0 0 0 0 5.2755946292513443 0.14593081326836455 0 0.14593081326836455 -0.57126040750699758 0 0 0 0 0.15719675760605767 0.63902720123398149 0 0.63902720123398149 2.4185396387281433 0 0 0 0 6.8815005005687908 -2.339501851723071 0 -2.339501851723071 0.43862563519542164 0 0 0 0 2.0748946097394594 -0.84213716285944429 0 -0.84213716285944429 3.0343547100146679 0 0 0 0 3.2304491953336623 1.1831831615101009 0 1.1831831615101009 1.467617874649477 0 0 0 0 2.1258897697839103 -0.49580814568975029 0 -0.49580814568975029 5.3659679932425206 0 0 0 0 3.316497723882776 1.6551561091664553 0 1.6551561091664553 3.8001465867400839 0 0 0 0 -0.61707425393923021 5.9798025386294285 0 5.9798025386294285 1.9495929809091876 0 0 0 0 4.8143285638928717 0.15349972570811588 0 0.15349972570811588 3.653686427914181 0 0 0 0 17.119522473208033 -7.1455791561167814 0 -7.1455791561167814 -3.4021336052965125 0 0 0 0 0.16027373627267924 0.64781560133061555 0 0.64781560133061555 4.0066192915302956 0 0 0 0 5.3209151616267718 -5.2948024514953431 0 -5.2948024514953431 10.157713513798626 0 0 0 0 0.25239535672851793 -0.13832185444477868 0 -0.13832185444477868 1.0252342364133575 0 0 0 0 8.153685746107783 -1.7057754844270221 0 -1.7057754844270221 -0.28155782646990701 0 0 0 0 -0.73154689587346411 2.7953270119119225 0 2.7953270119119225 4.1855614470473483 0 0 0 0 2.2980496208141403 1.4931109333779204 0 1.4931109333779204 5.8218968850264901 0 0 0 0 2.0088986351294551 0.59858250716058592 0 0.59858250716058592 5.0963402235256581 0 0 0 0 0.20076425013320787 -1.1065925432337851 0 -1.1065925432337851 1.2604042206865513 0 0 0 0 -0.15521400010364733 -0.8347660333626461 0 -0.8347660333626461 1.1132161583233202 0 0 0 0 2.8761338193990014 -3.8314804346251776 0 -3.8314804346251776 2.1688691088752421 0 0 0 0 2.5699703721252263 -4.4766406258685265 0 -4.4766406258685265 5.4542040485118832 0 0 0 0 -17.644827699419778 -19.803456014063386 0 -19.803456014063386 6.5996134552324293 0 0 0 0 -33.003292089681167 -5.5542070385164379 0 -5.5542070385164379 12.26233755490648 0 0 0 0 6.3345814418980808 -9.9950555639641152 0 -9.9950555639641152 -0.90001916490109579 0 0 0 0 -13.061424513995235 -3.7742116860135866 0 -3.7742116860135866 3.9592042929734816 0 0 0 0 -9.7530182687419824 3.5829363561317678 0 3.5829363561317678 -0.28761954588026128 0 0 0 0 -2.5386741690655015 -5.0515814534194305 0 -5.0515814534194305 -2.6367223001361708 0 0 0 0 2.4372676592577136 -3.6313605742172967 0 -3.6313605742172967 3.1680845853136361 0 0 0 0 -5.3968407170872865 -5.8917177394154123 0 -5.8917177394154123 2.9449734836887274 0 0 0 0 -0.73152782029512764 -5.9313375244910276 0 -5.9313375244910276 2.6976228643403033 0 0 0 0 -4.6987743385934451 -0.32277260577209788 0 -0.32277260577209788 -5.2361815299236696 0 0 0 0 -4.6515181005470003 -3.4310411078129093 0 -3.4310411078129093 0.87389681458626001 0 0 0 0 3.4467309211297561 -8.0766536626674679 0 -8.0766536626674679 1.600716850867002 0 0 0 0 -1.6238330017930593 -8.0969645691075129 0 -8.0969645691075129 0.82374114523378239 0 0 0 0 1.6798114821108356 1.1113806978606817 0 1.1113806978606817 5.1261309412710716 0 0 0 0 -0.25798945985530408 -0.0032817805799162381 0 -0.0032817805799162381 2.9995653541353304 0 0 0 0 5.887947659978181 4.542437590726081 0 4.542437590726081 7.8855050917873086 0 0 0 0 1.1406120699416533 1.4957723455876817 0 1.4957723455876817 8.5940538265681425 0 0 0 0 0.37258591849956701 0.50230747200970427 0 0.50230747200970427 7.3532284239325918 0 0 0 0 1.9558639018378017 -3.6315311590128658 0 -3.6315311590128658 11.214221969672963 0 0 0 0 1.6064934740271406 -1.6807584699511882 0 -1.6807584699511882 3.1399328534336637 0 0 0 0 -1.0499643428199761 -1.8813876192087946 0 -1.8813876192087946 12.61436835430959 0 0 0 0 -0.839479613211779 -1.8211788391135997 0 -1.8211788391135997 6.2749883709880123 0 0 0 0 -2.0094970732861839 0.097489422044475305 0 0.097489422044475305 6.036421789784697 0 0 0 0 -1.1367686470159344 0.50203611758080235 0 0.50203611758080235 3.8850657204022916 0 0 0 0 -3.6100638041993989 -1.4683377895439662 0 -1.4683377895439662 8.7349289521280298 0 0 0 0 -1.3152729127374643 0.21437620389377993 0 0.21437620389377993 8.622708098079622 0 0 0 0 -3.5996336013004111 -1.4016390100865692 0 -1.4016390100865692 8.531505373741993 0 0 0 0 -0.66354918302107857 -2.9917201975997028 0 -2.9917201975997028 5.2488996223127042 0 0 0 0 -0.40432291385206509 -0.34991538301411129 0 -0.34991538301411129 4.2644833757198528 0 0 0 0 -0.61014623793357714 -1.1291288493712273 0 -1.1291288493712273 5.6337581012833198 0 0 0 0 -1.9084282532560337 -0.030318566079472475 0 -0.030318566079472475 4.2297869378162432 0 0 0 0 -0.85133831022697692 -0.1557060236142418 0 -0.1557060236142418 6.8766305635081437 0 0 0 0 0.7550540986840133 -2.5228906088232179 0 -2.5228906088232179 14.585885592690829 0 0 0 0 -3.339647724843644 -2.100939944435126 0 -2.100939944435126 7.7623187425415381 0 0 0 0 -3.3441278611985581 -2.1172406443693035 0 -2.1172406443693035 8.5394993027310875 0 0 0 0 -0.26492968564317532 -2.1245639998996655 0 -2.1245639998996655 4.9656851265057771 0 0 0 0 -0.85072515786682379 1.1453914987784519 0 1.1453914987784519 5.4518130795947526 0 0 0 0 -2.9140723602457683 -1.57406320717066 0 -1.57406320717066 3.5826847438673894 0 0 0 0 -0.31192097894438575 -1.3844235937066287 0 -1.3844235937066287 6.9939236325344609 0 0 0 0 -0.15541607538832491 -0.6167158702153428 0 -0.6167158702153428 4.3827252320833052 0 0 0 0 -0.066742397972977763 -0.10485699580557184 0 -0.10485699580557184 3.4665355606132358 0 0 0 0 -2.1030566462326306 0.20495581050386136 0 0.20495581050386136 10.987026348298969 0 0 0 0 -1.3725759601020968 -0.20910117635071401 0 -0.20910117635071401 3.7633384677119466 0 0 0 0 -0.43853667903476479 0.042592698085027969 0 0.042592698085027969 5.3378971175155137 0 0 0 0 -0.090974246282524707 -0.51911647320613641 0 -0.51911647320613641 4.140465699749738 0 0 0 0 -0.31768982456451056 -1.3528829446287034 0 -1.3528829446287034 9.0561059325102633 0 0 0 0 0.38458951097800309 2.5968192985328642 0 2.5968192985328642 12.4293223479917 0 0 0 0 1.0893091292157209 -2.4460247406053099 0 -2.4460247406053099 12.578413302323952 0 0 0 0 -1.0310008519398284 1.9606972163258467 0 1.9606972163258467 4.6599743498637913 0 0 0 0 -3.8607147743506331 2.3957359797587401 0 2.3957359797587401 19.296837889813105 0 0 0 0 -0.63009837755384979 -0.36696402157576813 0 -0.36696402157576813 10.232014340924707 0 0 0 0 0.027295729607203612 -2.2122669719033183 0 -2.2122669719033183 9.7243700403738558 0 0 0 0 -0.54928401927327286 -0.44545960897994519 0 -0.44545960897994519 8.1694910973637889 0 0 0 0 -0.45908847977295864 -0.91120644209536295 0 -0.91120644209536295 7.2131855153475044 0 0 0 0 -0.8936399480169257 -1.7292584893366438 0 -1.7292584893366438 8.0780122224914521 0 0 0 0 -0.71541397056662115 -0.8837339057389979 0 -0.8837339057389979 4.357728683523149 0 0 0 0 -0.77433061195756636 -1.6334478604312608 0 -1.6334478604312608 8.1547877519189029 0 0 0 0 -0.92917706373000364 -1.1632373501398987 0 -1.1632373501398987 2.8380305416581084 0 0 0 0 -2.6740383336791638 -2.4435628570112158 0 -2.4435628570112158 3.265366412540061 0 0 0 0 -0.81889670530472536 -1.8209309669542306 0 -1.8209309669542306 5.0621488409740358 0 0 0 0 -1.0155236084752755 -0.038358024283539738 0 -0.038358024283539738 6.3132352057547472 0 0 0 0 -0.70087598362462966 -0.12319753992751314 0 -0.12319753992751314 5.4139310817544066 0 0 0 0 1.1202185465609773 2.1040788745572172 0 2.1040788745572172 4.9357036160149619 0 0 0 0 0.22422217704485092 -2.3007234120560724 0 -2.3007234120560724 12.295971290325497 0 0 0 0 -0.41045906603858384 1.079693860423049 0 1.079693860423049 4.2632983820809613 0 0 0 0 -0.52335224517264578 -0.64110627400793874 0 -0.64110627400793874 6.0417717572954643 0 0 0 0 3.2803350190306446 3.1688299104762336 0 3.1688299104762336 3.7309812190750336 0 0 0 0 1.5314419888968587 0.78073017073347728 0 0.78073017073347728 2.7012365326714871 0 0 0 0 -0.037858681272480488 -0.18183604282209265 0 -0.18183604282209265 0.68535160231010384 0 0 0 0 -1.8310963855785758 -1.338909695161874 0 -1.338909695161874 3.12615210758986 0 0 0 0 -1.1490353640234616 -0.52330017904296255 0 -0.52330017904296255 4.4657480815894814 0 0 0 0 -0.52978984283552832 0.05747154260178533 0 0.05747154260178533 5.0263177369615333 0 0 0 0 -1.0551239736081084 -0.67191577437469707 0 -0.67191577437469707 2.5289134167029923 0 0 0 0 -0.21664458136660869 0.37662891610580118 0 0.37662891610580118 4.3806428988928019 0 0 0 0 -0.42791143129020415 -1.9200210397161968 0 -1.9200210397161968 2.2791745800974104 0 0 0 0 -0.83403197727989209 -0.21210628428480049 0 -0.21210628428480049 4.5915490105817298 0 0 0 0 -0.60508024277085237 -1.0491583464355512 0 -1.0491583464355512 2.8768230323139816 0 0 0 0 -1.1103365677005361 -0.068754141605285923 0 -0.068754141605285923 5.5191768780730044 0 0 0 0 -0.93623258980187529 -0.14268066067234031 0 -0.14268066067234031 8.3993638682200071 0 0 0 0 -1.4886796719436424 -0.16071249630973483 0 -0.16071249630973483 8.1878820026315537 0 0 0 0 0.015080538656889075 -2.833378227689991 0 -2.833378227689991 8.088634698185615 0 0 0 0 1.6913033123853438 0.12855225950897875 0 0.12855225950897875 14.564829312260258 0 0 0 0 0.64773764294284319 -6.8704693607912759 0 -6.8704693607912759 15.864926152885801 0 0 0 0 -0.077599489277724532 -2.602309505366577 0 -2.602309505366577 1.6614114229572854 0 0 0 0 -0.88386895272731181 -0.59329322181133648 0 -0.59329322181133648 13.395369904038148 0 0 0 0 -0.27008780230132601 -3.7367695627122544 0 -3.7367695627122544 9.9069738292544116 0 0 0 0 0.077791862097001285 -1.0581754802644809 0 -1.0581754802644809 7.3682165995660398 0 0 0 0 -0.46172103420124699 -3.1498551777884014 0 -3.1498551777884014 1.7992829641573813 0 0 0 0 0.75326224628713589 -1.1208847020961912 0 -1.1208847020961912 10.62370689298973 0 0 0 0 -0.40355848691274332 -2.24846023653663 0 -2.24846023653663 8.5917127033391125 0 0 0 0 3.2128746061359834 -7.6657570913596373 0 -7.6657570913596373 15.376444432743142 0 0 0 0 -0.61203425709155823 0.045998990581324506 0 0.045998990581324506 13.029871692240704 0 0 0 0 0.4767498039200575 -0.95209568728046179 0 -0.95209568728046179 9.9192509629585857 0 0 0 0 -0.33752881449864724 -0.28202105679274947 0 -0.28202105679274947 1.6885391172436568 0 0 0 0 -0.14314812112239395 -2.4408511574273462 0 -2.4408511574273462 11.984169661948727 0 0 0 0 -0.10623799965424041 -1.9605624561289687 0 -1.9605624561289687 8.8345052521198113 0 0 0 0 -0.72279646924280883 -0.78117369353520871 0 -0.78117369353520871 10.765037537721355 0 0 0 0 -0.0017343582326118656 -1.3166715467044914 0 -1.3166715467044914 8.5098637553094321 0 0 0 0 -0.82428736433071315 -1.1018186165532597 0 -1.1018186165532597 9.9929277428734622 0 0 0 0 -1.1531604243004683 -0.48464112223229305 0 -0.48464112223229305 4.5856912571617565 0 0 0 0 -2.0099304083076337 0.20695541996826639 0 0.20695541996826639 8.7753435610299135 0 0 0 0 -1.9933506172574305 -0.92844551259167929 0 -0.92844551259167929 10.701812470473357 0 0 0 0 -2.051604968490544 -0.35356575598211748 0 -0.35356575598211748 10.527858068515343 0 0 0 0 -30.245042833677829 5.4342342329340418 0 5.4342342329340418 20.703547216186962 0 0 0 0 -20.883720566609554 -10.604690450745238 0 -10.604690450745238 0.93713369293800497 0 0 0 0 -10.715506181773435 3.436805518554138 0 3.436805518554138 12.022307183369094 0 0 0 0 0.096933321824757002 -0.77447655665600212 0 -0.77447655665600212 2.5819340246688665 0 0 0 0 0.29220905846318601 -1.1604399372474745 0 -1.1604399372474745 10.892606985718885 0 0 0 0 -1.8301021984951831 -4.5027620947153082 0 -4.5027620947153082 14.247303094553899 0 0 0 0 -1.8535253834638739 0.54818970889928254 0 0.54818970889928254 8.0673596576957998 0 0 0 0 -3.3198770500707724 -7.5608378681554314 0 -7.5608378681554314 11.016772672420757 0 0 0 0 -3.7742973394993271 -5.1187819966156098 0 -5.1187819966156098 14.26039126658452 0 0 0 0 0.085076292870188475 -0.62117696303964731 0 -0.62117696303964731 1.8120855421697661 0 0 0 0 -0.038230930761301352 0.40142798292538373 0 0.40142798292538373 4.832735327563114 0 0 0 0 -1.843675114415305 0.023750379321114679 0 0.023750379321114679 11.162502737018372 0 0 0 0 -1.2864503115679327 0.66826945297873408 0 0.66826945297873408 5.1141689776873136 0 0 0 0 -1.4569824332865549 -0.33519268674299108 0 -0.33519268674299108 7.6418015244388888 0 0 0 0 -0.76713367496449791 -0.15769803688715456 0 -0.15769803688715456 3.7976617844492466 0 0 0 0 -0.87948941523815449 -0.84254582395213862 0 -0.84254582395213862 8.3209517184101447 0 0 0 0 -0.44467431686774717 6.1263765686693432 0 6.1263765686693432 11.249285555208189 0 0 0 0 -5.751553978040306 1.8738758362801491 0 1.8738758362801491 8.1663152270411956 0 0 0 0 -1.8149815913520797 0.030579632735282303 0 0.030579632735282303 2.3399950781508139 0 0 0 0 -0.73252157111540395 0.42164769930408663 0 0.42164769930408663 3.1190363604750893 0 0 0 0 -0.41692632406231378 -0.38746192915919175 0 -0.38746192915919175 5.1641912800663956 0 0 0 0 -0.381481350348847 -1.081887942994789 0 -1.081887942994789 7.9548622729747791 0 0 0 0 -2.9803586827821391 -1.9716467466693643 0 -1.9716467466693643 15.210720123813189 0 0 0 0 -4.3186166231621996 -5.0815293403711621 0 -5.0815293403711621 13.667548048766093 0 0 0 0 -0.46224363921592593 -1.525822068752078 0 -1.525822068752078 0.94873403319149108 0 0 0 0 -8.0578147608441668 7.1560960620345213 0 7.1560960620345213 3.2365632103897042 0 0 0 0 0.60247448994664499 1.6420299247888659 0 1.6420299247888659 2.9561655042667923 0 0 0 0 -0.14259007499816967 0.44776171186010139 0 0.44776171186010139 1.0564314867294513 0 0 0 0 17.443937115963081 2.7456399362567936 0 2.7456399362567936 4.5195651832009389 0 0 0 0 -5.7062690217771888 1.7780911192676285 0 1.7780911192676285 1.3647244984781537 0 0 0 0 -3.2593641106426343 3.2688644542172067 0 3.2688644542172067 3.8941508507515792 0 0 0 0 0.88651432718961587 1.217540354715311 0 1.217540354715311 4.7577546594029627 0 0 0 0 -1.271417178208202 1.8158420552495889 0 1.8158420552495889 3.2979385837210593 0 0 0 0 -8.5536875443319786 6.5219145525547901 0 6.5219145525547901 6.6505528179081921 0 0 0 0 -5.8260532731545709 1.3383722840198971 0 1.3383722840198971 6.2225679635412234 0 0 0 0 -0.92248790445239592 5.0194360230011625 0 5.0194360230011625 4.0843972371294512 0 0 0 0 -2.6240975713108954 1.0232641142156389 0 1.0232641142156389 1.6369966518265642 0 0 0 0 -6.1926725139542214 1.9651956909383443 0 1.9651956909383443 3.4117201436765754 0 0 0 0 -5.4451112734986964 3.1065677296810463 0 3.1065677296810463 2.7720212724234443 0 0 0 0 -1.402774445513733 1.4660101327668906 0 1.4660101327668906 1.2639961436225313 0 0 0 0 -2.1514126154471507 1.6220746382132418 0 1.6220746382132418 1.2333254979960451 0 0 0 0 -2.4583167979659493 1.1230381054469945 0 1.1230381054469945 2.8026298106315153 0 0 0 0 -2.9827972596093844 1.3638525941339594 0 1.3638525941339594 2.7729026575611897 0 0 0 0 -1.881259179045458 1.2272848652778676 0 1.2272848652778676 2.5847903205314608 0 0 0 0 -0.71463350110464541 6.029798869406477 0 6.029798869406477 1.1430783252635592 0 0 0 0 -0.76824574814263258 6.3694820987715275 0 6.3694820987715275 0.46023546826108941 0 0 0 0 -3.3459502827690812 3.8434681788721718 0 3.8434681788721718 1.8501885652267447 0 0 0 0 -2.472604590496303 1.811670175848576 0 1.811670175848576 2.9065393598921219 0 0 0 0 -2.7159803961341318 0.83020073249759818 0 0.83020073249759818 4.8146878462149694 0 0 0 0 -8.4417727587158424 5.3322626396920896 0 5.3322626396920896 3.3301461718965584 0 0 0 0 -9.2942403074722648 9.7820510574742912 0 9.7820510574742912 4.988327976943765 0 0 0 0 -4.8338128439142451 8.1002894083449064 0 8.1002894083449064 2.3894979707947641 0 0 0 0 -4.7523133644192512 -4.3153613663398573 0 -4.3153613663398573 9.2574791757970161 0 0 0 0 -2.5084646687253809 -0.31663669829885421 0 -0.31663669829885421 5.0918917691911556 0 0 0 0 -1.5677589462863812 2.2074206616712182 0 2.2074206616712182 6.8624617711225682 0 0 0 0 -4.4027783365788764 1.166517502678289 0 1.166517502678289 10.638907073765949 0 0 0 0 -1.1758843105859675 -0.37645225059965703 0 -0.37645225059965703 14.360008167880338 0 0 0 0 -16.805479910420928 -0.95882953109935443 0 -0.95882953109935443 25.051368473257753 0 0 0 0 -11.518487072116216 -11.364941238352685 0 -11.364941238352685 9.9985927152047225 0 0 0 0 -2.8861707330363515 8.231680326373862 0 8.231680326373862 11.05481806259013 0 0 0 0 -10.779341565035111 -8.7552778020949518 0 -8.7552778020949518 16.457274668076934 0 0 0 0 20.693915275673589 -7.8191850900361715 0 -7.8191850900361715 3.4715944525323721 0 0 0 0 6.4276326919653002 -26.761667366845813 0 -26.761667366845813 18.110201721367048 0 0 0 0 4.9070874474177799 -5.1098629049929514 0 -5.1098629049929514 3.1297065381368157 0 0 0 0 -8.9813522438180371 -4.5439667761675082 0 -4.5439667761675082 7.9745050756796445 0 0 0 0 -18.260293254626276 -23.772121960026197 0 -23.772121960026197 11.299728563775716 0 0 0 0 -15.514045329149667 -14.728219561939113 0 -14.728219561939113 39.459220318063672 0 0 0 0 -2.7645728172296913 1.6486415201488853 0 1.6486415201488853 -3.5306023634884696 0 0 0 0 30.851746379871884 -3.3363828495353118 0 -3.3363828495353118 6.1459632224232337 0 0 0 0 0.14982309838524088 11.33257208501891 0 11.33257208501891 27.054052246880929 0 0 0 0 -0.3396368443042469 -1.0177068060568359 0 -1.0177068060568359 12.48243695499901 0 0 0 0 -37.706025120719687 -13.262160029994448 0 -13.262160029994448 26.909484461333705 0 0 0 0 -34.350078382542449 2.5045724465871899 0 2.5045724465871899 12.917864263716183 0 0 0 0 -0.057898474935259792 0.24857420037099942 0 0.24857420037099942 2.361975589277912 0 0 0 0 -25.116557308957681 -2.9723833441084935 0 -2.9723833441084935 16.793033571560954 0 0 0 0 0.0029162023902203904 0.31081053544479076 0 0.31081053544479076 5.9865318973268309 0 0 0 0 -33.592389917250316 10.478794155883108 0 10.478794155883108 13.907188351533478 0 0 0 0 -33.165305955694976 -16.203593695085146 0 -16.203593695085146 -1.4595195939543828 0 0 0 0 -0.54207322345553166 0.04048120630932317 0 0.04048120630932317 9.1055550311157276 0 0 0 0 -2.4039002968897876 -1.9294870934500068 0 -1.9294870934500068 11.293602771422229 0 0 0 0 12.238516239760315 -10.466691889989306 0 -10.466691889989306 15.715284229704594 0 0 0 0 9.5033928788620869 -13.219409958760934 0 -13.219409958760934 13.27599170013309 0 0 0 0 0.21686724736468932 1.8080335079639553 0 1.8080335079639553 19.804735177051043 0 0 0 0 15.641550799484321 -15.900113357794908 0 -15.900113357794908 14.392995875942688 0 0 0 0 -8.1526135610987893 1.9857624745964131 0 1.9857624745964131 4.5436921796717797 0 0 0 0 -4.0295113449376458 2.5604564202421898 0 2.5604564202421898 -0.87775019881974004 0 0 0 0 10.611355989422009 -16.192812969764873 0 -16.192812969764873 20.238296170968169 0 0 0 0 0.66479228956542413 1.0279520335085612 0 1.0279520335085612 1.7316888757078459 0 0 0 0 -10.464579233591905 7.4836562678447081 0 7.4836562678447081 1.1616433168383082 0 0 0 0 -3.5541066832133765 1.4653138274861703 0 1.4653138274861703 -1.2712957792659836 0 0 0 0 -1.6711887900255533 4.6502720376620346 0 4.6502720376620346 1.8569441070212633 0 0 0 0 4.2118287180754805 8.8735329361743425 0 8.8735329361743425 -0.54015260563073753 0 0 0 0 -1.5068605936747872 5.4639668950047735 0 5.4639668950047735 2.8264332810467749 0 0 0 0 -1.5471225559854458 1.5133222358601568 0 1.5133222358601568 3.5772766366711544 0 0 0 0 -2.6421452767214078 0.12580003902030512 0 0.12580003902030512 7.7597788043967739 0 0 0 0 -2.9190512429320279 5.1416080477001742 0 5.1416080477001742 3.5936357014907117 0 0 0 0 -8.6615166553934841 8.5826438557045321 0 8.5826438557045321 6.6029548741789768 0 0 0 0 0.48434994190969349 1.5568548040200163 0 1.5568548040200163 4.6531537532896365 0 0 0 0 4.9950766715987811 12.857990092221371 0 12.857990092221371 1.4782684738675016 0 0 0 0 -6.9897153246309927 10.904994505432114 0 10.904994505432114 5.9415874466976675 0 0 0 0 8.0878601193149962 1.1707082456678108 0 1.1707082456678108 4.714723040960962 0 0 0 0 -0.51463343771945036 -0.74600670498002053 0 -0.74600670498002053 1.6350234494612632 0 0 0 0 -1.5451485486794212 4.0894744782851831 0 4.0894744782851831 7.6526114477928786 0 0 0 0 0.11851051101279242 0.012794648096047467 0 0.012794648096047467 -0.6463928281216047 0 0 0 0 -0.71294495568383809 4.0423257922575431 0 4.0423257922575431 3.8224244590901435 0 0 0 0 -0.50010758929833043 2.1408104640260408 0 2.1408104640260408 4.9323602167936933 0 0 0 0 -9.983789336039365 6.8512936270863065 0 6.8512936270863065 7.3523973738717814 0 0 0 0 -1.0721344258394243 3.6218592133881771 0 3.6218592133881771 6.3924381680208171 0 0 0 0 -0.49914182521831624 2.6510388224742951 0 2.6510388224742951 2.8330976871631357 0 0 0 0 -1.1695572793312863 2.5200421384824949 0 2.5200421384824949 2.5140670059245167 0 0 0 0 -0.71785775152818199 2.1401472848916212 0 2.1401472848916212 4.2448486529344578 0 0 0 0 1.7573585940523344 5.183665022619607 0 5.183665022619607 -3.435034096231675 0 0 0 0 -0.051229473734713815 1.1932256003839561 0 1.1932256003839561 -1.4321633288832452 0 0 0 0 -1.6502862048587303 1.2669038271353656 0 1.2669038271353656 -0.8197283764243366 0 0 0 0 -9.0589678200992694 3.715701329408148 0 3.715701329408148 -1.5274278330289235 0 0 0 0 0.19219331271454354 0.69807785529152078 0 0.69807785529152078 1.0563895942402155 0 0 0 0 -1.5458674679146895 2.6429301363518789 0 2.6429301363518789 1.6405220215447116 0 0 0 0 4.0598119844954539 7.8793053427415884 0 7.8793053427415884 -1.0276330912001868 0 0 0 0 2.2086749907161902 2.0257694723916302 0 2.0257694723916302 1.1597760024078525 0 0 0 0 26.919990606138583 12.961972270884871 0 12.961972270884871 4.3379173606585937 0 0 0 0 -0.047074191311692437 0.019274551014327734 0 0.019274551014327734 0.27764506875276673 0 0 0 0 0.018752504523193991 -0.030031510879261591 0 -0.030031510879261591 -0.26245455860187583 0 0 0 0 1.2178006316974859 -2.5414878769470306 0 -2.5414878769470306 3.1752839325465629 0 0 0 0 1.1575791267906084 6.2783254752820312 0 6.2783254752820312 25.373970817056943 0 0 0 0 -1.4234416671828853 0.055802557099013939 0 0.055802557099013939 3.7027962961982439 0 0 0 0 -1.9069690100700614 1.9075774911636767 0 1.9075774911636767 2.0237325960781973 0 0 0 0 -8.3892416552637599 15.502908243737124 0 15.502908243737124 -2.0017602981533855 0 0 0 0 -3.2958579506153569 2.6965539581151461 0 2.6965539581151461 3.2540164695074054 0 0 0 0 -1.1769878174600716 2.1508049761057562 0 2.1508049761057562 3.7309892000011313 0 0 0 0 6.8036379393482775 11.649287668759371 0 11.649287668759371 -4.6526417262812174 0 0 0 0 -16.528809024213615 7.0627897922613556 0 7.0627897922613556 11.340257208387811 0 0 0 0 -3.2814313995596649 2.3523336227731306 0 2.3523336227731306 3.3248857203536204 0 0 0 0 -16.947155297183997 10.299358688162869 0 10.299358688162869 6.8846768873627298 0 0 0 0 -1.7462411916623295 0.13468054472175428 0 0.13468054472175428 3.8959247358923701 0 0 0 0 -18.514513189462434 5.1624136322568575 0 5.1624136322568575 14.960410425696409 0 0 0 0 -0.32351054788418476 -0.75737986233231158 0 -0.75737986233231158 2.6696532254468899 0 0 0 0 -23.015695036850502 -2.480966637048823 0 -2.480966637048823 4.0803663449805754 0 0 0 0 -7.2486939190243902 1.8090056834180359 0 1.8090056834180359 7.1598933559819216 0 0 0 0 -4.1885780484489032 9.4773260449680947 0 9.4773260449680947 26.294086076144595 0 0 0 0 -8.7631319427662788 -3.0360220644749916 0 -3.0360220644749916 18.757087451397638 0 0 0 0 -10.689055049045905 -9.6338967057533296 0 -9.6338967057533296 -1.426381004808718 0 0 0 0 1.1215944181740269 -13.723963889576225 0 -13.723963889576225 1.2089779823309073 0 0 0 0 0.41363852914828048 -0.91403338706862547 0 -0.91403338706862547 1.1833506921650692 0 0 0 0 -3.821310044283905 -1.6610313324963499 0 -1.6610313324963499 2.7374115377047019 0 0 0 0 -4.319099974573021 -3.3860310492757435 0 -3.3860310492757435 -0.7743985896850063 0 0 0 0 -34.642970135391124 -14.894359838206128 0 -14.894359838206128 9.9721479553850259 0 0 0 0 -9.5052720227968166 -4.2541600213489801 0 -4.2541600213489801 76.989841328967486 0 0 0 0 16.845211958639084 20.699365125182794 0 20.699365125182794 19.317310559022189 0 0 0 0 11.7522271010846 -3.6730875929715694 0 -3.6730875929715694 55.321727847712282 0 0 0 0 -11.239545659219885 18.82209737054788 0 18.82209737054788 37.388713833264774 0 0 0 0 11.792509850744523 -2.5700547194564933 0 -2.5700547194564933 22.113339247642216 0 0 0 0 31.11837689519848 4.0014501435728107 0 4.0014501435728107 23.768845087406589 0 0 0 0 10.355453013909937 -6.8797709265554658 0 -6.8797709265554658 30.696595124288478 0 0 0 0 -1.6286321317290913 4.2996191216038824 0 4.2996191216038824 33.514742332192327 0 0 0 0 4.6300330754015704 2.5118470083816646 0 2.5118470083816646 16.04135926476647 0 0 0 0 -2.0078079609230031 -9.1761524462772286 0 -9.1761524462772286 19.149262894671665 0 0 0 0 9.7193718638030759 -2.4090920170269783 0 -2.4090920170269783 18.720431142007328 0 0 0 0 0.88190175357783573 -13.860647022447665 0 -13.860647022447665 22.227108694761228 0 0 0 0 2.5144375721577035 -13.518116601445399 0 -13.518116601445399 19.372707368033844 0 0 0 0 8.668338903419766 -1.4767597988698071 0 -1.4767597988698071 30.195693469993785 0 0 0 0 26.298071520677013 -4.735027069836633 0 -4.735027069836633 21.104767949506822 0 0 0 0 9.8984664221548258 -3.3969562443106724 0 -3.3969562443106724 24.136394834029488 0 0 0 0 18.639397571086704 -24.045607868995376 0 -24.045607868995376 21.946576798065507 0 0 0 0 26.080064036301756 -9.4494568082441219 0 -9.4494568082441219 3.2030339750599524 0 0 0 0 28.46703246106199 -47.207205494806203 0 -47.207205494806203 67.250782506500514 0 0 0 0 16.7302582712515 8.7265227095131195 0 8.7265227095131195 52.149771296134986 0 0 0 0 62.590861127258052 15.184023310369412 0 15.184023310369412 18.600516612067167 0 0 0 0 -20.278611065908763 -19.585620421798922 0 -19.585620421798922 49.237097726117611 0 0 0 0 -4.2985404557083484 -13.709441095360944 0 -13.709441095360944 29.021740277889137 0 0 0 0 -1.7317809519045397 -22.603107314357658 0 -22.603107314357658 14.065252549396973 0 0 0 0 2.9073969901218106 -45.035312159510795 0 -45.035312159510795 18.904087777723362 0 0 0 0 1.6417679431891656 -31.876154384242 0 -31.876154384242 24.729138368514214 0 0 0 0 -20.839997144293019 -56.293618464095118 0 -56.293618464095118 23.97091104339961 0 0 0 0 27.125902681323765 12.491290583189311 0 12.491290583189311 -34.862874617969283 0 0 0 0 5.5546945154727609 -3.425484799699916 0 -3.425484799699916 -42.499945019329971 0 0 0 0 34.284947352307967 -1.8433251034007299 0 -1.8433251034007299 -22.344639836242095 0 0 0 0 0.77685944868610068 0.6152425616197279 0 0.6152425616197279 0.48734176796759243 0 0 0 0 0.32824193447243072 0.55750139233282603 0 0.55750139233282603 0.025443251206128892 0 0 0 0 8.4815806626240828 12.731568335091652 0 12.731568335091652 15.411281082548157 0 0 0 0 -5.7892629155158417 -33.649666938148869 0 -33.649666938148869 -118.98699141281759 0 0 0 0 -1.6462718750887007e-05 0.055383442690176032 0 0.055383442690176032 -0.18681455979450479 0 0 0 0 -9.7727324371342501 27.721740265287053 0 27.721740265287053 41.051225519915079 0 0 0 0 -0.36881410970677547 -0.20131896019878948 0 -0.20131896019878948 1.7694136573369015 0 0 0 0 -0.8532431838653145 5.3266030539375606 0 5.3266030539375606 51.453777671641546 0 0 0 0 0.03583760694982141 -0.13755895225305759 0 -0.13755895225305759 -0.031742513081891133 0 0 0 0 -8.731809991850696 -2.0544431372081817 0 -2.0544431372081817 -6.6957169461884405 0 0 0 0 3.3272599010672366 -27.647902415242243 0 -27.647902415242243 -1.8692843587714378 0 0 0 0 -2.5224238068875025 -19.702592857090167 0 -19.702592857090167 10.89070939605881 0 0 0 0 17.619920227417083 -39.983879868750591 0 -39.983879868750591 8.6833962722375873 0 0 0 0 5.3926004391381639 -47.373820904426793 0 -47.373820904426793 4.5628911389430868 0 0 0 0 17.557418796705065 -18.181762992826407 0 -18.181762992826407 -12.709084586568906 0 0 0 0 8.4522701764601607 -61.895006139739053 0 -61.895006139739053 18.442598806830574 0 0 0 0 73.61326527673782 83.666450864024682 0 83.666450864024682 102.2433159888933 0 0 0 0 37.325417643730134 -30.008835093324706 0 -30.008835093324706 -5.733711579606279 0 0 0 0 62.793906395794806 82.111133049767886 0 82.111133049767886 37.0444413672422 0 0 0 0 -0.00047908102715599199 -0.29449851894171752 0 -0.29449851894171752 1.0372637951421702 0 0 0 0 36.492563669431888 -56.455071245124145 0 -56.455071245124145 6.6410775313556769 0 0 0 0 34.763027291207152 67.015902657607057 0 67.015902657607057 161.07574489974741 0 0 0 0 -15.54422426607988 -8.1880847311947491 0 -8.1880847311947491 69.44359630285544 0 0 0 0 -5.9144561941433267 -1.0250631178932963 0 -1.0250631178932963 46.877206682228007 0 0 0 0 40.368353727924244 71.025269996141333 0 71.025269996141333 73.016616334294667 0 0 0 0 -8.5989762368702998 -12.910093167882678 0 -12.910093167882678 -4.3099776584901974 0 0 0 0 -25.001413977228637 43.722051106292383 0 43.722051106292383 36.750291554514433 0 0 0 0 0.10623030532786963 0.23309764927599508 0 0.23309764927599508 0.4187267238553769 0 0 0 0 -17.10500274739249 -5.7781461011618376 0 -5.7781461011618376 13.019489707719913 0 0 0 0 7.8570235868973839 -0.97771320770834791 0 -0.97771320770834791 9.0033464864284269 0 0 0 0 -3.597980289809982 -19.164100648406134 0 -19.164100648406134 5.3757453967546098 0 0 0 0 -8.5605751554777498 9.361579637914474 0 9.361579637914474 50.816603966561161 0 0 0 0 -7.7568218208954249 16.068686454061208 0 16.068686454061208 68.319082266711121 0 0 0 0 31.824556552778525 -31.379109762864118 0 -31.379109762864118 37.753191736122972 0 0 0 0 37.561449388616836 9.4441342175964564 0 9.4441342175964564 -3.7740790554953492 0 0 0 0 -0.29045946858764893 -0.6634750855323035 0 -0.6634750855323035 1.8675185248639128 0 0 0 0 7.3196824017539583 -4.9849066800743458 0 -4.9849066800743458 2.5159260271764197 0 0 0 0 7.482337450811599 12.507949809421916 0 12.507949809421916 8.6547408160304258 0 0 0 0 9.4831725549180987 11.907763405381047 0 11.907763405381047 8.8246587419889693 0 0 0 0 22.586263144833907 34.102392804237752 0 34.102392804237752 45.611512314584616 0 0 0 0 -8.2446501005284816 8.1157732005689809 0 8.1157732005689809 19.430233136972674 0 0 0 0 8.7453993382350461 18.75612357448199 0 18.75612357448199 13.629122069051846 0 0 0 0 -1.9749877002453502 11.41121799435723 0 11.41121799435723 8.1942406851030682 0 0 0 0 -15.218329999052116 13.471130434491442 0 13.471130434491442 27.763377638821112 0 0 0 0 -0.78321640671958903 13.565746087119805 0 13.565746087119805 10.848109425300208 0 0 0 0 5.7307240302760647 9.9176350580528378 0 9.9176350580528378 5.1810348817307386 0 0 0 0 3.4617664999163651 10.523148567570388 0 10.523148567570388 5.2850246824509668 0 0 0 0 0.4733711946305732 7.7845307915652029 0 7.7845307915652029 3.3085519863761874 0 0 0 0 -2.9036097453894172 12.786243059113986 0 12.786243059113986 8.3476875768980108 0 0 0 0 -7.7240776392361568 9.6643487640651529 0 9.6643487640651529 6.6402727668228181 0 0 0 0 -1.9035864222800001 8.0623343949191622 0 8.0623343949191622 2.3822071730928656 0 0 0 0 -2.0968873712917286 8.1234983283011388 0 8.1234983283011388 3.32915891914854 0 0 0 0 2.7389798709711854 5.0471394416281328 0 5.0471394416281328 0.93802838544797851 0 0 0 0 5.9382093533245666 4.785530020675651 0 4.785530020675651 0.91997023117801291 0 0 0 0 -2.9693057991350145 -1.3360107144017093 0 -1.3360107144017093 1.0860966224681761 0 0 0 0 -0.70947345299428433 -0.53276243462518558 0 -0.53276243462518558 1.4292635173862287 0 0 0 0 12.344165572932319 8.3896166856668515 0 8.3896166856668515 2.648072147705534 0 0 0 0 5.9382093533251918 4.785530020679289 0 4.785530020679289 0.91997023117437493 0 0 0 0 5.9382093533257034 4.785530020679289 0 4.785530020679289 0.91997023118165089 0 0 0 0 -4.0504528445238055 3.2912886834243338 0 3.2912886834243338 6.5811664848002884 0 0 0 0 -3.8198988735339476 2.8612588800087906 0 2.8612588800087906 12.772760875335734 0 0 0 0 -5.013115267061437 1.8031229521079695 0 1.8031229521079695 13.095319501389895 0 0 0 0 -1.4586195593594919 1.6472826301642365 0 1.6472826301642365 8.1162787144425153 0 0 0 0 -4.4171919060984237 4.5164068148114893 0 4.5164068148114893 7.6100026099129536 0 0 0 0 -8.5531345135210586 7.4245561207537776 0 7.4245561207537776 3.2368071951877937 0 0 0 0 -15.27995430119222 10.871198569004264 0 10.871198569004264 12.847423464118037 0 0 0 0 -1.5540169326535349 1.0979782335231802 0 1.0979782335231802 10.917030482801017 0 0 0 0 -34.131318890504076 2.9576869634024661 0 2.9576869634024661 28.102884007027569 0 0 0 0 -16.702773547259255 5.3003209812318346 0 5.3003209812318346 10.277314924675466 0 0 0 0 -0.78304528728255585 -0.079968856031673141 0 -0.079968856031673141 7.2762236349785354 0 0 0 0 -4.8145606752158301 1.1939670669773932 0 1.1939670669773932 9.0202926411693625 0 0 0 0 -5.1929615008606476 1.3342293174100632 0 1.3342293174100632 12.819713251081026 0 0 0 0 6.2971119406382456 -10.933014451763029 0 -10.933014451763029 11.48025242156109 0 0 0 0 -1.3813840502632972 2.0318897898285613 0 2.0318897898285613 9.6567401673371691 0 0 0 0 -9.0591472160355977 2.5857482366773183 0 2.5857482366773183 8.5725244113359622 0 0 0 0 -13.039754982395266 -5.4689328580384426 0 -5.4689328580384426 16.50332155086744 0 0 0 0 -0.93053391176603129 1.4959000209855979 0 1.4959000209855979 13.028984375921159 0 0 0 0 -24.500922792481163 15.225528985844676 0 15.225528985844676 28.61994998429418 0 0 0 0 -25.371325722944135 -17.860318862534314 0 -17.860318862534314 15.789386252354689 0 0 0 0 -28.114582249782586 -17.345860539788191 0 -17.345860539788191 3.5570259068390442 0 0 0 0 -0.89626725084819592 0.96994646972513565 0 0.96994646972513565 10.257049920611269 0 0 0 0 -2.2283247718128307 2.9353489114439384 0 2.9353489114439384 17.091686910890619 0 0 0 0 18.698667155487954 12.752819311636358 0 12.752819311636358 -5.5624485275620827 0 0 0 0 -7.2330133149770859 9.4614277725945612 0 9.4614277725945612 17.586206159116955 0 0 0 0 12.80435997114904 9.2098501584923724 0 9.2098501584923724 -7.0458142887546273 0 0 0 0 48.351642858371974 26.040140820829947 0 26.040140820829947 -12.27563738279423 0 0 0 0 46.622249297142844 119.87516413099684 0 119.87516413099684 36.633689474321727 0 0 0 0 9.2534398368793518 43.887494774185598 0 43.887494774185598 -1.6215765392989852 0 0 0 0 -30.745253031556189 6.7371481392801797 0 6.7371481392801797 130.33513867280908 0 0 0 0 -2.2658805573921121 1.5887525986561646 0 1.5887525986561646 17.909204702171774 0 0 0 0 -12.717472940705875 51.790985572994487 0 51.790985572994487 106.5918837883637 0 0 0 0 -36.354575825923689 34.394230197759953 0 34.394230197759953 124.2964964477278 0 0 0 0 59.391264193942447 45.97130791709742 0 45.97130791709742 10.092854475011336 0 0 0 0 -48.065139014241595 8.4850785188000373 0 8.4850785188000373 81.767872979687127 0 0 0 0 -0.022307660901543284 0.97594516190907421 0 0.97594516190907421 0.89180151456423218 0 0 0 0 -48.398723508224229 -2.4341359778330798 0 -2.4341359778330798 53.831289744812238 0 0 0 0 49.667709629641195 -4.6078815455894073 0 -4.6078815455894073 -30.666558812274161 0 0 0 0 20.297446017991206 -21.943837852911201 0 -21.943837852911201 -28.52665165993858 0 0 0 0 10.275613609656688 -4.3463874927401775 0 -4.3463874927401775 -2.0291690195504088 0 0 0 0 0.2040360695981594 0.45529110003024265 0 0.45529110003024265 1.2009445843216842 0 0 0 0 -31.277606497314849 -4.9332729489385656 0 -4.9332729489385656 2.1341869049324487 0 0 0 0 7.1871128046205826 0.2357057746017972 0 0.2357057746017972 -2.3022397042809644 0 0 0 0 -0.76249833480946283 2.3903596801859468 0 2.3903596801859468 6.9978814056247884 0 0 0 0 -0.67828359230590418 0.13615220655967297 0 0.13615220655967297 2.2032034243892316 0 0 0 0 -13.318819023804215 -2.2605592062130029 0 -2.2605592062130029 10.350979827837364 0 0 0 0 -11.228234691029826 -6.9034711052559032 0 -6.9034711052559032 5.5098445029145751 0 0 0 0 -13.154391090418613 -5.4177368680821019 0 -5.4177368680821019 11.73728391203349 0 0 0 0 -8.1902084124346288 -7.1331653108268256 0 -7.1331653108268256 10.01900954384837 0 0 0 0 -1.620848598677358 -0.27334580787417462 0 -0.27334580787417462 1.4081424625035899 0 0 0 0 7.2529829248341002 1.7809758537432572 0 1.7809758537432572 -2.6965486112203507 0 0 0 0 -3.3643413553974142 15.089651511575084 0 15.089651511575084 -55.2669391126351 0 0 0 0 -5.2435816207735115 1.3941142769290309 0 1.3941142769290309 1.9622356515556021 0 0 0 0 -1.3116822425178394 1.5050211107259042 0 1.5050211107259042 3.8380504515349099 0 0 0 0 -2.9735068665514657 -1.3662602889804862 0 -1.3662602889804862 4.170911119732482 0 0 0 0 -22.212476984032492 35.498880242798805 0 35.498880242798805 -35.659047106510116 0 0 0 0 -1.07807214390673 2.0526184953485189 0 2.0526184953485189 3.422196785926289 0 0 0 0 -40.346129427391134 76.906360658997983 0 76.906360658997983 -23.548856406707273 0 0 0 0 -117.26657032567709 36.260642100710584 0 36.260642100710584 73.807817917855573 0 0 0 0 -27.190772089491475 18.477638199591638 0 18.477638199591638 -19.91193417778959 0 0 0 0 -36.063966042440484 -5.0723792350722761 0 -5.0723792350722761 40.415494020756341 0 0 0 0 6.2635833169976252 -40.07589230987287 0 -40.07589230987287 61.456209803330239 0 0 0 0 45.79180936015878 -28.82416818841557 0 -28.82416818841557 31.678625075724995 0 0 0 0 15.811499267689825 -14.9932645888548 0 -14.9932645888548 61.327437851028662 0 0 0 0 -4.1879529903645789 -41.193669903522277 0 -41.193669903522277 34.001789575108774 0 0 0 0 -20.741875446600261 -39.409578543568841 0 -39.409578543568841 65.686378128528304 0 0 0 0 -25.264304109717159 -44.539189605154206 0 -44.539189605154206 62.358771075055301 0 0 0 0 -16.591270699529218 -30.185386250629563 0 -30.185386250629563 73.454953001468766 0 0 0 0 62.804668233846371 20.610813445439589 0 20.610813445439589 9.6751758866216733 0 0 0 0 30.695772938447107 59.780060584170656 0 59.780060584170656 85.938564874873009 0 0 0 0 -0.51757630592938597 -0.56800886877410484 0 -0.56800886877410484 2.1439100334415748 0 0 0 0 -16.499002760138126 -56.019977844561481 0 -56.019977844561481 82.164974837501177 0 0 0 0 -10.732021369039558 -42.374229023499765 0 -42.374229023499765 29.308917162389662 0 0 0 0 -16.276433397020469 -32.874691770898608 0 -32.874691770898608 20.917650821224925 0 0 0 0 -9.5189499179746235 -14.977805282843292 0 -14.977805282843292 -36.349339210362359 0 0 0 0 -15.996905888511719 -26.004958985829944 0 -26.004958985829944 29.89923514345719 0 0 0 0 -1.2329074426770292 -1.2889248837818617 0 -1.2889248837818617 2.6480730078159667 0 0 0 0 -103.36736026671372 165.7939031720698 0 165.7939031720698 83.983030460287409 0 0 0 0 0.33117293153128879 0.30850128787949949 0 0.30850128787949949 0.70870288867294029 0 0 0 0 0.043682482012944446 0.11828110181552098 0 0.11828110181552098 0.31907805994985239 0 0 0 0 15.947930348880845 -4.8508231596515543 0 -4.8508231596515543 -4.2090162615240843 0 0 0 0 79.256733142894518 57.075693502770264 0 57.075693502770264 42.830214014582452 0 0 0 0 199.3319867744525 21.103646955709337 0 21.103646955709337 -99.951360946672139 0 0 0 0 10.83032238416672 -6.7768464804139512 0 -6.7768464804139512 26.873435937710383 0 0 0 0 14.289618927742595 -9.1618306743921494 0 -9.1618306743921494 5.3995009703157848 0 0 0 0 31.066671129600536 -2.9422308138487097 0 -2.9422308138487097 -85.42733984282313 0 0 0 0 2.8118905094820548 14.717836983294546 0 14.717836983294546 20.94231012533146 0 0 0 0 -38.48240923760801 -17.322397748805543 0 -17.322397748805543 34.157392929948401 0 0 0 0 -1.4200135387033013 3.1746730148992901 0 3.1746730148992901 18.841688529865639 0 0 0 0 41.776319975114802 13.372650813517794 0 13.372650813517794 13.128308831795948 0 0 0 0 33.045615178412163 12.785431600198535 0 12.785431600198535 -26.709502383491781 0 0 0 0 27.61295899543893 6.1372983345281682 0 6.1372983345281682 -31.673267733862303 0 0 0 0 22.406551723161328 41.045840363968637 0 41.045840363968637 36.569995989048948 0 0 0 0 -5.7674247742257592 2.3179241050628434 0 2.3179241050628434 -16.47071993600548 0 0 0 0 -4.7344401139139336 -8.7728408704806498 0 -8.7728408704806498 -40.494758645127149 0 0 0 0 23.985592964692387 15.044619662785408 0 15.044619662785408 -40.770835302466367 0 0 0 0 8.6791768441917156 15.453074989751258 0 15.453074989751258 -63.321751477851649 0 0 0 0 17.074281728465394 18.56446355267326 0 18.56446355267326 -44.343264396886298 0 0 0 0 9.7236167966602807 9.1017449640658015 0 9.1017449640658015 -38.121392646367894 0 0 0 0 -0.22608072317143524 5.6266443797831016 0 5.6266443797831016 0.53316782751971914 0 0 0 0 -12.222459779729888 19.080928001254506 0 19.080928001254506 -10.300006570352707 0 0 0 0 24.529542960013217 7.338827477250959 0 7.338827477250959 -28.118089351941308 0 0 0 0 24.71239203983896 12.566801072105591 0 12.566801072105591 -34.368083424504221 0 0 0 0 31.020096539810766 4.6168526323212973 0 4.6168526323212973 -24.763433590022032 0 0 0 0 11.266320502830524 6.4873226514741873 0 6.4873226514741873 12.803655774039498 0 0 0 0 7.469476390152245 -6.8742265677390151 0 -6.8742265677390151 4.020417034032107 0 0 0 0 0.16142150961465057 0.11314555152815942 0 0.11314555152815942 -0.033191250285039331 0 0 0 0 2.075758834746825 -2.1588675513278304 0 -2.1588675513278304 2.7763857842846846 0 0 0 0 15.813499338960817 18.910992374826606 0 18.910992374826606 1.2217196924475502 0 0 0 0 -1.9658742690758615 49.144115595295432 0 49.144115595295432 -65.367805016291641 0 0 0 0 -6.8347834848299129 -1.6831925196556767 0 -1.6831925196556767 -16.574695997366689 0 0 0 0 13.29847909241694 -2.5790886208435495 0 -2.5790886208435495 9.7602241835015775 0 0 0 0 11.762610846055196 -25.48546677639979 0 -25.48546677639979 19.361780632234513 0 0 0 0 37.492164009083375 -29.630045802049381 0 -29.630045802049381 -11.400686308102934 0 0 0 0 23.717151588797265 -24.583815813921092 0 -24.583815813921092 -61.401819597578196 0 0 0 0 -55.515252784082577 14.750631982592267 0 14.750631982592267 3.7663703057678504 0 0 0 0 1.7143936808922049 1.5279590169995938 0 1.5279590169995938 1.170708352595657 0 0 0 0 -27.621459862216852 -29.620760146633074 0 -29.620760146633074 84.25177777745921 0 0 0 0 5.6153814587090665 -48.867833233941838 0 -48.867833233941838 -17.077639550637286 0 0 0 0 2.6394654865008818 -12.670538527377971 0 -12.670538527377971 -27.068234383712934 0 0 0 0 1.0520345652279413 1.3693642012890344 0 1.3693642012890344 1.0840951662533982 0 0 0 0 19.195100664860718 122.61210793255304 0 122.61210793255304 -77.57066542874054 0 0 0 0 30.025329968674907 -142.00170261416628 0 -142.00170261416628 166.65054666392507 0 0 0 0 -4.6367247557148801 -26.218481174027602 0 -26.218481174027602 -55.213269988977345 0 0 0 0 13.38722692579546 77.711731093911567 0 77.711731093911567 154.20569702679722 0 0 0 0 39.749343801067312 69.812565641860829 0 69.812565641860829 -52.01702471794033 0 0 0 0 0.22786973532149268 0.68199864786074471 0 0.68199864786074471 1.5321330281732237 0 0 0 0 9.3497377898312237 27.218846141644008 0 27.218846141644008 48.72745114301415 0 0 0 0 8.6442855495211859 25.883577020353641 0 25.883577020353641 77.276495070153032 0 0 0 0 -9.211262594284392 9.9389499692069876 0 9.9389499692069876 111.3946994226344 0 0 0 0 8.8042461111915742 -43.463450589811373 0 -43.463450589811373 94.553572918677673 0 0 0 0 122.80239585720568 2.1359204698128451 0 2.1359204698128451 -7.6393577489875497 0 0 0 0 10.236546437303637 7.5051510011298888 0 7.5051510011298888 62.223854008040689 0 0 0 0 -10.068669046240487 17.661385133202089 0 17.661385133202089 58.334064096276961 0 0 0 0 -2.205804500106467 38.719212919152369 0 38.719212919152369 74.230975588135834 0 0 0 0 -14.701611027421137 9.869728406431534 0 9.869728406431534 66.391424842061497 0 0 0 0 -32.220736463834058 40.98383755570012 0 40.98383755570012 86.858686160364414 0 0 0 0 -1.834997670180277 38.68921627980535 0 38.68921627980535 52.683764943686128 0 0 0 0 15.125085153600658 71.9669223394867 0 71.9669223394867 113.94834975642698 0 0 0 0 23.293191785001042 37.415136560000519 0 37.415136560000519 51.253056552223143 0 0 0 0 10.558954827060415 8.5951528517060467 0 8.5951528517060467 10.517846510331765 0 0 0 0 36.681824910184339 -20.171927631348581 0 -20.171927631348581 -37.386828451394877 0 0 0 0 -0.10218566004078426 -0.61327992376194995 0 -0.61327992376194995 0.060330745235117167 0 0 0 0 21.620483648780798 -119.67794794475458 0 -119.67794794475458 364.24436375814383 0 0 0 0 70.108737886989644 -100.35306249920006 0 -100.35306249920006 40.611937292204857 0 0 0 0 52.635003530201331 -47.927561224920282 0 -47.927561224920282 143.7920685738809 0 0 0 0 -2.8765015885934204 12.312101704543693 0 12.312101704543693 78.766306649640683 0 0 0 0 -32.503130712847323 15.450579495065085 0 15.450579495065085 33.337712538859705 0 0 0 0 -6.9608345816106958 -11.171693144702857 0 -11.171693144702857 60.213138031950621 0 0 0 0 -0.060962790981066772 -0.09881641863906232 0 -0.09881641863906232 -0.075115301267908663 0 0 0 0 -27.756652678842393 24.669744287989943 0 24.669744287989943 0.12117888011744071 0 0 0 0 -20.732290540752579 2.072335074330681 0 2.072335074330681 6.2097901759352681 0 0 0 0 -22.883603931697863 -8.4382526370741289 0 -8.4382526370741289 30.519819480586591 0 0 0 0 -9.2130156015522005 -4.2349843652141317 0 -4.2349843652141317 4.4572656150135117 0 0 0 0 -1.7172676406638061 -3.2664486720959758 0 -3.2664486720959758 3.7984794598512508 0 0 0 0 -0.83733753190652083 -1.5531573638320797 0 -1.5531573638320797 0.11355511022599263 0 0 0 0 77.360370698613451 -83.585380706990691 0 -83.585380706990691 131.43406808691657 0 0 0 0 -0.29049342135284917 -0.40458613022178547 0 -0.40458613022178547 0.10664111920849173 0 0 0 0 0.10583094607000565 0.055611232113355058 0 0.055611232113355058 0.16819543970654749 0 0 0 0 4.8900370107201923 2.2505451521741406 0 2.2505451521741406 2.7435165072051859 0 0 0 0 -3.4790191413816842 11.087750255295759 0 11.087750255295759 65.056908933338491 0 0 0 0 -0.18788189216604678 -10.356109093735313 0 -10.356109093735313 42.594910558933151 0 0 0 0 54.017072917721066 -50.022495148843973 0 -50.022495148843973 4.1563233390033929 0 0 0 0 -1.2398039315815481 0.52963259911419414 0 0.52963259911419414 2.8132093352278389 0 0 0 0 -0.10733188368575902 -0.11102315238178095 0 -0.11102315238178095 0.92176060124222303 0 0 0 0 -11.899418888573678 -73.120526941002481 0 -73.120526941002481 70.423313799046809 0 0 0 0 -82.717786969373321 -28.165903184173885 0 -28.165903184173885 88.968035463834894 0 0 0 0 -65.712049343736794 -56.789425137539183 0 -56.789425137539183 92.662514606944569 0 0 0 0 -7.6485168702466169 0.68357325301224137 0 0.68357325301224137 0.27217101069982164 0 0 0 0 32.811048614388625 -0.089957614316972467 0 -0.089957614316972467 12.569737173434078 0 0 0 0 -0.35617416733539842 -0.99968966232947887 0 -0.99968966232947887 0.64304042772152048 0 0 0 0 -1.1892441060166692 -0.52923940678384351 0 -0.52923940678384351 2.4914396431699863 0 0 0 0 0.061556314180506888 -1.9490595861343536 0 -1.9490595861343536 1.5546255084032055 0 0 0 0 -0.040230909903385736 -1.6610825056377507 0 -1.6610825056377507 2.9943235311329772 0 0 0 0 -0.11478053503401497 -1.8536712759837428 0 -1.8536712759837428 1.9474985782799195 0 0 0 0 0.061208234406618378 -1.2475363475391124 0 -1.2475363475391124 2.0987067679958118 0 0 0 0 -0.93368974665574478 -1.5499876100509913 0 -1.5499876100509913 1.6020536555449034 0 0 0 0 -34.462158539930897 9.8480982784374191 0 9.8480982784374191 83.997531736841665 0 0 0 0 0.72927185487301927 -1.7704812518281869 0 -1.7704812518281869 1.3646702200364871 0 0 0 0 -0.87646123976548129 -1.2586316638045245 0 -1.2586316638045245 2.0464655592819252 0 0 0 0 -0.73688918509950374 -1.5455410715259106 0 -1.5455410715259106 1.0960499843221285 0 0 0 0 41.704996109033459 -98.177081777487047 0 -98.177081777487047 157.66834997248225 0 0 0 0 166.69449183594435 -193.99198857721763 0 -193.99198857721763 118.11766340311078 0 0 0 0 129.14918165043341 -93.934333527608032 0 -93.934333527608032 50.529618405151496 0 0 0 0 102.25375853781668 -133.81756005958687 0 -133.81756005958687 133.83781322102004 0 0 0 0 552.66481307642835 -299.39219528279591 0 -299.39219528279591 28.02767999030857 0 0 0 0 0.59726779693929932 -0.65063873845422027 0 -0.65063873845422027 0.77284723186478566 0 0 0 0 18.499232069869333 -195.94810907721694 0 -195.94810907721694 330.42879451425392 0 0 0 0 6.4932610432560329 -178.89255333215169 0 -178.89255333215169 320.72279626684804 0 0 0 0 57.229748798519637 -339.64915344840642 0 -339.64915344840642 499.34801432924587 0 0 0 0 40.929459167750927 -190.32672556314435 0 -190.32672556314435 288.18998910412938 0 0 0 0 56.399049746614736 -217.8318393213226 0 -217.8318393213226 317.46448352818197 0 0 0 0 -3.7183546699814078 -68.983858236552805 0 -68.983858236552805 228.23721731139722 0 0 0 0 -0.38659667052554103 -105.13948880426744 0 -105.13948880426744 356.78595497846254 0 0 0 0 0.46416597036148222 -189.96365280130681 0 -189.96365280130681 361.77854103177924 0 0 0 0 -36.858103636434194 -93.38677526399772 0 -93.38677526399772 361.20145892397659 0 0 0 0 -24.237045263895389 -137.73934133828311 0 -137.73934133828311 499.98367825355649 0 0 0 0 38.341027858900951 -106.65895086119679 0 -106.65895086119679 359.67443490049072 0 0 0 0 -53.481492700595936 -33.167702421921604 0 -33.167702421921604 5.9206601883624899 0 0 0 0 0.37468077673234151 3.48328339067033 0 3.48328339067033 19.842931567385509 0 0 0 0 -8.9774779434298324 -55.542812130929576 0 -55.542812130929576 -9.8836153755364649 0 0 0 0 48.615670387950104 -23.181849534988942 0 -23.181849534988942 -25.469212080436591 0 0 0 0 -3.7491295701792637 -27.101760891766048 0 -27.101760891766048 -9.7442714119424636 0 0 0 0 33.218467760335898 -37.440207873064537 0 -37.440207873064537 -6.8640790299286891 0 0 0 0 -17.765671458823022 -11.095014205860025 0 -11.095014205860025 -22.27273827105239 0 0 0 0 13.975240738822777 0.12668460964778205 0 0.12668460964778205 22.739394054176955 0 0 0 0 12.00230374152386 0.11735389769819449 0 0.11735389769819449 23.124213166413028 0 0 0 0 28.336420537788399 -3.1990952855076102 0 -3.1990952855076102 19.143313584873795 0 0 0 0 0.3066479419630132 2.5783673500810931 0 2.5783673500810931 1.3739267011113512 0 0 0 0 -33.339467531890591 70.222865834020922 0 70.222865834020922 75.833109059913113 0 0 0 0 -125.32139362337381 -95.519250688002558 0 -95.519250688002558 83.462659753557091 0 0 0 0 -1.1764086781874055 2.3238057452311436 0 2.3238057452311436 21.284662887682607 0 0 0 0 20.906692752325625 -39.823155888251677 0 -39.823155888251677 -21.506762038543457 0 0 0 0 -2.5062674675575636 -36.018041753774014 0 -36.018041753774014 10.137249431478267 0 0 0 0 0.47080861990639278 4.4820006104455388 0 4.4820006104455388 4.7482956949916115 0 0 0 0 -30.72849788025519 55.677381388739832 0 55.677381388739832 97.302850056767056 0 0 0 0 -28.216306474224268 42.966527945825646 0 42.966527945825646 155.24985400952937 0 0 0 0 -27.361426449292935 -56.474357788165889 0 -56.474357788165889 117.48870886543045 0 0 0 0 181.73798115475506 -37.96744911060614 0 -37.96744911060614 -64.028881847083539 0 0 0 0 -56.640653744351425 -2.9090466425295745 0 -2.9090466425295745 196.79121412878521 0 0 0 0 132.56734575747453 -95.742072522103172 0 -95.742072522103172 34.644477508181808 0 0 0 0 9.6269381633799185 -34.452126683323513 0 -34.452126683323513 168.69685157897311 0 0 0 0 23.196217611353404 -22.576738347079299 0 -22.576738347079299 17.646691175685419 0 0 0 0 -41.120694876906271 43.713701140085959 0 43.713701140085959 -7.2529155687179809 0 0 0 0 -50.435621678776101 -1.7244762172199444 0 -1.7244762172199444 102.14010654158483 0 0 0 0 -69.336710048253281 22.598683221134706 0 22.598683221134706 38.933748152812768 0 0 0 0 0.66672488676538189 2.0415551192106416 0 2.0415551192106416 3.5420742028807268 0 0 0 0 5.5051883188073134 -9.0300748367517372 0 -9.0300748367517372 -17.008964082409875 0 0 0 0 -3.8198742683962337 -21.473212173715638 0 -21.473212173715638 17.550733904147364 0 0 0 0 -6.3248046956426833 -15.905843483227727 0 -15.905843483227727 -27.959672503437332 0 0 0 0 -7.2777578369207845 -6.4569889057902401 0 -6.4569889057902401 25.144621563047622 0 0 0 0 4.832918546137364 16.334434023722224 0 16.334434023722224 41.97487004715655 0 0 0 0 -7.910902965442574 -3.6102827429299396 0 -3.6102827429299396 21.73504113985291 0 0 0 0 0.043729841137342129 -1.066339673489149 0 -1.066339673489149 0.58894837538557443 0 0 0 0 1.1956752025117794 -11.056322473726595 0 -11.056322473726595 26.155180155017206 0 0 0 0 -0.50631376078627 -0.92777427040087979 0 -0.92777427040087979 1.1517343972506904 0 0 0 0 1.6591999235817525 -8.9797547868970469 0 -8.9797547868970469 21.743681025573551 0 0 0 0 16.768619509964083 32.956989384459121 0 32.956989384459121 -45.429824579705382 0 0 0 0 -4.8747287155921697 14.178162545586019 0 14.178162545586019 26.427694507518027 0 0 0 0 0.92501172078964211 1.7200504182520788 0 1.7200504182520788 4.6974539788285572 0 0 0 0 0.52614314373674631 -2.2618600444211552 0 -2.2618600444211552 -4.4309779198347314 0 0 0 0 43.977626811247319 30.869602444496195 0 30.869602444496195 -58.793729723931392 0 0 0 0 -31.094787838631156 -13.921168871731425 0 -13.921168871731425 41.937334080975234 0 0 0 0 141.58033324128587 7.6374198015282673 0 7.6374198015282673 -79.985415053864472 0 0 0 0 0.7125290576136537 -0.95359019176624393 0 -0.95359019176624393 -1.1992819632310709 0 0 0 0 2.0614909833804518 -3.7294502017289233 0 -3.7294502017289233 4.8170499075795306 0 0 0 0 0.040216342416717038 -2.5657625830346964 0 -2.5657625830346964 0.83109125304712084 0 0 0 0 44.90578745407884 60.711115449703357 0 60.711115449703357 45.696152751226691 0 0 0 0 0.67042804125253497 -3.4469435119372065 0 -3.4469435119372065 6.5829398298737942 0 0 0 0 -0.57998150500732493 -1.0701574424091689 0 -1.0701574424091689 0.80538229089062341 0 0 0 0 -8.4716882402281541 -42.623833273685705 0 -42.623833273685705 44.935946017280003 0 0 0 0 -0.5376857097233767 -1.8497795441362541 0 -1.8497795441362541 2.4420698972026003 0 0 0 0 -0.53457628872408947 -2.2019461613732574 0 -2.2019461613732574 3.5012087962350051 0 0 0 0 0.010006693937256728 -1.2498828302393994 0 -1.2498828302393994 0.26950281047294222 0 0 0 0 -0.048261150157941302 -1.6245557502898009 0 -1.6245557502898009 1.899142447140548 0 0 0 0 -0.52881745968730343 -2.4436584911300088 0 -2.4436584911300088 2.6438562274215656 0 0 0 0 -0.940299500038136 -1.3091389873216555 0 -1.3091389873216555 2.6621509792428828 0 0 0 0 -0.069431263523860753 -4.147676051973165 0 -4.147676051973165 -0.019245275169303966 0 0 0 0 -0.29829886431458563 -1.3462482145981909 0 -1.3462482145981909 3.1542256220136586 0 0 0 0 -0.3545488763424951 -1.5749250162396482 0 -1.5749250162396482 1.3937081349875129 0 0 0 0 -1.1678850389102706 -2.1632253397738168 0 -2.1632253397738168 2.5253216592673198 0 0 0 0 -1.2797892736853385 -1.6605577907284896 0 -1.6605577907284896 2.397244710668474 0 0 0 0 -0.45701332057837946 -1.2503856906747279 0 -1.2503856906747279 2.0346833642215056 0 0 0 0 -1.1180325334578356 -0.76938193541855071 0 -0.76938193541855071 1.6793221830266702 0 0 0 0 -0.32094510621465178 0.31779244932198125 0 0.31779244932198125 1.6242024338655643 0 0 0 0 113.51970864883234 144.05414849112276 0 144.05414849112276 58.547952846280168 0 0 0 0 0.35157962483555855 -2.3120588940764719 0 -2.3120588940764719 496.31370377278472 0 0 0 0 0.31407433481600799 -0.63293100320376006 0 -0.63293100320376006 0.37183631291265939 0 0 0 0 73.520614096606224 -73.020726570117404 0 -73.020726570117404 71.472087502651448 0 0 0 0 -68.354573304020846 63.496306708810152 0 63.496306708810152 495.55930632563104 0 0 0 0 0.11726518536927302 0.073388872118831827 0 0.073388872118831827 1.0968311003420439 0 0 0 0 -37.709106846856251 -28.267504943308438 0 -28.267504943308438 174.88859472324293 0 0 0 0 -49.201342590323264 110.69685453136299 0 110.69685453136299 499.29834531808024 0 0 0 0 -39.398813899061011 -24.612215981138945 0 -24.612215981138945 276.95792805002111 0 0 0 0 22.578956027661775 -281.30445024074743 0 -281.30445024074743 499.19996907161135 0 0 0 0 2.2319544177867101 -2.8455419296878972 0 -2.8455419296878972 5.5957966247369768 0 0 0 0 1.2853384183105403 -0.075925879951472819 0 -0.075925879951472819 1.1435667096631583 0 0 0 0 353.81627918423425 219.7201996698372 0 219.7201996698372 141.35749241372832 0 0 0 0 0.15127134791264946 -0.19742873050243226 0 -0.19742873050243226 0.58108576060174322 0 0 0 0 294.74107129853235 115.7407735694469 0 115.7407735694469 -22.0110360616045 0 0 0 0 -45.997652629131039 -69.157395125906987 0 -69.157395125906987 24.007979844596775 0 0 0 0 1.344107177211296 -0.46074388300709279 0 -0.46074388300709279 3.7729975111791099 0 0 0 0 1.1254551697513833 0.021156867864053908 0 0.021156867864053908 0.48729872459488632 0 0 0 0 0.087903603738163305 0.097521106748017061 0 0.097521106748017061 4.1172765614958671 0 0 0 0 0.63662533097044616 -2.1843974903649723 0 -2.1843974903649723 5.8848289432864931 0 0 0 0 0.86844066137379006 1.900388333217748 0 1.900388333217748 6.7997034623003856 0 0 0 0 2.3535600938207102 -0.19365395093655871 0 -0.19365395093655871 2.7699915635365393 0 0 0 0 -0.56940332300964824 -1.2006294713523573 0 -1.2006294713523573 6.5003984315001322 0 0 0 0 -25.760707184129046 -8.5108630747013194 0 -8.5108630747013194 12.492795564850894 0 0 0 0 7.4228782035526706 5.0996248020225075 0 5.0996248020225075 3.3636895127054505 0 0 0 0 44.731724846968746 45.251661970392888 0 45.251661970392888 125.50645984652147 0 0 0 0 11.813897379698211 35.018032221195618 0 35.018032221195618 131.69322264556467 0 0 0 0 8.6636442818883097 -0.25659867124613811 0 -0.25659867124613811 27.083290484440113 0 0 0 0 79.915412097745673 327.67269233122488 0 327.67269233122488 499.34298579262395 0 0 0 0 -56.627015455104534 99.097947333974844 0 99.097947333974844 400.60871114095244 0 0 0 0 115.04723400489118 246.74785830453766 0 246.74785830453766 202.55372214805993 0 0 0 0 226.70845280677204 342.95810410568447 0 342.95810410568447 153.72112274962092 0 0 0 0 0.59631468601470106 -0.6499568925159771 0 -0.6499568925159771 0.56956160855787985 0 0 0 0 58.687181853149639 75.955233503675117 0 75.955233503675117 87.199240447378543 0 0 0 0 384.8604973427735 239.26702374468732 0 239.26702374468732 5.9224214071273309 0 0 0 0 -43.545346133076109 -2.2889528565165165 0 -2.2889528565165165 353.69340619827369 0 0 0 0 -37.003245195792942 86.069945373586961 0 86.069945373586961 350.42672984221554 0 0 0 0 -47.626133700340262 23.01241692880285 0 23.01241692880285 499.99964525492123 0 0 0 0 5.7510655867893536 4.535917898228444 0 4.535917898228444 1.2525578170233329 0 0 0 0 1.3473388306079528 5.4295761131807012 0 5.4295761131807012 28.341120342965951 0 0 0 0 3.1082047711751404 21.755655728953116 0 21.755655728953116 360.36835466844332 0 0 0 0 7.6316319466750429 -1.6480483049754184 0 -1.6480483049754184 25.400875692619593 0 0 0 0 -0.89734476465969237 -1.3240540808565129 0 -1.3240540808565129 25.800287754542751 0 0 0 0 0.088190238340075666 4.1212392463821743 0 4.1212392463821743 27.198784851178743 0 0 0 0 -4.6265764523209327 2.5196929817152522 0 2.5196929817152522 27.899717366627328 0 0 0 0 -7.2027915467131152 -1.7624199854590188 0 -1.7624199854590188 22.559477262914697 0 0 0 0 10.048058090927157 -5.0754229092665355 0 -5.0754229092665355 21.01854898579586 0 0 0 0 -8.1675834320313925 -0.20956981167046251 0 -0.20956981167046251 54.269591708717599 0 0 0 0 0.4650252155275556 0.089801322587561572 0 0.089801322587561572 -0.16742813832166803 0 0 0 0 -7.8686138765626765 3.5404664342213437 0 3.5404664342213437 18.514781707712245 0 0 0 0 -9.3070405153367091 6.8121172886832824 0 6.8121172886832824 29.420614980741448 0 0 0 0 -1.5233953518893486 8.851490564244159 0 8.851490564244159 29.946447511904807 0 0 0 0 1.5665515450007206 8.73451121769358 0 8.73451121769358 31.433922072933456 0 0 0 0 -21.856016688918885 21.75817827650917 0 21.75817827650917 39.690597714061369 0 0 0 0 3.8241120230977712 3.1346636836025858 0 3.1346636836025858 1.3356296046492409 0 0 0 0 -6.4341053884876942 25.323562032973769 0 25.323562032973769 1.3268921187100204 0 0 0 0 -4.9067601881797032 -32.374328787432489 0 -32.374328787432489 492.11493297735706 0 0 0 0 -1.7826826232449857 -28.241179648468915 0 -28.241179648468915 408.75597911167461 0 0 0 0 11.799831344524787 -43.905794685734691 0 -43.905794685734691 500.0147522778467 0 0 0 0 1.476805544825825 1.0572596488125718 0 1.0572596488125718 0.77075812372320662 0 0 0 0 34.676264100028341 30.135754158683199 0 30.135754158683199 738.51312721846898 0 0 0 0 189.90075501207892 223.78500177469323 0 223.78500177469323 500.21369960981883 0 0 0 0 111.22563287205462 139.31313914248949 0 139.31313914248949 112.76893930578444 0 0 0 0 -17.512933624386392 7.0313142274762868 0 7.0313142274762868 45.993652088965973 0 0 0 0 47.26420474502072 33.117264454235738 0 33.117264454235738 -63.117537632433596 0 0 0 0 120.7651860813688 183.08000814015122 0 183.08000814015122 442.09335551015829 0 0 0 0 50.48168725666217 197.01091945188546 0 197.01091945188546 500.11334061215803 0 0 0 0 136.87136381612495 162.25791061514519 0 162.25791061514519 460.76272687770165 0 0 0 0 52.31942138570809 252.63074461364067 0 252.63074461364067 374.94880075492802 0 0 0 0 -24.38678259299693 172.04832236590664 0 172.04832236590664 460.24509339966085 0 0 0 0 86.950145937346775 1.0079456194894192 0 1.0079456194894192 -49.127444126414048 0 0 0 0 243.87579608698024 190.47417192025023 0 190.47417192025023 139.9163094584892 0 0 0 0 -164.63526018789867 47.422853957384632 0 47.422853957384632 260.66000328472774 0 0 0 0 0.47398902535067278 1.3196111603735545 0 1.3196111603735545 2.0337445016472486 0 0 0 0 28.7042449942183 -23.152914064705783 0 -23.152914064705783 -14.552533695567035 0 0 0 0 -2.7048408316450434 53.876666304744504 0 53.876666304744504 -48.76872172330286 0 0 0 0 8.1205957262272932 -8.519469772038974 0 -8.519469772038974 42.92062365994434 0 0 0 0 14.662963407173663 -6.2841323979732806 0 -6.2841323979732806 25.238805439415046 0 0 0 0 -8.1982166066736966 -19.819228906002536 0 -19.819228906002536 107.0850392923289 0 0 0 0 1.0990271402582437 -0.13298376736292994 0 -0.13298376736292994 27.82824006060855 0 0 0 0 10.058692923397928 11.197269414744369 0 11.197269414744369 -15.009199444679325 0 0 0 0 -10.695369575469954 17.682101634284436 0 17.682101634284436 -17.032306600524862 0 0 0 0 3.6095706346231111 30.392060244459799 0 30.392060244459799 -17.262347782731013 0 0 0 0 -12.795291603032581 28.310257742949943 0 28.310257742949943 -16.758968513022864 0 0 0 0 -3.4358533116644026 23.978141987714025 0 23.978141987714025 -20.624873154501984 0 0 0 0 0.7892336584626034 2.4420530457699652 0 2.4420530457699652 4.2709177638440252 0 0 0 0 -38.245445583725335 24.925041314179452 0 24.925041314179452 45.347972398476486 0 0 0 0 -86.208250537206027 56.705116980346247 0 56.705116980346247 -11.293363312590373 0 0 0 0 -20.193453833863323 23.965358270366778 0 23.965358270366778 -14.393254961807997 0 0 0 0 -14.29640326884585 25.26883624999823 0 25.26883624999823 -14.297120977244049 0 0 0 0 -8.6317632596698886 -23.383383873288722 0 -23.383383873288722 12.87486301572153 0 0 0 0 -9.9166767050887472 -6.4158740845487046 0 -6.4158740845487046 -8.2366323963597097 0 0 0 0 8.7683287015898657 -25.816745685221576 0 -25.816745685221576 81.397207096541933 0 0 0 0 -1.2526807441993033 0.033131773746237769 0 0.033131773746237769 0.69049490825279491 0 0 0 0 0.77256768312769664 2.637943140252454 0 2.637943140252454 4.0581589333881851 0 0 0 0 -22.190312479056331 -6.7329157675417264 0 -6.7329157675417264 3.5561532658484794 0 0 0 0 -3.5806221510032117 38.271644123276474 0 38.271644123276474 168.53092994310646 0 0 0 0 0.029977392241501394 0.70389482530191483 0 0.70389482530191483 0.048878284264866068 0 0 0 0 -8.2527930054031344 2.9323638563055283 0 2.9323638563055283 163.70597784961137 0 0 0 0 28.885468561017731 -72.556362118712968 0 -72.556362118712968 133.62817720432577 0 0 0 0 -3.803425628823959 -6.0111856311359588 0 -6.0111856311359588 90.164094831294278 0 0 0 0 -3.1097943611389667 -16.48535903703123 0 -16.48535903703123 103.442450523753 0 0 0 0 -9.6703129147776963 20.237812697567279 0 20.237812697567279 -20.929208356128356 0 0 0 0 -9.6889049615374461 22.541731994235306 0 22.541731994235306 -28.640229670199915 0 0 0 0 -12.153651298569486 17.328562382240762 0 17.328562382240762 -11.834844832901581 0 0 0 0 0.77438137845490007 1.4876289076974238 0 1.4876289076974238 1.126850025420616 0 0 0 0 3.1451389208025375 8.690362129253117 0 8.690362129253117 107.64788852097354 0 0 0 0 -5.0399670088401081 -29.407842131728103 0 -29.407842131728103 149.50047335652607 0 0 0 0 -1.2932524167190422 -11.832311349104202 0 -11.832311349104202 135.16418843016618 0 0 0 0 -15.701251841618841 -30.651260394095516 0 -30.651260394095516 180.93228369280951 0 0 0 0 0.28394403041985372 0.71121966256686875 0 0.71121966256686875 0.43180232484247227 0 0 0 0 -11.256779941464174 32.525757695268112 0 32.525757695268112 -35.943506606025949 0 0 0 0 -9.4198376408154445 39.450046273952694 0 39.450046273952694 -91.683738977115354 0 0 0 0 -24.443377746845727 19.426832343112437 0 19.426832343112437 -16.037402211055451 0 0 0 0 -9.3759568075513471 2.7603192538381336 0 2.7603192538381336 -12.374626650066148 0 0 0 0 -16.969014948186214 8.2172833480472036 0 8.2172833480472036 -11.862414149198003 0 0 0 0 -35.628979475321714 41.717424300913422 0 41.717424300913422 67.19902928828742 0 0 0 0 -34.912506420832187 52.559850445724805 0 52.559850445724805 -19.963128457182393 0 0 0 0 0.083868017525475125 0.044570187946561646 0 0.044570187946561646 0.13675262638405172 0 0 0 0 -25.467497623598319 45.155862532765241 0 45.155862532765241 42.012661682933185 0 0 0 0 -15.763694531370902 67.139237171812056 0 67.139237171812056 91.814446868036612 0 0 0 0 18.792586011030835 -31.654743307813987 0 -31.654743307813987 11.131002267513395 0 0 0 0 0.77714458244952089 0.67516989387167214 0 0.67516989387167214 -0.090221602176015381 0 0 0 0 3.8110206453668525 65.119903868534038 0 65.119903868534038 12.646632499569023 0 0 0 0 14.904917604376806 -30.604298832043241 0 -30.604298832043241 82.798496939944016 0 0 0 0 -9.0857902180787278 52.074871100342534 0 52.074871100342534 140.29576447997988 0 0 0 0 0.64354544410082859 0.31752575772732428 0 0.31752575772732428 0.0064494085861603878 0 0 0 0 -6.1594901301086793 42.115734366832839 0 42.115734366832839 81.485343164966707 0 0 0 0 11.70658838665895 42.540435162551148 0 42.540435162551148 -28.738585838877043 0 0 0 0 4.2088580712329531 7.5991679908111109 0 7.5991679908111109 -32.756565974747446 0 0 0 0 -20.23740495296579 12.253356235218234 0 12.253356235218234 -14.972671133113181 0 0 0 0 15.093584773798625 -32.422170664275654 0 -32.422170664275654 -9.0787412929748825 0 0 0 0 -19.323286774711505 0.55435740354005247 0 0.55435740354005247 112.23473103814194 0 0 0 0 -19.168447701014912 27.810432249388555 0 27.810432249388555 -10.324216241824615 0 0 0 0 0.96054840258250307 0.59387429554548277 0 0.59387429554548277 0.19555267574006763 0 0 0 0 4.8839780509531465 15.580008582395749 0 15.580008582395749 -45.631957942759527 0 0 0 0 0.86941029087699917 15.622324200083085 0 15.622324200083085 7.625283705387119 0 0 0 0 -27.086349935995031 1.3029441751741615 0 1.3029441751741615 2.4389052971291676 0 0 0 0 -4.4390276249230283 -6.7704808699754722 0 -6.7704808699754722 16.345943894966695 0 0 0 0 5.4355818306580659 2.603415994966781 0 2.603415994966781 22.457067320849092 0 0 0 0 -10.83141808428195 0.21330704342381068 0 0.21330704342381068 0.90481404793536058 0 0 0 0 -9.5846430588910607 8.768065629143166 0 8.768065629143166 18.393200859611852 0 0 0 0 0.74025847008277346 0.37562739837922976 0 0.37562739837922976 0.058431899410631871 0 0 0 0 -10.545288322092802 11.07844762674813 0 11.07844762674813 14.0877342967392 0 0 0 0 -8.7307498224638493 15.561906831359011 0 15.561906831359011 -15.76342737808227 0 0 0 0 -11.82473419023512 10.138677243961638 0 10.138677243961638 -15.595475991929561 0 0 0 0 -11.304188898679286 8.7512870970967924 0 8.7512870970967924 -14.195274156903906 0 0 0 0 0.038167816865138565 65.423765533608275 0 65.423765533608275 325.39630668381506 0 0 0 0 12.04050690249956 52.925303113694099 0 52.925303113694099 338.18008665758134 0 0 0 0 20.148258046070282 64.231421327311182 0 64.231421327311182 310.61727011896437 0 0 0 0 2.2758035195946889 56.012301176835535 0 56.012301176835535 302.2616277450943 0 0 0 0 10.916777080837335 69.870390847849194 0 69.870390847849194 316.91301646179545 0 0 0 0 12.00061640104289 73.71926294958871 0 73.71926294958871 311.18444899984388 0 0 0 0 10.861209179730817 70.045727832029115 0 70.045727832029115 316.53940391534525 0 0 0 0 13.486001006962653 78.342862427021828 0 78.342862427021828 320.9555266229645 0 0 0 0 2.2051299953261037 77.475055575842816 0 77.475055575842816 324.55920638089447 0 0 0 0 -0.0107653418387543 78.131528877825986 0 78.131528877825986 328.45434316405772 0 0 0 0 -0.86441784842585934 10.355854699148949 0 10.355854699148949 482.18269702117141 0 0 0 0 -0.35723404234801481 0.33605849552360567 0 0.33605849552360567 0.77354061218098913 0 0 0 0 11.086869423424304 66.053870364371505 0 66.053870364371505 306.676885429104 0 0 0 0 -0.028224576776140309 1.0248339716345072 0 1.0248339716345072 498.6813591962491 0 0 0 0 0.00070608710188474445 0.55820011877221987 0 0.55820011877221987 499.19423354574434 0 0 0 0 -0.00022296840085851336 0.18066804379155599 0 0.18066804379155599 0.84145908552097382 0 0 0 0 -3.9476559517902508 40.22702246699555 0 40.22702246699555 499.84894252756294 0 0 0 0 7.9638301123601423 49.3399189913398 0 49.3399189913398 342.49348017828015 0 0 0 0 5.2227711268743917 41.113835637004058 0 41.113835637004058 427.49904928785691 0 0 0 0 23.4872170731295 75.423697339731007 0 75.423697339731007 369.29579830794148 0 0 0 0 13.320432241404092 103.13150450274406 0 103.13150450274406 368.52784856832659 0 0 0 0 23.406602969976603 86.831974321375128 0 86.831974321375128 313.50666364267454 0 0 0 0 9.3984566758886388 90.619426042889245 0 90.619426042889245 348.34371835508455 0 0 0 0 16.50147670406318 111.80381151400707 0 111.80381151400707 293.09754594155493 0 0 0 0 18.639401338762887 70.843384155184253 0 70.843384155184253 371.48461811731977 0 0 0 0 21.630247140486283 18.638146339922969 0 18.638146339922969 500.0050126434071 0 0 0 0 -6.3893173283804572 85.801456865505315 0 85.801456865505315 480.26811795417052 0 0 0 0 35.963042131197994 115.60557269001947 0 115.60557269001947 439.31896044276436 0 0 0 0 1.4838871376169536 33.629746793199047 0 33.629746793199047 506.35518640366718 0 0 0 0 -1.0469615085565267 0.55059990003185177 0 0.55059990003185177 0.94459288136159891 0 0 0 0 14.525485095533554 81.549266634379819 0 81.549266634379819 429.74826246882003 0 0 0 0 70.238656864020072 111.60161549740769 0 111.60161549740769 398.55557306086121 0 0 0 0 56.325606156733102 84.415231838320324 0 84.415231838320324 371.14588941447801 0 0 0 0 -30.009008421796487 67.130310831624229 0 67.130310831624229 466.84371184657539 0 0 0 0 -0.6998001016550488 0.16877209007505201 0 0.16877209007505201 0.82057615029115549 0 0 0 0 -142.70928296810413 83.249858934830627 0 83.249858934830627 650.77630269647307 0 0 0 0 -51.16896111473568 109.95243594359272 0 109.95243594359272 394.57459443379594 0 0 0 0 48.623887829024284 -2.2257026282155721 0 -2.2257026282155721 496.63444081313719 0 0 0 0 -95.187486232588299 52.8498342194207 0 52.8498342194207 514.66214182236945 0 0 0 0 -38.339157899454506 40.009792652518627 0 40.009792652518627 354.57324228536436 0 0 0 0 -14.440567552501179 76.309207548759787 0 76.309207548759787 122.15944789456989 0 0 0 0 -68.714814996970347 30.83208866422774 0 30.83208866422774 340.16859651066261 0 0 0 0 -206.87241797146859 -166.59697574832762 0 -166.59697574832762 118.71488529479211 0 0 0 0 21.597964840068556 69.914178095962598 0 69.914178095962598 308.46707917945787 0 0 0 0 -5.1964070118412451 24.237533914801134 0 24.237533914801134 250.54708423647162 0 0 0 0 -28.477396755750192 67.163265661196419 0 67.163265661196419 311.65528805314352 0 0 0 0 -32.229398629172067 70.971941953211171 0 70.971941953211171 348.60692374570795 0 0 0 0 38.906868307180389 55.116111844863099 0 55.116111844863099 238.26287830517867 0 0 0 0 -22.298240689230511 43.046267913896372 0 43.046267913896372 435.77681195556249 0 0 0 0 12.793246018324609 115.64307138854952 0 115.64307138854952 225.93427740476363 0 0 0 0 -12.11779540752201 69.546169830166036 0 69.546169830166036 279.01462563271366 0 0 0 0 26.951221572981865 140.1976106498264 0 140.1976106498264 222.33138808178774 0 0 0 0 -14.01571999826178 169.26114335949433 0 169.26114335949433 255.04429711237208 0 0 0 0 -0.56302949863109997 -0.10888465448925899 0 -0.10888465448925899 1.7980119866345916 0 0 0 0 154.68033460803605 304.62540829947648 0 304.62540829947648 415.26902587327811 0 0 0 0 -109.97049012388742 78.881310878345062 0 78.881310878345062 282.75054823899336 0 0 0 0 -99.859780369742609 132.99508835707911 0 132.99508835707911 329.26905987080136 0 0 0 0 -28.249340984573088 187.76507657206093 0 187.76507657206093 327.38083750509577 0 0 0 0 -297.58038976638414 248.81705006569973 0 248.81705006569973 499.86519468423933 0 0 0 0 -165.01743118609761 194.68463309310755 0 194.68463309310755 481.66136919871678 0 0 0 0 -106.93168679061706 105.06285500643116 0 105.06285500643116 359.23683294075818 0 0 0 0 -116.76004815163867 305.83010542243483 0 305.83010542243483 468.52684159384808 0 0 0 0 -169.21622676956036 188.4580946086553 0 188.4580946086553 524.54377376644516 0 0 0 0 170.66364454799771 400.13648853048244 0 400.13648853048244 499.47675551440261 0 0 0 0 -0.61329291723514012 0.1500762820152719 0 0.1500762820152719 2.0319159769415123 0 0 0 0 -1.1668119110207085 -0.23299272031724527 0 -0.23299272031724527 3.4030763877526837 0 0 0 0 -72.536951994092419 95.239992421663374 0 95.239992421663374 220.4141759999107 0 0 0 0 -34.970685772004195 165.19740876425476 0 165.19740876425476 264.58869884638079 0 0 0 0 -140.18646809319156 -93.932338647311553 0 -93.932338647311553 137.39779451766981 0 0 0 0 81.97547493703469 72.574451040160625 0 72.574451040160625 363.2267341509887 0 0 0 0 -41.686056217159326 95.323204135123433 0 95.323204135123433 498.94471299964971 0 0 0 0 96.625712568957468 275.03207386699796 0 275.03207386699796 384.78718903610434 0 0 0 0 53.454824863614448 133.44394921027651 0 133.44394921027651 194.15228630013758 0 0 0 0 23.24795808837402 153.10928220110691 0 153.10928220110691 186.84888883603708 0 0 0 0 8.6252146592904069 173.73715768911643 0 173.73715768911643 239.92927304720615 0 0 0 0 35.199197738623567 92.754887573682936 0 92.754887573682936 108.3123397726049 0 0 0 0 -2.067620900987805 -24.340210367265172 0 -24.340210367265172 75.359158907083838 0 0 0 0 22.76319587917309 13.58673760834381 0 13.58673760834381 -12.377962205830045 0 0 0 0 15.870642007266298 -15.847259230261443 0 -15.847259230261443 -4.9579817936428299 0 0 0 0 0.86352949117217292 -12.001926732777747 0 -12.001926732777747 77.334650794176923 0 0 0 0 -0.57062830482446003 -14.672914575632149 0 -14.672914575632149 83.918295548909555 0 0 0 0 0.50079441732553953 0.59082558108156391 0 0.59082558108156391 0.25022676908399433 0 0 0 0 7.4917045716328801 -12.099112944544686 0 -12.099112944544686 67.954833080853859 0 0 0 0 -0.20860191784974802 -10.718234569690139 0 -10.718234569690139 69.351507756790852 0 0 0 0 2.3745773738330769 -5.8161958530454285 0 -5.8161958530454285 60.586093321700901 0 0 0 0 -0.71314248510036293 -12.571678338529637 0 -12.571678338529637 74.208584534918373 0 0 0 0 1.5755408565518489 1.2666936818251493 0 1.2666936818251493 0.59560281445185304 0 0 0 0 30.161251787617005 45.000469021250865 0 45.000469021250865 11.519862709505105 0 0 0 0 1.8315271546267695 -27.215970496115006 0 -27.215970496115006 161.76752852765821 0 0 0 0 -27.054439920198959 50.497963821538178 0 50.497963821538178 238.98498286445829 0 0 0 0 -20.562093107179635 5.3483841329007191 0 5.3483841329007191 279.74099573995272 0 0 0 0 -2.0312792382755376 -5.2072111243824111 0 -5.2072111243824111 60.875338360918249 0 0 0 0 1.5339679521549541 1.4307000090368049 0 1.4307000090368049 0.77684648909249177 0 0 0 0 15.498512662997726 52.140416878959968 0 52.140416878959968 124.81890971348002 0 0 0 0 5.0733634178487392 -10.200936226015074 0 -10.200936226015074 64.248541098433634 0 0 0 0 -4.6371993258499771 -6.7170655672198336 0 -6.7170655672198336 66.161209890292412 0 0 0 0 0.23409853234581668 -4.5118709308935649 0 -4.5118709308935649 60.867542385724846 0 0 0 0 3.777053402609976 -8.2259393525609994 0 -8.2259393525609994 62.618495977278485 0 0 0 0 -5.1999441848415131 -7.7256956658766285 0 -7.7256956658766285 62.601298654784841 0 0 0 0 1.6788079936162887 -11.098771463592584 0 -11.098771463592584 65.081089881307889 0 0 0 0 0.018357689995728618 -12.032219463309048 0 -12.032219463309048 67.295812007916538 0 0 0 0 1.8678897046397758 -3.3309048813243862 0 -3.3309048813243862 76.031206303976433 0 0 0 0 22.778194905194457 23.760676306386813 0 23.760676306386813 59.846973062780762 0 0 0 0 -0.043296416233431501 -10.371723898417258 0 -10.371723898417258 51.175130469313444 0 0 0 0 0.57152696670479131 0.66372428805275874 0 0.66372428805275874 0.60274791397487526 0 0 0 0 16.999784932063818 8.9335459468366025 0 8.9335459468366025 33.646410869347164 0 0 0 0 -16.913610284591144 24.119356948708628 0 24.119356948708628 369.14319591948515 0 0 0 0 -19.312059879203431 48.50325394212723 0 48.50325394212723 411.18761913092931 0 0 0 0 0.035770492385088261 23.614919126918032 0 23.614919126918032 312.46617641785997 0 0 0 0 38.958665270304067 69.971771753731446 0 69.971771753731446 342.88743917629972 0 0 0 0 -5.539408001430103 -2.1333917017000203 0 -2.1333917017000203 -2.1074455651760218 0 0 0 0 6.7467044617671874 6.9919958401715121 0 6.9919958401715121 1.450248345367072 0 0 0 0 -13.327650976076232 -1.8212338219336743 0 -1.8212338219336743 5.7087081965339621 0 0 0 0 -7.1753042641546703 10.286784149984214 0 10.286784149984214 9.7111719728418393 0 0 0 0 -6.9502524640988979 -7.4894892044612789 0 -7.4894892044612789 -0.82409016897872789 0 0 0 0 -3.0154924196329755 -8.4500725431589672 0 -8.4500725431589672 -2.1446920210200915 0 0 0 0 -0.017280335677186526 -0.099570408797047705 0 -0.099570408797047705 0.48902250510964507 0 0 0 0 0.010212454122554664 -5.86778154134754 0 -5.86778154134754 -3.5560838946985314 0 0 0 0 3.5651818709196785 12.649908986626542 0 12.649908986626542 8.5609986186964306 0 0 0 0 -12.236306250261224 -4.6604499796276286 0 -4.6604499796276286 69.462654996061246 0 0 0 0 -0.015119597536160889 -6.3969478897474916 0 -6.3969478897474916 43.668824997748743 0 0 0 0 -3.2907698923420288 -22.841075921772244 0 -22.841075921772244 14.706721484433729 0 0 0 0 -4.0367717268878387 12.769828903237794 0 12.769828903237794 48.804153324468643 0 0 0 0 -0.0062483151584235078 -0.05952155359705813 0 -0.05952155359705813 0.29358297120864307 0 0 0 0 -7.4779758622932349 -12.714166709237361 0 -12.714166709237361 66.123689243580884 0 0 0 0 -0.22066711799539718 -10.733014881408053 0 -10.733014881408053 37.487309032194389 0 0 0 0 0.36511971945929389 1.4282286764696437 0 1.4282286764696437 31.534283876097106 0 0 0 0 6.3641253732706105 -1.9523853326045355 0 -1.9523853326045355 14.210228024401658 0 0 0 0 3.5047432503774303 5.7210300460938015 0 5.7210300460938015 -2.2721234012560672 0 0 0 0 0.37420983663329821 7.0118269164968297 0 7.0118269164968297 8.2654078584782837 0 0 0 0 1.9953566385396257 10.282151796565813 0 10.282151796565813 13.910454099996088 0 0 0 0 0.27085128494206145 12.406079561795195 0 12.406079561795195 10.875920777380998 0 0 0 0 4.354497568836635 9.9936874844988779 0 9.9936874844988779 11.694959317190296 0 0 0 0 3.9892446656929756 5.3466765807018248 0 5.3466765807018248 19.922948641522453 0 0 0 0 2.9255873485807342 10.907162874165806 0 10.907162874165806 11.888066890001937 0 0 0 0 -4.3945117822554209 3.0977346011404734 0 3.0977346011404734 8.9162519330484429 0 0 0 0 5.9780491029388187 4.1084498989359872 0 4.1084498989359872 7.8486027236012887 0 0 0 0 3.1979462607330653 -1.5302891994649599 0 -1.5302891994649599 42.209939909036621 0 0 0 0 -1.165831846962007 15.530847419580823 0 15.530847419580823 23.013526826544876 0 0 0 0 -0.23934460168851501 9.9710958619743906 0 9.9710958619743906 22.031352004323253 0 0 0 0 2.7472802736174522 -3.2869695344916181 0 -3.2869695344916181 37.511197340651051 0 0 0 0 2.7591205715806382 -1.3224701505432677 0 -1.3224701505432677 39.94260485502673 0 0 0 0 -1.3336675226028163 -10.309395036529622 0 -10.309395036529622 57.485501702092733 0 0 0 0 11.191234163607703 -0.21730874452168791 0 -0.21730874452168791 42.24780440700124 0 0 0 0 3.3533967366476958 -6.7684558463599842 0 -6.7684558463599842 53.74053390437075 0 0 0 0 9.8135924112303599 3.3599444653009414 0 3.3599444653009414 50.749545157232205 0 0 0 0 4.9584930846041715 -2.8942417937664686 0 -2.8942417937664686 59.795152570542996 0 0 0 0 4.5773683224221173 -1.9844353138041697 0 -1.9844353138041697 58.316075063265998 0 0 0 0 -1.0749914338881865 -0.4830853637013206 0 -0.4830853637013206 84.085602261708118 0 0 0 0 4.2939110857201648 -0.44179641434720907 0 -0.44179641434720907 51.804933224244451 0 0 0 0 4.6543362598427507 4.593798305960263 0 4.593798305960263 56.333149927147588 0 0 0 0 10.52260843425681 -10.938788489756007 0 -10.938788489756007 19.676312825777131 0 0 0 0 11.061216618341433 -20.053411850268276 0 -20.053411850268276 56.652707907883951 0 0 0 0 0.039630695069043376 0.063406015207643662 0 0.063406015207643662 0.14416487681845069 0 0 0 0 0.27370767001131213 11.840603650476851 0 11.840603650476851 -4.4406353455378849 0 0 0 0 -8.8714407474527945 1.1285324007130839 0 1.1285324007130839 6.7323083203591523 0 0 0 0 5.5779024557098467 -11.7240933068706 0 -11.7240933068706 19.782452812303745 0 0 0 0 0.088645404549428042 0.16516654323358182 0 0.16516654323358182 0.31972376182302753 0 0 0 0 -9.5067228000725663 5.7542874193459284 0 5.7542874193459284 0.24114246119279414 0 0 0 0 -3.4254755009755513 0.37889453904244874 0 0.37889453904244874 0.73807641160419735 0 0 0 0 -3.7545074587282272 1.23627519872025 0 1.23627519872025 -0.67786812204940361 0 0 0 0 -6.2305913720102239 -0.065950877222348936 0 -0.065950877222348936 1.891765145403042 0 0 0 0 -4.1777143948858679 -2.0551590703580587 0 -2.0551590703580587 3.1323503132261976 0 0 0 0 -0.84102501358619319 0.34849334105331309 0 0.34849334105331309 -0.17266902187385469 0 0 0 0 -4.0728001199424284 -2.1194299691742344 0 -2.1194299691742344 0.97311954882388818 0 0 0 0 -3.6345430437574606 -2.8287956534622936 0 -2.8287956534622936 -0.69202137373576988 0 0 0 0 -3.1282513185344953 1.1705985817907276 0 1.1705985817907276 1.3972558580207988 0 0 0 0 -3.1588626933824457 -1.1864381905998016 0 -1.1864381905998016 1.9982980912825496 0 0 0 0 -2.6347357667461608 0.88737977312666771 0 0.88737977312666771 1.0147060223753215 0 0 0 0 -1.1585403855114107 2.1490626167874325 0 2.1490626167874325 4.3782382143708674 0 0 0 0 -1.4045644232474643 1.1102659633139638 0 1.1102659633139638 3.4673419573136925 0 0 0 0 -2.7117557269279189 0.62081348665969927 0 0.62081348665969927 7.9407867680911295 0 0 0 0 -2.0887480936839022 6.202900261017021 0 6.202900261017021 18.10700817662655 0 0 0 0 -3.245023604503622 2.1116307072279596 0 2.1116307072279596 4.8391440437844722 0 0 0 0 -7.0467143455112051 -8.8927570147779988 0 -8.8927570147779988 -9.5184960413653243 0 0 0 0 -0.27659342747666277 0.1129469376054395 0 0.1129469376054395 -0.054079852054321975 0 0 0 0 2.6197067051182472 5.4054092149863209 0 5.4054092149863209 -4.1448470926443406 0 0 0 0 -20.376188441626468 -0.60889675284761324 0 -0.60889675284761324 47.319569739132646 0 0 0 0 -4.6248316060985744 9.7937981437512462 0 9.7937981437512462 2.997017140758544 0 0 0 0 20.833433351136648 -9.7978954834634351 0 -9.7978954834634351 -12.195130168363903 0 0 0 0 -14.369249956643444 -3.7510146557647204 0 -3.7510146557647204 4.6063827122779912 0 0 0 0 -5.6971148507080187 4.1128432223367781 0 4.1128432223367781 7.5291176892496878 0 0 0 0 -1.1555160273391465 1.5773029218771626 0 1.5773029218771626 5.3286887180220219 0 0 0 0 -5.0087695773543714 -3.1831748328277172 0 -3.1831748328277172 2.7335671542805358 0 0 0 0 1.4559017945174446 2.4567349988174101 0 2.4567349988174101 6.308920580551785 0 0 0 0 -0.45476856391397291 6.1467568297030084 0 6.1467568297030084 11.586287779548002 0 0 0 0 1.8108277564494486 9.2302667987487439 0 9.2302667987487439 11.485697112803336 0 0 0 0 2.9200029340465257 8.7479939250147254 0 8.7479939250147254 9.5169319971773803 0 0 0 0 1.1799697050147451 8.8380168623220925 0 8.8380168623220925 16.588755598459102 0 0 0 0 -1.5313252698041708 6.6764616550281062 0 6.6764616550281062 15.185989324697402 0 0 0 0 1.0348577914398369 0.23700129375765755 0 0.23700129375765755 19.391050094031016 0 0 0 0 4.1863119252170264 0.91747069220491539 0 0.91747069220491539 6.5420192211977337 0 0 0 0 1.9436339401361273 0.37740957825735677 0 0.37740957825735677 13.940279434869808 0 0 0 0 0.59499825500051884 -9.7409744505139315 0 -9.7409744505139315 9.5815117357742565 0 0 0 0 -12.964757465032378 -6.5476710614384501 0 -6.5476710614384501 44.158859963816212 0 0 0 0 10.758258339991428 -24.595430202119132 0 -24.595430202119132 30.051243049589175 0 0 0 0 -4.5768412277931212 -6.767857292458757 0 -6.767857292458757 24.216703128541212 0 0 0 0 0.28332514824626198 -9.7964771565508499 0 -9.7964771565508499 24.687841093375027 0 0 0 0 -1.5588904201611484 -8.575571794471216 0 -8.575571794471216 24.434431298500385 0 0 0 0 -0.017515416118150048 -8.991015159302151 0 -8.991015159302151 20.894835496879068 0 0 0 0 0.046082501551563543 -8.953623606349538 0 -8.953623606349538 28.377514622196031 0 0 0 0 -0.0095259309727644525 -5.1998636936898492 0 -5.1998636936898492 21.948001529503017 0 0 0 0 -2.5150737337775553 4.3410373811539102 0 4.3410373811539102 49.253670941621749 0 0 0 0 -1.694817461925048 0.67075808554727701 0 0.67075808554727701 22.183972770690161 0 0 0 0 -2.9941054700133343 0.84531578597488988 0 0.84531578597488988 23.824824477214861 0 0 0 0 -1.4861139087955806 5.7633045674583627 0 5.7633045674583627 30.188684827873658 0 0 0 0 -1.1654756182978616 9.5148170589109213 0 9.5148170589109213 13.801550360178226 0 0 0 0 2.8008079455635766 17.111097890468955 0 17.111097890468955 21.233452773940371 0 0 0 0 12.056242033249712 20.738903470748028 0 20.738903470748028 25.821265033853706 0 0 0 0 -0.00889194494404855 -0.94058248053806892 0 -0.94058248053806892 -1.8634242228645235 0 0 0 0 9.1552426760932715 13.363078839463924 0 13.363078839463924 8.4499625525604642 0 0 0 0 -0.0056661974381018521 -0.0034392437437915646 0 -0.0034392437437915646 0.22385779465371058 0 0 0 0 6.1226147207928392 3.2004371046277811 0 3.2004371046277811 3.1218967190416151 0 0 0 0 0.40775336442902699 -1.7313508361112326 0 -1.7313508361112326 1.0625625283282716 0 0 0 0 -6.4350205626118395 -6.8456114664418237 0 -6.8456114664418237 6.5435673066567688 0 0 0 0 -4.1807372447503326 -1.5605602187877885 0 -1.5605602187877885 -0.70527518231278208 0 0 0 0 -39.273732935761615 -63.970985483827008 0 -63.970985483827008 31.557574724050937 0 0 0 0 64.807841695129582 -42.988667992720366 0 -42.988667992720366 5.8814913510523184 0 0 0 0 0.08216850102063944 -13.012508779209384 0 -13.012508779209384 22.58077094582768 0 0 0 0 -0.15479580356982225 -14.184523257151341 0 -14.184523257151341 16.785763502557529 0 0 0 0 -10.058029677857263 -11.579962011676344 0 -11.579962011676344 19.375440332700236 0 0 0 0 -5.4569186355695365 -16.571895454218975 0 -16.571895454218975 15.857387012672916 0 0 0 0 -3.6883334707293898 -11.305268594342124 0 -11.305268594342124 17.890333224429924 0 0 0 0 -1.1034706370937784 -1.8152037534741794 0 -1.8152037534741794 1.469614442981765 0 0 0 0 -7.8181232405208645 -2.8451258026480772 0 -2.8451258026480772 0.69328876671157502 0 0 0 0 -3.4302403975970757 1.4676891923196478 0 1.4676891923196478 11.355623358405239 0 0 0 0 -5.4189266359524026 2.3052070169023864 0 2.3052070169023864 12.680189232565681 0 0 0 0 -17.456044227659959 -9.0941675052217761 0 -9.0941675052217761 7.7573499491272742 0 0 0 0 -3.5185538968462424 -10.974451839807443 0 -10.974451839807443 7.0466870163872954 0 0 0 0 -10.303365692756643 -21.388086311537336 0 -21.388086311537336 46.445964829174045 0 0 0 0 -24.834571831216635 -0.2801384762615271 0 -0.2801384762615271 15.882145099187255 0 0 0 0 -1.4130275677711668 3.4982225579711885 0 3.4982225579711885 8.8856331467039098 0 0 0 0 -33.531913275865691 -6.1752414431136913 0 -6.1752414431136913 20.499548166239038 0 0 0 0 -42.584151034083334 17.374826561738701 0 17.374826561738701 17.368840499277212 0 0 0 0 -25.649155839990954 -18.091857504665313 0 -18.091857504665313 13.095447116353171 0 0 0 0 -2.1545992065930113 -0.40168131021513886 0 -0.40168131021513886 3.6377961582071023 0 0 0 0 -1.1041855357868826 20.678147919450566 0 20.678147919450566 44.06335498607325 0 0 0 0 -19.877842161932676 3.2778267072189919 0 3.2778267072189919 1.1579179713910435 0 0 0 0 -10.403999709584184 25.788728700128559 0 25.788728700128559 45.283802441577791 0 0 0 0 19.163098029875073 -17.293217926968282 0 -17.293217926968282 99.643401283766252 0 0 0 0 -0.89316797665998138 30.612707638646853 0 30.612707638646853 161.35813128167501 0 0 0 0 5.6442040996668652 -5.5530961767026383 0 -5.5530961767026383 -4.827485316680395 0 0 0 0 -0.11167569927807008 -0.41510547612645254 0 -0.41510547612645254 0.27365087858530934 0 0 0 0 13.975417263384088 -18.998690540639473 0 -18.998690540639473 8.6522255445543124 0 0 0 0 -2.9521136393007055 -1.4549899623945066 0 -1.4549899623945066 1.0535191556009522 0 0 0 0 -3.0856717302438028 -2.0614807749061583 0 -2.0614807749061583 2.1499638322420651 0 0 0 0 -19.874527656613395 12.040413510372673 0 12.040413510372673 135.09000029240997 0 0 0 0 -19.794560750858636 -39.65917547682875 0 -39.65917547682875 254.38759974528875 0 0 0 0 8.3661377809104351 24.558636700073293 0 24.558636700073293 61.529110850431607 0 0 0 0 26.763649236828655 -38.836644733934008 0 -38.836644733934008 143.41375102721577 0 0 0 0 4.520906940959577 4.201887540910775 0 4.201887540910775 138.49366273307896 0 0 0 0 -12.451396236682513 -13.970701490743522 0 -13.970701490743522 127.66652648452691 0 0 0 0 3.4979243333815475 -12.147038320248612 0 -12.147038320248612 74.147761924108636 0 0 0 0 -6.075844905162171 -24.003904546752892 0 -24.003904546752892 122.18710577193997 0 0 0 0 -12.139227218931296 -4.9541525227923557 0 -4.9541525227923557 117.42951366253737 0 0 0 0 1.7425596296247932 -27.972508235230634 0 -27.972508235230634 70.435034857662686 0 0 0 0 5.3848375295590358 11.188178255080857 0 11.188178255080857 27.222523232730964 0 0 0 0 -0.38479448554506757 -0.11516606005793051 0 -0.11516606005793051 0.13870300561232973 0 0 0 0 -2.4897081391769689 -1.0955240755683917 0 -1.0955240755683917 0.11116805169967847 0 0 0 0 -0.18783163922891544 -0.060262394153358656 0 -0.060262394153358656 0.041305523298781566 0 0 0 0 -19.497121978343671 -34.557848597816701 0 -34.557848597816701 -16.597464290911375 0 0 0 0 -0.29940694337746265 -0.55737099048452166 0 -0.55737099048452166 0.39507746079113737 0 0 0 0 -1.6173183515894871 -0.32664187566120617 0 -0.32664187566120617 0.0015685062667891714 0 0 0 0 12.663090751564482 -11.437126283941325 0 -11.437126283941325 29.910061219873569 0 0 0 0 -11.334735933247316 -1.7698223158022302 0 -1.7698223158022302 74.683832650117438 0 0 0 0 -0.17158323290323096 9.0878040950137802 0 9.0878040950137802 57.606671313720653 0 0 0 0 -5.3489238239177723 9.6378760975940168 0 9.6378760975940168 97.170228258930365 0 0 0 0 -4.3918276473605147 -8.3185634635556198 0 -8.3185634635556198 102.12190817237206 0 0 0 0 55.996603787705538 -1.3698815310817736 0 -1.3698815310817736 102.85514114314356 0 0 0 0 16.645910324911725 10.552151488954223 0 10.552151488954223 52.359519674168041 0 0 0 0 5.4202044571181922 0.21033273180159995 0 0.21033273180159995 88.817145669221645 0 0 0 0 -6.3639818815290425 1.9080620523591278 0 1.9080620523591278 4.7904568062913313 0 0 0 0 -2.2217063605036742 7.9797949151707144 0 7.9797949151707144 -0.15513326286873053 0 0 0 0 6.2866827987700162 -10.407191103002333 0 -10.407191103002333 -8.4673007307555963 0 0 0 0 0.028748368429851734 -0.060891669567990192 0 -0.060891669567990192 -0.018893579250136128 0 0 0 0 -7.0328657856042582 11.598106828112577 0 11.598106828112577 53.720208245722461 0 0 0 0 2.2818058219229442 8.9067402526679871 0 8.9067402526679871 36.146076234286738 0 0 0 0 -4.8311511847999782 -12.376698031822343 0 -12.376698031822343 16.25217362445801 0 0 0 0 1.4424315420188805 -15.029265678038428 0 -15.029265678038428 27.518843915311663 0 0 0 0 -3.0474963332888763 -10.230416602068999 0 -10.230416602068999 23.860998825242859 0 0 0 0 -3.9776416516222071 -11.263608682149425 0 -11.263608682149425 26.288388340573874 0 0 0 0 -0.12056851626396692 -0.054295982549561472 0 -0.054295982549561472 0.037640829549602017 0 0 0 0 -6.6914602885515251 -3.2658316611650662 0 -3.2658316611650662 33.912939818075756 0 0 0 0 -7.523003664356338 -7.5080320262222813 0 -7.5080320262222813 26.719077355584886 0 0 0 0 -3.6903658887493975 -4.8798361752978963 0 -4.8798361752978963 24.745891034752276 0 0 0 0 -1.9498314156862762 -6.920143487463065 0 -6.920143487463065 20.490501262553153 0 0 0 0 -2.9750555092359718 -5.9972605869188556 0 -5.9972605869188556 20.492431981430855 0 0 0 0 -2.9060850777964902 -9.748101054221479 0 -9.748101054221479 21.84502797353889 0 0 0 0 -5.6507913683638833 -9.354090113145503 0 -9.354090113145503 24.996643979189685 0 0 0 0 4.5342120532208696 -9.4176215024472185 0 -9.4176215024472185 14.884862064269328 0 0 0 0 -2.7059916072344663 -10.442039367043435 0 -10.442039367043435 23.875431496235251 0 0 0 0 89.30563911094589 68.400798011163715 0 68.400798011163715 15.248706092173961 0 0 0 0 -13.117277196996383 22.557181331867469 0 22.557181331867469 39.483000054734475 0 0 0 0 -19.223693707548364 9.4116746501458692 0 9.4116746501458692 29.635983198255417 0 0 0 0 -50.547322450166092 -7.8562013548305458 0 -7.8562013548305458 72.466777865509357 0 0 0 0 -46.845811134640165 -30.377553651497692 0 -30.377553651497692 15.12858910918294 0 0 0 0 -5.7970825870978189 -3.3289676129384134 0 -3.3289676129384134 6.2924010373426427 0 0 0 0 -23.103283476661375 -13.429359745270631 0 -13.429359745270631 23.813604681117795 0 0 0 0 -24.298581815325008 2.6628852647299937 0 2.6628852647299937 48.602979568477167 0 0 0 0 -8.4309445172640665 7.5572768347996089 0 7.5572768347996089 25.982930631391355 0 0 0 0 -6.0016004027797862 -5.7998899095309753 0 -5.7998899095309753 26.726388537302228 0 0 0 0 -6.6197459982015516 -6.2364870906949363 0 -6.2364870906949363 27.541947745672587 0 0 0 0 -5.8626968090812568 -3.3619779750579255 0 -3.3619779750579255 30.829059062485612 0 0 0 0 5.9541510880213764 -3.6844996917425306 0 -3.6844996917425306 34.337054885303587 0 0 0 0 -21.697654979047911 37.386636972762972 0 37.386636972762972 23.195794832095999 0 0 0 0 -0.075178068606440496 0.019290027871967652 0 0.019290027871967652 1.1366598898622158 0 0 0 0 24.134540683736589 35.333309984836887 0 35.333309984836887 -6.7582440069693348 0 0 0 0 -18.085051310150163 -35.827458435273002 0 -35.827458435273002 5.9607176720492134 0 0 0 0 7.6752082444687346 0.22493703240161267 0 0.22493703240161267 -2.9408433445805713 0 0 0 0 12.200684950274081 -7.6295207271214167 0 -7.6295207271214167 -5.7111412338963419 0 0 0 0 0.35255857515077449 -0.078174950652172726 0 -0.078174950652172726 0.039017566157035333 0 0 0 0 -4.0957486038224147 8.6225819324808981 0 8.6225819324808981 44.493116513979658 0 0 0 0 1.3354725146653355 -4.2596927653926784 0 -4.2596927653926784 0.31271922469204583 0 0 0 0 1.9742717419809424 3.1659507361855503 0 3.1659507361855503 24.319106848250158 0 0 0 0 1.2908591423225744 -1.0887071105889845 0 -1.0887071105889845 -2.1997993212780784 0 0 0 0 -0.56863505549961246 7.5421506201273587 0 7.5421506201273587 3.7989740314333176 0 0 0 0 1.0308191621207357 -9.5288117935433547 0 -9.5288117935433547 3.0090783836018318 0 0 0 0 0.40649871694057538 -3.5231426258314968 0 -3.5231426258314968 2.7725279941314511 0 0 0 0 -6.0329139281951143 -10.82828825861543 0 -10.82828825861543 -4.1095920052639485 0 0 0 0 -0.2763117459204168 0.30572237226124344 0 0.30572237226124344 0.53871667362279396 0 0 0 0 -3.3999178425911474 0.90900004807932078 0 0.90900004807932078 1.2889816661081568 0 0 0 0 -2.1421651615325459 -3.5233306139780325 0 -3.5233306139780325 9.0098362820326656 0 0 0 0 -2.1837223065152784 -2.382368451970251 0 -2.382368451970251 9.5697238444518007 0 0 0 0 0.18578508931096849 -2.1164039220766426 0 -2.1164039220766426 12.324095911964832 0 0 0 0 1.1020554716865263 -8.3012671060223511 0 -8.3012671060223511 15.924424695065682 0 0 0 0 -0.071045484475767084 -0.065384448002856033 0 -0.065384448002856033 0.25636673657705344 0 0 0 0 -1.2940762543202784 -0.52116662600598218 0 -0.52116662600598218 1.0230196180311921 0 0 0 0 0.17147997268421022 0.54398460150878236 0 0.54398460150878236 0.98760134712574654 0 0 0 0 0.72227905573589102 -0.62017354019960536 0 -0.62017354019960536 0.16713728305749953 0 0 0 0 -0.12044528902055163 -1.835598792199562 0 -1.835598792199562 17.576878028376086 0 0 0 0 -0.01586931550468762 -2.4327469857580581 0 -2.4327469857580581 19.179028676644521 0 0 0 0 -2.9056376972711941 1.2034261589840298 0 1.2034261589840298 3.1188553752108419 0 0 0 0 -3.994952622642387 -3.4917793402473762 0 -3.4917793402473762 8.7546836209676258 0 0 0 0 -2.2888616678628662 -0.96188268480820938 0 -0.96188268480820938 0.13852104805955889 0 0 0 0 -1.0233783562704366 0.63593038983773909 0 0.63593038983773909 2.1567363631414054 0 0 0 0 -2.0168427109172171 1.4927863927459839 0 1.4927863927459839 2.5139599281610572 0 0 0 0 -1.483444573276022 0.59369934526176138 0 0.59369934526176138 0.18776301024795927 0 0 0 0 -1.8330555258023651 0.87038525556090462 0 0.87038525556090462 3.3330724316156193 0 0 0 0 -2.1309416654621032 0.40026744283204607 0 0.40026744283204607 3.5549184993778908 0 0 0 0 -2.1370180861998733 0.44878351491206558 0 0.44878351491206558 4.6444665776143665 0 0 0 0 -1.6841495468088397 0.32139751435352082 0 0.32139751435352082 3.3706081056625408 0 0 0 0 -5.2485015244910755 5.4784011790397926 0 5.4784011790397926 -2.7912597188551445 0 0 0 0 -0.56093009196242793 0.52216929470110784 0 0.52216929470110784 2.4395738308357409 0 0 0 0 -1.6914434003940642 0.37396862252228402 0 0.37396862252228402 3.4388747252160101 0 0 0 0 -12.220982266624105 5.8207940828724531 0 5.8207940828724531 3.8384074572022655 0 0 0 0 -1.370781304647835 0.49151641434036719 0 0.49151641434036719 3.4496233242134622 0 0 0 0 -1.076808733684004 0.34664593478646566 0 0.34664593478646566 3.2638615674477478 0 0 0 0 -1.207361676491189 0.23815680117422744 0 0.23815680117422744 3.3434984191862895 0 0 0 0 -1.2756204235419659 -0.11238431690071593 0 -0.11238431690071593 2.8679218228498939 0 0 0 0 -1.2828535356497923 -0.17201842060785566 0 -0.17201842060785566 3.5669089615835219 0 0 0 0 -1.6426110637787588 0.31978168273417396 0 0.31978168273417396 3.4627500163041987 0 0 0 0 -1.6822183243537836 0.1272508711563205 0 0.1272508711563205 3.6759153801394859 0 0 0 0 -2.6914691581084753 -0.12686565465082822 0 -0.12686565465082822 4.2717311894521117 0 0 0 0 -1.910697956625711 -0.56721206792644807 0 -0.56721206792644807 3.9513412287997198 0 0 0 0 -2.2912934333155244 -0.83174539728609176 0 -0.83174539728609176 0.06731439315521115 0 0 0 0 -7.9642617756056779 3.2564950461564877 0 3.2564950461564877 11.59226123688768 0 0 0 0 11.696656511590504 -17.736611220840587 0 -17.736611220840587 7.0601193607253663 0 0 0 0 -3.9166752068504636 0.011067610665122629 0 0.011067610665122629 6.704311483346828 0 0 0 0 -2.2827489369218918 -0.95855987310606849 0 -0.95855987310606849 -0.13855260892997023 0 0 0 0 -19.810483406812807 18.847491225543308 0 18.847491225543308 -9.302354605907567 0 0 0 0 -6.6368501295789883 -17.620629917202677 0 -17.620629917202677 17.828099586618919 0 0 0 0 -27.710648723073348 14.060538205209923 0 14.060538205209923 5.8557205983151661 0 0 0 0 4.8315170209998257 -8.9710847126643785 0 -8.9710847126643785 -0.93993497145493166 0 0 0 0 -1.4533238442667198 -0.57129678901947045 0 -0.57129678901947045 -5.0060846976120956 0 0 0 0 -8.8746883200057027 -10.874771010368022 0 -10.874771010368022 6.0328183145757066 0 0 0 0 -29.357828569019475 5.648006440815152 0 5.648006440815152 -2.0325747785318526 0 0 0 0 -0.026110839085780685 0.33790489020788622 0 0.33790489020788622 -0.032341056930455636 0 0 0 0 -2.884645865109448 -3.2699082659985379 0 -3.2699082659985379 4.8690749213019444 0 0 0 0 -32.211349169311063 -3.8625124557361232 0 -3.8625124557361232 21.255123348681082 0 0 0 0 -0.16627833020346272 0.01283949919838423 0 0.01283949919838423 2.9047469381763662 0 0 0 0 -0.26825515141494405 -0.31947898121160634 0 -0.31947898121160634 0.41240129521893465 0 0 0 0 -23.399456506858428 -0.95567181252772571 0 -0.95567181252772571 6.7433711265621241 0 0 0 0 17.691750659059323 -11.687439169175377 0 -11.687439169175377 5.4517160183750093 0 0 0 0 -3.3003161575692275 9.4810228968017327 0 9.4810228968017327 1.3708507772171288 0 0 0 0 -13.119336343471673 -18.391433836906799 0 -18.391433836906799 13.60545495194674 0 0 0 0 14.209859260454039 -15.711698215064644 0 -15.711698215064644 6.2511429182777647 0 0 0 0 4.4034686887430894 -14.219392435872578 0 -14.219392435872578 32.238152958831051 0 0 0 0 4.7979379448123041 -9.8122475464142553 0 -9.8122475464142553 11.283683704903524 0 0 0 0 -1.9599678228413362 -0.12658398306279395 0 -0.12658398306279395 1.6225883158650234 0 0 0 0 0.0068344236967015082 -0.3399243142949544 0 -0.3399243142949544 0.11635687298065456 0 0 0 0 -5.6787354172388405 5.3352187580567261 0 5.3352187580567261 -0.95902312669204548 0 0 0 0 4.6896052026419284 -10.460021998609591 0 -10.460021998609591 8.4314546562018222 0 0 0 0 -0.1801115661724999 0.18551585825844441 0 0.18551585825844441 0.1812935683761232 0 0 0 0 -2.2044862418448474 9.5194440257728274 0 9.5194440257728274 -5.6374727098627773 0 0 0 0 -0.33941594989092139 1.687991896985487 0 1.687991896985487 3.7014709046586631 0 0 0 0 -7.8313665798795284 4.1962730128293515 0 4.1962730128293515 0.18851822744909441 0 0 0 0 -2.1181997125402177 2.9257553484167147 0 2.9257553484167147 -3.4049521107008331 0 0 0 0 -1.3140856055851164 1.9776782165782159 0 1.9776782165782159 5.0609658837075768 0 0 0 0 -8.098946002451612 1.9239920756263018 0 1.9239920756263018 -2.5145904897945002 0 0 0 0 -0.071786661931155793 0.7295215437182927 0 0.7295215437182927 -0.44682289336319059 0 0 0 0 -2.5937936151340324 0.28337498669588967 0 0.28337498669588967 4.7520123927824898 0 0 0 0 -4.7062093160144656 3.4444156017750629 0 3.4444156017750629 8.0964455806642945 0 0 0 0 -2.6327466120876295 0.81892838952262537 0 0.81892838952262537 -0.047487132501373708 0 0 0 0 1.740338573115082 4.1310505077381094 0 4.1310505077381094 7.2761379368093912 0 0 0 0 -9.3092344848097923 -0.22371163654133852 0 -0.22371163654133852 6.1334135649503878 0 0 0 0 -0.45840532877593321 0.62264253492393262 0 0.62264253492393262 4.0592242032385144 0 0 0 0 -5.256051905668869 -5.244948302195553 0 -5.244948302195553 7.140672255312893 0 0 0 0 -2.1297028423905715 1.013638818390973 0 1.013638818390973 2.8856825784450848 0 0 0 0 -5.6478792137449148 -3.7501805800948205 0 -3.7501805800948205 0.3442164009957196 0 0 0 0 -13.751318687343343 3.2720072209483533 0 3.2720072209483533 -0.88851214010901458 0 0 0 0 -0.17899695123114157 2.3462604798460234 0 2.3462604798460234 3.5444582898053341 0 0 0 0 -0.27541864872240573 -1.5567099451942426 0 -1.5567099451942426 16.496527498955402 0 0 0 0 -2.9233926449970795 -0.58653578752273461 0 -0.58653578752273461 18.478982914190965 0 0 0 0 3.0458333923372329 -9.4090401637704417 0 -9.4090401637704417 15.356721332147572 0 0 0 0 -2.7676568624434665 -13.778210707869675 0 -13.778210707869675 22.95190852273663 0 0 0 0 -4.2499502717386406 -12.125577432791488 0 -12.125577432791488 29.690044227798353 0 0 0 0 -4.6041985653679207 -13.907163712905458 0 -13.907163712905458 22.94349317661181 0 0 0 0 7.1389827686115623 -16.808154102972821 0 -16.808154102972821 18.387852002226282 0 0 0 0 -41.491069757631159 -2.1865653395680056 0 -2.1865653395680056 11.774430168643448 0 0 0 0 -0.10695355955924424 0.21770374406224757 0 0.21770374406224757 2.9067788745319163 0 0 0 0 -1.4620491235680544 -0.012130657735976769 0 -0.012130657735976769 0.48669205002700267 0 0 0 0 0.1259595725204008 15.046153928436979 0 15.046153928436979 26.40041764990201 0 0 0 0 7.1208541726210797 -15.215458412314547 0 -15.215458412314547 14.258482705803544 0 0 0 0 -3.7032875499995725 -15.043914532936469 0 -15.043914532936469 21.691022932283886 0 0 0 0 -3.7516310302651448 -16.770760951540069 0 -16.770760951540069 37.141933832957875 0 0 0 0 25.643107153976757 -0.37153531096100778 0 -0.37153531096100778 11.506198450626471 0 0 0 0 -2.5717122072269376 2.7159231919958984 0 2.7159231919958984 41.629881260699676 0 0 0 0 -0.2821880074868659 -13.539676311585026 0 -13.539676311585026 38.83937358557705 0 0 0 0 -5.3091509801606662 -1.8931461992851837 0 -1.8931461992851837 11.981778304383624 0 0 0 0 -0.11579566007641429 -1.2433486496191897 0 -1.2433486496191897 3.2873964903556754 0 0 0 0 4.8445607502242183 -7.3067909555302322 0 -7.3067909555302322 4.1728071972120233 0 0 0 0 2.0011056718107056 -0.25526723371876869 0 -0.25526723371876869 0.83454317955056467 0 0 0 0 3.5930849760703722 1.9136578166599065 0 1.9136578166599065 2.6054374082705181 0 0 0 0 1.8079516893607206 -3.80370826080798 0 -3.80370826080798 11.036313178269893 0 0 0 0 -0.23475714323326469 -0.52155410649539391 0 -0.52155410649539391 0.62822509248319136 0 0 0 0 -0.96986481496969645 0.41227850522591325 0 0.41227850522591325 5.213121148420214 0 0 0 0 -2.9383377450910757 1.4426507667549231 0 1.4426507667549231 6.2553248788417477 0 0 0 0 -0.084950035017104852 0.023603561227865555 0 0.023603561227865555 1.0040852066297283 0 0 0 0 -0.50063875630439725 0.49451223623509577 0 0.49451223623509577 6.2185374168061571 0 0 0 0 -0.010581151180076631 0.86086315805687263 0 0.86086315805687263 4.5949838173091848 0 0 0 0 -0.020727266881198858 0.75384580151344771 0 0.75384580151344771 3.9522039111272278 0 0 0 0 1.4922071697737351 -2.3604362358069011 0 -2.3604362358069011 5.8177654874962172 0 0 0 0 -0.2830244224714733 0.52735388400847327 0 0.52735388400847327 5.1623527296608458 0 0 0 0 3.3289930274750645 -4.5869032504695042 0 -4.5869032504695042 9.2832144757667265 0 0 0 0 -0.71737145210238396 9.1138902422244428 0 9.1138902422244428 4.1660913466865352 0 0 0 0 2.129396911612389 0.24059006039897213 0 0.24059006039897213 6.2652750248660141 0 0 0 0 0.02789809189864112 0.010871572368099436 0 0.010871572368099436 0.026139603033762171 0 0 0 0 7.2224570571481763 -2.958990466528121 0 -2.958990466528121 16.231774022388663 0 0 0 0 -12.943300646885291 -1.9416899366387952 0 -1.9416899366387952 -13.729577587615495 0 0 0 0 -1.5535301227619129 -2.688333832531498 0 -2.688333832531498 4.3102471344482183 0 0 0 0 6.577789141800281 4.488121661122932 0 4.488121661122932 15.558332041992344 0 0 0 0 9.1843414848314282 0.89028753723768261 0 0.89028753723768261 11.341336027247962 0 0 0 0 9.3712818415679067 2.9913186280191439 0 2.9913186280191439 10.445951448393316 0 0 0 0 9.3073841489766664 4.6048233183737466 0 4.6048233183737466 1.323474309586345 0 0 0 0 1.8446192499966116 11.784005323566817 0 11.784005323566817 4.6850199879245338 0 0 0 0 -1.3138978239496737 17.760542319607339 0 17.760542319607339 18.790087380752084 0 0 0 0 -2.3560744115494572 7.3151379552555227 0 7.3151379552555227 12.793710363432183 0 0 0 0 0.3325440657030807 2.2153586263214375 0 2.2153586263214375 4.429168726316302 0 0 0 0 0.34722611078228738 -6.8527940997489623 0 -6.8527940997489623 10.360663455065151 0 0 0 0 4.9866116574254988 3.7224335093451373 0 3.7224335093451373 23.602967799811267 0 0 0 0 -1.6588255810866599 -9.3201097933233541 0 -9.3201097933233541 28.011742674074412 0 0 0 0 -0.52573237403341011 -10.870845657773771 0 -10.870845657773771 21.865845243137301 0 0 0 0 -2.7788244324769948 17.924484325647427 0 17.924484325647427 53.764509949550757 0 0 0 0 0.14410310989285091 -0.14655444152195685 0 -0.14655444152195685 0.16283290541912621 0 0 0 0 15.920200996166784 3.8156029700867293 0 3.8156029700867293 12.591066196291649 0 0 0 0 15.970518977034828 -5.0255267867405564 0 -5.0255267867405564 18.957950280133446 0 0 0 0 -0.15855382175220711 3.2797137072720943 0 3.2797137072720943 23.666901595053787 0 0 0 0 4.7132492982439658 -6.97714786556935 0 -6.97714786556935 35.757018520558631 0 0 0 0 6.6713480759886465 -2.9150990523430664 0 -2.9150990523430664 3.968670518241197 0 0 0 0 6.2317197451961661 -6.5446547139550262 0 -6.5446547139550262 -11.99510777663636 0 0 0 0 8.8746386449782904 -3.8411429458492421 0 -3.8411429458492421 3.4610461791335183 0 0 0 0 11.456031935050703 4.8725176990401451 0 4.8725176990401451 6.0323161242758943 0 0 0 0 11.626714327723278 0.77377550041364884 0 0.77377550041364884 9.9766140478204761 0 0 0 0 6.169686712822795 -6.1909298907339689 0 -6.1909298907339689 6.4523094094765838 0 0 0 0 7.5589758159539997 -7.877089925051223 0 -7.877089925051223 8.4682012881166884 0 0 0 0 7.2939989958376827 -10.507907350884125 0 -10.507907350884125 -0.4168563394478042 0 0 0 0 6.0704848091958468 -13.924523832787145 0 -13.924523832787145 7.9917386821580294 0 0 0 0 9.6325550337066659 -6.4347069121031382 0 -6.4347069121031382 -0.64802729752409505 0 0 0 0 -15.567456570852926 -12.147441457710556 0 -12.147441457710556 0.060795570716436487 0 0 0 0 -27.371092393673734 7.0916215618835849 0 7.0916215618835849 9.1199672871362054 0 0 0 0 -24.519284448999201 4.7226306404518255 0 4.7226306404518255 10.20816568508053 0 0 0 0 -17.16757674842313 11.600678599153071 0 11.600678599153071 -4.0293571415022598 0 0 0 0 -4.135464401957563 1.919685844198284 0 1.919685844198284 0.6874695665010222 0 0 0 0 -0.13859607646494779 -0.17582039926828247 0 -0.17582039926828247 2.6333218212123199 0 0 0 0 -14.440637198104241 -5.9191497124375019 0 -5.9191497124375019 5.7751770850100002 0 0 0 0 -18.528925602338404 -13.551866990840608 0 -13.551866990840608 -5.3130380334375786 0 0 0 0 -0.12263613878862668 -0.14883546166258899 0 -0.14883546166258899 1.7154197501986204 0 0 0 0 -0.21908243822630546 -0.060064417893343602 0 -0.060064417893343602 0.67171104348613442 0 0 0 0 -22.122856926358281 9.6741075994141283 0 9.6741075994141283 4.4527573047034821 0 0 0 0 -1.1485743275337938 -2.8082614518311857 0 -2.8082614518311857 -0.12417781162912434 0 0 0 0 -0.79367870771477556 -1.2283883778854943 0 -1.2283883778854943 3.7430715728437463 0 0 0 0 -1.0496174835340639 -0.75962680755583278 0 -0.75962680755583278 2.9027361137668777 0 0 0 0 -0.88531320582348627 -0.5631245662785318 0 -0.5631245662785318 3.1314158349341596 0 0 0 0 4.7199322807785506 -3.6897823067065474 0 -3.6897823067065474 4.729750696771589 0 0 0 0 2.4528053942963766 -4.6906882742950984 0 -4.6906882742950984 8.467050350853242 0 0 0 0 -0.36459218735016452 -0.078102980471907557 0 -0.078102980471907557 0.57917732482239859 0 0 0 0 -0.2108122122405317 -0.0087951494672857677 0 -0.0087951494672857677 -0.016391553498153133 0 0 0 0 -0.6755902100537412 -3.9022410993866288 0 -3.9022410993866288 11.736024470896155 0 0 0 0 1.2935329464707053 -8.0430690922898975 0 -8.0430690922898975 20.117614812414104 0 0 0 0 1.2502341418497238 -11.66778093367634 0 -11.66778093367634 18.128931171559088 0 0 0 0 1.14455002962967 -12.227985262380571 0 -12.227985262380571 16.0306063173648 0 0 0 0 6.6930018272412326 -11.245717203502863 0 -11.245717203502863 15.100877019189284 0 0 0 0 3.4236467246403492 -4.5835430749189072 0 -4.5835430749189072 7.9168582335332758 0 0 0 0 12.032529721945906 -12.695004975945494 0 -12.695004975945494 9.0135164148487092 0 0 0 0 37.193770956024593 -33.645883836838038 0 -33.645883836838038 24.660068589513685 0 0 0 0 7.7152616568843939 -20.525510950648368 0 -20.525510950648368 25.014130268064036 0 0 0 0 -5.3459300098710401 -9.0660307145008119 0 -9.0660307145008119 35.137174347504697 0 0 0 0 -3.2639131996216264 -5.1329276316771484 0 -5.1329276316771484 14.549894511997991 0 0 0 0 -1.4748156044333882 -9.0216524954903434 0 -9.0216524954903434 20.777897868845685 0 0 0 0 -13.265290136170847 11.848747730989089 0 11.848747730989089 27.256218926780093 0 0 0 0 0.982126615065404 -0.15713918764970458 0 -0.15713918764970458 8.6359642858533334 0 0 0 0 -13.53608981554919 -0.98563593346807465 0 -0.98563593346807465 2.1207347418285281 0 0 0 0 0.016093532917183836 -0.070009405199118024 0 -0.070009405199118024 0.62886844076503223 0 0 0 0 -10.845001677366284 19.102955399268183 0 19.102955399268183 31.135216802769719 0 0 0 0 -16.322714165759749 2.8254908824437734 0 2.8254908824437734 54.852489916978811 0 0 0 0 -2.3281156871825601 10.425435089485291 0 10.425435089485291 26.423220220236544 0 0 0 0 -16.556123648466546 5.5687495354940211 0 5.5687495354940211 27.574775370190764 0 0 0 0 -11.476511247276008 -13.762700881147111 0 -13.762700881147111 25.929542588934055 0 0 0 0 -1.3570260150052604 -0.95502939083417004 0 -0.95502939083417004 1.4778290666790781 0 0 0 0 0.47014442049371541 -0.40188365000075521 0 -0.40188365000075521 0.42722706650841502 0 0 0 0 45.84403200734107 7.0497571516252719 0 7.0497571516252719 -22.495132980087874 0 0 0 0 -10.628695639959119 -18.244940922443675 0 -18.244940922443675 47.05719297561609 0 0 0 0 -0.14074998012497963 -0.21715410386705969 0 -0.21715410386705969 0.067733507961213135 0 0 0 0 1.549532731118914 -0.15264960795115456 0 -0.15264960795115456 -0.24397301628988899 0 0 0 0 2.8995100773203717 -3.1976586442015105 0 -3.1976586442015105 0.16753682012631543 0 0 0 0 2.7136945517003142 5.7982761062248755 0 5.7982761062248755 23.792505516052188 0 0 0 0 0.46410122908855955 0.40186325800856437 0 0.40186325800856437 0.29397802292831976 0 0 0 0 0.85262240544150814 4.1393786110811561 0 4.1393786110811561 27.96817745948465 0 0 0 0 1.7450628033203088 7.2044552858651514 0 7.2044552858651514 35.255668241419698 0 0 0 0 1.1088630805326147 1.1253214349017071 0 1.1253214349017071 3.696448414315654 0 0 0 0 0.72011904638335977 1.7205872781473772 0 1.7205872781473772 3.7106665195333335 0 0 0 0 -0.20797533020217429 -1.160448604648991 0 -1.160448604648991 15.262929898206494 0 0 0 0 -13.528125107026597 -6.1613426265048474 0 -6.1613426265048474 67.296811338540465 0 0 0 0 -8.8875573511652419 6.4291233912736061 0 6.4291233912736061 19.471364658716084 0 0 0 0 3.0764385656555406 2.5148824253434725 0 2.5148824253434725 -0.10738719063374447 0 0 0 0 1.9068035072366456 0.72990158681977846 0 0.72990158681977846 -0.46838059712172253 0 0 0 0 0.65823593886882747 2.0319360054827484 0 2.0319360054827484 -0.6561396129145578 0 0 0 0 1.3485266519753927 -0.02810985676407185 0 -0.02810985676407185 -0.48223607469083873 0 0 0 0 17.058974176180342 9.7459085891132418 0 9.7459085891132418 52.291929115472158 0 0 0 0 1.920546837731564 0.35083945863698318 0 0.35083945863698318 -1.5482474989039474 0 0 0 0 20.805546899457966 9.5885591177993774 0 9.5885591177993774 55.97605416236911 0 0 0 0 -19.818322729379048 -14.961634782832334 0 -14.961634782832334 88.83189085766935 0 0 0 0 50.943059394379276 9.9182395743155212 0 9.9182395743155212 51.92867268336704 0 0 0 0 5.2067213825233001 9.1842808642504679 0 9.1842808642504679 75.212620080899796 0 0 0 0 0.85226563624593155 22.42278557202917 0 22.42278557202917 57.263836659534718 0 0 0 0 5.3191795438221714 6.2118772372523381 0 6.2118772372523381 51.495271777814196 0 0 0 0 -2.1313368620929651 8.4698278098539959 0 8.4698278098539959 54.512438622396076 0 0 0 0 2.8710253982345506 -5.3549662081022689 0 -5.3549662081022689 53.174284236835206 0 0 0 0 14.244816258676877 -16.43786071147224 0 -16.43786071147224 -0.3352016757689853 0 0 0 0 -14.040850701131916 -18.008152641739798 0 -18.008152641739798 113.72762272093678 0 0 0 0 40.90965059922965 29.697801734717359 0 29.697801734717359 84.006996609161433 0 0 0 0 66.596855017691922 -5.3784578871418489 0 -5.3784578871418489 58.423350921878864 0 0 0 0 14.752466174538512 -24.503906898002242 0 -24.503906898002242 64.712981400955414 0 0 0 0 18.705584788887563 -29.587955893004619 0 -29.587955893004619 93.026909534528386 0 0 0 0 -2.4836917505890312 9.4109380308855179 0 9.4109380308855179 35.548817068411154 0 0 0 0 -4.4174640377729304 7.9883082749020105 0 7.9883082749020105 41.36215608850398 0 0 0 0 -2.3472565915742472 11.889003906849211 0 11.889003906849211 46.091547681195152 0 0 0 0 2.8091098902663987 17.574023359131388 0 17.574023359131388 30.042906506570034 0 0 0 0 -4.0045963213739526 7.1544438177152188 0 7.1544438177152188 44.061825572212911 0 0 0 0 -1.7117324149160424 6.048899279181569 0 6.048899279181569 44.104437237687307 0 0 0 0 -0.89502768978064751 1.1593368488811393 0 1.1593368488811393 40.445753931976469 0 0 0 0 -4.1051925807358316 6.3023236604485646 0 6.3023236604485646 40.271139170927199 0 0 0 0 -3.6597014027015007 7.600041030525972 0 7.600041030525972 38.077996011985306 0 0 0 0 -2.645943386958038 9.0788382545761124 0 9.0788382545761124 38.320296474393217 0 0 0 0 -3.9529540276705575 4.6781292100495193 0 4.6781292100495193 33.920564818434286 0 0 0 0 -5.2358569431264357 7.3522862687741508 0 7.3522862687741508 44.805580391579497 0 0 0 0 -0.67106361565532779 1.1248006290043122 0 1.1248006290043122 40.524581231864431 0 0 0 0 2.8241457932317076 5.4241897909651016 0 5.4241897909651016 44.368880228881608 0 0 0 0 0.12315748250028946 -9.2613909268029602 0 -9.2613909268029602 61.921139508174747 0 0 0 0 -4.3343802552468844 3.07605948751916 0 3.07605948751916 43.825105110607183 0 0 0 0 -3.8942882398960137 9.4789444535199436 0 9.4789444535199436 33.046486536031807 0 0 0 0 -6.2208603797579372 12.294914661773873 0 12.294914661773873 38.363864363014727 0 0 0 0 -2.2905525825565576 -0.7098874582817416 0 -0.7098874582817416 23.7994717177844 0 0 0 0 -24.939938067495063 0.12458234585756145 0 0.12458234585756145 22.694436066444268 0 0 0 0 -20.731944027484872 23.556382249487342 0 23.556382249487342 -8.4978966021899396 0 0 0 0 -35.611901007147935 17.82618133746837 0 17.82618133746837 16.28602920664116 0 0 0 0 -19.558473357366154 2.5658610480400057 0 2.5658610480400057 59.763137078494765 0 0 0 0 -18.109332515890998 0.08962853992716191 0 0.08962853992716191 104.98150950554918 0 0 0 0 -18.461536960260617 -6.4012217212202813 0 -6.4012217212202813 46.705183237365418 0 0 0 0 -5.0752549147010768 16.180030641264239 0 16.180030641264239 48.145226460342315 0 0 0 0 -2.2999309866800104 8.6629678560816501 0 8.6629678560816501 -9.7459620692352473 0 0 0 0 0.011473077980458379 0.15258882667470175 0 0.15258882667470175 0.13582696237248726 0 0 0 0 -15.357384051951243 7.3635292035392013 0 7.3635292035392013 26.968346054954964 0 0 0 0 -7.8715067105821106 -8.2209669980643412 0 -8.2209669980643412 59.388799343960272 0 0 0 0 5.943369365947774 -8.4534263742698386 0 -8.4534263742698386 32.91139041475617 0 0 0 0 2.0020642063879137 -10.756954218097462 0 -10.756954218097462 16.091643064413802 0 0 0 0 5.7192623780150598 -14.431968639448314 0 -14.431968639448314 29.866049857675534 0 0 0 0 2.4440380225795764 -9.0186418783873705 0 -9.0186418783873705 22.724075427971911 0 0 0 0 -3.7843031653514458 -13.521684333921257 0 -13.521684333921257 24.292519396832176 0 0 0 0 4.6729437391593649 -8.7293997598353599 0 -8.7293997598353599 6.9489748516371037 0 0 0 0 2.2456422089326651 -3.2966325051515923 0 -3.2966325051515923 -1.7483397665291704 0 0 0 0 -1.3338851985833458 0.86032861753119505 0 0.86032861753119505 3.5488891740833424 0 0 0 0 0.12446527701721855 0.43607991226978271 0 0.43607991226978271 0.25474740802940232 0 0 0 0 -3.484816436257546 1.2267536917947837 0 1.2267536917947837 58.695213909288213 0 0 0 0 -4.4042760261225453 1.5713775574913598 0 1.5713775574913598 10.208627489246282 0 0 0 0 -1.255938802467881 3.3691505103324744 0 3.3691505103324744 -0.060186024092217849 0 0 0 0 -5.4174991656673717 -4.6671854054311552 0 -4.6671854054311552 -0.45737264024955948 0 0 0 0 -1.4521228335872247 -6.9360378828805551 0 -6.9360378828805551 -4.8947774101143295 0 0 0 0 0.79856008295173631 -4.9099911625546611 0 -4.9099911625546611 -2.2263672398366907 0 0 0 0 0.4875809447767061 -4.4036610743487472 0 -4.4036610743487472 -1.612443712176173 0 0 0 0 -0.089660260077055742 -6.2242223509227301 0 -6.2242223509227301 2.0928742352516565 0 0 0 0 -0.22158025352887734 -5.1098245337625485 0 -5.1098245337625485 3.339283563045683 0 0 0 0 0.007566865315018296 -7.1782176891538256 0 -7.1782176891538256 3.8081572871433309 0 0 0 0 -0.80059935269793314 -4.0230867215705075 0 -4.0230867215705075 -0.62827227063917235 0 0 0 0 -0.59472481126629795 -6.86479768674144 0 -6.86479768674144 0.2523174665930128 0 0 0 0 -2.2762248350228909 -3.7440847353809659 0 -3.7440847353809659 11.832290006404037 0 0 0 0 -1.8690426172419254 -7.3213591065668879 0 -7.3213591065668879 8.6705602686888597 0 0 0 0 0.21063201539559273 -5.5258068176030974 0 -5.5258068176030974 12.47972838917849 0 0 0 0 -1.0823138810214843 -5.9485800095953891 0 -5.9485800095953891 7.8913324668064888 0 0 0 0 0.34897986620363497 -4.3142560370806677 0 -4.3142560370806677 5.8740064182036349 0 0 0 0 -5.0231444210186993 0.60824455212423345 0 0.60824455212423345 15.01709179595673 0 0 0 0 -3.9158863842583429 -6.0319829483901231 0 -6.0319829483901231 18.439537025358732 0 0 0 0 -5.0407487762593419 0.11084084174294162 0 0.11084084174294162 1.4499008316106483 0 0 0 0 -3.483149889861437 -3.7886192257783478 0 -3.7886192257783478 6.5668181055380046 0 0 0 0 -3.5038887545006783 -3.1132078145732294 0 -3.1132078145732294 2.5708493047368393 0 0 0 0 -4.6926900415734139 -4.2856275513986475 0 -4.2856275513986475 3.5185765375244955 0 0 0 0 -2.010225946671838 -4.2500961890746112 0 -4.2500961890746112 2.4437282515091283 0 0 0 0 -2.1924140276961221 -3.5772716021544966 0 -3.5772716021544966 2.8548891904029006 0 0 0 0 -0.72186805082802152 -5.2597192879120485 0 -5.2597192879120485 3.0253271460569522 0 0 0 0 -0.84692961990801763 -4.8107884227210889 0 -4.8107884227210889 6.0075966154224716 0 0 0 0 0.37810799809254902 -4.1531845270319536 0 -4.1531845270319536 0.4867235423243983 0 0 0 0 -1.2091511617247948 -3.1533097361983664 0 -3.1533097361983664 1.0711909867204668 0 0 0 0 0.36385952201592886 -4.137501243691986 0 -4.137501243691986 1.6363348135737397 0 0 0 0 -3.0306988512909214 -3.2955594410268532 0 -3.2955594410268532 2.7614424125813457 0 0 0 0 -1.2497337507927213 -2.9453834135838406 0 -2.9453834135838406 2.0230769652862364 0 0 0 0 -2.1140138760682898 -1.850274000715217 0 -1.850274000715217 2.6455769496606081 0 0 0 0 -2.864179939980815 -1.7985150345029979 0 -1.7985150345029979 3.4860811382320662 0 0 0 0 0.16766870608944728 -5.1024961075996771 0 -5.1024961075996771 -1.8270020752643177 0 0 0 0 -1.7582750800756202 0.17518494451087463 0 0.17518494451087463 3.2888726336436775 0 0 0 0 -0.26693765794806518 -0.79815149047394662 0 -0.79815149047394662 2.5979958273595329 0 0 0 0 -3.3386783299539928 -0.66238438300251801 0 -0.66238438300251801 3.0352843224500248 0 0 0 0 0.018602119843844092 0.48484836444004742 0 0.48484836444004742 1.9982401072698082 0 0 0 0 -6.0041303809727253 -1.7132315083208596 0 -1.7132315083208596 3.5304566540542055 0 0 0 0 -3.5200305269565142 -0.28723263111623965 0 -0.28723263111623965 2.347158866814425 0 0 0 0 -12.888412673024845 2.2381463689689554 0 2.2381463689689554 2.8792851763646468 0 0 0 0 -8.4892652629228706 -3.9180372349410391 0 -3.9180372349410391 3.951530468853889 0 0 0 0 39.273189931442026 -45.789417831961146 0 -45.789417831961146 49.428126723191724 0 0 0 0 -0.019404997839995136 0.064946996870929752 0 0.064946996870929752 0.42840616222363792 0 0 0 0 -23.020789852159709 14.495346399137816 0 14.495346399137816 15.87361705751573 0 0 0 0 4.3857938863511201 -7.5210559124939209 0 -7.5210559124939209 23.654122710924639 0 0 0 0 24.323037909021981 -30.865210977091465 0 -30.865210977091465 20.321973034593611 0 0 0 0 0.023378154942665708 0.314565489417161 0 0.314565489417161 1.1354284468923623 0 0 0 0 6.8660248047350763 -15.744773306251773 0 -15.744773306251773 23.627211180886661 0 0 0 0 0.38996875430241573 -14.328267861667882 0 -14.328267861667882 43.214337706467632 0 0 0 0 -0.075660180958165513 0.058715407931703822 0 0.058715407931703822 0.031143928146984079 0 0 0 0 0.096560694011458281 -5.966371220372821 0 -5.966371220372821 -9.3266974443795334 0 0 0 0 0.47599169803041264 -13.955137774194554 0 -13.955137774194554 14.024443799779647 0 0 0 0 -2.1282601903343732 -4.1686125831838581 0 -4.1686125831838581 6.4154428763972646 0 0 0 0 2.3103127797831178 -7.771853579168237 0 -7.771853579168237 19.502385309871897 0 0 0 0 1.8528876945651689 -6.7512799947317035 0 -6.7512799947317035 29.876836833411289 0 0 0 0 0.50703087401149105 -12.158861665316181 0 -12.158861665316181 20.22945838754822 0 0 0 0 3.6992628045513243 -11.374809442284459 0 -11.374809442284459 17.127216044759962 0 0 0 0 0.9068139665076842 -9.61406175166303 0 -9.61406175166303 17.394807574150036 0 0 0 0 2.7876863964983656 -9.5676739087939495 0 -9.5676739087939495 18.295653322242288 0 0 0 0 7.2451690886483391 -9.0242368327635631 0 -9.0242368327635631 19.666907105868631 0 0 0 0 6.7625971414909714 -13.023754375934004 0 -13.023754375934004 20.49557080352497 0 0 0 0 7.6679726342034655 -10.927264699406805 0 -10.927264699406805 18.258558691984945 0 0 0 0 11.334127169634698 -11.332175744479173 0 -11.332175744479173 13.951965712196397 0 0 0 0 6.9091233266487393 -8.3270892277114399 0 -8.3270892277114399 10.308145628441707 0 0 0 0 4.4309704166023494 -11.026006422795035 0 -11.026006422795035 16.197964313741977 0 0 0 0 -1.3793988340502779 -3.9544710893424053 0 -3.9544710893424053 7.9700104255962287 0 0 0 0 2.4570435866506273 -6.0687676363049832 0 -6.0687676363049832 11.47662599836076 0 0 0 0 3.1408694168728601 -8.748241731619828 0 -8.748241731619828 10.756874381291709 0 0 0 0 0.068061005238145802 -0.26960298872242916 0 -0.26960298872242916 -0.093861481265726354 0 0 0 0 -0.31718741602199829 -1.6768376547755679 0 -1.6768376547755679 -1.1334675119069288 0 0 0 0 -0.42459735909750407 0.36758386565452383 0 0.36758386565452383 5.1776311589474062 0 0 0 0 8.5030473106697286 -6.2528482033440014 0 -6.2528482033440014 -2.1308871751061815 0 0 0 0 -0.05206028106594008 0.1333858794712306 0 0.1333858794712306 0.26116011643394899 0 0 0 0 0.91272543322450872 -6.8074133254067419 0 -6.8074133254067419 9.390893650606813 0 0 0 0 -0.38778109174002395 -6.1353611715653642 0 -6.1353611715653642 11.441974040943023 0 0 0 0 3.2096209879361481 -7.728740238426326 0 -7.728740238426326 11.59967820897873 0 0 0 0 -1.8139911275374061 2.2237919372773831 0 2.2237919372773831 2.656947473101809 0 0 0 0 1.4524732135108991 -0.20979024861230755 0 -0.20979024861230755 1.6864098933474452 0 0 0 0 0.39097513116064064 0.39351198862859071 0 0.39351198862859071 0.18545618996711966 0 0 0 0 5.6396318533801804 0.23008128007131745 0 0.23008128007131745 -0.73201324365004439 0 0 0 0 0.99585281138128678 1.0137640027542147 0 1.0137640027542147 9.9968840482288215 0 0 0 0 8.6551953617564763 -13.200275710344613 0 -13.200275710344613 8.8853291610654423 0 0 0 0 0.47757804439257417 0.69950489452220488 0 0.69950489452220488 0.76388559793662125 0 0 0 0 8.1074522865267085 -10.621122330825528 0 -10.621122330825528 46.917723456524982 0 0 0 0 1.5247822545399341 -7.020491305429573 0 -7.020491305429573 46.492730505146028 0 0 0 0 3.7007438658541787 -16.942483953233022 0 -16.942483953233022 44.675471559761718 0 0 0 0 2.746425871694484 3.5927312896474177 0 3.5927312896474177 79.192464211537299 0 0 0 0 3.1054485921896244 21.31128344895933 0 21.31128344895933 68.858957457121505 0 0 0 0 0.39197545291872649 -0.33218234880741804 0 -0.33218234880741804 0.34618027234444781 0 0 0 0 -7.3816019820700944 27.943215751838579 0 27.943215751838579 113.3489226924799 0 0 0 0 -4.0680130950079594 8.0214273377987411 0 8.0214273377987411 44.698954748620963 0 0 0 0 -4.8920253542686645 -2.4140060859476762 0 -2.4140060859476762 35.240186322998852 0 0 0 0 -3.7559305674056933 0.41063667174785223 0 0.41063667174785223 40.704364424185769 0 0 0 0 -6.951238855347583 -6.24870911326434 0 -6.24870911326434 62.591763351309055 0 0 0 0 -10.509713850954682 20.358990291799728 0 20.358990291799728 70.991559596031948 0 0 0 0 -13.712740186187617 11.585677800095254 0 11.585677800095254 47.003844311135254 0 0 0 0 -5.0634051189629758 7.10103978269035 0 7.10103978269035 21.252813117365918 0 0 0 0 -7.2229994442890941 -9.4715716007679589 0 -9.4715716007679589 4.0269988572363218 0 0 0 0 11.375729874085817 9.930941860625353 0 9.930941860625353 0.36050574602268171 0 0 0 0 14.481889215024552 27.131669243561191 0 27.131669243561191 19.055290983649684 0 0 0 0 -4.4525022483339853 -6.0904216508761237 0 -6.0904216508761237 5.5689642619994686 0 0 0 0 5.9014139482356995 3.9290153238302992 0 3.9290153238302992 5.5012073619100192 0 0 0 0 4.9279289286885462 -3.8903553618675915 0 -3.8903553618675915 -2.085573218530044 0 0 0 0 -2.1097998467698744 -1.8497538043484383 0 -1.8497538043484383 2.6455521429361397 0 0 0 0 -0.45541196394782901 -0.74128284765653341 0 -0.74128284765653341 2.4412104313473719 0 0 0 0 -0.96906849775509585 -2.1326600106067417 0 -2.1326600106067417 1.8809743956610419 0 0 0 0 -2.0573599358445618 -1.5386508386626474 0 -1.5386508386626474 1.9609212070135982 0 0 0 0 -1.0073600468706445 -2.3928137783823331 0 -2.3928137783823331 1.1498329812117163 0 0 0 0 0.49884055377072745 -1.6519044930638529 0 -1.6519044930638529 1.1645118849592109 0 0 0 0 -1.2829298264737403 -1.8432604191721111 0 -1.8432604191721111 2.2045894754137407 0 0 0 0 -1.331298516813419 -2.2167976994405763 0 -2.2167976994405763 1.4325000880307925 0 0 0 0 -0.68334867201110816 -0.59691618469063634 0 -0.59691618469063634 2.2417540893776859 0 0 0 0 5.5487821792444834 -14.833261634126757 0 -14.833261634126757 99.583084526223047 0 0 0 0 3.1665375879060207 21.258828857791741 0 21.258828857791741 89.897548841008756 0 0 0 0 2.2165857671456486 12.946031336912995 0 12.946031336912995 128.88939003560517 0 0 0 0 0.10874424397932519 0.018691866397006152 0 0.018691866397006152 0.5668135777904908 0 0 0 0 0.17493673483320094 -0.45185472310590669 0 -0.45185472310590669 0.62050043068474992 0 0 0 0 4.8133708568299296 -60.68061389274618 0 -60.68061389274618 77.4333706779762 0 0 0 0 7.8158808222607377 -27.603558329303269 0 -27.603558329303269 8.6970094024291029 0 0 0 0 -15.137280934615347 27.233666485388312 0 27.233666485388312 -4.3880293736019667 0 0 0 0 -0.92800410093747709 -0.6331324292462952 0 -0.6331324292462952 0.33161582187100791 0 0 0 0 -11.439325128693241 -12.571054007657153 0 -12.571054007657153 8.3549782739573857 0 0 0 0 3.7049583370383545 -14.079760081795371 0 -14.079760081795371 11.494837152542459 0 0 0 0 -1.2451536339029872 11.761678321156069 0 11.761678321156069 42.029219267198641 0 0 0 0 -22.815608695919849 -36.029427899667098 0 -36.029427899667098 153.60713376419335 0 0 0 0 -14.456761977155569 -44.980909619991962 0 -44.980909619991962 101.88684897942585 0 0 0 0 -16.990762038687123 -20.900279917572334 0 -20.900279917572334 190.6625333962229 0 0 0 0 -0.027610043116746509 -52.40756657345446 0 -52.40756657345446 192.39693350956804 0 0 0 0 25.927876913760706 5.5603910295703827 0 5.5603910295703827 97.993110028488445 0 0 0 0 -1.9335009846396396 9.5790715121074754 0 9.5790715121074754 87.019705680857214 0 0 0 0 -0.69415989308217441 -17.264770615197449 0 -17.264770615197449 85.41179508269397 0 0 0 0 0.047638191662894937 9.4541296704101114 0 9.4541296704101114 18.412606996693285 0 0 0 0 10.273247623936063 2.2391332465476808 0 2.2391332465476808 -22.803426070349815 0 0 0 0 -0.38137843254311671 -0.13166184803561976 0 -0.13166184803561976 -0.075381805035991789 0 0 0 0 -8.0987386618637771 31.009326060052445 0 31.009326060052445 -26.904365852519732 0 0 0 0 -16.304209750582537 10.98738098699323 0 10.98738098699323 21.432607033128534 0 0 0 0 1.6100353539946006 -1.158768781906474 0 -1.158768781906474 -0.92258451716224954 0 0 0 0 0.40836630712951116 -2.1919596700580541 0 -2.1919596700580541 1.8316264135937672 0 0 0 0 -11.237469799252017 17.35388878737831 0 17.35388878737831 -23.046834892507121 0 0 0 0 -0.022395933172429539 1.3368981880316928 0 1.3368981880316928 -20.835653732370702 0 0 0 0 1.2933456607083884 -2.6012691772905328 0 -2.6012691772905328 -6.1462282897809928 0 0 0 0 -0.10056148863134443 -0.018417457284158445 0 -0.018417457284158445 -0.0051957118659657908 0 0 0 0 0.0077923581231151883 -7.5894643112551421 0 -7.5894643112551421 20.007457914918632 0 0 0 0 3.4392896573998746 -6.7963868241795353 0 -6.7963868241795353 15.501855227645137 0 0 0 0 -0.43352154944925392 1.3913920435252294 0 1.3913920435252294 3.3185301438315946 0 0 0 0 4.7044746247191149 -9.2011766575196816 0 -9.2011766575196816 15.250677707685782 0 0 0 0 1.215123824056288 -1.3128897483584296 0 -1.3128897483584296 -1.695460853712575 0 0 0 0 -6.5044109591401362 2.184137464617379 0 2.184137464617379 4.342845110007147 0 0 0 0 -3.6352465782916026 1.5779956707701785 0 1.5779956707701785 5.1453102547347953 0 0 0 0 -3.0237620640364438 -3.4168801412733956 0 -3.4168801412733956 7.1720257023007434 0 0 0 0 0.05829507673066954 0.0018879830763083305 0 0.0018879830763083305 -0.001216090272940562 0 0 0 0 2.2466260739519894 -7.9860090093498002 0 -7.9860090093498002 15.394097100826912 0 0 0 0 -6.4997893903101618 -1.7854119219728091 0 -1.7854119219728091 1.2257389940969006 0 0 0 0 0.27123171695923914 -0.13347999074630934 0 -0.13347999074630934 -1.6771929012174951 0 0 0 0 -0.0024519677892513576 -2.7203801222594848 0 -2.7203801222594848 4.19706821130967 0 0 0 0 -1.0281751246939028 -2.0227681621436204 0 -2.0227681621436204 -4.3208704951593973 0 0 0 0 -12.854535387571062 8.7661775996230062 0 8.7661775996230062 6.2427001739270054 0 0 0 0 19.248449058735499 -81.553186729025583 0 -81.553186729025583 148.22701093408114 0 0 0 0 -0.020103947439431915 0.12721567368855169 0 0.12721567368855169 0.82863242650082469 0 0 0 0 -3.0230558978857687 -25.217469977322253 0 -25.217469977322253 152.25774511672194 0 0 0 0 11.167453592362229 -52.349122160910611 0 -52.349122160910611 60.390320157759561 0 0 0 0 22.605441660753854 3.9785009628631087 0 3.9785009628631087 1.1025503449363896 0 0 0 0 -38.749995516261635 21.719171068411924 0 21.719171068411924 27.646404687351605 0 0 0 0 0.048049484813982885 0.51727113506714772 0 0.51727113506714772 1.603684408918312 0 0 0 0 14.3747322655896 -18.237924613921678 0 -18.237924613921678 32.201529591813596 0 0 0 0 -2.8618523009115222 -34.938762504913484 0 -34.938762504913484 68.900237427555112 0 0 0 0 21.354000281996314 -59.379845197800933 0 -59.379845197800933 89.637876322780357 0 0 0 0 41.983561039820827 -30.194348229756542 0 -30.194348229756542 66.461265186948367 0 0 0 0 2.4935143724472368 -20.546782342333245 0 -20.546782342333245 141.12032068839517 0 0 0 0 30.19044853145224 -46.972760556826529 0 -46.972760556826529 42.031693273329438 0 0 0 0 30.523220689620501 -43.761175393236954 0 -43.761175393236954 70.44344835609445 0 0 0 0 5.7752542715994979 -17.803337539608265 0 -17.803337539608265 45.369628435313643 0 0 0 0 -0.080502207490951605 -39.70212437416194 0 -39.70212437416194 81.719094123347531 0 0 0 0 5.2802015965683173 -27.328188199659195 0 -27.328188199659195 147.67563830889048 0 0 0 0 19.806425105070673 20.967359481543099 0 20.967359481543099 15.88665712130387 0 0 0 0 19.421199589943811 1.4962940932887534 0 1.4962940932887534 19.524815767981636 0 0 0 0 -1.7133333499400862 -7.1374260611773934 0 -7.1374260611773934 60.034484124071241 0 0 0 0 -20.099088231738904 -11.407943504207651 0 -11.407943504207651 45.467024260635299 0 0 0 0 -16.958819482619667 -21.222762874126147 0 -21.222762874126147 -1.7570171274528548 0 0 0 0 4.2695416612307326 0.60326600733651503 0 0.60326600733651503 5.449715205708344 0 0 0 0 -2.4613121856078806 19.695336938711989 0 19.695336938711989 -26.988633489742824 0 0 0 0 -13.224620624526267 12.032822274682985 0 12.032822274682985 20.933962341638107 0 0 0 0 0.04494280648284979 0.0038545611454487982 0 0.0038545611454487982 0.22737197899175143 0 0 0 0 0.2413708765840627 0.63808773074393876 0 0.63808773074393876 1.3551920885961977 0 0 0 0 3.8939312913080073 25.624839015690668 0 25.624839015690668 3.5977878529920417 0 0 0 0 -38.8544653650209 36.311063944023772 0 36.311063944023772 -0.5225990912404086 0 0 0 0 -22.273749301174266 15.274419902253612 0 15.274419902253612 1.0493333891790826 0 0 0 0 -18.544814162770194 40.223765390321205 0 40.223765390321205 -9.3347760371962067 0 0 0 0 -29.346258727412049 8.7029855649670935 0 8.7029855649670935 -12.274412817669145 0 0 0 0 -3.483249368486895 21.317163952553528 0 21.317163952553528 -6.8093496138535556 0 0 0 0 14.83271585232248 4.1540868034589948 0 4.1540868034589948 -10.412857914710912 0 0 0 0 17.752188407821876 7.7143555511611339 0 7.7143555511611339 -20.136287191476868 0 0 0 0 2.7401634878366679 6.3577350207469863 0 6.3577350207469863 3.3810332347529766 0 0 0 0 -5.7921016732370276 15.398996716821785 0 15.398996716821785 1.3063543392745487 0 0 0 0 29.285647190347277 12.808190473981085 0 12.808190473981085 -5.2732609409085853 0 0 0 0 19.815064662903804 -6.9284700894522757 0 -6.9284700894522757 10.443065938321524 0 0 0 0 19.011682135723209 9.7118071962704562 0 9.7118071962704562 -17.945732712745667 0 0 0 0 9.7773516723656257 6.66953396732697 0 6.66953396732697 -7.939467225165572 0 0 0 0 17.557945136001962 2.5715691798686748 0 2.5715691798686748 -17.419843462626886 0 0 0 0 -11.419158034169982 37.89900977143634 0 37.89900977143634 -43.244994413176755 0 0 0 0 -2.293068324586784 0.67335737272151164 0 0.67335737272151164 -9.8688605959496272 0 0 0 0 1.8867302882069197 8.9305999153964422 0 8.9305999153964422 -43.349449784403987 0 0 0 0 7.9532121602267978 -4.2742671939497541 0 -4.2742671939497541 -14.983602870051982 0 0 0 0 -0.073252451373795824 0.27240727377576057 0 0.27240727377576057 1.2089998052135513 0 0 0 0 -28.174375873058608 21.470055649746428 0 21.470055649746428 11.544106229863246 0 0 0 0 86.333742237401054 -175.29284772462324 0 -175.29284772462324 193.51137950111615 0 0 0 0 -74.824988941445127 77.757771983619705 0 77.757771983619705 19.853150474622453 0 0 0 0 -81.65802097888357 10.869913370763243 0 10.869913370763243 176.26440250873929 0 0 0 0 49.236456763822801 5.8580537617108348 0 5.8580537617108348 15.120579300498321 0 0 0 0 20.219360593233645 -22.718710049857691 0 -22.718710049857691 51.732245605908247 0 0 0 0 36.439798217100694 30.164473773467762 0 30.164473773467762 55.91301997980554 0 0 0 0 45.298658341523137 -73.256130298229436 0 -73.256130298229436 72.195075067711514 0 0 0 0 39.415628616133475 -47.421275257568482 0 -47.421275257568482 -11.40866420733073 0 0 0 0 21.564424328807888 -9.7723111375598819 0 -9.7723111375598819 65.082897993046572 0 0 0 0 22.063375413346584 -4.8128943313269019 0 -4.8128943313269019 30.245250186984777 0 0 0 0 -20.278257741111013 10.826319628783494 0 10.826319628783494 41.827434071636162 0 0 0 0 5.2098022000435833 14.585347638669191 0 14.585347638669191 9.8679399504562753 0 0 0 0 0.47179704187346927 -0.60796001314925974 0 -0.60796001314925974 0.6436330029298496 0 0 0 0 69.116991067172194 -50.056347812569584 0 -50.056347812569584 196.21667071515549 0 0 0 0 -71.017954410371658 -5.8931571052435174 0 -5.8931571052435174 278.27743972768985 0 0 0 0 10.99206933087855 -2.5288910190311071 0 -2.5288910190311071 130.7118959747022 0 0 0 0 16.555151005612956 28.108104769420379 0 28.108104769420379 32.232124153866607 0 0 0 0 7.0071682886193685 39.202540377227706 0 39.202540377227706 16.541289514925666 0 0 0 0 -19.831366052556028 -7.8908773158047438 0 -7.8908773158047438 36.046887798529497 0 0 0 0 0.91665976902714452 -0.94475710244751099 0 -0.94475710244751099 0.84081025985837954 0 0 0 0 20.059111847086683 -21.36332789217613 0 -21.36332789217613 -17.898600927324424 0 0 0 0 -8.9281393510178759 -3.9281421569685335 0 -3.9281421569685335 25.96549049756868 0 0 0 0 -2.7098967560718261 23.866787475402248 0 23.866787475402248 28.495192376043633 0 0 0 0 6.3155832552205595 8.2434223537647995 0 8.2434223537647995 35.828157798083339 0 0 0 0 14.895181761605897 -11.361275085797388 0 -11.361275085797388 95.215940399886676 0 0 0 0 5.6304079702197782 15.599330570185884 0 15.599330570185884 64.100630158522108 0 0 0 0 5.7766671669210155 -0.79140463225394342 0 -0.79140463225394342 56.891949814249529 0 0 0 0 38.618030081843472 -21.140661300578358 0 -21.140661300578358 66.276481365715881 0 0 0 0 33.82633772632505 -16.585989265335229 0 -16.585989265335229 74.480282588610862 0 0 0 0 112.83271666878414 -72.795084218461852 0 -72.795084218461852 71.748641692067395 0 0 0 0 32.28474443331335 -61.033693329568905 0 -61.033693329568905 154.49874361285038 0 0 0 0 83.80923038353535 -37.552226436619094 0 -37.552226436619094 50.670113976786524 0 0 0 0 39.88834104815254 -38.633913167633978 0 -38.633913167633978 91.077718690241454 0 0 0 0 -0.4712467750495215 0.8414821467710496 0 0.8414821467710496 3.2811064081176369 0 0 0 0 95.329561861655066 -78.381394679603545 0 -78.381394679603545 82.943405750253078 0 0 0 0 -54.750136404384477 -7.4236171344864488 0 -7.4236171344864488 16.735032228423734 0 0 0 0 111.70511656598001 -68.098144625557325 0 -68.098144625557325 87.069034713764268 0 0 0 0 0.28070663662833983 -0.031409384798230633 0 -0.031409384798230633 0.077260016894733496 0 0 0 0 36.232070021276343 -0.20078702596947551 0 -0.20078702596947551 -12.614774907830906 0 0 0 0 75.846279266797524 -41.408833293307907 0 -41.408833293307907 21.467371888738853 0 0 0 0 75.037261315487711 -88.55277880020958 0 -88.55277880020958 109.52356732707267 0 0 0 0 -48.193252552572545 29.774078785732854 0 29.774078785732854 0.24962853460965562 0 0 0 0 -10.034189862253811 20.115839748707003 0 20.115839748707003 -13.401463370119018 0 0 0 0 -5.2993053826907328 -13.16962385124134 0 -13.16962385124134 -1.9614541185001144 0 0 0 0 -24.949957303582352 9.1144007552147741 0 9.1144007552147741 5.2147757237944461 0 0 0 0 -0.56458833782860496 1.3530922370180072 0 1.3530922370180072 4.6409258072396327 0 0 0 0 -25.711992018530633 17.212159606382784 0 17.212159606382784 -16.331747551304943 0 0 0 0 -4.3338699682245334 5.115247508120774 0 5.115247508120774 -24.09135381627857 0 0 0 0 -16.447200126604031 -3.8424939920323595 0 -3.8424939920323595 -19.633812639847747 0 0 0 0 -65.3102335251711 28.03828625884853 0 28.03828625884853 64.624609866703395 0 0 0 0 -0.055880614528658501 0.066397669705869689 0 0.066397669705869689 0.30871451983601617 0 0 0 0 -2.890698816257256 -19.471702417323286 0 -19.471702417323286 34.12791572842616 0 0 0 0 6.4353759732003084 14.115074113529772 0 14.115074113529772 -26.359335452345476 0 0 0 0 -2.1293555155582098 -20.477349901521166 0 -20.477349901521166 17.806108033695637 0 0 0 0 -3.3817782344912928 -11.545335117769355 0 -11.545335117769355 29.827732622641633 0 0 0 0 -0.091031568776127392 0.10845429188259992 0 0.10845429188259992 0.52154619090151755 0 0 0 0 -17.302188240735489 -3.6545845264136005 0 -3.6545845264136005 -8.0073140071526723 0 0 0 0 -33.371449918273967 16.906966397215911 0 16.906966397215911 15.942267127178638 0 0 0 0 -9.2449456422464493 0.61931750209805614 0 0.61931750209805614 -4.1453476750884874 0 0 0 0 16.221183400195194 -14.290221621987257 0 -14.290221621987257 12.543573045060839 0 0 0 0 -9.7080667661013234 -20.152086820604012 0 -20.152086820604012 24.573810570658679 0 0 0 0 -4.4117034004818834 -19.500618567877609 0 -19.500618567877609 28.026628131339294 0 0 0 0 10.388693966819659 -18.544565930998033 0 -18.544565930998033 20.089361306094361 0 0 0 0 19.559767107907049 -19.592778188944067 0 -19.592778188944067 25.386909389181028 0 0 0 0 10.553582687519988 -21.179729239281443 0 -21.179729239281443 29.286215864671249 0 0 0 0 24.711945465749618 -1.9756979968233281 0 -1.9756979968233281 26.550065315863321 0 0 0 0 -10.952902153292655 36.307356525921932 0 36.307356525921932 8.5885467595689988 0 0 0 0 -23.731645342953648 -16.507439291627179 0 -16.507439291627179 22.564703838594141 0 0 0 0 -35.211997704536429 30.908722300754562 0 30.908722300754562 9.551272614953632 0 0 0 0 0.0048125929731785422 0.088947302402230477 0 0.088947302402230477 0.15342111146809145 0 0 0 0 -12.839758091003148 -1.5637968256978638 0 -1.5637968256978638 -8.9593244722104828 0 0 0 0 -1.9304005382598692 10.695020659830334 0 10.695020659830334 -17.300092938428861 0 0 0 0 18.281319346658663 11.461403104406827 0 11.461403104406827 -22.308328606908617 0 0 0 0 21.30048045607171 23.026587111507979 0 23.026587111507979 -10.875283073153696 0 0 0 0 13.652976661522757 5.7455910904009215 0 5.7455910904009215 -20.733278651026922 0 0 0 0 14.87385771661333 8.9082870331149024 0 8.9082870331149024 -21.969013626265223 0 0 0 0 12.342037791022051 14.178139642464885 0 14.178139642464885 -19.61793081477299 0 0 0 0 -6.4011308836675731 4.4201238541559178 0 4.4201238541559178 -19.849232319014845 0 0 0 0 8.8316166648217305 -12.274894013507947 0 -12.274894013507947 21.028728469400448 0 0 0 0 9.5342402061599572 -15.240183133792016 0 -15.240183133792016 25.969280005134351 0 0 0 0 -15.216866422908609 25.945978698628551 0 25.945978698628551 -36.204944572025852 0 0 0 0 0.56029053053769484 0.58820447670117559 0 0.58820447670117559 0.74028186074054503 0 0 0 0 6.6817876298309464 -16.760354228063079 0 -16.760354228063079 35.344377337525657 0 0 0 0 11.016431974381106 -16.62110802647112 0 -16.62110802647112 26.10438470768554 0 0 0 0 5.8770012665060882 -11.620739166885869 0 -11.620739166885869 36.734826639694802 0 0 0 0 7.1305586054219177 -13.801122990713338 0 -13.801122990713338 40.500656978090774 0 0 0 0 10.348045475198759 -10.382477773477149 0 -10.382477773477149 43.446830368793599 0 0 0 0 12.725146868908951 -21.3782726778918 0 -21.3782726778918 52.983264731927193 0 0 0 0 10.847166516327405 -13.399256926932139 0 -13.399256926932139 56.402185589661713 0 0 0 0 0.31727532882652543 0.24541345004830006 0 0.24541345004830006 0.24809188352633882 0 0 0 0 13.183179058093085 -22.819547072886962 0 -22.819547072886962 39.878534381485224 0 0 0 0 13.904840580335801 -7.7253475833385892 0 -7.7253475833385892 40.760555629301962 0 0 0 0 18.721984805003473 -1.3203435349123538 0 -1.3203435349123538 49.270239549459802 0 0 0 0 20.085967419157193 -23.231173044667571 0 -23.231173044667571 49.050452278317607 0 0 0 0 -0.045351240836839501 0.01679925808182503 0 0.01679925808182503 0.13256214111912357 0 0 0 0 12.86807007857675 -6.1654215097314591 0 -6.1654215097314591 42.045170668545325 0 0 0 0 -0.64989634174479249 16.939351113524026 0 16.939351113524026 7.3867169074969752 0 0 0 0 -0.9131646733558062 -1.4714800414516276 0 -1.4714800414516276 25.683751223925356 0 0 0 0 2.0566302330333883 -12.163416501896791 0 -12.163416501896791 36.689174993558481 0 0 0 0 3.5968813032130562 -7.953386400112322 0 -7.953386400112322 39.905711106759554 0 0 0 0 9.7349440840835939 -11.496298103842491 0 -11.496298103842491 35.320469318707183 0 0 0 0 12.805023187665036 -5.4451085599903308 0 -5.4451085599903308 39.760679306298698 0 0 0 0 6.485764176328189 -8.6556152932735131 0 -8.6556152932735131 42.796956102214608 0 0 0 0 13.884808057042552 -7.4018247956869345 0 -7.4018247956869345 38.340725091482454 0 0 0 0 5.6087491891980523 -11.766256826195331 0 -11.766256826195331 38.328440856243105 0 0 0 0 1.4192852171878485 -11.370536453763634 0 -11.370536453763634 36.821875285461829 0 0 0 0 -0.53579320387535745 -8.4287278480005625 0 -8.4287278480005625 38.078454296277414 0 0 0 0 0.22086363893551031 -8.7228002221645511 0 -8.7228002221645511 34.132238033242174 0 0 0 0 2.1429377280570598 -10.312974234126159 0 -10.312974234126159 36.595665315388032 0 0 0 0 1.335066083268357 -8.675923876885463 0 -8.675923876885463 23.429455242661788 0 0 0 0 -0.90971163126871346 -7.1294008350687363 0 -7.1294008350687363 37.445867445129807 0 0 0 0 0.64610409213214481 -9.2271508571147933 0 -9.2271508571147933 34.092279567972582 0 0 0 0 0.38086671007844863 -9.5401891043911746 0 -9.5401891043911746 34.654280448767167 0 0 0 0 -0.0074384041508697768 -7.8969333626992011 0 -7.8969333626992011 26.410680875822436 0 0 0 0 -1.1183639448478164 -1.1361384005667787 0 -1.1361384005667787 0.70635888721562878 0 0 0 0 -0.015790826514250955 0.0070674300432749249 0 0.0070674300432749249 0.0447825804883486 0 0 0 0 0.11465538450245205 -8.8075765917146782 0 -8.8075765917146782 34.741128685080184 0 0 0 0 -0.28988716626155164 -9.1223266062606854 0 -9.1223266062606854 34.497120223495585 0 0 0 0 -0.10966820779757391 -10.599910402838759 0 -10.599910402838759 35.53806651406876 0 0 0 0 -0.0010478423296646378 -9.4142313415077297 0 -9.4142313415077297 31.927579195809813 0 0 0 0 -0.09931278707165303 -10.45871177850745 0 -10.45871177850745 36.53345495940448 0 0 0 0 2.0814439608822255 -10.006119519955973 0 -10.006119519955973 38.454417739507335 0 0 0 0 3.7208009041506429 -13.331361880720578 0 -13.331361880720578 37.25900102995638 0 0 0 0 2.5096005621501689 -10.806738645133009 0 -10.806738645133009 32.185542248720594 0 0 0 0 4.245934069468035 -14.047349878028399 0 -14.047349878028399 31.388596572548067 0 0 0 0 2.1669124302923279 -10.670599342849528 0 -10.670599342849528 27.206714149837353 0 0 0 0 6.1941377301172622 -13.705029345059529 0 -13.705029345059529 23.721643156124628 0 0 0 0 6.2091679559329052 -13.507782973883877 0 -13.507782973883877 25.800508053303929 0 0 0 0 5.5398511160728745 -13.159414902758726 0 -13.159414902758726 25.939673503180529 0 0 0 0 1.2481474379670627 -10.435824193341887 0 -10.435824193341887 26.304866590671736 0 0 0 0 2.0745995991298898 -12.822035610561528 0 -12.822035610561528 27.94063866655415 0 0 0 0 -14.347964554029403 -16.407662468767285 0 -16.407662468767285 -1.9609746126716345 0 0 0 0 -18.541101939340308 -15.119278772286634 0 -15.119278772286634 14.425457512270896 0 0 0 0 -8.104709288833476 -5.9751632953611988 0 -5.9751632953611988 8.6340226562842872 0 0 0 0 -8.9309444449724538 -14.302215202507341 0 -14.302215202507341 21.339768794412521 0 0 0 0 -10.252392898908397 -9.0126008344459478 0 -9.0126008344459478 1.798694615943532 0 0 0 0 -8.5928888778288979 -37.810183448709722 0 -37.810183448709722 1.4008657320163422 0 0 0 0 -19.432163981045846 -15.256235212046704 0 -15.256235212046704 -1.8898832411086914 0 0 0 0 -15.730653264867897 -16.688260450893267 0 -16.688260450893267 -12.251193726553538 0 0 0 0 12.205969723888586 -16.671660757040627 0 -16.671660757040627 25.718871301845866 0 0 0 0 1.0979145888393305 -4.2904378205453213 0 -4.2904378205453213 1.201614542011157 0 0 0 0 -8.8636376950649378 -0.62746420897383359 0 -0.62746420897383359 22.592641499239107 0 0 0 0 1.0405792029271843 -1.6471075962693824 0 -1.6471075962693824 1.9574800581597227 0 0 0 0 -0.066581745151837346 0.033925487623278627 0 0.033925487623278627 -0.13422665223163932 0 0 0 0 -15.044691439559074 -26.185193208591045 0 -26.185193208591045 -23.259271586864088 0 0 0 0 -29.460916932083649 -15.705700554572104 0 -15.705700554572104 8.4954457098492639 0 0 0 0 -11.925967695032568 -11.372293159038236 0 -11.372293159038236 4.2243667945322159 0 0 0 0 -19.952664582137444 -5.272359936722296 0 -5.272359936722296 12.62074975806172 0 0 0 0 -8.0450475740502725 -6.1078563322262198 0 -6.1078563322262198 -1.9172910454863086 0 0 0 0 -17.623850313749458 -13.205458573397891 0 -13.205458573397891 5.2075074646108988 0 0 0 0 -16.310644452794236 -6.9702511937630334 0 -6.9702511937630334 14.321373491942722 0 0 0 0 -16.939715021807331 -4.5670037429608783 0 -4.5670037429608783 11.128847979204693 0 0 0 0 -13.079310803136423 -3.9469969923175086 0 -3.9469969923175086 26.676254352654723 0 0 0 0 -12.934909237657052 -9.3102073947138706 0 -9.3102073947138706 14.942184142214956 0 0 0 0 -14.300473003010296 -0.27854771276020074 0 -0.27854771276020074 18.786976060468078 0 0 0 0 -6.1352236185138054 1.4446317982274195 0 1.4446317982274195 20.533221237499674 0 0 0 0 -7.7965004441991823 0.70166665009128337 0 0.70166665009128337 29.520009502526136 0 0 0 0 -14.316463109826032 -3.4740415419892088 0 -3.4740415419892088 21.174024675720148 0 0 0 0 -8.1231984983210737 -2.6800375723805701 0 -2.6800375723805701 14.909371477815512 0 0 0 0 -18.1459788695052 -8.1361495020992152 0 -8.1361495020992152 16.717415235465523 0 0 0 0 -4.4244723918893953 1.519371169824808 0 1.519371169824808 19.782663797701389 0 0 0 0 -9.7200426572069887 -7.2234337746390338 0 -7.2234337746390338 21.187421413227639 0 0 0 0 -3.7816778133531557 -1.2689349831380241 0 -1.2689349831380241 27.160527951388644 0 0 0 0 -10.27489481088503 -2.1892381666034453 0 -2.1892381666034453 25.546945762966061 0 0 0 0 -6.053264412281095 4.4273924111857923 0 4.4273924111857923 34.383450356643152 0 0 0 0 -3.9069951083804995 4.2685343399580233 0 4.2685343399580233 24.567494996568712 0 0 0 0 -3.1327681322869125 5.2713253280353456 0 5.2713253280353456 27.828982449034811 0 0 0 0 -2.9938812546122335 2.8859249455927056 0 2.8859249455927056 34.777635325385745 0 0 0 0 0.31477180788053261 -0.81208068971682223 0 -0.81208068971682223 30.684227284456938 0 0 0 0 -2.0131434004915292 4.1854561080681378 0 4.1854561080681378 34.12255543691208 0 0 0 0 0.086621435154000892 1.3593623638807912 0 1.3593623638807912 37.529599091438286 0 0 0 0 3.3650367264391718 -2.3647839952482173 0 -2.3647839952482173 36.298166033196139 0 0 0 0 7.6668477479317696 -0.64142990332038607 0 -0.64142990332038607 31.607742778558531 0 0 0 0 1.0637417573970254 0.79182163631867297 0 0.79182163631867297 32.033628909312029 0 0 0 0 5.2730236013191387 -2.0347562836432189 0 -2.0347562836432189 27.768047913956252 0 0 0 0 4.6874594187825167 -1.7942837601822248 0 -1.7942837601822248 31.882581981179101 0 0 0 0 2.3298835551195225 -3.4323034589451709 0 -3.4323034589451709 29.6951469655869 0 0 0 0 2.6491584780231392 -3.194156568471044 0 -3.194156568471044 22.167557680815662 0 0 0 0 -2.2536543768532908 1.9894785695114479 0 1.9894785695114479 27.644967856711446 0 0 0 0 13.980207438878722 10.320249062201583 0 10.320249062201583 -0.49726011436010253 0 0 0 0 15.804529979491434 2.1066987979229452 0 2.1066987979229452 29.484903391836724 0 0 0 0 12.069334418844377 2.9804046700783147 0 2.9804046700783147 30.808126384505158 0 0 0 0 13.313975745559311 -2.8832091812619183 0 -2.8832091812619183 27.052154207132844 0 0 0 0 14.079567419956867 -6.3154785885726596 0 -6.3154785885726596 35.119630790737574 0 0 0 0 6.7710730255001907 -0.54721421402791748 0 -0.54721421402791748 33.973588709970045 0 0 0 0 4.8768795868780828 3.6925299642784921 0 3.6925299642784921 30.748006759240525 0 0 0 0 7.6577668417857474 -0.13072482948427933 0 -0.13072482948427933 31.823670340834724 0 0 0 0 2.8917451385126185 8.8102705587489254 0 8.8102705587489254 46.161211936994732 0 0 0 0 2.4890200941790397 6.7658143654616651 0 6.7658143654616651 36.089596259525024 0 0 0 0 -3.8050590472400359 -3.5868821040230614 0 -3.5868821040230614 43.139728613536136 0 0 0 0 5.235574290105566 -8.7805148707302294 0 -8.7805148707302294 42.823763157331996 0 0 0 0 -3.1415005220775924 -0.79022901924417965 0 -0.79022901924417965 53.389344064052239 0 0 0 0 0.78855620087374767 -7.4628514531809742 0 -7.4628514531809742 31.595508461412464 0 0 0 0 4.250412479288677 -4.8855248345989821 0 -4.8855248345989821 32.203897937151623 0 0 0 0 -0.92279404956691558 -17.680419021061425 0 -17.680419021061425 25.603114747178552 0 0 0 0 5.0835733034211401 -10.965695607770613 0 -10.965695607770613 33.049090670495843 0 0 0 0 -11.691315642340896 -5.6961029347521617 0 -5.6961029347521617 42.392449779570597 0 0 0 0 -2.1762147776444181 -2.812631549040816 0 -2.812631549040816 15.875127964953208 0 0 0 0 -1.3037021617425069 -5.7653435561610422 0 -5.7653435561610422 25.864297666437778 0 0 0 0 3.6104498696734311 -5.8418058139004643 0 -5.8418058139004643 21.360047621486956 0 0 0 0 4.9798398622489088 -5.2711380607543106 0 -5.2711380607543106 26.683956445926015 0 0 0 0 4.1779163505999577 -8.2441775594797946 0 -8.2441775594797946 29.707502693490824 0 0 0 0 5.9526770456209448 -9.1128429746186157 0 -9.1128429746186157 28.421742926891056 0 0 0 0 3.4410576558222274 -7.5994643083695337 0 -7.5994643083695337 34.810598964037126 0 0 0 0 0.99889836755659189 -13.059267986171108 0 -13.059267986171108 26.509053971407411 0 0 0 0 -1.9617309292413267 -7.5481290948455353 0 -7.5481290948455353 24.660574119945522 0 0 0 0 -9.3488579606793678 -35.251341472956483 0 -35.251341472956483 21.200465118593684 0 0 0 0 -9.281126762042561 -21.984152286371682 0 -21.984152286371682 57.078051808563032 0 0 0 0 -21.369270180720491 -15.59813044387829 0 -15.59813044387829 -75.430645147756422 0 0 0 0 -7.520073999792686 -24.345524949339961 0 -24.345524949339961 -69.991357215290918 0 0 0 0 0.11669356105602097 0.003911233282316573 0 0.003911233282316573 0.0012062342541039328 0 0 0 0 -2.9513226687840586 -0.58483988777197737 0 -0.58483988777197737 -12.030809787140242 0 0 0 0 5.8564426983022173 -78.276022674110664 0 -78.276022674110664 -17.175161091252448 0 0 0 0 0.30270634781278943 -0.33870949698081532 0 -0.33870949698081532 0.26888820421685722 0 0 0 0 -1.5104110586106287 26.730362952379437 0 26.730362952379437 174.80830344535752 0 0 0 0 18.810460996298445 25.239212290207433 0 25.239212290207433 96.069088664240553 0 0 0 0 1.8288909193867084 -51.568245749217567 0 -51.568245749217567 -94.743761370722495 0 0 0 0 0.18248296526712693 -22.155467264913568 0 -22.155467264913568 54.304438169569039 0 0 0 0 28.771785608518741 -23.214821270122229 0 -23.214821270122229 3.409242745505253 0 0 0 0 0.43391798912154578 -0.15797432358198904 0 -0.15797432358198904 -0.0027299090197221432 0 0 0 0 7.3940178637747067 -37.478353229820186 0 -37.478353229820186 58.998541695339554 0 0 0 0 46.916531710418951 -60.625167064905327 0 -60.625167064905327 40.652591533064196 0 0 0 0 -21.726071870526866 5.0253253241717175 0 5.0253253241717175 -9.273538699520941 0 0 0 0 -0.62418542489903606 1.8442738432773211 0 1.8442738432773211 5.6094005272955982 0 0 0 0 13.043844611501612 -18.527923631078011 0 -18.527923631078011 54.656748659199366 0 0 0 0 12.119745456886761 11.343991369325522 0 11.343991369325522 -19.036277288306337 0 0 0 0 -23.337078003735826 48.754068116207236 0 48.754068116207236 8.6246844561865146 0 0 0 0 -15.162708586975469 -1.6817608850105898 0 -1.6817608850105898 88.878223102099582 0 0 0 0 3.788105095945129 42.968214159847093 0 42.968214159847093 34.534447963247658 0 0 0 0 25.868213211596967 -19.948272792088574 0 -19.948272792088574 52.754421853960594 0 0 0 0 11.803568314396742 -15.871399224542984 0 -15.871399224542984 109.13432890833246 0 0 0 0 26.934192246077671 -34.252828792419677 0 -34.252828792419677 44.496520732634963 0 0 0 0 12.006369816258545 -35.355316878824851 0 -35.355316878824851 129.9420990364315 0 0 0 0 20.801509640740925 6.2859192341193193 0 6.2859192341193193 14.495111943855591 0 0 0 0 25.277228201843727 -21.652454830012744 0 -21.652454830012744 25.858306042155164 0 0 0 0 21.032539959781914 -11.09331437271976 0 -11.09331437271976 49.280718129800789 0 0 0 0 25.441289580560934 -18.336218683733023 0 -18.336218683733023 30.989340484982677 0 0 0 0 13.086036890136739 -12.343868299733913 0 -12.343868299733913 57.649452293573631 0 0 0 0 15.970176137707938 -9.8134293227267335 0 -9.8134293227267335 29.361629792864846 0 0 0 0 9.0083180972264927 -14.094677086633965 0 -14.094677086633965 29.634204209494783 0 0 0 0 5.3877308940592314 -5.2633175182004379 0 -5.2633175182004379 47.856803608767223 0 0 0 0 10.28737117399686 -2.0877127314906829 0 -2.0877127314906829 46.470099194479189 0 0 0 0 5.980456766874795 9.3828617640074299 0 9.3828617640074299 62.659566294540127 0 0 0 0 15.065471730238357 -6.3672668644576333 0 -6.3672668644576333 56.881410606389636 0 0 0 0 9.9765343893546969 16.135675380230168 0 16.135675380230168 77.654028277512509 0 0 0 0 7.7068690380558564 -1.4974234106030053 0 -1.4974234106030053 77.22684400180151 0 0 0 0 13.882997577198466 14.146012777358919 0 14.146012777358919 78.277014144401619 0 0 0 0 6.5564796510223857 23.71299763216939 0 23.71299763216939 85.673717772180225 0 0 0 0 0.58371546330388913 -1.114442437342241 0 -1.114442437342241 0.85544007505837527 0 0 0 0 7.1967645432062852 8.1603754261157064 0 8.1603754261157064 63.644197383029677 0 0 0 0 10.724212537624851 25.591530366560619 0 25.591530366560619 69.035908950993417 0 0 0 0 -20.985367463397495 -23.116030247193521 0 -23.116030247193521 -4.9739221533586715 0 0 0 0 -8.6513501306215801 -17.497122522481732 0 -17.497122522481732 -34.855828240994015 0 0 0 0 -12.135630084721413 -54.580638427740269 0 -54.580638427740269 -46.555564493610291 0 0 0 0 -6.9340283001869807 23.043969805070446 0 23.043969805070446 73.708840116856663 0 0 0 0 -5.6844617775088295 17.590490570492875 0 17.590490570492875 62.913751998335101 0 0 0 0 0.80953035544106589 -1.6176586771683041 0 -1.6176586771683041 1.1419514846150189 0 0 0 0 -16.658357276292975 -24.05014169780452 0 -24.05014169780452 -15.255977156912195 0 0 0 0 5.8931768913398201 15.495146034782692 0 15.495146034782692 59.97964926122404 0 0 0 0 3.7332016322275194 20.610760339658555 0 20.610760339658555 55.145516758898339 0 0 0 0 4.0591898304918459 7.274607482286946 0 7.274607482286946 28.092216558305154 0 0 0 0 26.516603991165368 32.162006085523899 0 32.162006085523899 49.244731987287196 0 0 0 0 -7.5836074747253122 0.11632491495038266 0 0.11632491495038266 33.061357050141851 0 0 0 0 -0.93080361438646264 -0.91849505013578892 0 -0.91849505013578892 39.890157994735091 0 0 0 0 5.6490133515379588 1.2010323510016008 0 1.2010323510016008 37.163650970458548 0 0 0 0 7.5052320939114665 -6.9019759902309943 0 -6.9019759902309943 22.0785893978682 0 0 0 0 -0.44887930206168214 -10.9691954883221 0 -10.9691954883221 7.6727841047904803 0 0 0 0 -16.154213890235326 -12.389125684463579 0 -12.389125684463579 17.400727041042046 0 0 0 0 -24.257896356847134 -35.346308152105507 0 -35.346308152105507 -2.3035235563384049 0 0 0 0 35.332765477495286 3.3808132321737503 0 3.3808132321737503 8.8795497478440666 0 0 0 0 4.8693661799597656 -4.6256674106888802 0 -4.6256674106888802 8.3231607352596022 0 0 0 0 -2.1355033732420634 -2.884779986713216 0 -2.884779986713216 12.811285871649748 0 0 0 0 12.500210864385508 26.051558155689236 0 26.051558155689236 33.485217945030399 0 0 0 0 -44.180557953468067 -34.708572287752304 0 -34.708572287752304 14.103850477039487 0 0 0 0 -2.5164707457218993 -3.0511053219369249 0 -3.0511053219369249 16.945192472441633 0 0 0 0 1.6155165792016533 -5.4331656579233822 0 -5.4331656579233822 -0.57884602689205167 0 0 0 0 28.300310568164605 35.380393190037012 0 35.380393190037012 19.072716107507858 0 0 0 0 -8.3321724385265679 28.374683509249422 0 28.374683509249422 34.799426936636337 0 0 0 0 -9.3677011623824242 -23.521689581170307 0 -23.521689581170307 -6.4366529103281209 0 0 0 0 0.42177510386798656 -0.92698657763765668 0 -0.92698657763765668 1.7885636695674663 0 0 0 0 -13.676184149279891 4.343601154953376 0 4.343601154953376 15.897361770339558 0 0 0 0 14.899455849033671 17.479509091212094 0 17.479509091212094 2.6491049476780972 0 0 0 0 3.0248739413318106 -3.7480125000730773 0 -3.7480125000730773 4.0715931303136212 0 0 0 0 27.497365288191531 5.7641962257130217 0 5.7641962257130217 19.498451993027629 0 0 0 0 29.487414788329772 -10.86704112696134 0 -10.86704112696134 -22.794259089495881 0 0 0 0 -2.6422315356097101 -1.5364907068907314 0 -1.5364907068907314 20.82863679989805 0 0 0 0 -31.47375682925874 -1.5222267487182535 0 -1.5222267487182535 35.868311483467551 0 0 0 0 0.63702682271258815 -1.5546571290781817 0 -1.5546571290781817 2.8547432458788684 0 0 0 0 1.0760810864610186 -1.6996546300739839 0 -1.6996546300739839 2.6373213995687301 0 0 0 0 8.736990036997355 26.26110641067271 0 26.26110641067271 7.1813720483473844 0 0 0 0 -18.395851410069099 -24.950820015645377 0 -24.950820015645377 -3.9718065281558665 0 0 0 0 10.969563872152378 17.113943791948032 0 17.113943791948032 32.912380646188467 0 0 0 0 -42.922830736369946 -32.283755883271624 0 -32.283755883271624 20.942258533776112 0 0 0 0 -1.7791298129367599 -4.3590435095512987 0 -4.3590435095512987 18.831500099204163 0 0 0 0 25.039906657353413 -1.6710319566691396 0 -1.6710319566691396 14.557912008382573 0 0 0 0 9.494771995922715 24.136380359047251 0 24.136380359047251 40.728016552586269 0 0 0 0 8.1017072556147198 -20.708602211618881 0 -20.708602211618881 44.681264551874847 0 0 0 0 15.052837231574415 -7.7383270387958873 0 -7.7383270387958873 1.1300556308779051 0 0 0 0 -28.811194719200927 13.807994942711048 0 13.807994942711048 39.432686803716933 0 0 0 0 -8.357708986606724 -4.9262248362128958 0 -4.9262248362128958 53.699537003591104 0 0 0 0 43.041900232106173 58.812276062978526 0 58.812276062978526 67.445642298651364 0 0 0 0 2.7989214277842507 27.774607440176624 0 27.774607440176624 95.740804611967178 0 0 0 0 0.5640388333876013 -0.26736349186641384 0 -0.26736349186641384 0.26920829837818872 0 0 0 0 -0.060808770366030496 -1.4970115738449117 0 -1.4970115738449117 4.6060594851418486 0 0 0 0 -0.26396718778156858 0.13296366183057984 0 0.13296366183057984 0.95338389011309488 0 0 0 0 -1.9867297728416702 -2.1329578075774407 0 -2.1329578075774407 11.191197955216921 0 0 0 0 1.2397074026506516 1.2633668622684127 0 1.2633668622684127 5.9228693721597665 0 0 0 0 0.16170028701765204 3.0662430971087815 0 3.0662430971087815 12.96113218746541 0 0 0 0 32.087610574700193 30.316944985374903 0 30.316944985374903 37.797403244885572 0 0 0 0 1.3980411564530755 30.760489364079149 0 30.760489364079149 49.515046834805617 0 0 0 0 1.2992010248842703 -0.52691517806059451 0 -0.52691517806059451 0.99192899567632153 0 0 0 0 -11.257895029832632 22.878275437663433 0 22.878275437663433 22.955464795390498 0 0 0 0 11.720608154876903 3.8900436004569201 0 3.8900436004569201 38.581082758199045 0 0 0 0 -1.6351870758176907 -4.9548318677722643 0 -4.9548318677722643 20.726041482231707 0 0 0 0 -28.070776939932813 -21.814254728296874 0 -21.814254728296874 38.900107035824476 0 0 0 0 -38.553537569032969 16.234013375258598 0 16.234013375258598 74.684776842261272 0 0 0 0 -33.750703023829288 -22.436322613807988 0 -22.436322613807988 49.795847303344544 0 0 0 0 53.049084501016267 -11.966144368681853 0 -11.966144368681853 2.5678819314016437 0 0 0 0 -23.009437880834525 23.768359192807111 0 23.768359192807111 49.836520525554079 0 0 0 0 0.24486275205666994 -0.35107962757740907 0 -0.35107962757740907 0.26069874065325394 0 0 0 0 3.5695972203660631 -2.1239231195231696 0 -2.1239231195231696 20.835805577135034 0 0 0 0 -13.062307359490603 24.254735418090604 0 24.254735418090604 59.218748039636921 0 0 0 0 4.5911332245204903 0.22689037124746392 0 0.22689037124746392 -7.9573868407960617 0 0 0 0 1.9948498954122895 -3.2214564055023374 0 -3.2214564055023374 2.1798166557267624 0 0 0 0 7.0382447574678153 -4.8642345028165437 0 -4.8642345028165437 10.766016790935737 0 0 0 0 -6.3880961394252154 7.7626725135064589 0 7.7626725135064589 2.1280232392364269 0 0 0 0 11.746977812846154 -10.977280691732631 0 -10.977280691732631 18.245774531104871 0 0 0 0 3.2742788187877032 -3.4957263089013537 0 -3.4957263089013537 5.9397596236624768 0 0 0 0 -5.4672690639641814 5.608621959759148 0 5.608621959759148 12.329506502285312 0 0 0 0 26.969437414637341 17.51287660244634 0 17.51287660244634 16.250865082436576 0 0 0 0 -12.32833787013999 1.6389934338258172 0 1.6389934338258172 8.2282076119809062 0 0 0 0 14.520825725588566 -116.63572993735943 0 -116.63572993735943 158.94452900834744 0 0 0 0 -4.0991096731250138 -11.088459451180825 0 -11.088459451180825 2.3791789679853537 0 0 0 0 -1.189072982532617 -0.65810303282725613 0 -0.65810303282725613 0.46678707397883556 0 0 0 0 -0.24654883871612965 -0.24390909647947012 0 -0.24390909647947012 -0.06326025085154896 0 0 0 0 -0.77775561583144137 -0.31935487340001067 0 -0.31935487340001067 2.1869594138789665 0 0 0 0 0.50282497115358638 4.672371350560752 0 4.672371350560752 3.4003167334185491 0 0 0 0 -0.071474036778681693 1.268160906653975 0 1.268160906653975 1.6325037594615424 0 0 0 0 -4.1358123036816323 -3.180408499434634 0 -3.180408499434634 11.045335566768699 0 0 0 0 -1.9174318037776743 -0.90960672701476142 0 -0.90960672701476142 1.7900460391429078 0 0 0 0 -4.5293494217626176 -0.88589549227981479 0 -0.88589549227981479 2.8210338514199975 0 0 0 0 -12.997388546167485 0.15981158882186719 0 0.15981158882186719 3.9280224789408749 0 0 0 0 -5.7521315662482948 -3.9466002166118415 0 -3.9466002166118415 2.0668824300300912 0 0 0 0 -8.5142659981206634 -5.8941964009673029 0 -5.8941964009673029 0.3255234189168732 0 0 0 0 -2.3079757758332562 -2.6938025004801602 0 -2.6938025004801602 1.6806114592600352 0 0 0 0 -1.0064686009360457 0.12865814029009925 0 0.12865814029009925 2.1036550312383042 0 0 0 0 -0.30080968795230256 -0.22925079857790465 0 -0.22925079857790465 1.1170993790831076 0 0 0 0 77.961582878102433 73.272628729132293 0 73.272628729132293 -35.286362265702337 0 0 0 0 -5.9821429110967301 -79.390235375886732 0 -79.390235375886732 -55.194194263334794 0 0 0 0 -1.5961086944262135 1.8205524936254305 0 1.8205524936254305 5.5427915721650924 0 0 0 0 0.25533825785136977 0.56079843393077144 0 0.56079843393077144 0.94003926865781473 0 0 0 0 -23.636418484414833 8.8055264401569389 0 8.8055264401569389 9.8752715017699302 0 0 0 0 49.95614576192429 47.215184896641404 0 47.215184896641404 111.09703568251462 0 0 0 0 -23.28416799396561 10.386481680120824 0 10.386481680120824 16.885856283040994 0 0 0 0 40.307245258476215 39.322254595045294 0 39.322254595045294 1.061651392670683 0 0 0 0 -15.490401745488498 0.21141937262791544 0 0.21141937262791544 -3.9033030573591532 0 0 0 0 0.46485439211956603 11.433449625027151 0 11.433449625027151 -18.542086572694643 0 0 0 0 4.5994995793416145 18.055074764932442 0 18.055074764932442 -8.0768910416913968 0 0 0 0 -12.495091757696628 6.5507377794006061 0 6.5507377794006061 8.1329469668194179 0 0 0 0 5.8411448940976651 12.77604501201813 0 12.77604501201813 -1.0012974986061636 0 0 0 0 16.518492074978553 18.215473487608506 0 18.215473487608506 1.1347224398787148 0 0 0 0 20.3840813063307 25.666533548398093 0 25.666533548398093 25.963327055363607 0 0 0 0 1.6657542814686792 8.9361702664145923 0 8.9361702664145923 11.103270205131139 0 0 0 0 0.42034862594508127 15.227419601605959 0 15.227419601605959 13.9607153773768 0 0 0 0 -14.967289710624755 7.5009400533167536 0 7.5009400533167536 25.31196402847263 0 0 0 0 -15.05408278256732 12.042592841105034 0 12.042592841105034 13.744745479229096 0 0 0 0 -20.369551966800827 5.9735895503883967 0 5.9735895503883967 32.52946088477529 0 0 0 0 -3.7334917104607896 5.7085851337265012 0 5.7085851337265012 20.169181569631746 0 0 0 0 -3.3643112376737179 9.4483028937597737 0 9.4483028937597737 43.443196508598248 0 0 0 0 3.0452681545594373 -3.5309505861935122 0 -3.5309505861935122 33.084526840661056 0 0 0 0 -18.911568249036009 -15.296770887174262 0 -15.296770887174262 44.886143755869625 0 0 0 0 -5.6947003630218092 5.2830672992579366 0 5.2830672992579366 30.190685396245044 0 0 0 0 -22.13243431258195 -1.212265509455392 0 -1.212265509455392 36.441845424503526 0 0 0 0 -24.491280157865418 -5.8138706338187376 0 -5.8138706338187376 -3.1713330852248873 0 0 0 0 -25.533009182133355 -0.65451739786567487 0 -0.65451739786567487 24.314280085033488 0 0 0 0 0.098108379220516628 0.44376270119811201 0 0.44376270119811201 1.0023019570757707 0 0 0 0 -12.576438702672476 5.3420579896460367 0 5.3420579896460367 40.15429774421591 0 0 0 0 -5.2631983483512954 -7.8272552115013241 0 -7.8272552115013241 10.618791749540833 0 0 0 0 -16.745673496337076 -9.397873875558389 0 -9.397873875558389 26.423595200371892 0 0 0 0 0.38937149384530378 -5.3185930353075905 0 -5.3185930353075905 15.234546905055437 0 0 0 0 7.2555021035864229 -4.6006624455376368 0 -4.6006624455376368 27.888816908036461 0 0 0 0 1.8427035787200066 -6.6196076015234677 0 -6.6196076015234677 12.812826132990352 0 0 0 0 0.028629833504725144 -4.8346995653028397 0 -4.8346995653028397 14.817406005552265 0 0 0 0 -4.8476536117598528 -6.4695962394421258 0 -6.4695962394421258 14.526839968286367 0 0 0 0 -40.611633046769157 -141.55074690171023 0 -141.55074690171023 -94.820096447221658 0 0 0 0 -16.315948323999237 -2.0283634802681263 0 -2.0283634802681263 -5.3552740710456419 0 0 0 0 -3.563635692393861 2.7929036642919316 0 2.7929036642919316 5.8944422209789904 0 0 0 0 -0.052832859283765909 0.44228936691250187 0 0.44228936691250187 -0.70083428623181732 0 0 0 0 34.787398638961804 108.1353206638596 0 108.1353206638596 182.14840412519288 0 0 0 0 -42.560429729832094 77.361033084702285 0 77.361033084702285 56.197947107993969 0 0 0 0 -99.235812218369233 -156.75958882174928 0 -156.75958882174928 147.35592839908441 0 0 0 0 113.77275948068313 29.415669907441952 0 29.415669907441952 -84.356217443710193 0 0 0 0 -21.561354434966681 2.537858802867504 0 2.537858802867504 26.937908582303862 0 0 0 0 68.809009369162595 16.057168938519681 0 16.057168938519681 -69.818507770272845 0 0 0 0 -0.87615858684300252 -6.153444751695913 0 -6.153444751695913 19.552682381100489 0 0 0 0 -24.977691611577626 -46.819646124733936 0 -46.819646124733936 16.275771412722861 0 0 0 0 0.2055147521239799 -0.61825674254728558 0 -0.61825674254728558 -0.6788967419634826 0 0 0 0 10.45696337374568 43.644331918613716 0 43.644331918613716 -39.110629413647985 0 0 0 0 -155.4127213730917 -78.346002850871173 0 -78.346002850871173 84.301050614321866 0 0 0 0 -14.632616143897508 -31.711936757891181 0 -31.711936757891181 -28.953997833141329 0 0 0 0 7.1705792083566848 -8.6706333177926354 0 -8.6706333177926354 -8.569578883153099 0 0 0 0 -77.686452984069888 -19.262162468119186 0 -19.262162468119186 40.133065600899499 0 0 0 0 41.47364507078953 8.1518343805128097 0 8.1518343805128097 -1.0223700860424287 0 0 0 0 -10.666641106961123 37.341383264898582 0 37.341383264898582 38.322660622949115 0 0 0 0 21.145001051730048 47.287663850691047 0 47.287663850691047 133.45578212187684 0 0 0 0 -19.469772572997073 -5.1875950701755755 0 -5.1875950701755755 71.544291899779182 0 0 0 0 8.312368402693437 -23.271454899035234 0 -23.271454899035234 36.08059769311194 0 0 0 0 50.654911350901898 -2.3922533914915221 0 -2.3922533914915221 54.002657844176156 0 0 0 0 8.8115253840767309 -43.459811245845685 0 -43.459811245845685 5.3029517320596824 0 0 0 0 -7.6994561245007382 29.089381294252235 0 29.089381294252235 26.635502006772526 0 0 0 0 16.593569456099324 27.481060076994368 0 27.481060076994368 -26.986054086590684 0 0 0 0 21.284138742798106 75.030927820616398 0 75.030927820616398 94.002534840609542 0 0 0 0 0.033829504440651137 -0.39676678113790764 0 -0.39676678113790764 1.0236546617035938 0 0 0 0 -11.014424180082472 -1.2192508442124108 0 -1.2192508442124108 117.53040270231213 0 0 0 0 43.566400658854803 34.832477187614586 0 34.832477187614586 35.717583416880643 0 0 0 0 13.697353475500734 29.081835314979998 0 29.081835314979998 157.58807014328067 0 0 0 0 0.4190684396802028 -0.77059257386765045 0 -0.77059257386765045 1.2983537197671247 0 0 0 0 3.7744840203766898 -79.133696055659129 0 -79.133696055659129 -20.475905145064189 0 0 0 0 11.905481466815786 -38.15047872819423 0 -38.15047872819423 -65.298444377618466 0 0 0 0 14.498526507252109 -52.576794814734512 0 -52.576794814734512 6.9818227452060455 0 0 0 0 7.6147247003750635 -37.154972607026139 0 -37.154972607026139 -7.9704814298247584 0 0 0 0 -1.2015015302819165 -57.521357380026075 0 -57.521357380026075 9.9238670879749407 0 0 0 0 -10.028915834829604 -66.931014354627678 0 -66.931014354627678 17.132398721205391 0 0 0 0 -3.9899482361130936 -93.104409583806273 0 -93.104409583806273 110.47393763345463 0 0 0 0 -4.9506049697997696 5.3127320845806025 0 5.3127320845806025 197.62407936218278 0 0 0 0 97.202586575801092 17.99231106350453 0 17.99231106350453 -65.681430324420944 0 0 0 0 143.19623333370919 83.689339700975324 0 83.689339700975324 27.585251093333682 0 0 0 0 -36.645765251664784 -70.842801396424875 0 -70.842801396424875 45.47027863090625 0 0 0 0 156.14539433720449 14.459278594756142 0 14.459278594756142 -9.6127445429247018 0 0 0 0 57.179981537853109 -26.162736385696917 0 -26.162736385696917 91.846581433997471 0 0 0 0 -0.71762762591079177 2.3669111568795631 0 2.3669111568795631 6.7727970952590795 0 0 0 0 -9.0303888160630095 20.705108175664463 0 20.705108175664463 0.3355384386455853 0 0 0 0 -3.4321123841290841 23.913855849428046 0 23.913855849428046 -7.6741723062363576 0 0 0 0 -45.730870433664791 -10.883254481857875 0 -10.883254481857875 30.914002452189379 0 0 0 0 -62.46127151789203 -29.622313029993165 0 -29.622313029993165 53.788370521488105 0 0 0 0 0.87221216886539921 1.4249477214476043 0 1.4249477214476043 1.9030117128041191 0 0 0 0 5.0007341525097218 -47.591046680148793 0 -47.591046680148793 -23.517006323880196 0 0 0 0 -37.713088507308726 -5.7557771876327024 0 -5.7557771876327024 26.890943621494444 0 0 0 0 41.911159789084252 23.936443972080383 0 23.936443972080383 78.394885629613782 0 0 0 0 9.9194033923484426 8.2521944738990669 0 8.2521944738990669 0.41585389076590218 0 0 0 0 5.0485781766901532 20.265164433544896 0 20.265164433544896 -7.8993806180151296 0 0 0 0 -66.948234329950822 -61.506321189999198 0 -61.506321189999198 111.35999104805978 0 0 0 0 -14.163255948785832 11.44738164842272 0 11.44738164842272 2.9715953897751888 0 0 0 0 -23.27759883746711 -27.001409938465258 0 -27.001409938465258 40.03108231319311 0 0 0 0 4.9181448877932894 -4.3407193181019466 0 -4.3407193181019466 19.275888680494973 0 0 0 0 0.69689743887408895 -43.512577280307141 0 -43.512577280307141 18.57868179101024 0 0 0 0 -7.314789069544986 -49.441931456733528 0 -49.441931456733528 22.162442837103299 0 0 0 0 -5.7080530666064533 -45.041008217614944 0 -45.041008217614944 34.105659893174561 0 0 0 0 0.50818541029047992 -45.384228367155629 0 -45.384228367155629 14.197568244106151 0 0 0 0 7.4629673236609051 -33.880451050698866 0 -33.880451050698866 18.801141265409115 0 0 0 0 26.022605163908452 -14.78801712872928 0 -14.78801712872928 13.451624344948868 0 0 0 0 4.8571367281472249 -27.841495357103668 0 -27.841495357103668 22.564641747319001 0 0 0 0 31.950901016787043 -36.014435771542139 0 -36.014435771542139 9.4224761472836462 0 0 0 0 16.534078549979995 -23.917318113943111 0 -23.917318113943111 11.224514382787675 0 0 0 0 11.114275421191792 -41.128146206308202 0 -41.128146206308202 31.426331429058337 0 0 0 0 -0.060890250349018515 -29.867507084707086 0 -29.867507084707086 31.738517836810388 0 0 0 0 8.8201942267280913 -52.060763826299308 0 -52.060763826299308 86.015519043175118 0 0 0 0 -4.4968186417445395 -25.513265057036278 0 -25.513265057036278 54.83587047297533 0 0 0 0 -3.3617748105447163 -15.014943103574751 0 -15.014943103574751 18.250686076185957 0 0 0 0 -3.3415404258654511 -11.099243696688125 0 -11.099243696688125 -4.0542758923793372 0 0 0 0 -42.618105912563578 19.46184098560343 0 19.46184098560343 23.687898861075155 0 0 0 0 -21.325925391336725 -5.7223821166114135 0 -5.7223821166114135 45.13509829081886 0 0 0 0 -7.0691207759505232 -15.853703871119251 0 -15.853703871119251 19.682702636368049 0 0 0 0 -21.785569494194078 -0.90871334843495788 0 -0.90871334843495788 47.671292840856495 0 0 0 0 -17.590076551656466 -1.8498193396826537 0 -1.8498193396826537 48.672498382117737 0 0 0 0 -16.839822259986164 -2.5652901100203849 0 -2.5652901100203849 47.599613920361662 0 0 0 0 -24.846792110438969 -3.6339254075419376 0 -3.6339254075419376 49.631817840036547 0 0 0 0 -17.169779243977892 -8.9422878660279252 0 -8.9422878660279252 53.277643872114822 0 0 0 0 0.32026438190496265 -14.674651754967272 0 -14.674651754967272 42.888074332941869 0 0 0 0 -9.5497877604439054 -0.15738920761941699 0 -0.15738920761941699 43.58985821664146 0 0 0 0 -10.590006202837344 2.4028374224633353 0 2.4028374224633353 46.418352848969107 0 0 0 0 -11.666198142778061 6.7002756133262551 0 6.7002756133262551 111.17249176358655 0 0 0 0 -16.610011301366512 -0.1046714148128558 0 -0.1046714148128558 61.632083094277391 0 0 0 0 -11.725969542482403 4.7711186152500886 0 4.7711186152500886 48.916002092987128 0 0 0 0 -26.696696609785022 -21.214393423027104 0 -21.214393423027104 31.084773631873304 0 0 0 0 0.77002244440250811 -1.7030928728450148 0 -1.7030928728450148 2.9520215296164452 0 0 0 0 6.0892831831420153 -111.94431969447487 0 -111.94431969447487 121.84998300755979 0 0 0 0 -17.717214006372387 28.880510423151463 0 28.880510423151463 -61.82650800305646 0 0 0 0 -41.49206163379813 -67.349337375673258 0 -67.349337375673258 103.7725695973968 0 0 0 0 -97.943578317008587 -16.203753711842637 0 -16.203753711842637 76.574511469459139 0 0 0 0 -83.358659103538685 43.332527437220051 0 43.332527437220051 12.322831176072214 0 0 0 0 -41.381990253274125 -6.2590492619183351 0 -6.2590492619183351 52.468859882366814 0 0 0 0 -39.288076395024746 -7.0564923630954581 0 -7.0564923630954581 50.587579684944103 0 0 0 0 0.089280714102091707 0.14704537906752613 0 0.14704537906752613 0.8293200172807591 0 0 0 0 51.244905957869719 -81.429146034113955 0 -81.429146034113955 55.280540839134574 0 0 0 0 -25.107740848773233 -28.901669969236536 0 -28.901669969236536 77.411857015429632 0 0 0 0 4.9356449525924972 -6.3500681954483298 0 -6.3500681954483298 20.294286102040132 0 0 0 0 30.00207395664404 -25.071706063841475 0 -25.071706063841475 33.759628518268528 0 0 0 0 12.80850522219049 -3.2597657284677553 0 -3.2597657284677553 -101.23565471571965 0 0 0 0 -44.754818099489363 25.619396234522505 0 25.619396234522505 14.271456232419041 0 0 0 0 33.125437696119107 3.7384005384942611 0 3.7384005384942611 -40.639420906874875 0 0 0 0 -44.665300720365167 6.9735707078834821 0 6.9735707078834821 20.241260701137435 0 0 0 0 -33.230666686888071 13.9369138646789 0 13.9369138646789 20.898272218593775 0 0 0 0 -30.089178895132704 16.149290161643421 0 16.149290161643421 19.697482811933696 0 0 0 0 -33.369315690114263 13.17118614190349 0 13.17118614190349 17.045443473833984 0 0 0 0 -0.12613662200064968 0.60714190054730599 0 0.60714190054730599 2.5530385395695383 0 0 0 0 -24.660065780882519 12.520489944220799 0 12.520489944220799 13.912708492485763 0 0 0 0 -25.033091900159434 5.5458212550665849 0 5.5458212550665849 6.1045799980074662 0 0 0 0 2.0057297369332332 -2.1720507777115472 0 -2.1720507777115472 7.237028235798789 0 0 0 0 -3.6948648266190958 1.4058999588655752 0 1.4058999588655752 22.313112430788578 0 0 0 0 -0.23268408461825629 -0.14849088233290786 0 -0.14849088233290786 2.6691335440182229 0 0 0 0 -0.34396984885954729 0.4794105210186681 0 0.4794105210186681 0.72379481554079916 0 0 0 0 -24.25493796767887 -1.8326235243566771 0 -1.8326235243566771 -2.6905911457702132 0 0 0 0 -1.5809185798525505 -0.14973307112586554 0 -0.14973307112586554 2.007806821315171 0 0 0 0 -0.93588410511132203 -0.14262171660933509 0 -0.14262171660933509 2.1939352890378743 0 0 0 0 -2.3078142057242435 1.5428565358911426 0 1.5428565358911426 4.3191896535074648 0 0 0 0 6.667189882542516 2.2985936683999171 0 2.2985936683999171 -5.2399249798354504 0 0 0 0 -23.13775810210177 -12.868815852255466 0 -12.868815852255466 -6.8297957984214008 0 0 0 0 -1.6623141584912489 0.63097843430680012 0 0.63097843430680012 3.1022061843578843 0 0 0 0 0.18661487410150812 0.6118848870211222 0 0.6118848870211222 0.41633765779261855 0 0 0 0 -33.983201128248766 4.8047459504987273 0 4.8047459504987273 7.6440558580670768 0 0 0 0 -41.025246743817831 3.883080233394935 0 3.883080233394935 10.095623644019724 0 0 0 0 -36.88302823763479 -11.632567835934424 0 -11.632567835934424 1.7893201243950898 0 0 0 0 -33.000145502032836 12.223270932727644 0 12.223270932727644 18.438341643808599 0 0 0 0 -31.827701927414751 0.98186695149797742 0 0.98186695149797742 -3.4077810468670577 0 0 0 0 -33.141070727745955 -1.6862849244935205 0 -1.6862849244935205 8.362624639830301 0 0 0 0 -31.493374970375953 9.2139197246583535 0 9.2139197246583535 16.486184588492506 0 0 0 0 -11.601706367625432 -2.6830186751153633 0 -2.6830186751153633 20.611396042726483 0 0 0 0 -0.95783592153145491 -1.4874784832691148 0 -1.4874784832691148 17.489172231892667 0 0 0 0 6.2986303443516354 -0.040066974097008767 0 -0.040066974097008767 14.137973562061688 0 0 0 0 6.6911977584968092 12.477005971500787 0 12.477005971500787 24.277248520121248 0 0 0 0 0.82132557247956584 2.5926257725955111 0 2.5926257725955111 6.5116385561263996 0 0 0 0 -5.2298215109410648 -3.776807833393832 0 -3.776807833393832 25.601557260005393 0 0 0 0 -4.0524442645626095 -5.6174539126241143 0 -5.6174539126241143 24.89047582619196 0 0 0 0 -0.84108358010888651 0.47006174253579047 0 0.47006174253579047 6.9639077908884701 0 0 0 0 -1.1609299513251869 0.51989298761839109 0 0.51989298761839109 5.0241755162519439 0 0 0 0 -0.25852487823015968 -0.55028631023265095 0 -0.55028631023265095 1.3566442046808942 0 0 0 0 0.31260804629842465 -0.61016304481114769 0 -0.61016304481114769 1.4505646787475812 0 0 0 0 6.3636555026770338 -0.5112022807984431 0 -0.5112022807984431 1.7448404189312896 0 0 0 0 -0.38526343345975533 -0.76760941220067025 0 -0.76760941220067025 5.7656624574710804 0 0 0 0 -19.78730215647866 -29.147700140145048 0 -29.147700140145048 -31.628233785326529 0 0 0 0 -1.5368985398576649 0.62221231752576145 0 0.62221231752576145 1.4808199908707742 0 0 0 0 0.43783049858465661 -1.9249341966007174 0 -1.9249341966007174 3.916006920533027 0 0 0 0 -1.3943658540763977 0.8290177236603995 0 0.8290177236603995 15.351581304125375 0 0 0 0 -4.6999420914963395 -3.1194831656437714 0 -3.1194831656437714 10.595824070879189 0 0 0 0 3.8805128803583102 -54.785143751012356 0 -54.785143751012356 45.746262798734278 0 0 0 0 58.025699215419081 -70.62439723727357 0 -70.62439723727357 45.440840494738381 0 0 0 0 0.88254152960314514 2.6883185928619469 0 2.6883185928619469 15.38633724074603 0 0 0 0 -0.29698861619008365 0.53693221490230014 0 0.53693221490230014 -0.17580266556914803 0 0 0 0 29.048815068297245 -37.569664590629259 0 -37.569664590629259 55.325438865705792 0 0 0 0 8.9524586193764435 -61.648423578469988 0 -61.648423578469988 -99.643709018747131 0 0 0 0 -24.074146610631828 -21.260102357047401 0 -21.260102357047401 -0.86601304858641015 0 0 0 0 77.068113488899598 -22.84090865380233 0 -22.84090865380233 -1.9519763047965171 0 0 0 0 -7.4344165669206177 -40.945670697532933 0 -40.945670697532933 16.204314715935539 0 0 0 0 76.836652475205469 -26.633483094419923 0 -26.633483094419923 22.699850613691865 0 0 0 0 113.4631596805807 -49.588164713549872 0 -49.588164713549872 6.0681582972833894 0 0 0 0 1.4284801157642426 3.3078579280395735 0 3.3078579280395735 6.9502913462357565 0 0 0 0 128.7385071652343 121.43402004928544 0 121.43402004928544 -86.813533596091474 0 0 0 0 -29.816232810504289 -8.1696634361015867 0 -8.1696634361015867 71.511103349481346 0 0 0 0 -30.014805711746703 -167.23981947185962 0 -167.23981947185962 94.348375579666936 0 0 0 0 -183.53073149873853 -171.00936293302243 0 -171.00936293302243 210.5806547900429 0 0 0 0 0.25776021587762443 23.625755523144562 0 23.625755523144562 1.5428567772855786 0 0 0 0 51.091905983390234 -125.01378840910547 0 -125.01378840910547 56.787317457959489 0 0 0 0 1.511220986115684 4.7089391840331363 0 4.7089391840331363 9.1557591876814985 0 0 0 0 -5.2329840574063837 -123.32328174726854 0 -123.32328174726854 71.855653422516411 0 0 0 0 81.053646967189707 4.7030551162379197 0 4.7030551162379197 18.045424392210634 0 0 0 0 -174.85048312025506 -48.367321554769219 0 -48.367321554769219 129.67032620595728 0 0 0 0 34.782192074721024 -6.5019219480152515 0 -6.5019219480152515 -83.027149300163842 0 0 0 0 -69.329215946855811 46.814853982622992 0 46.814853982622992 13.065646089232814 0 0 0 0 12.161152300527192 -11.991037270275058 0 -11.991037270275058 2.6663884779904947 0 0 0 0 52.760686615652958 -18.141577330044129 0 -18.141577330044129 -17.783563884950127 0 0 0 0 78.716909073645184 9.4701523519141233 0 9.4701523519141233 -7.9524494786140281 0 0 0 0 8.1063713638291119 17.361863862201631 0 17.361863862201631 70.294569738046221 0 0 0 0 -113.38613396533856 -103.47436080762327 0 -103.47436080762327 71.230364415489703 0 0 0 0 0.11490615519105152 0.38453553528845319 0 0.38453553528845319 2.6560019118930631 0 0 0 0 -3.4148824638596125 28.909301880246289 0 28.909301880246289 -1.7639188174266565 0 0 0 0 105.54172311095454 -86.493465660787734 0 -86.493465660787734 -11.876160762685913 0 0 0 0 9.3365745421864403 21.468537311864338 0 21.468537311864338 -4.8449980602058531 0 0 0 0 0.6851584968305815 24.275782067808848 0 24.275782067808848 -0.58408703789473293 0 0 0 0 6.1365771340421134 28.906482222556463 0 28.906482222556463 -11.580154977942584 0 0 0 0 -14.801585070878673 6.2817282560235981 0 6.2817282560235981 -8.9972192611410833 0 0 0 0 29.198746194740806 -9.0327180814654469 0 -9.0327180814654469 19.463119666901719 0 0 0 0 0.10678072580250131 1.238567385675073 0 1.238567385675073 8.0608714156125334 0 0 0 0 17.28662264726745 1.3979187645951683 0 1.3979187645951683 43.466398148672504 0 0 0 0 0.1463410068754456 2.1046940302777841 0 2.1046940302777841 43.556033087222204 0 0 0 0 17.73147569728161 2.7766695212740551 0 2.7766695212740551 13.627201165571023 0 0 0 0 14.651713209215359 0.41142002093775432 0 0.41142002093775432 18.180825207377723 0 0 0 0 5.5754431354543783 62.833854576377234 0 62.833854576377234 208.62297970507188 0 0 0 0 1.4517675309820692 4.8701059467504892 0 4.8701059467504892 9.524449940207866 0 0 0 0 16.899060373921657 19.20908215605516 0 19.20908215605516 40.662692278122222 0 0 0 0 15.333762362222387 12.565846362768696 0 12.565846362768696 13.285771033415301 0 0 0 0 -1.0792011547646609 -0.58973092389369453 0 -0.58973092389369453 3.2406552409736866 0 0 0 0 10.781683204827459 -7.5508970091887591 0 -7.5508970091887591 4.9818724096520128 0 0 0 0 64.434723586464145 -49.220663969493671 0 -49.220663969493671 -62.962973897472693 0 0 0 0 60.755862714585703 -73.227548396395832 0 -73.227548396395832 15.292917803571072 0 0 0 0 30.306253962659952 -29.229520173936066 0 -29.229520173936066 -15.302055553300306 0 0 0 0 -13.09174899367838 -31.320925462895048 0 -31.320925462895048 74.342339459522009 0 0 0 0 -16.475338462307889 -58.508091550103018 0 -58.508091550103018 231.87551429642917 0 0 0 0 95.057394587474505 -174.86966184862968 0 -174.86966184862968 60.488072999862197 0 0 0 0 32.138253728274918 67.111349916976906 0 67.111349916976906 146.03911209119542 0 0 0 0 97.542862545745038 -59.278784083952814 0 -59.278784083952814 22.606486300997858 0 0 0 0 0.51609714620808889 -0.84212475918263663 0 -0.84212475918263663 1.2938572203906418 0 0 0 0 20.669909850767681 28.536038509992068 0 28.536038509992068 30.183634772779897 0 0 0 0 7.836037727238363 42.214849667771432 0 42.214849667771432 66.26934704305404 0 0 0 0 71.021395936469361 -34.469179500055361 0 -34.469179500055361 5.5331481394441653 0 0 0 0 61.081015879903134 -78.618080219278454 0 -78.618080219278454 66.774037404400588 0 0 0 0 39.367269785721533 -58.318865539245735 0 -58.318865539245735 49.006717520724123 0 0 0 0 53.847839982900268 -66.882790954940901 0 -66.882790954940901 65.448823203946631 0 0 0 0 63.542956686173568 -66.789796946111721 0 -66.789796946111721 47.530523551125953 0 0 0 0 64.644826610857194 -68.108208982485849 0 -68.108208982485849 42.82787690811756 0 0 0 0 70.256003839451694 -78.47813142517407 0 -78.47813142517407 59.052435010891713 0 0 0 0 12.340669967812573 2.1033102806431998 0 2.1033102806431998 33.047867928660935 0 0 0 0 72.900583337747747 -12.806330386520585 0 -12.806330386520585 35.258137397403743 0 0 0 0 52.291963620396587 50.261616715828552 0 50.261616715828552 44.579794389311246 0 0 0 0 3.1536680141960005 6.9741641186037668 0 6.9741641186037668 86.147314766741715 0 0 0 0 -28.911156005998464 19.325729289370543 0 19.325729289370543 42.610679794787302 0 0 0 0 3.0913077595655452 8.9652961166917571 0 8.9652961166917571 25.085001779206095 0 0 0 0 13.203606976695255 -5.7185824183627574 0 -5.7185824183627574 12.048481069045692 0 0 0 0 -31.858619973157829 3.2444269848174372 0 3.2444269848174372 42.064938037769252 0 0 0 0 -33.185072149879943 -2.8788972982198402 0 -2.8788972982198402 17.306367864766116 0 0 0 0 -49.024533569066989 11.774562164133158 0 11.774562164133158 9.166137334233099 0 0 0 0 -28.832084817035422 17.48747798928261 0 17.48747798928261 9.2586048505479539 0 0 0 0 -51.123990901735851 16.492364223787376 0 16.492364223787376 30.206684283244044 0 0 0 0 -51.429370659664983 12.901824812124346 0 12.901824812124346 -1.5228519856070761 0 0 0 0 -63.850957841584659 3.772688205228178 0 3.772688205228178 18.100196007226486 0 0 0 0 -30.808353560644321 -15.578969962301812 0 -15.578969962301812 31.00183298601678 0 0 0 0 -0.045664077234535805 1.4632646887346699 0 1.4632646887346699 2.686279025300065 0 0 0 0 -74.211245783670847 -23.880448847370133 0 -23.880448847370133 11.453737701924865 0 0 0 0 -0.52188484058788487 0.58269223474803544 0 0.58269223474803544 1.8055261794792781 0 0 0 0 20.740606629515923 33.339091505083161 0 33.339091505083161 -8.6659799657272742 0 0 0 0 -7.0591160908195434 26.959443555320036 0 26.959443555320036 21.769830459702689 0 0 0 0 -36.787867322366651 6.8093472413190739 0 6.8093472413190739 1.754067814237942 0 0 0 0 -15.249727968978902 -21.698922053074682 0 -21.698922053074682 16.626099623157415 0 0 0 0 21.332964488090056 -14.409751794288695 0 -14.409751794288695 4.2758224717624671 0 0 0 0 5.0075266899295343 -1.797073708247467 0 -1.797073708247467 18.524708199164252 0 0 0 0 29.141623464108307 -11.625220436388872 0 -11.625220436388872 19.107984480180676 0 0 0 0 0.20641446144823306 -5.1149334401817299 0 -5.1149334401817299 21.044159275373204 0 0 0 0 0.084690401694606177 -0.1056406279179285 0 -0.1056406279179285 -0.14957132911606674 0 0 0 0 7.9397047764404078 -29.541703076178464 0 -29.541703076178464 15.903144063869831 0 0 0 0 5.5058957177173653 -3.0945757531968354 0 -3.0945757531968354 -6.9273511742139817 0 0 0 0 9.1012639068901535 -20.896809275296619 0 -20.896809275296619 60.224009887260763 0 0 0 0 8.9030434874271123 -23.321097587289842 0 -23.321097587289842 31.063911115307292 0 0 0 0 -59.425530232910432 -5.13149569883808 0 -5.13149569883808 30.476374106719959 0 0 0 0 -2.9760825330513399 22.48671157120134 0 22.48671157120134 43.959415571308 0 0 0 0 0.055466968536499461 -0.087043064741886056 0 -0.087043064741886056 -0.11237503599098631 0 0 0 0 -84.427130840105917 -34.713894852649275 0 -34.713894852649275 22.283139932064842 0 0 0 0 -27.844717835750998 -30.461416111359085 0 -30.461416111359085 -14.423147334912414 0 0 0 0 48.8199121868156 2.1466741778044138 0 2.1466741778044138 -2.5062256148121378 0 0 0 0 -0.21241984997313046 0.43826971882114463 0 0.43826971882114463 0.73617767005475265 0 0 0 0 80.869783689022938 51.019046573852336 0 51.019046573852336 22.407233159768111 0 0 0 0 11.490097559086735 26.972638747134624 0 26.972638747134624 84.778737990000991 0 0 0 0 16.502419218778698 18.775286881165471 0 18.775286881165471 18.573112248892812 0 0 0 0 13.286352904567821 -11.107889668664484 0 -11.107889668664484 40.634094822154111 0 0 0 0 5.029821893084204 -18.645176250928898 0 -18.645176250928898 32.091176488294423 0 0 0 0 -1.7243469835675569 -18.130713624960208 0 -18.130713624960208 51.836117110054602 0 0 0 0 11.593341084913504 -9.2254438549570068 0 -9.2254438549570068 43.914850267312431 0 0 0 0 11.593625618875308 -8.7309609785279463 0 -8.7309609785279463 40.755794296544991 0 0 0 0 25.628511919356697 -50.457017663715078 0 -50.457017663715078 74.139241843084164 0 0 0 0 13.358287700611982 -10.633115701876477 0 -10.633115701876477 38.123806443697504 0 0 0 0 12.376630342936778 -24.786978228692988 0 -24.786978228692988 43.727464283020709 0 0 0 0 6.9956574505142726 -10.066050550998852 0 -10.066050550998852 62.609868217043186 0 0 0 0 13.189133177454096 -9.9195615474204715 0 -9.9195615474204715 56.45315970958768 0 0 0 0 -12.572438447509285 4.6263032968636253 0 4.6263032968636253 39.437278249009495 0 0 0 0 3.5770968418731854 -12.556886761751116 0 -12.556886761751116 64.749384203408226 0 0 0 0 0.16181979225868326 0.15087772534262811 0 0.15087772534262811 0.065576450209501758 0 0 0 0 12.346313699493066 -27.079642899824648 0 -27.079642899824648 65.00710593477703 0 0 0 0 -16.143501809213717 20.327840058532274 0 20.327840058532274 2.1571092785620749 0 0 0 0 2.4295588211721224 -5.5417137322904182 0 -5.5417137322904182 45.879228380381392 0 0 0 0 16.097087487864201 -15.553740009431607 0 -15.553740009431607 4.8033904736512341 0 0 0 0 13.657727703969158 -5.3371877633906024 0 -5.3371877633906024 1.9723459315635523 0 0 0 0 21.713898924987291 -6.3389755499053138 0 -6.3389755499053138 -1.8068457495853636 0 0 0 0 13.051191512549742 2.8637891091951957 0 2.8637891091951957 -2.0995737306466253 0 0 0 0 7.2736384527088376 1.3325757689135571 0 1.3325757689135571 -0.40732241057457941 0 0 0 0 2.8370771435115785 12.596891501087839 0 12.596891501087839 -2.0245338188619826 0 0 0 0 -8.8066849255159809 -0.8691987727055448 0 -0.8691987727055448 2.1884839723775258 0 0 0 0 10.023153855499913 0.92653492500664925 0 0.92653492500664925 -3.783549892529436 0 0 0 0 -1.2931116738977835 5.3470730040664876 0 5.3470730040664876 -1.4242651923200356 0 0 0 0 1.5721717319975141 0.92444378316508846 0 0.92444378316508846 -2.1381670436376226 0 0 0 0 -2.6684548246796567 -3.0081966987851274 0 -3.0081966987851274 -2.8389212073850558 0 0 0 0 9.0351408888780043 -5.6899041028307238 0 -5.6899041028307238 1.3232731380445557 0 0 0 0 30.482268591130378 8.1410844239780999 0 8.1410844239780999 52.895550219458528 0 0 0 0 0.15740361401959913 2.9240294417170167 0 2.9240294417170167 6.6365349434480372 0 0 0 0 6.1589853335347016 -1.2001726183313508 0 -1.2001726183313508 -0.16374101142810105 0 0 0 0 0.73884322963204374 1.2066874599832591 0 1.2066874599832591 4.6675048001283859 0 0 0 0 -0.65285926435711872 5.4306667816269396 0 5.4306667816269396 2.0219880375098001 0 0 0 0 39.652666333310378 -7.5029634831253134 0 -7.5029634831253134 -32.136733637712268 0 0 0 0 8.1630285352036935 0.42312246168364709 0 0.42312246168364709 -4.4127943029384369 0 0 0 0 3.9069769987640939 -1.0267509545381017 0 -1.0267509545381017 -3.4702764792982634 0 0 0 0 27.243899188273474 -18.820172342320348 0 -18.820172342320348 3.8193219057229726 0 0 0 0 12.787175186640297 -5.3109497675916018 0 -5.3109497675916018 11.966341029400837 0 0 0 0 -4.6160020130611201 -0.95914643177716385 0 -0.95914643177716385 11.647132312452698 0 0 0 0 12.806508640830771 -6.226341622896669 0 -6.226341622896669 2.6262022717036189 0 0 0 0 26.324727293668275 -2.8790882135891422 0 -2.8790882135891422 6.4235429948183764 0 0 0 0 -63.022937282574048 42.908100218405934 0 42.908100218405934 22.504261733044586 0 0 0 0 -14.759753232998037 20.283519885196824 0 20.283519885196824 48.068537009749889 0 0 0 0 -15.511279043775403 7.4259480838959462 0 7.4259480838959462 -10.59126639092085 0 0 0 0 -81.061738747984691 27.677122826479263 0 27.677122826479263 34.61481467624003 0 0 0 0 11.178247196856773 -12.88835158130405 0 -12.88835158130405 6.8452055303625912 0 0 0 0 0.16894764802146489 2.1065178143145595 0 2.1065178143145595 13.271187945530915 0 0 0 0 -17.310972933576295 -6.6048021489202711 0 -6.6048021489202711 6.718363147124478 0 0 0 0 -17.019780271506306 -0.43779796583930874 0 -0.43779796583930874 48.910638548139559 0 0 0 0 27.27475900807849 -24.652986572374402 0 -24.652986572374402 18.113559289776731 0 0 0 0 -68.311710013204447 9.2508729486972925 0 9.2508729486972925 35.374747649859273 0 0 0 0 -5.9325132822423257 -7.1735044625429509 0 -7.1735044625429509 12.974442415654721 0 0 0 0 -55.102760307915105 -4.4288893934633506 0 -4.4288893934633506 49.1995059183796 0 0 0 0 0.38919894669129151 3.0690542640905711 0 3.0690542640905711 17.689109691715991 0 0 0 0 17.534517618733162 -78.925234949349715 0 -78.925234949349715 96.120777842696953 0 0 0 0 31.712447397553888 -22.874680544698094 0 -22.874680544698094 8.1243361169849777 0 0 0 0 17.694562719864408 3.8143939075244049 0 3.8143939075244049 2.3426778207099233 0 0 0 0 13.168841798326639 8.9301187725518503 0 8.9301187725518503 -0.79196007839027516 0 0 0 0 23.088873331130117 -0.30998666964296717 0 -0.30998666964296717 -1.2702200458352308 0 0 0 0 18.301590364350204 -7.1758290930551993 0 -7.1758290930551993 2.30480811166683 0 0 0 0 30.474760839453438 -3.3534061128184121 0 -3.3534061128184121 2.9221841535681961 0 0 0 0 27.617489135412825 -5.8889506713830997 0 -5.8889506713830997 9.5679165353383269 0 0 0 0 39.545310755391029 8.8746885032626324 0 8.8746885032626324 2.7726233113221497 0 0 0 0 12.014334867288767 21.227677291340115 0 21.227677291340115 93.220875456666363 0 0 0 0 102.53755220334415 16.187799584947243 0 16.187799584947243 15.410010358392356 0 0 0 0 47.991795298205147 -25.219980138969163 0 -25.219980138969163 15.73071456785874 0 0 0 0 69.049488938172999 16.703994893558843 0 16.703994893558843 -51.584417419922829 0 0 0 0 9.9169968936322448 -36.183648560321672 0 -36.183648560321672 78.607117590659641 0 0 0 0 33.314325566357525 -40.659578095864163 0 -40.659578095864163 46.170790534687512 0 0 0 0 0.21690955023198666 -0.843418180353253 0 -0.843418180353253 1.4136808170795767 0 0 0 0 24.663854348129121 -25.381820708391388 0 -25.381820708391388 19.232265861935048 0 0 0 0 27.51527213987913 -14.73946038196982 0 -14.73946038196982 0.97489299653716444 0 0 0 0 14.825110855735716 -20.164528757342396 0 -20.164528757342396 18.949951996108211 0 0 0 0 23.618165471536145 -1.8725842753756297 0 -1.8725842753756297 -6.3241565004755103 0 0 0 0 7.5169888360762798 8.4036440876961933 0 8.4036440876961933 -3.4606434218383129 0 0 0 0 8.3421457396145797 -3.2700651015293261 0 -3.2700651015293261 3.297531930180412 0 0 0 0 9.7854573109362377 -4.5352952091985799 0 -4.5352952091985799 4.3980864985824155 0 0 0 0 -1.2910677403055497 3.5233152955042479 0 3.5233152955042479 4.3531453428224438 0 0 0 0 -26.170773604880651 -59.283449251051024 0 -59.283449251051024 93.700452875811607 0 0 0 0 38.737228915713843 84.949647757289029 0 84.949647757289029 8.5917614599093213 0 0 0 0 0.054408354462296415 3.5360078420100449 0 3.5360078420100449 20.849941236466819 0 0 0 0 -40.439179799005728 0.18042124996452458 0 0.18042124996452458 32.500446427276074 0 0 0 0 -40.849104294617973 28.256487907598512 0 28.256487907598512 17.418073169013951 0 0 0 0 -17.562334259962427 -15.621896912523425 0 -15.621896912523425 18.190567619193871 0 0 0 0 -3.5564524070539392 -4.2357572290088683 0 -4.2357572290088683 16.471024396303619 0 0 0 0 -13.803156504537128 -6.6875404617617278 0 -6.6875404617617278 36.173970921993259 0 0 0 0 -3.6948413446526533 -16.474965383218333 0 -16.474965383218333 47.548320005852474 0 0 0 0 -5.4036800536562168 -1.1511311430826936 0 -1.1511311430826936 6.2572895947096185 0 0 0 0 0.30874890825091406 0.26630850697371233 0 0.26630850697371233 0.14674238866588496 0 0 0 0 19.763514290718376 -41.835336866155032 0 -41.835336866155032 35.688247555012822 0 0 0 0 -5.3564288892621335 -1.6827458224061047 0 -1.6827458224061047 6.0953008951573793 0 0 0 0 21.978127390928933 -20.753823784853495 0 -20.753823784853495 23.939816857250662 0 0 0 0 -7.5532785639375106 -6.8615076114606381 0 -6.8615076114606381 25.709872886586254 0 0 0 0 -6.2373301465531767 -4.4328867047197491 0 -4.4328867047197491 15.146965155954604 0 0 0 0 -4.7082505562398183 -14.425852635380807 0 -14.425852635380807 24.112591608756361 0 0 0 0 -0.60457018433459186 -0.27121751620083323 0 -0.27121751620083323 2.7426928851870391 0 0 0 0 4.2394257259716142 -5.1195889886541863 0 -5.1195889886541863 4.9989706198789463 0 0 0 0 -4.3183553680739237 -6.0477930827443629 0 -6.0477930827443629 2.1300278173284823 0 0 0 0 -0.66399785565727143 1.5595812836686491 0 1.5595812836686491 10.469337031989198 0 0 0 0 -0.84293896554800085 -1.6704075265804477 0 -1.6704075265804477 11.522020783910193 0 0 0 0 8.2706309820541719 4.1222711016221183 0 4.1222711016221183 7.9390779149634909 0 0 0 0 -2.2084136696610166 -0.76716341419412626 0 -0.76716341419412626 10.130203918578072 0 0 0 0 -5.0954527716681355 -6.7703730785004552 0 -6.7703730785004552 9.7663341990476056 0 0 0 0 -3.6688581838286609 -1.7489264774899311 0 -1.7489264774899311 13.115689653381224 0 0 0 0 -4.1959951284460431 -1.5176278821413121 0 -1.5176278821413121 14.760659575596947 0 0 0 0 -2.1442581497715949 -0.39968560777835371 0 -0.39968560777835371 8.8625397213984112 0 0 0 0 -0.60746696510669285 1.2558148177704416 0 1.2558148177704416 7.744352798936994 0 0 0 0 -5.4692223383291321 0.28302124086485492 0 0.28302124086485492 12.101754813941852 0 0 0 0 -9.6357498831839621 1.7026724386587375 0 1.7026724386587375 8.4112423809347092 0 0 0 0 -1.487199054864881 -1.1407993337468918 0 -1.1407993337468918 8.1661237598540772 0 0 0 0 -2.7068642279670456 -2.933856856544935 0 -2.933856856544935 14.770999064275202 0 0 0 0 0.0054896706603813072 -2.8618275758954042 0 -2.8618275758954042 9.0954695322197949 0 0 0 0 -1.868145307068346 -3.4493213543016736 0 -3.4493213543016736 10.4119155860717 0 0 0 0 -7.8257043894275284 2.5059904577872203 0 2.5059904577872203 9.3846566086267558 0 0 0 0 -4.1157236023891528 -11.669322506510525 0 -11.669322506510525 18.681544015319105 0 0 0 0 1.8353281356239677 13.966815360160808 0 13.966815360160808 4.5673233769077797 0 0 0 0 -0.091787101535373894 -0.084423354729657341 0 -0.084423354729657341 5.0990394616940744 0 0 0 0 -3.9063763192914394 1.4085320422516361 0 1.4085320422516361 13.841796604188289 0 0 0 0 -0.53350354048316029 -1.2861622841733173 0 -1.2861622841733173 10.113335083432871 0 0 0 0 -0.93830966835935925 -0.50229495541464053 0 -0.50229495541464053 12.971781201674471 0 0 0 0 -9.2536237286274172 7.9775068774492865 0 7.9775068774492865 20.867914908460989 0 0 0 0 -2.3400682272178983 6.094337037061905 0 6.094337037061905 8.9528033186481935 0 0 0 0 -1.5080147002629474 5.0906035142866131 0 5.0906035142866131 9.0342567015735256 0 0 0 0 -4.8909634692771533 -0.020052221740343157 0 -0.020052221740343157 1.5333725460882306 0 0 0 0 -19.96129348389357 11.22425942979973 0 11.22425942979973 0.81648441859852028 0 0 0 0 -18.78359961377646 -1.0507044290327485 0 -1.0507044290327485 14.047364465036026 0 0 0 0 1.8159567696943668 -1.5509890221330807 0 -1.5509890221330807 4.0691696617268462 0 0 0 0 0.10540546262154216 0.19859752692984856 0 0.19859752692984856 0.35386207375558598 0 0 0 0 7.9342408561069533 -11.779251163741264 0 -11.779251163741264 10.136354652763657 0 0 0 0 -6.6012772264818977 0.32505203909022384 0 0.32505203909022384 16.858679422712157 0 0 0 0 -8.9482660443657096 10.290630644860641 0 10.290630644860641 1.8823367107465856 0 0 0 0 0.067964486475722286 0.021810278916181147 0 0.021810278916181147 0.12083040238833576 0 0 0 0 -0.67227130932951695 -3.9936113788266994 0 -3.9936113788266994 3.1581544300176461 0 0 0 0 -5.3696872841896948 -2.8339525905917071 0 -2.8339525905917071 5.5871345847781413 0 0 0 0 -0.87732052357569046 -2.3473367618512384 0 -2.3473367618512384 5.5860155235468483 0 0 0 0 -4.7727423133278535 -1.0055218175900791 0 -1.0055218175900791 6.2672627694673793 0 0 0 0 -0.67737647832746006 -2.0156534688744614 0 -2.0156534688744614 5.5720955704600783 0 0 0 0 -0.26831631971806758 -0.029763849165511669 0 -0.029763849165511669 0.31455105015322626 0 0 0 0 -0.21011545715077773 -0.26199276095690038 0 -0.26199276095690038 6.181729795275487 0 0 0 0 0.70493664771947806 -2.6380652825225752 0 -2.6380652825225752 5.2996074789805334 0 0 0 0 -5.9303842543836254 3.9597970777842875 0 3.9597970777842875 6.0914369218444335 0 0 0 0 0.15695936036684088 0.61378138632085211 0 0.61378138632085211 10.93369437131696 0 0 0 0 0.14592666258447506 0.011157491054217594 0 0.011157491054217594 -0.089636301266406093 0 0 0 0 0.3674633125060609 -0.16419338539571982 0 -0.16419338539571982 12.932376132545869 0 0 0 0 -11.125518659265708 -3.9612083769461606 0 -3.9612083769461606 -0.29184095372363572 0 0 0 0 -0.18899222251515102 -0.38040234015213503 0 -0.38040234015213503 0.66863954097189904 0 0 0 0 -9.6958317443524038 -3.0877777767168482 0 -3.0877777767168482 0.027690472312315251 0 0 0 0 -12.11445260124674 -1.0369075487951704 0 -1.0369075487951704 5.5787002761086342 0 0 0 0 0.052665229048746376 0.15479697933555414 0 0.15479697933555414 0.49478924489878118 0 0 0 0 -14.503649466965044 -4.7984058542035655 0 -4.7984058542035655 0.8359458313898358 0 0 0 0 -11.274964378804498 -3.8083788354367698 0 -3.8083788354367698 0.31764911034667875 0 0 0 0 -10.827118268102254 -3.7175237760638993 0 -3.7175237760638993 -1.9815159515119376 0 0 0 0 -0.11244905354327717 -0.22657381962316947 0 -0.22657381962316947 0.15745625495923044 0 0 0 0 -10.683646743354416 -7.9958836041207633 0 -7.9958836041207633 -2.8889051899018341 0 0 0 0 -3.6121204186180194 -5.837229382306532 0 -5.837229382306532 -2.5221835050870141 0 0 0 0 -2.0535324292532096 2.9981688816869791 0 2.9981688816869791 26.093628976055697 0 0 0 0 -6.2540858771446892 -5.3524031150086557 0 -5.3524031150086557 58.791505174132908 0 0 0 0 15.468546067351781 -5.1128388060315046 0 -5.1128388060315046 57.476442286617385 0 0 0 0 8.0227048601168462 -14.894453019967841 0 -14.894453019967841 48.682618461851234 0 0 0 0 -5.1553420960709655 -11.107017081205109 0 -11.107017081205109 -10.484604167548241 0 0 0 0 -3.3145545108379793 12.268651172716091 0 12.268651172716091 56.244059966147091 0 0 0 0 -8.7345823444833854 -25.131824420257885 0 -25.131824420257885 -6.4363637216538336 0 0 0 0 -11.561407617322971 -23.301811487903024 0 -23.301811487903024 15.08433404542302 0 0 0 0 -0.18954052984728786 -0.1896475081742981 0 -0.1896475081742981 0.3812874038526477 0 0 0 0 -5.1582107292420005 -9.4403055293178113 0 -9.4403055293178113 5.5787097815191373 0 0 0 0 -2.866587934080826 -15.866418625354072 0 -15.866418625354072 0.30463229098859301 0 0 0 0 2.6577419014207635 12.667875407723614 0 12.667875407723614 40.367109169584182 0 0 0 0 0.00014624606660618156 -5.2994752891186181 0 -5.2994752891186181 14.104180514011205 0 0 0 0 -6.8352695758192112 -13.845396747116865 0 -13.845396747116865 29.004010002013501 0 0 0 0 -3.1430523264077692 -0.038540383702638792 0 -0.038540383702638792 23.326859330309162 0 0 0 0 1.270630944673826 4.0601118986432425 0 4.0601118986432425 16.157364717420478 0 0 0 0 -3.384989979983402 -1.7607054576299106 0 -1.7607054576299106 19.234946124875478 0 0 0 0 -1.1576394545721129 -3.4845867292665864 0 -3.4845867292665864 5.5490014301310548 0 0 0 0 -3.3309882430555433 0.81575860603123829 0 0.81575860603123829 22.1028524312228 0 0 0 0 -1.4790706735485841 -3.0459419537592756 0 -3.0459419537592756 9.082056418024596 0 0 0 0 0.16870706988686379 -1.7102756087384137 0 -1.7102756087384137 10.419641725087786 0 0 0 0 -0.062056869620640054 0.4961077872194668 0 0.4961077872194668 2.7108580639161914 0 0 0 0 -5.4609300721238014 -6.4467269165766083 0 -6.4467269165766083 3.8599109525437143 0 0 0 0 -0.52843482855896329 -1.4302316167644078 0 -1.4302316167644078 6.5329979209689881 0 0 0 0 -0.54435435846954849 -1.7137543179344543 0 -1.7137543179344543 4.4137685671616751 0 0 0 0 -1.8770142354433119 -0.062085109189638388 0 -0.062085109189638388 8.0605047649873427 0 0 0 0 -3.5702688887176919 -2.2716085021122581 0 -2.2716085021122581 10.806689907053624 0 0 0 0 14.339888711965614 -14.404908518134107 0 -14.404908518134107 11.356541042383242 0 0 0 0 -6.718253488121718 -13.323150962849127 0 -13.323150962849127 16.095053293183582 0 0 0 0 -1.750083184723394 0.57714779044684406 0 0.57714779044684406 12.824169556432025 0 0 0 0 4.4195094106008241 9.0201789189850672 0 9.0201789189850672 7.5387192224106911 0 0 0 0 0.015816677005886515 -1.3323185003933644 0 -1.3323185003933644 -0.51382874029989134 0 0 0 0 -2.4498479821800174 2.3338270431545425 0 2.3338270431545425 8.5540499859292822 0 0 0 0 -0.38747141560969567 -0.78158390472106021 0 -0.78158390472106021 10.668568425848662 0 0 0 0 -0.15075832687534785 -1.3688847284606709 0 -1.3688847284606709 11.566337443927296 0 0 0 0 1.3127068482999675 -6.5064537719267719 0 -6.5064537719267719 13.755598933738383 0 0 0 0 -0.83335742293593285 -0.87218266953959755 0 -0.87218266953959755 11.270365698424484 0 0 0 0 -0.89675345224763658 -4.2199851912580755 0 -4.2199851912580755 3.2975253631110499 0 0 0 0 12.924075144442213 -0.96758585423049226 0 -0.96758585423049226 5.8710635543429817 0 0 0 0 -0.30444384792867218 -1.6122234418033692 0 -1.6122234418033692 0.90086910170856171 0 0 0 0 0.58770299732964304 -2.5615786781295355 0 -2.5615786781295355 2.8539831401540141 0 0 0 0 -0.54488009729911768 -1.7736743611581076 0 -1.7736743611581076 4.8096365245729302 0 0 0 0 -0.77714929351759565 -1.6261546956645816 0 -1.6261546956645816 10.8446805061958 0 0 0 0 -0.39921054753403951 -1.4226358198166054 0 -1.4226358198166054 9.7927284938411958 0 0 0 0 -0.47618728425810186 -2.3719405097413593 0 -2.3719405097413593 3.4254867205180668 0 0 0 0 4.0532675488384484 -2.3824520460407257 0 -2.3824520460407257 8.0798398992669718 0 0 0 0 -0.95770868143108601 1.5983187026167798 0 1.5983187026167798 4.6410149990479113 0 0 0 0 -0.7851173559347504 -0.07660744611064052 0 -0.07660744611064052 9.2611506792393836 0 0 0 0 -0.7922476300793253 -1.8951161382598496 0 -1.8951161382598496 2.6078846689903514 0 0 0 0 -0.86500345227977793 -0.96904976116078778 0 -0.96904976116078778 4.5552356620949244 0 0 0 0 -0.56404045885824416 -3.2683574640668667 0 -3.2683574640668667 3.4909580963756071 0 0 0 0 -0.24410486748341365 0.044818613317294975 0 0.044818613317294975 1.6940843708268951 0 0 0 0 -4.0827076713719634 -1.809689399569379 0 -1.809689399569379 4.3234006599413988 0 0 0 0 -0.9858331387497401 0.3950578344748692 0 0.3950578344748692 9.5433063052405487 0 0 0 0 -1.7691111826832184 -1.7603666280569996 0 -1.7603666280569996 4.3228065295585907 0 0 0 0 -0.87065439320531368 -3.0901114398266145 0 -3.0901114398266145 3.5907921618845648 0 0 0 0 2.8165333880845083 -2.6858353412499127 0 -2.6858353412499127 -0.18242821561534583 0 0 0 0 -0.65881478316800646 -2.2490804573291872 0 -2.2490804573291872 1.6173135637055749 0 0 0 0 13.930622416244887 -23.3795595556835 0 -23.3795595556835 15.464746691130131 0 0 0 0 -0.16261342986912686 -0.42176512460781357 0 -0.42176512460781357 0.64867277538073864 0 0 0 0 -2.2791903254161525 5.015861736198076 0 5.015861736198076 8.2369248055656499 0 0 0 0 -8.6275289498711345 4.9682618388770834 0 4.9682618388770834 2.29908418047944 0 0 0 0 -0.4454688885209977 -0.5353192679644766 0 -0.5353192679644766 9.9325740997434941 0 0 0 0 -3.429075849283322 -0.87267608269087305 0 -0.87267608269087305 9.8054497470748174 0 0 0 0 -17.261596097673191 7.2546211550200042 0 7.2546211550200042 14.725816824908406 0 0 0 0 0.066171548905419042 2.3172101764388455 0 2.3172101764388455 7.2026604429001058 0 0 0 0 0.64195238765892304 2.4225614251413194 0 2.4225614251413194 8.2340921875840287 0 0 0 0 0.14591119891770177 0.85240532232501209 0 0.85240532232501209 9.2603697879517313 0 0 0 0 -2.1429806760891097 0.62215654810711385 0 0.62215654810711385 7.4100332865182281 0 0 0 0 -3.3600428790720116 0.82343388224808223 0 0.82343388224808223 9.4501260216563878 0 0 0 0 -3.2460230036421649 0.092792729349525871 0 0.092792729349525871 13.809605331636703 0 0 0 0 -6.1666673146793443 -7.7222249113192447 0 -7.7222249113192447 17.582990584445724 0 0 0 0 -7.2359147011211462 2.5415019326239872 0 2.5415019326239872 13.517715513766234 0 0 0 0 -3.9152159084814895 -3.4516121876399595 0 -3.4516121876399595 8.0152591290626063 0 0 0 0 -9.3025476429948082 -4.5689650867312519 0 -4.5689650867312519 21.34400001231716 0 0 0 0 -2.9692583053357255 1.1126655122300324 0 1.1126655122300324 13.886634825379993 0 0 0 0 -2.2813151004985506 -3.2609045804830323 0 -3.2609045804830323 11.059916975460755 0 0 0 0 -2.1255175451531532 -1.0273774091464758 0 -1.0273774091464758 4.8896223847503704 0 0 0 0 -5.2156405884952619 -1.9838746957520925 0 -1.9838746957520925 13.168457472205773 0 0 0 0 -2.915426372128195 3.4915295369490309 0 3.4915295369490309 20.95642088203715 0 0 0 0 1.5214704929017984 -2.4396916270558293 0 -2.4396916270558293 14.858366967300185 0 0 0 0 -3.0296211655890373 -1.0673834951257581 0 -1.0673834951257581 13.445295080182738 0 0 0 0 0.32136829835167191 2.912498783597016 0 2.912498783597016 11.41943817557943 0 0 0 0 -4.9806360674715506 -0.90137271010945597 0 -0.90137271010945597 15.581229186557152 0 0 0 0 -1.7757625676930877 -2.8271485799103471 0 -2.8271485799103471 10.352220130273144 0 0 0 0 2.6991199270869402 4.1571882077755618 0 4.1571882077755618 13.600390516197308 0 0 0 0 -1.3289862918640498 -1.3133050343887402 0 -1.3133050343887402 4.6660066318675577 0 0 0 0 44.858081184992102 82.975555958961365 0 82.975555958961365 25.134246781530919 0 0 0 0 12.299511222303408 -2.5503278641008365 0 -2.5503278641008365 -34.856611101814224 0 0 0 0 -11.145285814279674 5.3739304511120736 0 5.3739304511120736 24.612655273569317 0 0 0 0 -0.13421138154126311 16.300427415222089 0 16.300427415222089 17.032520129592058 0 0 0 0 -2.4071752733700862 -2.6856118278794838 0 -2.6856118278794838 14.987091703195347 0 0 0 0 -8.4908253830809599 -3.7527091268631807 0 -3.7527091268631807 25.204097038295458 0 0 0 0 -2.6836451234877359 -21.705279914492849 0 -21.705279914492849 58.671050853730037 0 0 0 0 -0.5754835258469484 -17.470073297378576 0 -17.470073297378576 22.512585547313506 0 0 0 0 29.8906734831682 -0.5467321654110151 0 -0.5467321654110151 -38.707905279263741 0 0 0 0 30.122095759968033 -25.002664037735144 0 -25.002664037735144 19.089061980005681 0 0 0 0 0.017108575057298903 -0.11809076304214949 0 -0.11809076304214949 0.99296386177355522 0 0 0 0 -24.818706297717426 -7.0608991829452634 0 -7.0608991829452634 13.773191828424387 0 0 0 0 -32.221167536311725 2.1473930710376408 0 2.1473930710376408 160.65306046333399 0 0 0 0 -7.7891536799988614 -1.703637930814665 0 -1.703637930814665 16.06411152812143 0 0 0 0 -1.6788727143784214 5.3939393421754538 0 5.3939393421754538 16.30867364679807 0 0 0 0 12.458221493780542 -6.3447444812958338 0 -6.3447444812958338 3.7543777048817901 0 0 0 0 -1.5390559965188686 -3.2390564288348287 0 -3.2390564288348287 4.1637606843378308 0 0 0 0 -0.9635876649723869 2.5204302101124654 0 2.5204302101124654 14.391289279106786 0 0 0 0 -0.38207541806181911 -0.83845799675436505 0 -0.83845799675436505 0.63784529841645199 0 0 0 0 -8.97807196219361 -14.631481478248531 0 -14.631481478248531 14.740120104661401 0 0 0 0 -9.0292654333830455 -6.0971459459575499 0 -6.0971459459575499 9.8066170677429909 0 0 0 0 0.1302966615853533 0.2104833222869677 0 0.2104833222869677 7.3094244226308955 0 0 0 0 -1.221209873091027 -2.6226532498390043 0 -2.6226532498390043 7.3739428390981629 0 0 0 0 -11.909729985916101 10.247591854385064 0 10.247591854385064 10.831329710437785 0 0 0 0 -3.8665503142776174 2.7428279482965081 0 2.7428279482965081 1.0903827355207341 0 0 0 0 -0.39327338987020288 0.62715189637229107 0 0.62715189637229107 8.0420415736003914 0 0 0 0 2.1288911999741913 -0.48035633100039377 0 -0.48035633100039377 6.0329391103559828 0 0 0 0 -3.3841873105313596 3.3450544677320977 0 3.3450544677320977 9.6987565680610714 0 0 0 0 3.030711419038596 -0.071816265583947825 0 -0.071816265583947825 4.3050341832736194 0 0 0 0 3.037408454680758 2.4052008214412126 0 2.4052008214412126 9.9900182810101796 0 0 0 0 -0.30810004213560083 1.1183831991959297 0 1.1183831991959297 2.682434453289936 0 0 0 0 0.37601727881138425 2.2316500156883814 0 2.2316500156883814 8.2065489890595344 0 0 0 0 3.2590656717635511 2.0800902311289065 0 2.0800902311289065 5.3740319015598743 0 0 0 0 -1.3331375228474371 3.3437995520434924 0 3.3437995520434924 13.568897598005151 0 0 0 0 3.1435524401162454 1.3119033962169908 0 1.3119033962169908 4.9156963870591426 0 0 0 0 -3.1523621726508964 -7.5661102947960899 0 -7.5661102947960899 14.959252403547907 0 0 0 0 -9.1871520039838401 1.1731964802163475 0 1.1731964802163475 11.169622796298427 0 0 0 0 -1.5055587052112287 2.0823652716326251 0 2.0823652716326251 16.083267602674823 0 0 0 0 3.0745493715023535 1.1537330380947424 0 1.1537330380947424 6.7534387819905533 0 0 0 0 -2.8960769154696315 -0.033381636700141826 0 -0.033381636700141826 13.987515485663607 0 0 0 0 -0.59587549414806495 0.64526101179577111 0 0.64526101179577111 8.4244772000183659 0 0 0 0 -22.096060981463893 19.262997110057768 0 19.262997110057768 3.4772755453823265 0 0 0 0 -0.1011590706437091 -0.44408335207589289 0 -0.44408335207589289 0.76104387318119393 0 0 0 0 -24.193339632284207 3.3406500226740263 0 3.3406500226740263 38.388886815024307 0 0 0 0 12.105114851885389 -18.353043684592649 0 -18.353043684592649 13.847213342243776 0 0 0 0 -0.05727771711972969 1.0538148464670116 0 1.0538148464670116 0.27807845542850629 0 0 0 0 2.877517917377773 6.2628118551983789 0 6.2628118551983789 -4.4384551212997394 0 0 0 0 -0.88627609615286929 1.3821637075616309 0 1.3821637075616309 8.0283135390318421 0 0 0 0 -0.88518491309378078 1.0982398630471835 0 1.0982398630471835 6.9412532777419074 0 0 0 0 0.35082307328572238 1.4707537369200221 0 1.4707537369200221 5.4394453444839712 0 0 0 0 -1.094705381902825 1.4740810663243913 0 1.4740810663243913 6.8038690243966915 0 0 0 0 -15.793937831581502 14.927725344456121 0 14.927725344456121 25.440962203760137 0 0 0 0 -16.185174809429213 13.427906802960933 0 13.427906802960933 43.343027134142176 0 0 0 0 -18.299655041933477 -20.08061045148861 0 -20.08061045148861 25.186687851459283 0 0 0 0 0.43639756475557767 -0.80079487579586939 0 -0.80079487579586939 2.7886341692454195 0 0 0 0 87.959899333296448 -52.640179554491624 0 -52.640179554491624 35.599777864543285 0 0 0 0 33.2323562119592 0.6669008395219862 0 0.6669008395219862 -6.3012286695120565 0 0 0 0 2.6985154009323651 -22.436326339402513 0 -22.436326339402513 22.736581894097981 0 0 0 0 -25.439302797629296 -7.0617162274866132 0 -7.0617162274866132 15.131431850193621 0 0 0 0 23.886114437188496 25.555591431302673 0 25.555591431302673 48.937707043416594 0 0 0 0 17.54731098432265 -16.164590131203568 0 -16.164590131203568 6.21026862234703 0 0 0 0 42.385036002005904 122.02675470756549 0 122.02675470756549 -8.6773388879962567 0 0 0 0 0.78672777900282065 -0.95790929236213751 0 -0.95790929236213751 0.41099720868984946 0 0 0 0 -0.76592932220819421 20.479117785560447 0 20.479117785560447 -21.927577563834348 0 0 0 0 -11.345855485080165 -4.1605120160038496 0 -4.1605120160038496 15.342886256215934 0 0 0 0 -11.07786220793912 -7.7051940859246315 0 -7.7051940859246315 43.951488772709126 0 0 0 0 31.423501197912174 -8.0692309613987163 0 -8.0692309613987163 -1.8425271588821488 0 0 0 0 20.76469837614718 -2.1647367332498106 0 -2.1647367332498106 -3.3601530837045175 0 0 0 0 10.208045350915654 -11.55406012986623 0 -11.55406012986623 4.2643443062843289 0 0 0 0 11.991290889849097 -13.082958045426494 0 -13.082958045426494 2.0535773510432591 0 0 0 0 30.348916827131916 -14.772182867180163 0 -14.772182867180163 2.1930755695416337 0 0 0 0 7.0886648890266315 -21.756205024516021 0 -21.756205024516021 14.359980249686487 0 0 0 0 25.251711560954504 -8.3865891821860714 0 -8.3865891821860714 6.0782583100226475 0 0 0 0 37.715724823449818 -12.683895582336845 0 -12.683895582336845 6.3715766078007618 0 0 0 0 -5.6762596901008919 44.28139529019063 0 44.28139529019063 86.828225485111034 0 0 0 0 0.14725524780099752 -0.61985511512061109 0 -0.61985511512061109 0.96288672658658214 0 0 0 0 25.024873174912386 -18.58129739798278 0 -18.58129739798278 5.9010549963004451 0 0 0 0 24.136198650244296 -12.195053289295174 0 -12.195053289295174 -12.570761192213467 0 0 0 0 28.049845010257286 -1.8295108224156138 0 -1.8295108224156138 -6.5032168671532418 0 0 0 0 23.087821408438003 2.5473121945287858 0 2.5473121945287858 -27.859540908641065 0 0 0 0 25.795558705839142 -2.9659924260631669 0 -2.9659924260631669 -7.0679835941919009 0 0 0 0 25.78852456864945 -3.5355398693850475 0 -3.5355398693850475 -15.550414475495927 0 0 0 0 23.90427182522285 11.314105180255865 0 11.314105180255865 -23.902219364847042 0 0 0 0 29.924473317739967 -2.1352531310785707 0 -2.1352531310785707 -8.1686420469231962 0 0 0 0 28.459599623821987 -3.2856468134050374 0 -3.2856468134050374 -8.986426371622656 0 0 0 0 25.35191764182423 4.0806532101105404 0 4.0806532101105404 -9.1133703931116088 0 0 0 0 25.640079375789128 1.8420490418166082 0 1.8420490418166082 -2.5318859578110278 0 0 0 0 13.998692139337209 4.0779202106878074 0 4.0779202106878074 5.7838836359119341 0 0 0 0 17.501075136868508 4.0591270185268513 0 4.0591270185268513 -2.4649006488725718 0 0 0 0 0.54201285771514551 -0.1998741842039049 0 -0.1998741842039049 -0.14307703832711205 0 0 0 0 21.20732370593737 9.276629999259967 0 9.276629999259967 4.8793993107028655 0 0 0 0 25.99850650818064 13.080232540263751 0 13.080232540263751 -4.728256806347872 0 0 0 0 14.91729466494985 4.0737709715831443 0 4.0737709715831443 -6.5497503844017047 0 0 0 0 25.58912983566654 4.6617239727165725 0 4.6617239727165725 -7.7025268403522205 0 0 0 0 5.6508808010098619 -0.19813104890818067 0 -0.19813104890818067 4.0200948223703108 0 0 0 0 23.146989278198134 -6.1015603862579155 0 -6.1015603862579155 1.0958297808174393 0 0 0 0 18.493048592996047 1.3763075399292575 0 1.3763075399292575 3.6138928008867879 0 0 0 0 9.2995327207997889 -5.0469044454312098 0 -5.0469044454312098 1.0199252555757994 0 0 0 0 5.753692773717944 -12.868729594241813 0 -12.868729594241813 4.254058156064275 0 0 0 0 10.886672063648575 -7.7989219302589845 0 -7.7989219302589845 5.7887850625265855 0 0 0 0 1.4932520402091995 -6.8765957923915266 0 -6.8765957923915266 5.7082653753029717 0 0 0 0 2.659451111510748 -9.0645070466280231 0 -9.0645070466280231 9.5723862929007737 0 0 0 0 61.355053839448885 -64.52117999732809 0 -64.52117999732809 45.111865688342732 0 0 0 0 -44.153582722546389 7.2132452341620592 0 7.2132452341620592 101.1234511785533 0 0 0 0 13.032864212436152 -17.971501890929176 0 -17.971501890929176 9.6950867165928685 0 0 0 0 -4.9434138362051954 10.807605236218478 0 10.807605236218478 40.541511233617143 0 0 0 0 -0.041809847035665371 14.289603718830676 0 14.289603718830676 5.9552809501547017 0 0 0 0 -3.821257861391814 6.146430152944049 0 6.146430152944049 7.7072080116413417 0 0 0 0 39.365129193045618 -55.460572956536907 0 -55.460572956536907 50.31025962496642 0 0 0 0 1.5551982458796374 5.4999414513749798 0 5.4999414513749798 -3.6686101648797376 0 0 0 0 5.2883591712227371 16.775636615804615 0 16.775636615804615 5.9349361797940219 0 0 0 0 0.39372918396962175 0.41417174096927667 0 0.41417174096927667 0.45084546222914312 0 0 0 0 21.805796733784177 -11.909658755238866 0 -11.909658755238866 19.449256863003029 0 0 0 0 -1.3584835524306982 -16.300367052094771 0 -16.300367052094771 33.088145633329987 0 0 0 0 -1.3416075371201259 -3.1319652283750656 0 -3.1319652283750656 21.210330409214293 0 0 0 0 -3.6509502480955689 -3.9405108675473457 0 -3.9405108675473457 23.022270809917245 0 0 0 0 -3.4679474254747902 -1.9980172405116718 0 -1.9980172405116718 20.618272757084924 0 0 0 0 0.24924717141982544 -0.11772293997075423 0 -0.11772293997075423 -0.05987834930174607 0 0 0 0 -20.791938917856896 1.4257123351690097 0 1.4257123351690097 18.94760920330782 0 0 0 0 0.65270901717531427 -0.096212136733241138 0 -0.096212136733241138 -0.087728258895369393 0 0 0 0 -2.8456523284553441 -12.92006313733873 0 -12.92006313733873 14.707574370815564 0 0 0 0 11.59817689709223 12.162589463799577 0 12.162589463799577 2.7733808667890116 0 0 0 0 -17.301534419110567 -4.0641553784166717 0 -4.0641553784166717 4.2159021468432911 0 0 0 0 -5.4960728197615936 -3.0369714306470996 0 -3.0369714306470996 22.586575787912807 0 0 0 0 -11.170642621558272 6.1828106598741215 0 6.1828106598741215 15.37497282361619 0 0 0 0 -10.019113473222319 4.7718364909078446 0 4.7718364909078446 -5.2849021367201203 0 0 0 0 -31.206810987756626 20.025193250235134 0 20.025193250235134 19.42536909724322 0 0 0 0 2.4164333484193037 -6.3085870515026272 0 -6.3085870515026272 1.7158291994619503 0 0 0 0 1.2933911166555969 3.5792979933068487 0 3.5792979933068487 6.8950367617194637 0 0 0 0 3.110442235933192 11.818644378059616 0 11.818644378059616 3.639950183869928 0 0 0 0 -3.3856986413679095 -0.97266591024254012 0 -0.97266591024254012 13.538487833524414 0 0 0 0 0.85050305706482598 2.7283505683687697 0 2.7283505683687697 4.7104811560822668 0 0 0 0 -3.2198098476487758 -3.2826078385760411 0 -3.2826078385760411 0.91826674911135342 0 0 0 0 -37.921954395646253 25.624656002011761 0 25.624656002011761 0.047965097278620306 0 0 0 0 1.0072470001537874 2.5156922125578225 0 2.5156922125578225 5.7286314207462432 0 0 0 0 1.0966989773390803 2.2633665255733932 0 2.2633665255733932 3.3257128714012367 0 0 0 0 0.25375066454603257 9.3756257274080781 0 9.3756257274080781 2.2534430382244182 0 0 0 0 0.85021826975762815 2.6191206246860119 0 2.6191206246860119 5.9402979279522867 0 0 0 0 6.679441358355632 -6.2374590098525005 0 -6.2374590098525005 11.47981717129278 0 0 0 0 -2.2109704360320848 -14.949831444104348 0 -14.949831444104348 9.1726908374221239 0 0 0 0 0.29514332896343376 -11.011205507490104 0 -11.011205507490104 3.5157648671920469 0 0 0 0 -10.341574047455651 -5.4562367862454266 0 -5.4562367862454266 5.3157962142540782 0 0 0 0 -0.67941741829986313 -11.87366783312973 0 -11.87366783312973 7.9959922330581321 0 0 0 0 -26.284117838882253 2.2251549885036184 0 2.2251549885036184 4.1493381103264255 0 0 0 0 -1.2807150566410428 8.382390735410354 0 8.382390735410354 1.4469850800114727 0 0 0 0 -59.788710428608738 25.050089000149455 0 25.050089000149455 7.4728500996270668 0 0 0 0 -25.836673089338319 15.179833123983371 0 15.179833123983371 -6.7714223532393589 0 0 0 0 -28.964199557632213 -10.57351934947917 0 -10.57351934947917 15.132882400346716 0 0 0 0 -10.368867192958987 -16.679886912525035 0 -16.679886912525035 12.640680299778978 0 0 0 0 0.42741680991298381 -17.022832388379356 0 -17.022832388379356 8.532348526212445 0 0 0 0 -0.75897701747453539 -11.603337351580194 0 -11.603337351580194 8.2241946037903517 0 0 0 0 -3.9983112059493351 -24.729009572753512 0 -24.729009572753512 28.415300189913978 0 0 0 0 -63.93832092186085 35.744454770383527 0 35.744454770383527 12.206145592346729 0 0 0 0 -48.755816575909193 -8.5602377137665826 0 -8.5602377137665826 24.50225990031322 0 0 0 0 -26.096694985722252 -1.0539478262726334 0 -1.0539478262726334 15.052770164197909 0 0 0 0 -49.487433210498921 24.657129348264789 0 24.657129348264789 -7.6093671304588497 0 0 0 0 -1.8673452709717893 -0.62694497356027235 0 -0.62694497356027235 2.6820924580490839 0 0 0 0 -115.80470970303941 51.326743393939978 0 51.326743393939978 -8.423711870036982 0 0 0 0 -54.442550772140521 35.012963844771548 0 35.012963844771548 -20.496645652965526 0 0 0 0 1.5056826076770395 3.9393470380969262 0 3.9393470380969262 7.8487236686044639 0 0 0 0 -117.2165302230851 60.363125495869099 0 60.363125495869099 11.78088126941293 0 0 0 0 10.069537775748188 -2.3635615855355354 0 -2.3635615855355354 20.891488406427015 0 0 0 0 -110.50196285514266 60.70080691685871 0 60.70080691685871 -15.84996342755403 0 0 0 0 -22.681502841709062 54.779965587036713 0 54.779965587036713 -38.793922266164373 0 0 0 0 -36.835406044793615 8.3900252751627704 0 8.3900252751627704 85.441653860512815 0 0 0 0 -31.619044368606978 6.1113998325413377 0 6.1113998325413377 1.0157521696055483 0 0 0 0 -93.181068132511427 16.377475514638718 0 16.377475514638718 24.305309194141955 0 0 0 0 14.661519436946605 -9.6334070016400801 0 -9.6334070016400801 19.876495335941399 0 0 0 0 5.8808953663209422 -9.1590524231669406 0 -9.1590524231669406 20.595973006997156 0 0 0 0 18.300777022736042 -10.587691422452735 0 -10.587691422452735 15.685677296579684 0 0 0 0 9.1956871791346657 0.39328838153687684 0 0.39328838153687684 14.511067063165683 0 0 0 0 11.234239431314222 -11.633669936028127 0 -11.633669936028127 33.666264820152719 0 0 0 0 17.603635686325788 -17.114418856648626 0 -17.114418856648626 31.07834120987809 0 0 0 0 7.1306772751776748 -21.783716809312864 0 -21.783716809312864 62.544599486647712 0 0 0 0 5.2989667104790783 -12.996223008401103 0 -12.996223008401103 35.921077833696472 0 0 0 0 5.9178533945404297 -6.6409469032623747 0 -6.6409469032623747 38.790043634580798 0 0 0 0 -7.9039894586090327 -28.613119463507701 0 -28.613119463507701 100.71396465779526 0 0 0 0 -0.26860598525626145 0.10326235178841614 0 0.10326235178841614 0.15164777895677872 0 0 0 0 12.653083294657904 -25.606006335352504 0 -25.606006335352504 60.818300114969134 0 0 0 0 9.2414383041438413 -19.912646120371846 0 -19.912646120371846 75.953516805238905 0 0 0 0 19.893260741183383 -34.860139896426517 0 -34.860139896426517 56.861595876694992 0 0 0 0 -3.572748792969378 0.427986936416346 0 0.427986936416346 2.2435779882252973 0 0 0 0 -0.6340864951874825 0.20851392693307602 0 0.20851392693307602 0.66935395999971803 0 0 0 0 -6.3024906679629566 -1.1016400399121267 0 -1.1016400399121267 2.7166309891672427 0 0 0 0 1.0075404583267868 -16.739571103744311 0 -16.739571103744311 74.804762448546171 0 0 0 0 -17.018019776208149 9.7533865904542836 0 9.7533865904542836 -5.5554210679165408 0 0 0 0 -6.1493452355103955 -0.089922236405982403 0 -0.089922236405982403 3.3371676317424317 0 0 0 0 32.052244293378934 15.298049663696247 0 15.298049663696247 61.984976819865551 0 0 0 0 1.04489027744495 2.620548086993626 0 2.620548086993626 5.6643447348348488 0 0 0 0 -91.241276921025246 82.651934079874991 0 82.651934079874991 -12.641333530132215 0 0 0 0 26.204962732305717 -21.756866343441288 0 -21.756866343441288 14.280411538513818 0 0 0 0 47.646000450365989 -56.338399062873577 0 -56.338399062873577 58.50539556030526 0 0 0 0 -5.6887203405736955 -13.6347454290526 0 -13.6347454290526 135.46096115663204 0 0 0 0 -0.15982029869910164 -0.27297856211710325 0 -0.27297856211710325 0.36204398695128504 0 0 0 0 86.592301092063337 -83.064474724336833 0 -83.064474724336833 60.333413313612255 0 0 0 0 89.128025265726478 -134.3088166246871 0 -134.3088166246871 109.6760426794026 0 0 0 0 26.804975261919253 -19.877137641668014 0 -19.877137641668014 31.551887489396904 0 0 0 0 33.360290495139679 -82.902258460449957 0 -82.902258460449957 97.706241358629995 0 0 0 0 0.58691107384245977 1.0086751513708077 0 1.0086751513708077 1.9651469731054121 0 0 0 0 -27.086828181352757 73.297378343577293 0 73.297378343577293 -16.001469116919907 0 0 0 0 -27.001619260452458 77.505114178222357 0 77.505114178222357 20.956335822171241 0 0 0 0 -21.51730115630042 59.6278667022641 0 59.6278667022641 -15.029689305134525 0 0 0 0 -21.308365249431802 56.808981382540424 0 56.808981382540424 22.85570110068511 0 0 0 0 -18.365990683107384 44.833374768510112 0 44.833374768510112 -4.0552164410601108 0 0 0 0 -7.4641210343426962 25.30490056748431 0 25.30490056748431 8.1363785934372572 0 0 0 0 -19.218234853636886 38.130436261855721 0 38.130436261855721 -56.161053236903172 0 0 0 0 -59.217801733940462 5.7832204060741788 0 5.7832204060741788 -21.614720298308384 0 0 0 0 -9.4386618141726331 41.557229488227676 0 41.557229488227676 -20.157737635832746 0 0 0 0 10.163203317531043 16.47308629256986 0 16.47308629256986 -24.388506500768244 0 0 0 0 40.48695699793825 17.249891585994192 0 17.249891585994192 -20.08521084941458 0 0 0 0 -32.128260195511132 29.765490223833694 0 29.765490223833694 -11.54695647122935 0 0 0 0 18.263393714944058 -10.481611262586284 0 -10.481611262586284 8.8190876290063898 0 0 0 0 21.214190877211962 -4.2233032461936091 0 -4.2233032461936091 12.661848836536592 0 0 0 0 17.647817160745944 -16.709959463735686 0 -16.709959463735686 7.6200640162514901 0 0 0 0 11.858545903291798 2.7451980613150226 0 2.7451980613150226 -0.65270807802153286 0 0 0 0 9.5366938263074434 0.97968220669099537 0 0.97968220669099537 -1.5682072035160672 0 0 0 0 -8.4336347412645409 22.309362905984017 0 22.309362905984017 2.9950011141672803 0 0 0 0 -17.473442445927049 -3.7862186360455325 0 -3.7862186360455325 32.560492833411899 0 0 0 0 -26.709580829116021 16.801936906442279 0 16.801936906442279 39.295974818847526 0 0 0 0 -7.3533273337626497 -4.89384377751594 0 -4.89384377751594 36.981958274587669 0 0 0 0 -12.698111990244229 23.750917092442251 0 23.750917092442251 15.669913193563843 0 0 0 0 -14.34218133247839 19.897706275038217 0 19.897706275038217 9.3083647638231923 0 0 0 0 -37.242381910568724 44.364136652420711 0 44.364136652420711 13.232443881034214 0 0 0 0 -60.896803818780882 27.313958518030631 0 27.313958518030631 37.503557385960448 0 0 0 0 -52.373779257209264 56.248992213419115 0 56.248992213419115 29.066914619204908 0 0 0 0 -0.99845745259231289 -2.0863963140383888 0 -2.0863963140383888 16.795890757911554 0 0 0 0 -9.4219925339868951 -13.837987042320947 0 -13.837987042320947 23.263291196025193 0 0 0 0 -14.461762470606232 -1.46496796173858 0 -1.46496796173858 30.206856690769655 0 0 0 0 -0.28445759817245175 -17.630235912706667 0 -17.630235912706667 47.359539144436894 0 0 0 0 0.086455034071207137 -17.036044234520432 0 -17.036044234520432 35.275982189775732 0 0 0 0 -1.970292047773782 -22.296350037509455 0 -22.296350037509455 37.194965621378742 0 0 0 0 -9.337127272100247 -13.305195307970962 0 -13.305195307970962 26.249651913823072 0 0 0 0 4.1152902422126729 -18.489121533979414 0 -18.489121533979414 23.473801819717664 0 0 0 0 14.511447142918996 -31.96074873109319 0 -31.96074873109319 40.916766727296363 0 0 0 0 16.131737966849467 -23.227737121208861 0 -23.227737121208861 19.935348209730364 0 0 0 0 5.3207916975851788 -13.458589493782256 0 -13.458589493782256 11.51264101374727 0 0 0 0 3.0212383465031394 -18.320841086943346 0 -18.320841086943346 22.567181329171945 0 0 0 0 7.6183972637109569 -11.77163204277025 0 -11.77163204277025 12.579069487231209 0 0 0 0 -14.703033504787754 -13.76891394470772 0 -13.76891394470772 25.194633051485198 0 0 0 0 -7.3915487196921958 -9.8189777337354371 0 -9.8189777337354371 16.92808308245867 0 0 0 0 0.25101361255833854 -4.3738083963419374 0 -4.3738083963419374 24.485653905810043 0 0 0 0 -0.91914710839341751 -6.8007582589634694 0 -6.8007582589634694 14.819538201549676 0 0 0 0 1.4216717433290285 -8.9898977691241271 0 -8.9898977691241271 16.721950043380502 0 0 0 0 0.39113848350584596 -3.1560132088276935 0 -3.1560132088276935 17.317030945567922 0 0 0 0 0.071983197221797468 -5.983730357942477 0 -5.983730357942477 27.548851895680855 0 0 0 0 1.4931919254728427 -7.847683608137686 0 -7.847683608137686 10.073487137075972 0 0 0 0 0.49625935954600919 -5.1792899933228682 0 -5.1792899933228682 13.785564415265981 0 0 0 0 -0.23976698148027253 -3.9927793938743434 0 -3.9927793938743434 19.737264210191825 0 0 0 0 -0.2195421540690603 -2.633172978168659 0 -2.633172978168659 11.363215611778287 0 0 0 0 0.049582261985374965 -5.2815548623464181 0 -5.2815548623464181 5.7900042201146658 0 0 0 0 2.6126253643684549 -3.7898030821907014 0 -3.7898030821907014 16.77824908607181 0 0 0 0 116.13414649045586 39.842464581132845 0 39.842464581132845 -18.234879256604472 0 0 0 0 -70.135970780378443 -17.205796896409993 0 -17.205796896409993 127.95769384225787 0 0 0 0 -7.2722109824410381 -21.324352998986797 0 -21.324352998986797 21.382071551502122 0 0 0 0 0.58541787411112445 -0.91142741701244923 0 -0.91142741701244923 3.210198804726069 0 0 0 0 24.113325169394102 -19.806866919925596 0 -19.806866919925596 38.963973728634301 0 0 0 0 0.39968099664416568 -0.48083225620804981 0 -0.48083225620804981 0.37025990261391151 0 0 0 0 33.997500501310228 0.3855436364117395 0 0.3855436364117395 34.713418876868673 0 0 0 0 18.744461159657476 -7.0816462203911215 0 -7.0816462203911215 62.436880652530817 0 0 0 0 36.159560656545182 -19.667199313302262 0 -19.667199313302262 12.309373515048264 0 0 0 0 54.879508956124937 -11.485449326084563 0 -11.485449326084563 23.947106414419977 0 0 0 0 49.103229696183007 33.908782628104746 0 33.908782628104746 58.469673746422131 0 0 0 0 61.72019330986781 -39.182394795105893 0 -39.182394795105893 26.516537018920644 0 0 0 0 78.346759802788256 48.641814772767248 0 48.641814772767248 4.8007465679183952 0 0 0 0 -35.212020925443852 25.405093526539986 0 25.405093526539986 7.2413665546082484 0 0 0 0 7.0494256437444278 -1.2539960995609363 0 -1.2539960995609363 8.1031205259550916 0 0 0 0 4.4329666065545439 -17.303854010586292 0 -17.303854010586292 80.905156016139699 0 0 0 0 8.0912178457465416 -16.021067550158477 0 -16.021067550158477 38.061889370606877 0 0 0 0 4.2544371492988091 -6.2438731270876815 0 -6.2438731270876815 20.871893525625637 0 0 0 0 0.61790477016222667 -2.6906333624210674 0 -2.6906333624210674 29.573617351343273 0 0 0 0 
</DataArray>
<DataArray type="Float64" Name="cross_section_updated" format="ascii">
1 1 1 1 1 0.010063834958288843 1 1 1 1 0.010038683014510089 1 1 0.010161731032625283 1 1 0.010063627613198381 1 1 0.010355669411243714 0.0099994352139818575 1 1 1 1 1 1 1 1 1 1 0.010353660233091687 1 1 0.011468845406454969 1 1 1 1 1 1 1 0.0099919880790338526 0.010657555684946123 1 1 1 1 1 0.010822531782007766 1 1 1 1 0.0099056408247690051 0.010933940690674198 1 1 1 1 1 0.0099737505821047914 1 1 0.010008926095121809 1 1 1 1 0.01000987827755391 1 1 1 0.010682402042049122 1 1 1 1 1 1 1 1 1 1 1 1 1 1 1 1 1 1 1 1 0.010064512399834552 1 1 1 1 1 1 1 0.01018113429569845 1 1 1 1 1 1 1 1 1 1 1 1 0.010029081388143221 1 1 1 1 1 1 1 1 1 1 1 1 1 1 1 1 1 0.01017348564305183 1 1 0.010275194172700321 1 0.0098786574134925725 1 1 1 1 0.0099886334235756505 1 1 1 1 1 1 1 1 1 1 1 1 1 1 0.010001130697165616 1 1 1 1 1 1 1 1 1 1 1 1 1 1 1 1 0.010076293186622877 1 1 1 1 1 0.010152027642883144 1 1 1 1 0.010075734456260272 1 1 1 1 1 1 1 1 0.010068270262982442 1 1 0.010352719305769659 1 1 1 1 0.01014318924874795 1 1 1 1 1 1 1 1 1 1 1 1 1 1 1 1 1 1 1 1 1 1 1 1 0.009952859788573961 1 1 1 1 1 1 1 1 1 1 1 1 1 1 1 1 1 1 1 1 1 1 1 1 1 1 0.0099356275510925993 1 0.010188909212517562 1 1 1 1 0.010065187482860805 1 1 1 1 1 0.0099368954146193244 1 1 1 1 1 1 0.0097847592927133055 1 1 0.010028780532827426 0.0101528592631712 1 1 0.0098672793972948009 1 1 1 1 0.010048860904924732 1 1 0.010048805608499059 1 1 1 1 0.010020025075671637 1 1 1 1 0.010814102505040189 1 1 1 1 0.010463629498243421 1 1 0.010248549128402378 1 1 1 0.01104392331850189 1 0.0099541032607252111 1 1 1 1 1 1 1 1 1 1 1 0.0099882115184589497 1 1 0.010140307667253486 1 1 0.0099983130021707427 0.0099996566634547399 1 1 1 0.0099519776827853117 1 0.010070931131693462 1 1 1 1 1 0.010062509205944623 1 0.010114234544838322 1 1 1 1 1 1 1 1 1 1 1 1 0.010011325293545564 1 0.009712625682307555 1 1 0.010741170755031205 0.0099895874101578099 1 1 1 1 1 1 0.010494808821355603 1 0.010004986191703638 1 1 1 1 0.010002082879597717 1 1 1 1 1 1 1 1 1 1 1 1 1 1 1 1 1 1 1 1 1 1 1 1 1 1 1 1 1 1 1 1 1 1 1 1 0.010415814316317631 1 1 1 1 1 1 1 0.010024194716379879 1 1 1 0.010007083662429209 1 1 1 0.010019037308324309 1 1 1 1 1 1 1 1 1 1 1 0.01000100476053079 1 0.010000838779813717 1 1 1 1 1 1 1 1 1 1 1 1 1 0.010030214238579072 1 1 0.010048953291134262 1 1 1 1 1 1 1 1 1 1 1 1 1 1 1 1 1 1 1 1 1 1 1 1 1 1 1 1 0.010072617851504134 0.0099950990023176776 1 1 1 1 1 1 1 1 1 1 1 1 1 1 1 1 1 1 1 1 0.010434691289164523 1 1 0.010034822311786653 1 1 1 0.010371255963881533 1 0.010109421978941723 1 0.010215014285556141 0.010005493300016726 1 1 1 1 1 1 1 1 0.010002312305704742 1 1 1 1 1 1 1 1 1 1 1 1 1 1 1 1 1 1 1 1 0.010007897043003439 1 1 1 1 1 1 1 1 0.010140121208232185 0.010114889505025787 1 1 1 1 1 1 1 1 0.010117170199285201 1 1 1 1 0.010166301779234442 0.010156262432160593 1 1 0.010113530711900853 1 1 1 0.010115370712816783 1 1 1 1 0.01020157781045861 0.010168033926583629 1 1 0.010067651174793496 1 0.01017892410793381 0.010113894277696522 1 1 1 1 0.010098774546034455 1 0.010111451705909633 1 0.010141342067846438 1 1 0.010120978605569384 1 0.010120812590904317 1 1 1 0.010127664262858754 1 0.010279279420921161 1 1 1 1 1 1 1 1 0.010000877538917891 1 1 1 1 1 1 1 1 0.010020404718023986 1 1 0.01017812228732419 1 1 0.010061439492984828 1 0.010040545987677625 1 1 1 1 0.010020980049467351 1 1 1 1 1 1 1 1 1 1 1 1 1 1 1 1 1 1 1 1 1 1 1 0.011168171422859252 0.0099927227336741517 1 1 0.01112484342649262 1 0.0093355226594640274 1 1 1 1 0.0095840939425217465 1 1 1 1 1 1 1 1 1 0.011145738863272385 1 1 1 0.010335001675542471 1 1 0.010117595910952192 1 1 1 1 1 1 1 1 1 1 1 0.010133930475305655 1 0.01108946108096435 1 1 1 0.010902063717641051 1 1 1 1 1 1 1 1 1 1 1 0.010347387008636206 1 1 1 1 1 1 0.010106622388128799 1 1 1 1 1 0.010078842693152215 0.010005694287152299 0.010003411385562988 1 1 1 0.010048060021106205 1 0.010059171367545037 1 1 1 1 1 1 1 1 1 1 1 1 1 1 1 1 1 1 0.0099855826911756998 1 1 0.01069841521429476 1 1 1 0.010758101872251524 1 1 0.010001510430140425 1 1 1 0.010257561337341323 1 1 1 0.010241706623948929 1 1 0.010103876683111093 1 0.010180524642163886 1 1 1 1 0.010015871453459335 1 1 1 1 0.010186697736082545 1 1 1 1 1 1 0.010143168606174448 1 1 1 1 0.010235434766930371 1 1 1 0.010344623081753216 0.010441235690683857 1 0.01014663151050646 1 1 1 1 0.010456215021840833 0.010279610920847617 1 0.010396137917700492 0.01054234334886822 1 1 0.010525849369813194 1 1 1 1 0.0099969875553378718 1 1 1 1 1 1 0.01022232347307532 0.010786864573384011 0.010826790411922388 1 0.010002863417450915 1 0.0099071564636788075 1 0.010684822121005501 1 0.010627699493271414 1 1 1 0.010160248547188357 1 1 1 0.0099965495093147019 1 1 1 1 1 1 0.010085829864412327 0.010089708995097209 1 0.0099841124456146544 1 0.010225923621164796 1 1 0.010002077439726462 0.010163371267033216 1 1 0.010879176670614298 1 1 1 1 1 1 1 1 1 1 1 1 1 1 0.010071601918629663 1 1 1 1 0.010490628652528771 1 1 1 1 1 0.010278446769452824 0.010299934953675267 1 0.0098526659311513991 1 0.010031783631651645 1 1 1 1 1 1 1 0.010850310743026108 0.010830128085762865 1 1 1 1 1 1 0.010857393402579626 1 1 1 1 1 1 1 0.01200570937407322 1 1 1 1 0.011995082608398374 1 1 0.0099586603574368937 1 1 1 1 1 1 1 1 1 1 1 1 1 1 0.012000530806454298 0.010202242226071837 1 1 1 1 1 1 1 1 0.010068250736286912 1 1 1 1 0.0099969888437242485 1 1 1 1 1 1 1 1 0.010592234800878026 1 1 1 1 1 1 1 1 1 0.010533207837433634 1 0.01014161319620862 1 1 1 1 1 1 0.010527958428158183 0.0099967807456863636 1 1 1 0.010162980269847958 1 1 1 1 1 1 1 0.010056981734191013 1 1 1 1 1 1 1 1 1 1 1 1 0.0099881340636120246 1 1 1 1 1 1 1 1 0.0099945091525517164 1 1 1 0.010004825712506257 1 1 1 1 1 1 0.010008603574488725 1 0.010010723154530556 1 1 1 1 0.0099986679522981441 1 1 1 0.010000304981554723 0.010051264881314028 1 1 1 0.010044702567529403 0.010000004477069835 0.0099999858208370922 1 1 1 1 1 0.0099954480416331194 1 1 1 0.010002463004803334 1 0.0099870267968825369 1 1 1 1 0.010004975493422386 1 1 0.0099994327369741995 1 1 1 0.010003176951210294 1 0.010000361042859443 0.010030430664047711 1 1 1 1 1 1 1 1 1 1 1 1 0.01000023886216392 1 1 1 1 1 1 0.010000238597936528 1 1 1 1 1 0.010020874214883967 1 1 1 1 1 1 1 1 0.010013056487614721 1 1 0.010039886888370696 1 1 1 1 0.010237466874717653 1 1 1 1 0.010008334556995185 1 1 0.0099705622307314952 0.0099997722968282535 1 1 1 1 0.010302062836473964 0.010054161082756682 1 1 1 0.010093971671429764 1 0.0099707385016213138 0.010027565084213132 1 0.010127202579412325 1 0.010022512770807845 1 1 1 1 0.010012110921933288 1 0.0099834872384805349 1 1 1 1 1 1 0.010011562088397416 1 0.010023779089430335 1 1 1 1 1 0.010663587247456292 1 1 1 1 1 1 1 1 1 1 1 1 1 1 1 0.011301546283188633 1 0.011189046235956238 1 1 0.01040307981167503 1 1 0.010000708595319213 1 1 1 0.010113655738335345 0.010851401087513474 1 1 1 1 0.010357672144398518 1 1 1 1 1 0.010855989985180904 1 1 0.010041295537924237 1 1 0.010053197699725186 1 1 1 0.0099931428465036658 0.0099933982452138307 0.010117709834519045 1 1 0.010033890917361097 0.010045105419246454 1 1 1 1 1 1 1 1 1 1 1 1 1 1 1 1 0.0098877283407601026 0.0099449448263088241 1 1 1 1 0.0098050091878780395 1 1 0.010114744172966759 0.010019949943476141 1 1 1 0.010000336444269592 1 1 1 1 1 1 1 1 1 1 1 1 1 1 1 0.010038697154100945 1 1 1 1 1 1 1 1 1 1 1 1 1 1 1 1 1 1 1 1 1 1 1 1 1 1 1 1 1 1 1 1 1 1 1 1 1 1 1 1 1 1 1 0.010102692124570139 1 1 1 0.011460792382509744 1 0.01003068679040911 1 1 1 0.011588567114009532 1 1 1 1 1 1 1 1 1 1 1 1 1 1 1 1 1 1 1 1 1 1 1 1 0.011361504528039541 1 1 1 1 1 1 1 1 1 1 1 1 1 1 1 0.010233382655447225 1 1 1 0.010635011170534997 1 0.010085353089509216 1 1 1 1 1 1 1 1 1 1 1 1 1 1 1 1 1 1 1 1 1 1 1 1 1 1 1 1 1 1 1 1 1 1 1 1 0.010478830529125138 1 0.010691278146062065 1 1 0.010496678492641976 1 1 0.010526637986953195 0.0098310357955635908 1 1 1 1 1 1 1 1 0.00994312352324217 1 1 1 1 1 1 1 1 0.0099744658149706206 1 1 1 0.011333717486778656 1 1 1 1 1 1 1 0.010071576608496478 1 1 1 1 1 1 0.010012146268359893 1 1 1 1 1 1 1 1 1 1 1 1 1 1 1 1 0.010015640270137323 1 1 1 1 1 1 1 1 1 1 1 1 1 1 1 1 1 1 1 1 1 0.010065352525497359 1 1 0.011351265384844969 1 1 1 1 1 1 1 1 1 1 1 1 1 1 1 1 1 1 1 1 0.01021595501056796 1 1 1 1 1 1 0.010697716197948379 1 1 1 1 1 1 1 1 1 1 1 1 1 1 1 1 1 0.0099755746484819011 1 1 0.0099313919960912211 1 0.010266711169658155 1 1 0.010504240446127439 1 0.009781148764885287 1 1 0.010875231794565997 1 1 0.010636878737544923 0.010062769628055756 1 0.010910876862805941 1 1 1 0.010059536745854449 1 1 1 0.010909918792235211 1 1 1 1 1 1 1 1 1 1 1 1 1 1 1 1 1 1 1 1 1 1 1 0.010013278473434152 0.011350071826935489 1 1 1 1 1 0.010279947884575022 1 1 1 1 1 1 0.011328831247343785 1 0.011360487781780667 1 1 1 1 1 1 1 1 1 0.011587658757163688 1 1 0.010651286256489242 0.011255073032903679 1 1 1 0.010453393812132774 1 1 1 1 1 1 1 1 1 1 1 1 1 1 1 1 1 0.01135251918456953 1 1 1 1 1 1 1 0.01008522909280124 1 1 1 1 0.011543555268975356 1 1 0.011608414243759585 1 1 1 1 1 1 1 0.010038623010155323 1 1 1 1 1 1 1 1 1 1 1 0.010112119054161461 1 1 1 1 1 1 1 1 1 0.010157217933191241 1 0.010187083945911604 1 0.0099450428510399636 1 1 1 1 1 1 1 1 0.010288398910916324 0.010003723173675075 1 1 1 0.010253085790493123 1 1 0.0099909230747262101 1 1 0.0099352255647201758 0.010210196462809386 1 0.010079235279245684 1 1 1 1 1 0.010014821465308438 1 1 1 1 1 1 1 1 0.0099377588545121326 0.010055328403672473 1 1 1 1 1 1 1 1 1 1 0.010026889751781353 1 1 1 1 1 1 0.010512313820742854 1 0.010076764310377791 1 0.010233793422106197 1 1 1 1 1 1 1 1 1 0.010007503097426087 1 1 0.010029766140200617 0.0099943407491334818 1 1 1 0.010019670534001256 0.010244886223602643 1 1 0.010154731248051559 1 1 1 0.010217812751860001 1 1 1 1 1 1 1 1 1 0.0098810888409670769 1 1 0.010022599364549334 1 1 0.0098982920697303304 1 1 1 1 1 1 1 1 0.010368797086659982 1 1 0.010705577897512933 0.0099998805016725031 0.010763829281836798 1 1 1 1 0.010754152597875532 0.010539331032205874 1 1 1 0.010661564306408491 1 1 0.010000297056624254 0.0099994188305000641 1 1 1 1 1 1 1 1 1 1 1 1 0.010096763134012945 1 1 1 0.0099191765261725587 1 0.010181691700237441 1 1 1 0.010001049951853136 1 1 1 1 1 1 1 1 0.010007717803757999 1 1 1 1 1 1 1 1 1 1 1 1 1 1 1 1 1 1 1 1 1 1 0.0099787530902328506 1 1 0.010094338969156715 1 1 1 1 1 1 0.010087306168899395 1 1 1 0.010036387373534225 1 1 1 1 0.010005025418122855 1 0.0099966450792326727 1 1 1 1 0.0099409724243413409 0.0098902841958351719 1 1 1 1 1 1 1 1 1 1 1 1 1 1 1 1 1 1 1 1 1 1 1 1 1 1 1 1 1 1 1 1 1 1 1 1 1 1 1 1 1 1 1 1 1 1 1 1 1 1 1 1 1 1 1 1 1 1 1 1 1 1 1 1 1 1 1 1 1 1 1 1 1 1 1 1 1 1 1 0.011950464422471175 0.011448081051601085 1 1 1 1 0.011380216560046796 1 1 1 1 1 0.012061810607060911 1 1 1 1 0.011281621181854868 1 0.012178281954727466 1 1 1 0.010907748697325597 1 1 1 0.0098142072658850762 1 1 1 1 1 1 1 1 1 1 1 1 1 1 1 1 1 0.0099441129365185552 1 1 0.010116622777298873 1 1 0.010082207019310681 1 1 1 1 1 1 1 1 1 0.010052215299457386 1 0.01293381413754442 1 0.010010077635252849 1 1 1 1 1 1 1 1 1 1 0.010132057165031454 1 1 0.012972769171206884 1 1 1 1 1 1 1 1 1 1 1 1 1 1 0.012910620586985531 1 1 0.012871756018625228 1 1 1 1 1 1 0.010000119603031463 1 0.01028266041876278 1 1 1 1 1 1 0.010119097844082266 1 1 1 1 1 1 0.010295619739711968 1 1 1 1 1 1 1 1 1 1 0.010018741298159859 1 1 1 0.010055960376149371 1 1 1 0.010037219077989512 1 1 1 1 1 1 1 1 1 1 1 1 1 1 1 1 1 1 1 1 1 1 1 1 1 1 1 1 1 1 1 1 1 1 1 1 1 1 1 1 1 1 1 1 1 1 1 1 0.010269519985016837 1 1 1 1 1 1 1 1 0.010098159990062062 1 1 1 1 1 0.01172705819330605 1 1 1 0.011635898240487063 0.010093881557756888 1 1 1 1 1 1 1 0.010245305499614681 1 1 1 1 0.010608820945334316 1 1 1 1 1 1 1 0.011113729983652433 1 1 1 0.010788394677558929 0.011381748013155618 1 0.010074909860914968 0.010084186296053704 1 1 1 1 1 0.01019419996323177 1 1 1 1 1 1 1 1 1 1 1 1 1 1 1 1 1 1 1 1 1 1 1 1 1 1 1 1 1 1 1 1 1 1 1 1 0.011087260313238883 1 1 1 1 1 1 1 1 0.010675393693239443 1 1 1 1 0.010001306540229812 1 0.009853591213512744 1 1 1 1 1 0.010244916755960232 1 1 1 0.010180877721273228 1 0.010044045001384035 1 1 1 1 1 1 1 1 1 1 1 1 1 1 1 1 1 1 1 1 1 1 1 1 1 1 0.01023713034683953 1 1 0.011424311892556934 1 1 1 1 1 1 1 1 1 1 1 1 1 1 0.010030911905334578 1 1 1 1 1 1 1 1 1 1 1 1 1 0.01000448961933316 1 1 1 1 0.011902616330884023 1 1 1 1 1 1 1 1 1 0.010001337194510242 1 1 1 0.011843860691395227 1 0.011833707987062739 1 1 1 1 1 1 0.011434542342040001 1 1 0.010393419580293932 1 1 1 1 1 1 1 1 0.010162444620958794 1 0.010182903568669931 1 1 1 1 1 1 1 1 1 0.010085285714308188 1 1 1 1 1 1 0.010500911759196385 1 1 1 0.011200951148272593 1 0.010077743083737276 1 1 1 1 1 1 1 1 1 1 1 1 1 1 1 1 1 1 1 1 1 1 1 0.0098628953662661615 1 1 1 1 1 1 1 0.0095660398991523413 1 1 1 1 1 0.010095208611469602 1 1 1 1 1 1 1 1 1 0.010128077778719909 1 1 1 1 1 1 1 1 1 1 1 1 1 1 1 1 0.010346551910704948 1 1 1 1 1 1 1 0.010443278591778517 1 1 0.010032387682668557 1 1 1 1 1 1 1 1 1 1 0.010017025369472981 1 1 1 1 1 1 1 1 1 1 1 1 0.010052619424625603 0.01006579602897328 1 1 1 1 1 1 1 1 1 1 1 0.010362502318045879 1 1 1 1 1 1 1 1 1 1 1 1 1 1 1 1 1 1 1 1 1 1 1 1 1 1 0.010269394671831425 1 1 0.010315517138297894 1 0.0093976202703478715 1 1 1 1 1 1 1 1 1 1 1 1 1 1 1 0.0096271454387363807 1 1 1 1 0.0099782011409797512 1 1 1 1 1 0.010585293964563949 1 1 0.0099166789326420278 0.0091971517797309072 1 1 1 0.01073993441649994 1 1 1 1 0.01029209847916996 1 1 1 1 1 1 1 1 1 1 1 1 1 1 1 1 1 1 1 1 1 1 1 1 1 1 1 1 1 1 0.010414720938923459 1 1 1 1 1 0.010331666550181733 1 1 1 1 1 1 1 1 1 0.010207826013920089 1 1 1 1 1 1 1 1 1 1 1 1 1 1 1 1 1 1 1 1 1 1 1 1 1 1 1 1 1 0.0099743732920672713 0.010706343590826293 1 1 1 1 0.010008743314255192 1 1 1 1 1 1 1 1 1 1 1 1 1 1 0.010278409928899794 1 1 1 1 1 1 1 1 1 1 1 1 1 1 1 0.0097542969182161429 1 1 0.0099053372189702171 1 1 1 1 1 1 1 1 1 1 1 1 1 1 1 1 1 1 1 1 1 1 1 1 1 1 1 1 1 1 1 1 1 1 1 1 1 1 1 1 1 1 1 1 1 1 1 1 1 1 1 1 1 1 1 1 1 1 1 1 1 1 1 1 1 0.010066222124822824 1 1 1 0.010062059455218922 1 1 1 1 1 1 1 1 1 1 1 0.010032385649943694 1 1 1 1 1 1 1 0.0100631517277369 1 1 0.0099422865308686145 1 1 1 1 0.0097756204201513812 1 1 1 1 1 0.010126767343488908 1 1 1 1 0.010020606329493462 1 1 1 1 1 1 1 1 1 0.010060174204013891 1 1 1 1 0.010091042460376384 1 1 1 1 1 1 1 1 1 1 1 0.0099941988477068311 1 1 1 1 1 0.0099581126354771413 1 0.0098393635083129389 1 0.010406156824419777 1 0.010237470668669915 1 1 0.0098578328226339718 1 1 0.010427534064338405 1 1 0.010251708242569678 0.0098728509594514669 1 1 1 1 1 1 1 1 1 1 1 0.010037009930629944 1 1 0.010100143826816045 1 1 0.011149809537774518 1 1 1 1 1 1 0.0099072568171515545 1 1 1 1 1 0.010006090511051662 1 1 1 0.010919358158391491 1 0.011072252791514251 1 1 1 1 1 1 0.010725778250281946 1 1 1 1 1 1 1 1 0.010073881668864771 1 1 1 1 1 1 1 0.010164929963124021 1 1 1 1 0.010073887502747635 1 1 1 1 1 1 1 1 1 1 0.010045629698655889 1 1 1 0.010201460792837264 1 1 1 1 1 1 1 0.010133462434794852 1 1 1 1 1 1 1 1 1 1 1 1 1 1 1 1 1 1 1 1 1 1 1 1 1 0.010035552557372728 1 1 1 1 0.010038474891610081 1 1 1 1 1 1 1 1 1 1 1 1 0.01007441875037653 1 1 1 1 1 1 0.010010632939786619 1 1 1 1 0.010038866193003803 1 1 1 1 1 1 1 1 1 1 1 1 1 1 1 1 1 1 1 1 1 1 1 1 1 1 1 0.010021938623255816 1 1 1 1 1 1 1 0.010037388349457497 1 1 1 1 0.010069846029024417 1 0.010068714648480852 1 1 1 1 1 1 1 0.010003725122696365 0.010074713041731723 1 1 1 1 1 1 1 1 1 1 1 1 0.010119477375433696 1 0.010112312855036434 1 1 1 1 0.01017415504638409 1 1 1 0.010187763448681006 1 1 1 1 1 1 1 1 1 1 1 1 1 1 1 1 1 1 1 1 1 1 1 0.01060332062409609 0.010383430480832057 1 1 1 1 0.011442673650986696 1 0.0099730668489084531 1 1 0.0099898760167615366 1 1 1 1 1 1 1 1 1 1 1 1 1 1 1 1 0.010002845741625244 1 1 1 1 1 1 0.010248025670546512 1 0.010603507643159798 1 0.0099851270719784994 1 1 0.0099879799641228641 1 1 1 1 1 1 1 1 1 0.010723009830197626 1 1 0.010656740231311914 1 1 1 1 1 1 1 1 1 1 1 1 1 0.010302348818254953 1 1 1 1 1 1 1 1 1 0.010278047944589405 1 1 0.010120001231693571 1 1 1 1 1 1 1 1 1 1 1 0.011428493600502992 1 1 1 1 1 1 1 1 1 1 1 1 1 1 1 1 1 1 1 1 0.0099902192799605164 1 0.010058809220361897 1 1 1 1 1 0.009927811399949216 1 0.010312983685260523 1 1 1 1 1 1 1 1 0.010045796726251117 1 1 1 1 1 1 0.01011627164473353 1 1 0.01021409709171274 1 1 1 1 1 1 0.010107978707599212 1 1 1 1 1 1 1 1 1 1 1 1 1 1 1 1 1 1 1 1 0.010094769411821514 1 1 1 1 1 1 1 1 1 1 0.0099249819194140877 1 0.010639865496495917 1 0.01012513959925569 1 1 1 1 0.010263292456862708 1 1 1 1 1 1 1 1 1 1 1 0.010117914012473981 1 0.010198673304474897 0.010185274275776712 1 1 1 1 1 1 0.010124771625178367 1 1 1 1 1 1 1 1 1 1 1 1 1 1 1 1 1 1 1 1 1 1 1 1 1 1 1 1 1 1 1 1 1 1 1 1 1 1 1 1 1 1 1 1 0.0099840674198747627 1 1 1 1 1 1 1 1 1 1 1 1 1 1 1 1 1 1 1 1 1 1 0.0099480650127267509 1 1 0.0099956247888041052 1 1 1 0.010000281819333146 1 1 0.010265459384730015 0.010160021561091278 1 1 1 1 1 0.010100070179980061 1 1 1 1 1 0.0099723170567419753 1 1 1 1 1 1 1 1 1 1 1 1 1 0.010032432770960992 1 1 1 1 1 1 1 1 1 1 1 0.010007854617463305 0.010315757048204026 1 1 1 1 1 1 1 1 1 1 1 1 1 1 1 1 1 1 1 1 1 1 1 1 1 1 1 1 1 1 1 1 1 1 1 1 1 1 1 1 1 1 1 1 1 1 1 1 1 1 1 1 1 1 1 1 1 1 0.010048843184199839 0.010040374536077062 1 1 0.010004653844193984 1 1 1 1 0.010057378282669508 1 0.010081961331835504 0.01004443175292757 1 1 1 1 1 1 1 1 1 1 1 1 0.01012251516152685 1 1 1 1 1 0.010030074210197517 1 1 0.010385123522298721 0.010120084195181601 1 1 1 1 1 1 1 1 1 0.010239236802243052 1 0.010376260865316123 1 0.010109314524547034 0.0099938632631067729 1 1 1 0.010179951672358301 1 1 0.0099849906702474799 1 1 0.010014736046368329 1 1 1 0.010001922710500523 1 0.0099796854416787529 1 0.010106261346020108 1 0.010031095921490353 1 1 1 1 0.010001629749615999 1 1 0.0099740156507899698 1 0.0099986488024231129 0.010125876823258488 0.010050275525852088 0.010038289177232195 1 1 1 0.010079550293320756 1 1 1 0.010199250919341691 1 1 0.009985172528552624 0.0099056474170715822 1 1 1 0.0099647683366877893 0.0099268470372176221 1 1 1 1 1 1 1 0.010006069786916223 1 1 1 1 1 1 1 0.010312012170861355 1 1 1 1 1 1 0.01022982668319259 1 1 0.010080913052378971 1 1 1 1 1 1 1 1 1 0.010076044532639971 1 1 1 1 1 1 0.010207419603521254 0.01000248705974852 1 0.010202126755074842 1 1 1 1 1 0.010438803682466267 1 0.010092707181834977 1 1 1 1 0.0099399108187270824 1 0.010980863867533922 1 1 1 0.010294743593141354 1 1 1 1 1 1 1 1 0.010912081130116533 1 1 1 1 1 1 1 1 1 1 1 1 0.009828562042258954 1 0.010117585773039259 1 1 0.01064143184073937 0.010452363760199467 1 1 1 1 0.010277840904186757 0.010041609193552403 1 1 1 1 0.010366616073171565 1 1 1 1 1 1 1 1 1 1 1 1 1 0.0099649983672452438 1 0.0098995480593967837 1 0.010518371561635298 1 1 1 1 1 1 1 1 1 1 0.010001040656821978 1 0.010305393128057106 1 1 1 1 1 0.010101374478402933 1 1 1 1 1 1 1 1 1 1 1 1 0.010005786349052439 1 1 1 1 1 0.010005795179344357 1 1 0.010198482848274999 1 1 1 1 1 0.010203056101392039 1 1 0.010160440000132007 0.010407432735668215 1 1 1 1 1 0.010237819642221504 1 1 1 1 1 1 1 1 1 1 1 1 1 1 1 1 0.010467636584619393 1 1 0.010001959561243218 1 1 0.010151973353189649 1 0.010132292934282906 1 1 1 1 0.010222060280782905 1 1 1 1 0.010243126602476043 1 1 1 1 1 1 1 1 1 0.010638274400953437 1 0.0099640006190177301 1 1 1 1 1 1 1 1 1 1 1 1 1 1 1 1 1 1 1 1 1 0.010022218514629156 1 1 1 1 1 1 1 1 0.01006735305875241 1 1 1 1 1 1 1 0.010120488403656118 1 1 1 1 1 1 1 1 1 1 0.010653337089962493 1 1 1 0.01041521161875807 0.0098162577722002656 1 0.0099964767035589479 1 1 0.010263155616290261 1 1 0.010126906348765233 1 1 1 1 0.010739852056534775 1 1 0.0099365040109550343 1 0.01038319481019866 1 1 1 1 0.010273019332263329 0.010002264134737161 1 1 1 0.010011278611793309 1 1 1 1 1 1 1 1 1 1 0.010001583587953666 1 1 1 1 1 1 1 1 1 1 1 1 1 1 1 1 1 0.010272502663563238 1 1 1 1 1 1 1 1 1 1 1 1 1 1 1 0.010222770435567274 1 1 1 1 1 1 1 1 1 1 1 1 1 1 1 1 1 1 1 1 1 1 1 1 1 1 1 1 1 1 1 1 1 1 1 1 1 1 1 1 1 1 1 1 1 0.010142323560483668 1 1 1 0.010137080977379847 1 1 1 1 1 1 1 1 1 1 1 1 0.010029338110727702 1 1 1 1 1 1 1 1 1 1 1 1 1 1 1 1 1 1 1 1 1 1 1 1 1 1 1 1 0.010267618327066023 0.010100003036876951 1 1 1 1 1 1 1 1 1 1 1 1 1 1 1 1 1 1 1 1 1 1 1 1 1 1 1 1 1 0.010208963845694646 1 1 1 1 1 1 1 1 1 1 1 1 1 1 1 1 1 1 0.010102470615239525 1 1 1 1 1 1 0.010005276989085628 1 1 0.010016516376275916 1 0.010134522266144877 1 1 1 1 0.0099724645722119691 0.010349676869658309 1 1 1 1 1 1 1 1 1 1 1 1 1 1 1 1 1 0.010137647788427131 1 1 1 0.01018057681256493 1 1 1 1 1 1 1 1 1 1 1 0.010343445608560249 1 1 1 1 1 1 1 1 0.010344123214463983 1 1 1 0.0099582725627145128 1 1 1 1 1 1 1 1 1 1 1 1 1 0.01015595232545902 1 1 1 1 0.0103570056239961 1 1 1 1 1 1 1 1 0.010209387395928486 1 1 1 1 1 1 1 1 1 1 1 1 0.0097036522470070902 1 1 0.0098974722359975731 1 1 1 1 1 1 1 1 1 1 0.010179495280112454 1 1 1 1 1 1 1 0.010444878430482968 1 1 0.0099315534178046928 1 1 1 1 1 1 1 1 1 1 1 1 1 1 1 1 1 1 1 0.010197292046115611 1 1 0.010010097404072665 1 1 1 1 1 1 1 1 1 0.0099413075039831485 0.010567298652966234 1 0.0099874997969759596 1 1 1 1 1 0.0099923811108691661 1 1 1 1 1 1 1 1 1 1 1 1 1 1 1 1 1 1 1 1 1 1 1 1 1 1 1 1 1 0.009989772239155547 0.010314841033154791 1 0.010269298244730293 1 1 1 1 1 1 1 1 1 1 1 1 1 1 1 1 1 1 1 1 1 1 1 1 1 1 0.0099610313848443512 1 1 1 1 1 1 1 0.010232387551021665 1 1 1 1 0.0099969700266162188 1 1 1 1 1 1 1 0.010015861369608345 1 1 1 1 1 1 1 1 1 1 1 1 1 1 1 0.010533786102456678 1 1 0.010115107077731562 1 1 1 1 1 1 1 1 1 1 1 1 1 1 1 1 1 1 0.010555774269569603 1 1 1 1 1 1 1 1 1 1 1 1 1 1 0.0099882161159979693 1 1 1 1 1 1 1 0.010158631311647378 1 1 1 1 1 1 1 0.010247514799700156 1 1 1 1 0.010201053298537082 1 1 1 1 1 1 1 1 1 1 1 1 1 1 1 1 1 1 1 1 1 1 1 1 1 1 1 1 1 1 1 1 1 1 1 1 1 1 1 1 1 1 1 1 1 1 1 1 1 1 1 1 1 1 1 1 1 1 1 1 1 1 1 1 1 1 1 1 1 1 1 1 1 1 1 1 1 1 1 1 1 1 1 1 1 1 1 1 1 1 1 1 1 1 1 1 1 0.010389436909340098 1 1 1 1 1 1 1 1 1 1 1 1 1 1 1 1 1 1 1 1 1 0.009998852583123323 0.010334452730329392 1 1 1 1 1 0.010539715953638163 1 1 1 1 1 1 0.010108926097742159 1 1 1 1 1 1 1 1 0.010076532087851956 1 1 1 1 0.010099091060672041 1 1 1 1 1 1 1 1 1 1 1 1 1 1 1 1 1 1 1 1 1 1 1 1 1 1 1 1 1 1 1 1 1 0.010030204000755603 1 1 1 1 1 1 1 1 1 1 1 1 1 1 1 1 1 1 1 1 1 1 1 1 1 1 1 1 1 1 1 1 1 1 1 1 1 1 1 1 1 0.010089887805442174 1 1 1 1 1 1 1 0.010132567341677574 1 1 1 1 1 1 1 1 1 1 1 1 1 1 0.010332573638963713 1 1 1 1 1 1 1 1 1 1 1 1 1 1 1 1 1 1 1 1 1 1 1 1 1 1 1 1 1 1 1 1 1 1 1 1 1 1 1 1 1 1 1 1 1 1 1 0.010082532100936662 1 1 1 1 1 1 1 1 1 1 1 0.0099493117714938312 1 1 1 1 1 1 1 1 1 1 1 1 1 0.010027841951823461 1 1 1 1 1 1 1 1 0.010157091381163212 1 1 1 1 1 1 1 1 1 1 1 1 1 0.010074559280226551 1 1 1 1 1 1 0.01012757912397249 1 1 1 1 1 1 1 1 1 1 1 1 1 1 1 1 1 1 1 1 1 1 1 1 1 1 1 1 0.010171050257100203 1 1 1 1 1 0.010306884540523075 1 1 1 1 0.010050580723454267 1 1 1 1 1 1 1 1 1 1 0.010879300716427787 1 1 1 1 1 1 1 1 0.0099354718074288317 1 1 1 1 1 1 0.0099771992447143208 1 1 0.011107848669013563 1 1 0.011156850592011977 1 1 1 1 1 1 1 1 1 1 1 1 1 1 1 1 0.01002655881275934 1 0.010077139536213607 1 1 1 0.010095427450877987 1 1 1 0.011196487722521147 1 1 1 1 0.0100457543541401 1 1 1 1 1 1 1 1 0.010010791364844576 0.010000870679410285 1 1 1 1 1 0.010006542277905687 1 1 0.011172870431309863 1 1 1 1 0.011122965365420198 1 1 1 0.0099847049588642784 0.011239714247589641 1 0.010420238265103259 1 1 1 1 1 0.010227069244769431 1 1 1 1 1 1 1 1 1 1 0.010066520615933175 1 1 1 1 1 1 1 1 1 1 1 1 1 1 1 1 1 1 1 1 0.0099806472011316032 1 1 1 1 1 1 1 1 1 1 1 1 1 1 1 1 1 1 1 1 1 1 0.0095957448990431089 0.0099814419578961224 1 0.0098513476692591966 1 1 1 1 1 1 1 1 1 1 1 1 0.010102111467972805 1 0.010036327881026102 1 1 1 0.011347750548906434 1 1 1 1 1 1 1 0.011427194609888064 0.0099962802325104134 1 1 0.0097281900381374076 1 1 0.011071779957610203 1 1 0.010921035324374849 0.010074336951344753 1 1 0.0099569813465004171 0.0097872007263934968 1 1 0.0097766091314814701 1 0.0097965416964122774 1 1 1 1 1 0.009996834865156741 1 1 0.0098040777005254341 1 0.010555243243519053 0.010036998972136887 1 1 1 1 1 1 1 0.010088819861146721 1 1 1 1 1 1 1 1 1 1 0.010144212371844291 1 1 0.0100136532103607 1 1 1 1 1 0.010038696791648448 1 1 0.0099597103704364923 1 1 1 1 1 1 1 0.010045904868767604 1 1 1 0.010139607295912879 1 1 1 1 1 1 1 1 1 1 1 1 1 1 1 1 1 1 1 1 1 1 1 0.010153883675185126 1 1 1 1 1 0.0099291953435530385 0.010024175670111938 0.0099963957114719212 0.010011358746025998 1 1 0.010287441435094519 0.010027040550753598 0.010111816840084437 0.010001196087122258 1 0.010231963136433951 1 1 0.0099813287502792426 1 1 1 1 1 1 1 1 1 1 1 1 1 1 1 1 1 1 1 1 1 1 1 1 1 1 1 1 1 1 1 1 1 1 1 1 1 1 1 1 1 1 1 1 1 1 1 1 1 1 1 1 1 1 1 1 1 1 1 1 1 0.010005779074549541 1 0.01044028734911857 1 1 1 1 1 1 1 1 1 0.010363207257636979 1 1 1 1 0.01033398828774104 1 1 1 1 1 1 1 0.01006333930585792 1 1 1 1 1 1 1 0.0099980637630813184 1 0.0099654229700202705 1 1 1 1 1 1 1 1 0.01000586548485255 1 1 1 1 1 1 0.010161319454943555 1 1 1 1 1 1 1 1 1 1 1 1 1 1 1 1 1 1 1 0.010020116541986725 1 1 1 1 1 1 1 1 1 1 1 0.010058034449162576 1 1 0.0099353763777717923 1 1 0.010191542796951126 0.010008050240674502 1 1 0.010174772029595731 1 0.010747687920979495 0.010290855502156989 1 1 0.0096527332082398214 1 0.010000432866769514 1 0.010245152264593542 1 1 1 1 1 1 1 1 1 1 1 1 1 1 1 1 0.0099865373640616092 1 1 1 1 1 0.0093613033240766697 1 1 1 1 1 1 1 1 1 1 0.010925700162895246 1 1 1 0.010070889109490147 1 0.010001808674987997 1 1 1 1 1 1 1 1 1 1 0.010084534388280809 1 1 1 1 1 1 1 1 1 1 1 1 1 1 1 1 1 1 1 1 1 1 1 1 1 1 0.0099981524734763308 1 1 1 1 1 1 1 1 1 1 1 1 0.010025493835140155 1 1 1 1 1 1 1 1 1 1 1 1 1 1 1 1 1 0.010103728350272737 1 1 1 1 1 1 1 1 1 1 1 1 1 1 1 1 1 1 1 1 1 1 1 0.01010640022977484 1 1 1 1 1 1 1 1 1 1 1 1 1 1 1 1 1 1 1 1 1 1 1 1 1 1 1 1 1 1 1 1 1 0.010025112706405957 1 0.010351654875289593 1 0.010424901625444204 1 1 1 1 1 1 0.01027010511363659 1 1 1 1 1 1 1 1 1 0.0099932834650002089 1 1 1 1 1 1 0.0099346009832157172 1 1 0.0099893589711316424 1 0.010185281679942903 1 1 1 0.01007830924905094 1 1 1 1 1 1 0.0099585743022661301 1 1 1 0.0098916903128220719 0.010197081484808716 1 0.010166053209599443 0.010001570379833036 1 0.0098445516479301332 1 1 1 1 1 1 1 1 1 1 1 1 1 1 1 1 1 1 0.0099990245371850764 1 1 1 1 1 1 1 1 0.011394630506495855 1 1 1 1 0.011361607635596993 1 1 0.009945331309769578 1 1 1 0.010119546519582842 1 1 1 1 1 1 0.010657912002735479 0.010135545125772187 1 0.010051301754210446 1 1 0.010272172263458024 1 1 1 0.010146290448268114 1 1 1 1 1 1 1 1 1 1 1 1 1 1 1 1 1 1 1 1 1 1 1 1 1 1 1 1 1 1 1 1 1 1 1 1 1 1 1 1 1 1 1 1 0.0099532517745680015 1 1 1 1 1 1 1 1 1 1 1 1 1 0.0098578207942682829 0.010047823775828538 1 1 1 1 0.0104418947757745 1 1 0.010418756870010664 1 1 1 1 1 0.010241367813322596 1 1 1 1 1 1 1 0.0099241241287852059 1 1 1 0.010446217407095081 1 1 1 1 1 1 0.010098481495011708 1 1 0.010553202852690444 1 1 0.0099984439261730906 0.0098730286682491945 0.010789546301232175 1 1 1 1 1 1 1 1 1 1 1 1 1 1 1 1 1 1 1 1 1 1 1 1 1 1 0.010262541893850159 1 1 1 1 0.01029079091552039 1 1 1 0.010109107076979222 1 1 1 1 1 1 1 0.010226310858757966 1 1 1 1 1 1 1 0.010092977956198372 1 1 1 1 1 1 1 1 1 1 1 1 1 1 1 1 1 1 1 1 1 1 1 1 1 1 0.010822134420355503 0.009999399771802751 1 1 1 1 0.010357086432153505 0.010688165657395892 1 1 1 1 1 1 1 0.010581998064697623 1 0.010432551075270354 1 1 1 1 1 1 1 1 0.010415623299616747 1 1 1 1 1 0.0099564788547938897 0.010004063786437759 1 1 1 0.0095550994475207297 1 1 1 0.010774036806043868 1 1 1 1 1 1 1 1 1 1 1 1 1 1 1 1 1 1 1 1 1 1 1 1 1 1 0.0099441834782420264 1 1 1 1 1 1 1 1 1 1 0.010019950229825696 1 1 1 1 1 1 0.010018254478640305 1 0.010038204708466 1 1 1 1 1 1 1 1 0.010657607677138334 1 1 0.010000996682841358 1 1 1 0.010023320475338736 0.010695657785246712 0.010010192051133102 1 1 1 1 1 1 1 1 1 1 1 1 0.010649006261350312 1 1 1 1 1 0.010081535006196329 1 1 1 1 1 0.01000006828328219 1 1 1 1 1 1 0.010311474036762955 1 1 1 1 1 1 1 1 0.010321536370510438 0.0099865544176278645 1 1 1 0.010360870579743799 1 1 1 0.010132819276436826 1 1 1 1 0.0103584607347486 1 1 1 1 1 0.0099964285111981722 1 1 0.010266174784157662 1 1 1 1 1 1 1 1 1 1 1 1 1 1 1 1 1 1 1 1 1 1 1 1 1 1 1 1 1 1 1 1 1 1 1 1 1 1 1 1 1 1 1 1 1 1 1 1 1 1 1 1 1 1 1 1 0.010009795750251524 1 1 1 1 1 1 1 1 1 1 1 1 1 0.010013126525351452 1 1 0.010018044346771404 1 1 1 1 1 1 1 1 1 0.01004353818191156 1 1 1 1 1 1 1 1 0.010155975108656796 1 1 1 1 1 1 1 1 0.010206981141439178 1 1 1 1 1 1 1 1 1 1 1 1 1 1 1 1 1 1 1 1 1 1 1 0.010025737500480586 0.010051709593253504 0.010286039679016484 1 1 1 1 1 1 1 1 0.010052722317490355 1 1 1 1 1 1 1 0.01000440969282658 1 1 1 1 1 0.010052862615438009 1 0.010026467024730137 1 1 1 1 1 1 1 1 1 1 1 1 1 1 1 1 1 1 1 1 1 0.010002778307734852 1 1 0.010003045920072069 1 1 1 0.010005041831841827 0.010007691422463815 1 1 1 1 1 1 1 1 1 1 1 1 1 1 1 1 1 1 1 1 0.010004649523949867 1 0.0099627944249286761 1 1 1 1 1 1 1 0.010005927957472014 1 0.01002105580572148 1 1 0.01029615489548367 1 1 0.010436977129746842 1 1 1 1 1 0.010408209713029037 1 1 1 0.010491547793896414 0.010353493472825112 1 1 1 1 1 1 1 1 1 0.0099103053960940216 1 1 0.010906465457854278 1 1 1 1 1 1 1 0.010047932813202237 1 1 1 1 1 1 1 1 0.010125804608149661 1 0.010342743675339123 1 0.010292200699717844 1 1 1 1 0.010679401754461627 0.0098962420816982588 1 1 1 0.010018530159805363 0.010028917093382658 1 1 1 1 1 1 1 0.010697379030462997 1 1 1 0.010004992880190649 0.010068141023922707 1 1 1 1 1 1 0.010127443505213593 1 1 1 1 1 1 0.010160487795456448 1 1 1 1 1 1 1 1 1 1 1 1 1 1 1 1 1 1 1 1 1 0.010046581246879424 1 1 1 1 1 1 1 1 1 1 0.010142197736885471 1 1 1 1 1 1 1 1 1 1 1 1 1 1 0.0099787476780478501 1 1 0.0099939605568575892 1 1 1 1 1 1 1 1 1 1 1 1 1 0.0099743140570964957 1 1 0.010472470117877246 1 1 1 1 1 1 0.010754129786367809 1 1 0.011038135221067997 1 1 1 1 1 1 1 1 0.011256279177736798 0.010131646522918324 1 1 1 1 0.011005731055270867 1 1 1 1 1 1 1 1 1 1 1 1 1 0.010031304022694209 0.010081476451081015 1 1 1 1 1 1 1 1 0.010790027854263466 1 1 1 1 1 0.0099993676631529357 1 1 1 1 1 1 0.010137316066938176 0.01029647134417871 1 1 1 1 0.0099888334581283104 0.01009988470658431 0.01016329362439723 1 0.010194929085613563 0.010115041824702544 1 1 1 1 0.010001842579672059 0.010329515347372187 1 1 1 1 1 1 1 0.010237757915770869 1 1 1 1 0.010021796536412681 1 1 1 1 1 1 1 1 0.010225207730735993 1 1 1 1 1 1 0.010010065796953467 1 1 1 1 1 1 1 1 0.01008511015225654 1 1 1 1 1 1 1 1 0.0099862838041867366 1 1 1 1 1 1 1 1 1 1 0.010465547071805154 1 1 1 1 1 1 1 1 1 1 1 1 1 1 1 1 1 1 1 1 1 0.010306016262009696 0.010064020344792233 1 1 1 1 1 1 1 1 1 1 0.010017899560051623 1 0.010425961577876857 1 1 0.010055362931238872 1 1 1 1 1 0.010201298517932019 1 0.010347221896858773 0.010003658185692474 1 1 1 0.010061762953322305 1 0.010549641399895955 1 0.010574019314815761 1 1 1 1 1 1 1 1 1 0.010385653626760163 1 1 1 1 1 1 0.010250744830439199 1 1 1 1 1 0.010146088671760221 1 1 1 1 0.0100488628344043 1 1 1 1 1 0.010044827504704567 1 1 1 1 1 1 1 1 1 0.0099069885763073875 1 1 1 1 1 0.010404668320092944 0.010256030343165488 0.010286915795713558 1 1 1 1 0.010327657986030556 0.010313229301679742 1 1 1 1 0.010003896723058988 1 0.0099820657653065473 1 1 1 1 1 1 1 1 0.010000444312816596 1 1 1 1 1 1 1 1 1 1 1 0.010252507009348892 0.0099426049152062969 1 1 1 1 0.010033379697830197 1 1 0.010194161721423803 0.010199748774006222 1 1 1 1 1 1 1 1 1 0.010193674759216158 1 1 1 1 1 1 1 1 1 1 1 1 1 1 1 1 1 0.010243544766011446 1 1 1 1 0.010182102739958159 1 0.010080635420649305 1 0.01000792425427665 0.010030665464096854 1 1 1 1 1 1 1 1 1 1 0.010029477553442762 1 1 1 1 1 1 1 1 1 1 1 1 1 1 1 1 1 1 1 1 1 1 1 0.010045707004066779 1 1 1 1 1 1 1 1 1 1 1 1 1 1 1 1 1 1 1 1 1 1 1 1 1 1 1 1 1 1 1 1 1 1 1 1 1 1 1 1 1 1 1 0.010016229450624019 1 1 1 1 1 1 1 1 1 1 1 1 1 1 1 1 1 1 1 1 1 1 1 1 1 1 1 1 1 1 1 1 1 1 1 1 1 1 1 1 1 1 1 1 1 1 1 1 1 1 1 1 1 1 1 1 1 1 1 1 1 1 1 0.010033230866998765 0.010245379960893012 1 1 0.010000167200236779 1 1 1 1 1 1 1 1 1 0.01003373284938038 1 1 0.010026395590707872 1 1 1 0.010015381116607835 1 1 1 1 1 1 1 1 1 1 1 0.010006938208680091 1 1 1 1 1 1 1 0.010692908446527991 1 1 0.0099866958333653822 1 1 1 1 0.010001322296883506 1 1 1 1 1 1 1 1 1 1 1 1 1 0.0099915589801376978 1 1 1 0.010024275696301047 1 1 1 1 1 0.010009201604172268 1 1 1 1 1 1 1 1 0.010009795168988282 1 1 1 1 1 1 1 1 1 1 1 1 1 1 1 1 1 1 1 1 1 1 1 1 1 1 1 1 1 1 1 1 1 1 1 1 1 1 0.010087085540081911 1 1 1 0.01083159259070169 1 1 0.010904316461594923 1 1 1 1 1 1 0.010885081530928879 1 0.010818464173384236 1 1 1 1 1 1 1 0.0099843850158231936 1 1 1 0.0099829006770495426 1 1 1 1 0.010021005312164304 1 1 1 1 1 1 1 1 1 1 1 1 1 1 1 0.010662886927131857 1 1 1 1 1 1 1 1 1 1 1 1 1 1 1 1 1 1 1 1 1 0.010034012236386445 1 1 1 1 1 1 1 0.010000056684174304 0.010880676167253148 1 1 0.010914655049034244 0.010039499470135348 1 1 1 1 1 1 0.010997451473689272 1 1 1 0.011045607463317801 1 1 1 1 1 0.010022489650937954 1 1 1 1 1 1 1 1 1 1 1 1 1 1 1 1 1 1 0.01012917155089973 1 1 1 0.0097439546432167568 1 0.0099464475633014304 1 1 1 1 1 1 1 1 0.010262009401150832 1 1 0.010144727958079698 1 1 1 1 0.0092440138603101709 1 1 1 0.0094300668387503322 1 1 1 1 1 1 1 0.0098070263196214664 1 1 1 0.010172571374437523 1 1 1 1 0.0099873711244099425 1 1 1 1 1 1 1 0.010247077603659874 1 1 1 1 1 1 1 1 1 1 1 1 1 1 1 1 1 1 1 1 1 0.0098954728249861113 1 1 1 1 1 0.010047751324708455 1 0.009660256424131583 1 1 1 1 0.010165032767779586 1 1 1 1 1 1 1 1 1 1 0.0099261501585605431 1 0.0098392154873758568 1 1 1 1 1 1 1 1 1 0.0098407041016694251 1 1 1 1 1 1 1 1 1 1 1 1 1 1 1 1 1 1 1 1 1 1 0.010175454121752209 1 1 1 0.0099720813846312806 1 1 1 0.0098997201574853901 1 1 0.0104817630604436 1 1 1 1 1 1 1 1 0.010550424946661804 1 1 1 1 1 0.010547025708812427 0.0099996410917992662 1 1 1 1 0.011106349264722294 1 1 0.011075625187911314 1 1 1 0.010559816705863008 1 1 1 1 0.010598505049819278 1 1 1 1 1 0.010212723746787047 1 1 1 1 1 1 1 1 0.010141533124298557 1 1 1 1 1 1 0.010027953515186941 1 1 0.010045559903604454 1 1 0.01008610310019695 1 1 1 1 1 0.010131890671173625 1 1 1 1 1 0.0099053307771699087 1 1 1 1 1 0.00994688190627715 1 1 1 0.010205970438450129 1 1 1 0.010383221824192736 0.0099763765859358141 1 1 1 1 0.010369007079236263 1 1 1 1 1 1 1 1 1 1 0.010000314793308611 0.010000118082792685 1 1 1 0.010341615398055131 1 0.010150894423746157 1 1 1 1 0.0099995899236204801 1 1 1 1 1 1 1 1 0.010009888340095982 1 1 1 1 1 1 1 0.010110387069701594 0.0099545162449043972 1 0.010292342142527444 1 0.0099600588327767546 1 0.010169860934546394 1 1 1 0.009941069024644332 1 1 0.010002524860070161 0.010009044205738723 1 1 1 1 0.010148150562711039 1 1 1 1 0.010211012309540555 1 1 1 1 1 1 1 1 1 0.010098084187520364 1 1 0.010173616468621031 1 1 1 1 1 1 1 1 1 1 1 0.010005781928883859 1 1 1 1 1 0.011108958883761049 1 0.010018280873829824 1 1 1 1 1 1 0.011082452117131941 0.010002872449767379 1 0.010248731527903981 1 1 1 1 1 0.01002727884686809 1 1 0.0099232318492574537 1 1 0.010471577662330136 1 1 1 0.010574615218012989 1 1 1 1 1 1 1 1 1 0.0099823484295490754 1 0.010007106349390987 1 1 1 1 1 1 1 1 1 0.0099728976739234445 1 0.0099186781654192237 1 1 1 1 1 0.009945438441931017 1 1 0.010021069354381334 1 1 1 1 1 0.010006681516517343 1 1 1 1 1 1 0.0099902339294089971 1 1 1 1 1 1 1 1 1 1 1 1 1 1 0.0099743014124028737 1 1 1 1 1 1 1 1 0.0097523015296139444 1 1 1 1 1 1 0.0099204283406905333 1 0.011053030793220526 1 1 1 1 1 1 1 1 1 1 1 1 1 1 1 1 1 1 1 1 0.0098636739521225179 1 1 1 1 0.0098955751223494277 1 1 1 1 1 1 1 0.010101813419102192 0.010999597543516721 1 1 1 1 1 0.010564364681788401 1 0.010919553182945914 1 0.009902155645133302 0.010834514376176657 1 1 1 0.010527223158103869 1 0.010599833545976765 1 1 0.010307967157044216 1 1 1 0.0097156286910856787 0.0099414619168844628 1 1 1 1 0.010209149918898939 1 1 1 0.011733197520182186 0.0098194045082330914 1 1 0.010443171942064804 0.010560680367693521 1 1 1 0.0093533636563859282 1 1 0.010021140627639074 1 0.011242322830170562 1 1 1 1 1 1 1 0.010209466674493049 0.010141866195306342 1 1 1 1 0.010228255954282152 0.010012457431823286 1 1 1 0.010001728155653847 1 1 0.01019890482055748 0.0098274738150377298 0.010688060564289677 1 1 0.01021359840949379 1 1 1 0.010920013226823594 1 0.0098571428311133771 1 1 0.01026700322164836 1 1 1 1 1 1 1 1 1 1 1 0.0097674835515593021 1 1 1 1 1 1 1 1 1 1 1 1 1 1 1 0.010204025675073029 1 1 1 1 1 0.010385137054768446 1 1 1 1 1 1 1 0.010475522686978302 1 0.01015745868223079 1 1 0.010501956193570671 1 1 1 0.010419904368654026 1 1 1 0.010153295338278558 1 1 0.010812326653071792 1 1 1 0.010624769420381786 1 1 1 1 0.010095315076851298 1 1 1 1 1 1 1 1 1 1 1 1 1 1 1 1 1 1 1 1 1 1 0.010362250036626622 1 1 0.010146256995421538 1 1 0.0099704147918709182 1 1 1 1 1 1 1 1 1 1 1 1 1 1 1 0.0098662219321584109 1 1 1 0.0099318864207720414 1 1 1 1 1 1 1 1 1 1 1 1 0.010076923992307 1 1 1 1 1 1 1 0.0099669982845829435 1 1 1 1 1 1 1 1 0.009880617353066546 1 1 1 1 0.0099801813840277222 1 1 1 1 1 1 0.0099319093985666979 1 1 1 1 0.010129137968013398 1 1 1 1 0.010048758428903399 1 1 1 1 1 1 1 1 1 1 1 1 1 1 1 1 1 1 1 1 1 1 1 1 1 1 0.0098827488175281461 1 0.0099343355113863715 1 1 1 1 1 1 1 0.0096263751588692836 0.010913532001042387 1 1 0.010132746970362061 1 1 1 1 1 1 1 1 1 1 1 1 1 1 1 1 1 1 1 1 0.011346862475464905 1 0.010132264872517872 1 1 1 1 1 1 1 1 1 1 1 1 1 1 0.010032498405628318 1 1 1 1 1 1 1 1 1 1 0.010126799663768414 1 1 1 1 0.010067166461820062 1 0.010057979272459813 1 1 1 1 1 1 0.010435327202134028 1 1 1 0.010321125026914126 1 1 1 1 1 1 1 1 1 1 1 0.011630111080785356 1 1 1 1 1 1 1 1 0.010023311216268069 1 1 1 0.010085441251565236 1 1 1 1 1 1 1 1 1 1 1 1 0.010244610510197288 1 1 1 0.0099575900135068004 1 1 1 1 1 1 0.011672245764538812 1 0.010005984773136469 1 1 0.0099385545211917291 1 1 1 1 0.011409613433327083 1 1 1 0.011150248706106515 1 1 1 1 1 0.010872815978905088 1 1 1 1 0.010041912488835299 1 1 0.009983894394951039 1 1 1 1 0.0098933818926405948 0.010503584415428724 1 1 1 0.0099295167629704414 1 1 0.010576731145787815 1 1 1 0.010419521783713435 1 1 1 0.010018240917317315 1 1 1 0.010098084740868971 1 1 0.010096971865224185 0.010485438245900588 1 1 1 1 1 1 1 1 0.0099957387923839455 1 1 0.009831237322257165 1 1 1 0.0099062640572813131 1 1 1 1 1 1 1 0.0099957178604834652 1 1 1 1 1 1 1 1 1 0.010090668608874332 1 1 0.0099947606908855433 1 0.0098822413297486467 1 1 1 0.010390696382574303 1 1 1 1 1 1 1 1 1 1 1 0.010345090851656441 1 1 0.0099981495312871128 1 1 1 1 1 1 1 1 1 1 0.010039286408060424 1 1 1 1 1 1 1 1 0.010030270951424185 1 1 1 0.010257876666221693 1 1 1 1 1 1 1 1 0.010402240796620809 1 0.010104272023400973 1 1 1 1 0.010098610833187549 0.010089570454665287 1 1 1 1 1 1 1 1 1 1 1 1 1 1 1 1 0.010295173212685122 1 1 1 1 0.010270151438031037 1 1 1 0.010344503527770395 1 0.010002922631205393 1 0.010315231162466555 0.010370099619752595 1 1 0.010508248419680091 1 1 1 0.010209063205343226 0.010285759644330997 1 1 0.010443269558024167 0.010266207869899803 1 1 0.010489877159189741 0.010280124894993619 1 1 1 0.010258974886753352 1 1 1 1 1 1 0.010035087561605774 1 0.010289509431906275 1 0.010515556760071779 0.0099769223122979003 0.0099312038776287401 1 1 1 1 1 1 0.010002154352690001 1 1 0.0099505690950913422 0.010220494672042901 1 0.0098642127107484347 1 0.010039685047384301 0.0098912749960353777 1 0.010141874939052367 1 1 1 0.0099566227062570425 1 1 1 0.010169526451589455 1 1 1 1 1 0.0099625343870041305 1 1 1 0.010867048621204748 1 0.0098810233243345064 0.010662034443572131 1 1 1 1 1 0.0099957878932739434 1 1 0.010637936828582401 1 1 0.01000065325270488 1 1 1 0.0098540946697056077 1 0.0099047827455694838 1 1 1 0.010276624216091561 0.01045073248953781 0.010802533283037973 1 1 0.010000783396209188 1 0.010379202300953443 0.010034721078445771 1 1 0.0099136918866771177 1 0.010374086186162612 1 1 1 0.0098839078710269788 1 1 0.010000296670284995 0.0098916044469028307 1 1 0.010126538351149621 1 1 1 1 0.0099143574897660094 1 1 1 1 0.0098511069659775134 0.010669696645544813 1 0.011395147973067229 1 1 1 1 1 1 1 1 1 1 1 1 1 0.011240596269409726 1 1 0.0099920466763564857 1 0.01056611239402289 1 1 1 1 1 1 1 1 1 1 1 0.010235448723053132 1 1 1 1 1 0.010042243197739009 1 1 1 0.01051301223036556 1 1 1 0.010005848951125773 1 0.010000174332232889 1 0.010488317092347321 1 1 0.010210685569171252 1 0.01016904216991724 1 0.0098287979783950319 1 1 0.010132369289425295 1 1 1 1 0.010026902989020961 0.009974974643530506 1 1 1 0.010015826853331565 1 1 0.010389832767952946 1 1 1 1 0.010180335780664348 1 0.010280504435148746 1 1 1 1 1 1 0.010168237765852099 1 1 1 1 1 1 1 1 1 1 1 1 1 1 1 1 1 1 1 1 1 1 1 1 1 1 1 1 1 1 1 1 1 0.010126341967305422 0.010046108161097205 1 1 0.0099999137186621151 1 0.010138476864794219 1 0.010006501649075971 1 1 1 1 1 1 1 1 1 1 0.010102381663014722 1 1 1 1 1 1 1 0.010052693260355971 1 1 1 1 1 1 1 0.010188450902648357 1 1 1 1 1 1 1 1 1 1 1 1 1 1 1 1 1 1 1 0.010006545088829503 1 1 1 0.01001483486478196 1 1 0.010717156044519914 1 1 1 0.010880827140924178 1 1 0.0105234518012625 1 1 1 0.010870187475376667 1 1 0.011198561263206924 1 1 1 0.010950647287569714 0.011439447151695131 1 1 1 1 1 1 1 0.011581958050637293 1 1 1 1 0.010087130392945242 1 1 1 1 0.010137414062557059 1 1 0.01058430996024314 0.010199999844587937 1 1 1 1 0.0099213848652377583 1 1 1 0.010422753492410706 0.0098301642492518819 1 0.010250680283598573 1 1 1 1 1 1 1 1 1 1 1 1 1 0.010225958290430628 1 1 1 1 1 0.010267458830879332 1 0.010076453685409232 0.010036245360540952 1 1 1 1 1 1 1 1 0.011596561708636152 1 1 1 1 1 1 1 1 1 1 1 1 1 1 1 1 1 0.010007444995001018 1 1 1 1 1 1 1 1 1 0.0102986296903326 1 1 1 0.010238008031563979 1 1 1 1 1 0.010164838295943909 1 1 1 1 1 1 1 1 1 1 1 1 1 1 1 0.0099736259873564291 1 1 1 1 1 1 0.009984739590594675 1 1 1 1 1 0.0098763404614271855 1 0.0099457478746133813 0.010020024466335899 1 1 1 1 1 0.010082234012505315 1 1 1 1 1 0.0099025946836383237 0.010132475575768813 1 1 1 0.0099763861332714115 0.010080221560033792 1 1 0.010135403220610859 0.0099486401204687356 1 1 1 1 1 0.010129329951920202 1 1 1 1 1 1 1 1 1 1 1 1 0.011976800287017668 1 1 1 1 1 1 1 1 0.010003529491033785 1 1 0.012123364098338162 1 1 1 1 1 1 1 1 1 1 1 1 1 1 0.010433084365881059 1 1 1 1 1 1 0.0099767641505221685 1 0.0099118046186862201 1 1 1 0.01047837413351844 1 1 1 1 0.010010911393553156 1 0.0099366359202668914 1 1 0.0098844043245991612 1 1 1 0.0099679439274377047 1 1 0.0098871482686147174 0.010356743289843522 0.010345406162348593 0.0099777553908988303 1 1 0.010136727202989566 1 0.01008591586784972 1 1 0.010009382951181447 1 1 0.010095823679592648 1 1 1 1 1 0.010114516908313283 1 0.010009217404876454 1 1 0.010378236200816172 0.010097151922301144 0.010248770505609328 1 1 0.01027739935463144 0.0099238076865954487 1 0.010871662236869499 1 1 1 1 1 1 1 0.0099937768204228731 1 1 1 1 1 0.010688552323626631 1 1 1 1 1 1 1 1 1 0.010029221451375941 1 1 1 1 1 0.010461947908479185 1 1 1 1 0.01017475098397452 1 1 1 1 1 1 1 1 1 1 1 1 1 0.010253476092691043 1 1 1 1 1 1 1 1 1 1 1 0.010516774417736888 1 1 1 1 1 1 1 0.0098864398348458438 0.01050511614940353 1 1 0.010035758088805014 1 1 1 1 1 1 1 0.01014573293031968 1 1 1 1 0.010060936710259512 1 1 1 1 1 1 1 0.010010655732816991 1 1 1 0.010070271910271128 1 1 1 0.010069307287440304 1 1 1 1 1 1 1 0.010122938431944995 1 1 1 1 1 1 1 0.010082852595880631 1 1 1 1 1 1 1 1 1 1 1 1 1 1 1 0.0099600508379326831 1 1 1 0.010000041869735863 1 1 1 1 1 1 1 1 1 1 1 1 1 0.0098884517630383716 1 1 1 1 0.0099283875428949724 1 1 1 1 1 1 1 1 1 1 1 1 1 1 1 1 1 1 0.010103191916607513 1 1 1 1 1 1 1 1 1 1 0.010091105980390721 0.010194173869206097 1 1 1 1 1 1 1 1 1 1 1 1 1 1 1 0.010075147611025969 1 1 1 1 0.010208968287482297 1 1 1 1 1 0.010213308570397381 1 1 1 1 1 1 1 1 1 1 1 0.0100869598578369 1 1 1 1 1 1 1 1 1 1 1 0.010048870485201653 1 1 1 1 1 1 0.010029377506655772 1 1 1 1 1 1 1 1 1 1 1 1 1 1 1 1 1 1 1 1 1 1 1 1 1 1 1 1 1 0.010016115960387009 1 1 1 0.010038211215171915 1 1 1 1 1 0.0099010622063126635 1 1 1 1 1 1 1 1 1 1 1 0.0099676159976272195 1 1 1 1 1 1 1 1 1 1 1 1 1 1 1 1 1 1 1 1 1 1 1 1 1 1 1 1 1 1 1 1 1 1 1 0.010019520906728989 1 1 1 0.0095234264901221648 1 1 1 1 1 1 1 1 0.0091474405708396548 0.010967484011695509 1 1 1 1 1 0.010649589054750986 1 1 1 0.01018743752691652 1 1 1 1 1 1 0.010011560155667473 1 1 1 1 1 1 1 1 1 1 1 1 1 1 0.0099704793339853246 1 0.0099805248686035235 1 0.010001704231339836 0.0098407390005471971 1 1 1 1 1 1 1 1 1 1 1 0.0099975671866050723 1 1 1 1 1 1 0.0099916025678340858 1 1 1 1 1 1 1 1 1 1 1 1 1 1 1 1 1 1 1 1 1 1 1 0.010103915056374584 1 1 1 1 0.010036268637394473 1 1 1 1 1 1 1 1 0.010048396581621474 1 1 1 1 1 0.0099981927008048511 0.0099397079840166137 1 0.010107603192661269 1 1 1 1 0.0097647933871172887 0.010139024418553353 1 0.0098339178853968923 1 1 1 1 1 0.010163909986335304 1 1 1 1 1 1 1 1 1 1 1 0.0097745606159386107 1 1 1 0.0097557364701208633 1 1 1 1 1 1 1 0.0099993485887131927 1 1 0.010290123936369182 0.0099796098695171965 1 1 1 1 1 1 1 0.0098144383898566105 0.010010269014811049 1 1 0.010012460057675259 1 0.010351884047795981 1 1 0.0098338684515271082 1 0.010000338208713887 1 1 1 1 1 0.01040102318362774 1 1 1 1 1 1 1 1 1 1 1 1 1 0.010276121283827584 0.010036638137312013 1 1 1 1 1 1 1 1 0.010029302219421209 1 1 1 1 0.0099961264561095921 1 1 0.009993013935440909 1 1 0.010361280291486901 1 0.010425924163080136 1 1 1 0.010003766657452971 1 1 1 1 1 1 1 1 1 1 0.010474662133190765 1 1 1 1 1 0.010028136790366064 1 1 1 1 1 1 1 1 1 1 1 1 1 1 1 1 1 1 1 0.010261583674001196 1 1 0.010170136139513928 0.0099777701988183979 1 1 1 1 1 1 1 0.0099630934772134989 0.0099788803946883539 1 1 1 1 1 1 1 1 1 1 1 1 1 1 1 0.010062262370100971 1 1 1 1 1 1 0.0100819913412527 1 1 0.0099771706799714702 0.01011801991706732 1 1 0.01006379697297166 1 1 1 1 1 1 1 1 1 1 0.010085891480954769 1 1 1 1 1 1 1 1 1 1 1 1 1 1 1 1 1 1 1 1 1 1 1 1 1 1 1 1 1 1 1 1 1 1 1 1 1 1 1 1 1 1 1 0.010008788264481169 1 1 1 1 1 1 1 1 1 1 0.010033045487598473 1 1 1 1 1 1 1 1 1 1 1 1 1 1 1 1 1 1 1 1 1 1 1 1 1 1 1 1 1 1 1 1 1 1 1 1 0.010222321803360988 1 0.010191165031662831 1 1 1 1 1 0.01003696730603716 1 1 1 0.010112372294180921 1 1 0.0099928812608203257 1 1 1 1 1 1 1 1 1 1 1 1 1 1 1 1 1 1 0.0099711982389600901 1 1 1 0.010000362233882405 1 1 1 1 1 0.010058288241601033 1 1 1 0.0101302172595477 1 1 1 1 1 0.010067815729010464 1 1 1 1 1 1 1 1 1 1 1 1 1 1 1 0.010199780606933839 1 1 1 1 1 1 0.010164514145288558 1 1 1 0.010031403161809423 0.010088387251245216 1 1 1 0.0098963647515042039 1 1 1 1 1 1 1 1 1 1 1 1 0.0099614066648482519 1 1 1 1 1 1 1 0.0099920248999849116 1 1 1 1 1 1 1 1 0.01000400196918964 1 1 1 1 1 1 1 0.010074392238394524 1 1 1 1 0.010168568545121022 1 1 1 1 1 1 1 1 1 1 1 1 1 1 1 1 1 1 0.010011008120605422 0.01016390773830194 1 1 1 1 1 1 1 1 1 1 1 1 1 1 1 1 1 1 1 0.010099367069469532 1 1 1 1 1 1 1 1 1 1 1 1 1 0.010106779917337754 1 1 1 1 1 1 0.010174595646348218 1 1 1 1 1 1 1 1 1 1 1 1 1 0.010269384542263477 1 1 1 0.010026881215785186 1 1 1 1 1 1 1 0.010400592386656506 1 1 1 1 0.010028567666546192 1 1 1 1 0.010048030096012661 1 1 1 1 1 1 1 1 1 1 1 1 1 0.010019462429466473 1 1 1 1 1 1 1 1 1 1 1 0.010117706826995813 1 1 1 1 1 1 1 0.010052597549356572 1 1 1 1 0.010005179790504498 1 1 1 1 1 1 1 1 1 1 1 1 1 1 1 1 1 1 1 1 0.010001135286002742 1 1 1 1 1 1 1 1 1 1 1 1 1 1 1 1 1 1 1 1 1 1 1 1 1 1 0.010233891830611429 0.0099909216936066164 1 1 1 1 1 1 1 1 1 1 1 1 1 1 1 1 1 1 1 1 1 1 1 1 1 1 1 1 1 1 1 1 1 1 1 1 1 1 1 1 1 1 1 1 1 1 1 1 1 1 1 1 1 1 1 1 1 1 1 1 1 1 1 1 1 1 0.01001156788345481 1 1 0.010053716298280894 1 1 1 1 1 0.010038449099239996 1 1 1 0.010506564737958973 1 1 1 1 1 1 1 1 1 1 1 1 1 1 1 1 1 1 1 1 1 1 1 1 0.010141117090790231 1 1 1 1 1 1 1 0.010200154537821188 1 1 1 1 1 1 1 1 1 1 1 1 1 0.011128940495113331 0.011131043151303061 1 1 0.011436333192045341 1 1 1 1 0.010218125299824233 1 1 0.010731270878069223 1 1 1 1 0.010354061867144151 0.010358345154076434 1 1 1 1 0.011710120240135787 1 1 1 1 1 1 1 1 0.010056324944784041 0.010478746659658256 0.0099763077658900339 1 1 1 1 1 0.010162667763007236 1 1 0.01190495615417549 1 1 1 1 1 0.010049532713856979 1 1 1 0.010377997713282978 1 1 1 0.010541405541154058 1 1 1 1 1 0.0098584380234812523 0.009961192532679259 0.010176904350323715 1 1 1 1 1 1 1 1 1 1 0.010098181105866393 1 1 0.01043733044206163 0.0101180334695588 1 1 1 1 1 1 1 1 1 1 1 1 1 1 1 1 1 1 1 1 1 1 1 1 0.0099928645904037109 1 1 1 0.011652986719099591 1 0.011571931789608018 0.010390090170126544 1 1 1 0.0095679593599234062 0.010000404791013159 1 1 1 1 1 1 0.011946927070847407 1 0.0099592892247605588 1 1 1 1 1 1 1 1 1 1 1 1 1 1 1 0.01009431320542124 1 1 1 0.010171886333001175 1 1 1 1 1 1 1 1 1 1 1 1 1 0.010599581073687038 1 1 1 1 0.010284412382282318 1 1 1 1 1 1 1 1 1 1 1 1 1 1 1 1 1 1 1 1 1 1 1 1 1 1 1 1 1 1 1 1 1 1 1 1 1 1 1 0.010379399508817571 1 1 1 1 1 1 1 0.010084127481661763 1 1 1 1 1 1 1 1 1 1 1 0.010264243583214946 1 1 1 1 1 0.0099973559361094828 1 1 0.010177308704401479 0.009735790256086254 1 1 0.010112834200736035 0.0099971783998033768 1 1 1 1 1 1 1 1 1 1 1 1 1 1 1 1 0.0099997156648598522 0.010057371698511189 1 1 1 0.0098340126406215346 0.010473509869643398 1 1 1 1 1 0.0099511738930223703 1 1 1 1 1 1 1 0.010791784559227215 1 1 1 1 1 1 0.011062284326057017 1 1 1 1 1 1 1 1 1 1 0.010269345335758299 1 1 1 1 1 1 1 0.01081937626101136 1 1 1 1 1 0.011097262371538533 1 1 0.010063826540982663 1 1 1 1 1 1 1 1 1 0.0101732433178836 1 1 1 1 1 1 1 1 1 1 1 1 1 1 1 1 1 1 1 1 1 1 1 1 0.010193231589578701 1 0.01014461744713863 1 1 1 1 1 1 1 1 0.0099876698258789948 1 1 1 1 1 1 0.0099895173524026642 1 1 1 0.010050413843015155 1 1 1 1 1 1 1 1 1 1 1 1 1 1 1 0.010021619596364474 1 1 1 1 1 1 1 1 1 1 1 1 1 1 1 1 0.010682840987245925 1 0.010403981218462895 1 1 1 1 1 1 1 1 1 1 1 1 1 1 0.011351984558003344 1 1 1 1 1 1 0.011814651147966239 1 1 1 1 1 1 1 1 1 1 1 1 1 1 1 0.010154423323079731 1 1 1 1 1 1 1 0.0099856950996569955 1 1 0.012133102896236935 1 1 1 1 1 1 1 0.010047694264850263 1 1 1 1 1 1 0.010107902146393281 1 1 1 1 1 0.010766982049773118 1 1 1 0.010387724229265736 0.010748098325449859 1 1 0.010714097427745572 1 1 1 1 1 1 0.010507758786047618 1 0.010897013453455314 0.010988258622334135 1 1 1 1 1 1 1 0.010046388493437003 1 1 1 0.010012028758903014 1 1 1 1 1 0.0099956361355238773 1 1 1 1 0.0099975233670363504 1 1 0.010045986125124706 1 1 0.010052210658360828 1 1 1 0.01000333077509993 1 1 1 1 1 1 1 1 1 1 0.010018224750152507 1 1 1 1 1 1 1 1 0.010178080330022501 1 0.010905487039478969 1 0.0099879856434846176 1 0.010598726884841897 0.010068661818602097 1 1 1 1 1 1 0.010006758660452858 1 1 1 1 1 0.010222462633819342 1 0.0099929540672613996 1 0.010116683575791513 1 1 0.010101771287792494 1 1 0.010841566256269539 0.010011362303223552 0.010359564274750694 1 0.0099870264007981199 1 1 1 1 1 0.01010092894131099 1 0.010012687979991707 1 1 0.010994996142259052 1 1 0.010786304242551269 0.010745631566738792 1 1 1 1 1 1 0.0099583954021072816 0.011766438022022409 0.0098207081317815172 0.010080875501181311 0.0099301598022033515 1 1 1 0.011350867715189525 1 1 0.010973747979726653 1 0.010016443387183011 1 1 1 1 1 1 1 1 1 1 0.010095069048387475 1 1 1 1 1 1 1 0.010005136088273489 1 1 0.010722594105640271 1 1 1 0.010787498592917623 1 1 1 1 0.010003065179887959 0.0108791637351771 1 1 1 1 1 1 1 1 0.010811371025325239 1 0.009996346314053408 1 1 0.010000553729337933 1 1 1 0.010476729271508303 0.010127929561756531 1 1 1 0.010238276023224054 1 1 1 1 1 1 1 0.010079385193346609 1 1 1 1 1 1 1 1 1 1 1 1 0.010116421933578512 1 1 1 1 1 1 1 1 1 1 1 1 1 0.010038134981891456 1 1 1 1 1 1 1 1 1 1 1 1 1 1 1 1 1 1 1 1 1 0.010079302656249 1 1 1 1 1 0.010016198262239073 1 0.010054333244130534 1 1 1 1 1 1 1 1 0.01085948522858274 1 1 0.010564867698188794 1 1 0.010672751311387573 0.010472846985452911 1 0.010620165166885319 1 1 1 1 1 1 1 1 1 1 1 1 1 1 1 1 1 1 0.0099956532070607697 1 1 0.010967510496511505 1 1 1 1 1 1 1 1 1 1 1 1 1 1 1 1 1 0.0099857891931274968 1 1 1 1 0.00996821745394544 1 1 1 1 1 0.010677944612067398 1 1 1 1 0.010047144492430788 1 1 1 1 0.010249419360394009 1 1 1 1 1 1 1 1 1 1 1 1 1 1 1 1 1 1 1 1 1 1 1 1 1 1 0.01138091226662853 1 1 1 1 1 1 1 1 1 1 1 1 1 1 0.012515564796775269 1 1 0.011787989456713208 1 1 1 1 1 0.010401082717780109 1 1 1 1 0.010145090257890958 1 0.010069886560784143 1 1 1 1 1 1 1 1 1 1 1 1 1 
</DataArray>
</CellData>
</Piece>
</UnstructuredGrid>
</VTKFile>
